<?xml version="1.0"?> 
<VTKFile type="UnstructuredGrid"> 
   <UnstructuredGrid> 
      <Piece NumberOfPoints="6000"  NumberOfCells="1500">  
          <Points>  
             <DataArray type="Float64" NumberOfComponents="3" format="ascii">   
-500.0   0.0   0.0
-450.0   0.0   0.0
-500.0   30.0   0.0
-500.0   0.0   16.666666666666668
-450.0   0.0   0.0
-450.0   30.0   0.0
-500.0   30.0   0.0
-450.0   30.0   16.666666666666668
-500.0   0.0   16.666666666666668
-500.0   30.0   16.666666666666668
-450.0   30.0   16.666666666666668
-500.0   30.0   0.0
-500.0   0.0   16.666666666666668
-450.0   30.0   16.666666666666668
-450.0   0.0   16.666666666666668
-450.0   0.0   0.0
-500.0   0.0   16.666666666666668
-450.0   30.0   16.666666666666668
-450.0   0.0   0.0
-500.0   30.0   0.0
-500.0   0.0   16.666666666666668
-450.0   0.0   16.666666666666668
-500.0   30.0   16.666666666666668
-500.0   0.0   33.333333333333336
-450.0   0.0   16.666666666666668
-450.0   30.0   16.666666666666668
-500.0   30.0   16.666666666666668
-450.0   30.0   33.333333333333336
-500.0   0.0   33.333333333333336
-500.0   30.0   33.333333333333336
-450.0   30.0   33.333333333333336
-500.0   30.0   16.666666666666668
-500.0   0.0   33.333333333333336
-450.0   30.0   33.333333333333336
-450.0   0.0   33.333333333333336
-450.0   0.0   16.666666666666668
-500.0   0.0   33.333333333333336
-450.0   30.0   33.333333333333336
-450.0   0.0   16.666666666666668
-500.0   30.0   16.666666666666668
-500.0   0.0   33.333333333333336
-450.0   0.0   33.333333333333336
-500.0   30.0   33.333333333333336
-500.0   0.0   50.0
-450.0   0.0   33.333333333333336
-450.0   30.0   33.333333333333336
-500.0   30.0   33.333333333333336
-450.0   30.0   50.0
-500.0   0.0   50.0
-500.0   30.0   50.0
-450.0   30.0   50.0
-500.0   30.0   33.333333333333336
-500.0   0.0   50.0
-450.0   30.0   50.0
-450.0   0.0   50.0
-450.0   0.0   33.333333333333336
-500.0   0.0   50.0
-450.0   30.0   50.0
-450.0   0.0   33.333333333333336
-500.0   30.0   33.333333333333336
-500.0   30.0   0.0
-450.0   30.0   0.0
-500.0   60.0   0.0
-500.0   30.0   16.666666666666668
-450.0   30.0   0.0
-450.0   60.0   0.0
-500.0   60.0   0.0
-450.0   60.0   16.666666666666668
-500.0   30.0   16.666666666666668
-500.0   60.0   16.666666666666668
-450.0   60.0   16.666666666666668
-500.0   60.0   0.0
-500.0   30.0   16.666666666666668
-450.0   60.0   16.666666666666668
-450.0   30.0   16.666666666666668
-450.0   30.0   0.0
-500.0   30.0   16.666666666666668
-450.0   60.0   16.666666666666668
-450.0   30.0   0.0
-500.0   60.0   0.0
-500.0   30.0   16.666666666666668
-450.0   30.0   16.666666666666668
-500.0   60.0   16.666666666666668
-500.0   30.0   33.333333333333336
-450.0   30.0   16.666666666666668
-450.0   60.0   16.666666666666668
-500.0   60.0   16.666666666666668
-450.0   60.0   33.333333333333336
-500.0   30.0   33.333333333333336
-500.0   60.0   33.333333333333336
-450.0   60.0   33.333333333333336
-500.0   60.0   16.666666666666668
-500.0   30.0   33.333333333333336
-450.0   60.0   33.333333333333336
-450.0   30.0   33.333333333333336
-450.0   30.0   16.666666666666668
-500.0   30.0   33.333333333333336
-450.0   60.0   33.333333333333336
-450.0   30.0   16.666666666666668
-500.0   60.0   16.666666666666668
-500.0   30.0   33.333333333333336
-450.0   30.0   33.333333333333336
-500.0   60.0   33.333333333333336
-500.0   30.0   50.0
-450.0   30.0   33.333333333333336
-450.0   60.0   33.333333333333336
-500.0   60.0   33.333333333333336
-450.0   60.0   50.0
-500.0   30.0   50.0
-500.0   60.0   50.0
-450.0   60.0   50.0
-500.0   60.0   33.333333333333336
-500.0   30.0   50.0
-450.0   60.0   50.0
-450.0   30.0   50.0
-450.0   30.0   33.333333333333336
-500.0   30.0   50.0
-450.0   60.0   50.0
-450.0   30.0   33.333333333333336
-500.0   60.0   33.333333333333336
-500.0   60.0   0.0
-450.0   60.0   0.0
-500.0   90.0   0.0
-500.0   60.0   16.666666666666668
-450.0   60.0   0.0
-450.0   90.0   0.0
-500.0   90.0   0.0
-450.0   90.0   16.666666666666668
-500.0   60.0   16.666666666666668
-500.0   90.0   16.666666666666668
-450.0   90.0   16.666666666666668
-500.0   90.0   0.0
-500.0   60.0   16.666666666666668
-450.0   90.0   16.666666666666668
-450.0   60.0   16.666666666666668
-450.0   60.0   0.0
-500.0   60.0   16.666666666666668
-450.0   90.0   16.666666666666668
-450.0   60.0   0.0
-500.0   90.0   0.0
-500.0   60.0   16.666666666666668
-450.0   60.0   16.666666666666668
-500.0   90.0   16.666666666666668
-500.0   60.0   33.333333333333336
-450.0   60.0   16.666666666666668
-450.0   90.0   16.666666666666668
-500.0   90.0   16.666666666666668
-450.0   90.0   33.333333333333336
-500.0   60.0   33.333333333333336
-500.0   90.0   33.333333333333336
-450.0   90.0   33.333333333333336
-500.0   90.0   16.666666666666668
-500.0   60.0   33.333333333333336
-450.0   90.0   33.333333333333336
-450.0   60.0   33.333333333333336
-450.0   60.0   16.666666666666668
-500.0   60.0   33.333333333333336
-450.0   90.0   33.333333333333336
-450.0   60.0   16.666666666666668
-500.0   90.0   16.666666666666668
-500.0   60.0   33.333333333333336
-450.0   60.0   33.333333333333336
-500.0   90.0   33.333333333333336
-500.0   60.0   50.0
-450.0   60.0   33.333333333333336
-450.0   90.0   33.333333333333336
-500.0   90.0   33.333333333333336
-450.0   90.0   50.0
-500.0   60.0   50.0
-500.0   90.0   50.0
-450.0   90.0   50.0
-500.0   90.0   33.333333333333336
-500.0   60.0   50.0
-450.0   90.0   50.0
-450.0   60.0   50.0
-450.0   60.0   33.333333333333336
-500.0   60.0   50.0
-450.0   90.0   50.0
-450.0   60.0   33.333333333333336
-500.0   90.0   33.333333333333336
-500.0   90.0   0.0
-450.0   90.0   0.0
-500.0   120.0   0.0
-500.0   90.0   16.666666666666668
-450.0   90.0   0.0
-450.0   120.0   0.0
-500.0   120.0   0.0
-450.0   120.0   16.666666666666668
-500.0   90.0   16.666666666666668
-500.0   120.0   16.666666666666668
-450.0   120.0   16.666666666666668
-500.0   120.0   0.0
-500.0   90.0   16.666666666666668
-450.0   120.0   16.666666666666668
-450.0   90.0   16.666666666666668
-450.0   90.0   0.0
-500.0   90.0   16.666666666666668
-450.0   120.0   16.666666666666668
-450.0   90.0   0.0
-500.0   120.0   0.0
-500.0   90.0   16.666666666666668
-450.0   90.0   16.666666666666668
-500.0   120.0   16.666666666666668
-500.0   90.0   33.333333333333336
-450.0   90.0   16.666666666666668
-450.0   120.0   16.666666666666668
-500.0   120.0   16.666666666666668
-450.0   120.0   33.333333333333336
-500.0   90.0   33.333333333333336
-500.0   120.0   33.333333333333336
-450.0   120.0   33.333333333333336
-500.0   120.0   16.666666666666668
-500.0   90.0   33.333333333333336
-450.0   120.0   33.333333333333336
-450.0   90.0   33.333333333333336
-450.0   90.0   16.666666666666668
-500.0   90.0   33.333333333333336
-450.0   120.0   33.333333333333336
-450.0   90.0   16.666666666666668
-500.0   120.0   16.666666666666668
-500.0   90.0   33.333333333333336
-450.0   90.0   33.333333333333336
-500.0   120.0   33.333333333333336
-500.0   90.0   50.0
-450.0   90.0   33.333333333333336
-450.0   120.0   33.333333333333336
-500.0   120.0   33.333333333333336
-450.0   120.0   50.0
-500.0   90.0   50.0
-500.0   120.0   50.0
-450.0   120.0   50.0
-500.0   120.0   33.333333333333336
-500.0   90.0   50.0
-450.0   120.0   50.0
-450.0   90.0   50.0
-450.0   90.0   33.333333333333336
-500.0   90.0   50.0
-450.0   120.0   50.0
-450.0   90.0   33.333333333333336
-500.0   120.0   33.333333333333336
-500.0   120.0   0.0
-450.0   120.0   0.0
-500.0   150.0   0.0
-500.0   120.0   16.666666666666668
-450.0   120.0   0.0
-450.0   150.0   0.0
-500.0   150.0   0.0
-450.0   150.0   16.666666666666668
-500.0   120.0   16.666666666666668
-500.0   150.0   16.666666666666668
-450.0   150.0   16.666666666666668
-500.0   150.0   0.0
-500.0   120.0   16.666666666666668
-450.0   150.0   16.666666666666668
-450.0   120.0   16.666666666666668
-450.0   120.0   0.0
-500.0   120.0   16.666666666666668
-450.0   150.0   16.666666666666668
-450.0   120.0   0.0
-500.0   150.0   0.0
-500.0   120.0   16.666666666666668
-450.0   120.0   16.666666666666668
-500.0   150.0   16.666666666666668
-500.0   120.0   33.333333333333336
-450.0   120.0   16.666666666666668
-450.0   150.0   16.666666666666668
-500.0   150.0   16.666666666666668
-450.0   150.0   33.333333333333336
-500.0   120.0   33.333333333333336
-500.0   150.0   33.333333333333336
-450.0   150.0   33.333333333333336
-500.0   150.0   16.666666666666668
-500.0   120.0   33.333333333333336
-450.0   150.0   33.333333333333336
-450.0   120.0   33.333333333333336
-450.0   120.0   16.666666666666668
-500.0   120.0   33.333333333333336
-450.0   150.0   33.333333333333336
-450.0   120.0   16.666666666666668
-500.0   150.0   16.666666666666668
-500.0   120.0   33.333333333333336
-450.0   120.0   33.333333333333336
-500.0   150.0   33.333333333333336
-500.0   120.0   50.0
-450.0   120.0   33.333333333333336
-450.0   150.0   33.333333333333336
-500.0   150.0   33.333333333333336
-450.0   150.0   50.0
-500.0   120.0   50.0
-500.0   150.0   50.0
-450.0   150.0   50.0
-500.0   150.0   33.333333333333336
-500.0   120.0   50.0
-450.0   150.0   50.0
-450.0   120.0   50.0
-450.0   120.0   33.333333333333336
-500.0   120.0   50.0
-450.0   150.0   50.0
-450.0   120.0   33.333333333333336
-500.0   150.0   33.333333333333336
-450.0   0.0   0.0
-400.0   0.0   0.0
-450.0   30.0   0.0
-450.0   0.0   16.666666666666668
-400.0   0.0   0.0
-400.0   30.0   0.0
-450.0   30.0   0.0
-400.0   30.0   16.666666666666668
-450.0   0.0   16.666666666666668
-450.0   30.0   16.666666666666668
-400.0   30.0   16.666666666666668
-450.0   30.0   0.0
-450.0   0.0   16.666666666666668
-400.0   30.0   16.666666666666668
-400.0   0.0   16.666666666666668
-400.0   0.0   0.0
-450.0   0.0   16.666666666666668
-400.0   30.0   16.666666666666668
-400.0   0.0   0.0
-450.0   30.0   0.0
-450.0   0.0   16.666666666666668
-400.0   0.0   16.666666666666668
-450.0   30.0   16.666666666666668
-450.0   0.0   33.333333333333336
-400.0   0.0   16.666666666666668
-400.0   30.0   16.666666666666668
-450.0   30.0   16.666666666666668
-400.0   30.0   33.333333333333336
-450.0   0.0   33.333333333333336
-450.0   30.0   33.333333333333336
-400.0   30.0   33.333333333333336
-450.0   30.0   16.666666666666668
-450.0   0.0   33.333333333333336
-400.0   30.0   33.333333333333336
-400.0   0.0   33.333333333333336
-400.0   0.0   16.666666666666668
-450.0   0.0   33.333333333333336
-400.0   30.0   33.333333333333336
-400.0   0.0   16.666666666666668
-450.0   30.0   16.666666666666668
-450.0   0.0   33.333333333333336
-400.0   0.0   33.333333333333336
-450.0   30.0   33.333333333333336
-450.0   0.0   50.0
-400.0   0.0   33.333333333333336
-400.0   30.0   33.333333333333336
-450.0   30.0   33.333333333333336
-400.0   30.0   50.0
-450.0   0.0   50.0
-450.0   30.0   50.0
-400.0   30.0   50.0
-450.0   30.0   33.333333333333336
-450.0   0.0   50.0
-400.0   30.0   50.0
-400.0   0.0   50.0
-400.0   0.0   33.333333333333336
-450.0   0.0   50.0
-400.0   30.0   50.0
-400.0   0.0   33.333333333333336
-450.0   30.0   33.333333333333336
-450.0   30.0   0.0
-400.0   30.0   0.0
-450.0   60.0   0.0
-450.0   30.0   16.666666666666668
-400.0   30.0   0.0
-400.0   60.0   0.0
-450.0   60.0   0.0
-400.0   60.0   16.666666666666668
-450.0   30.0   16.666666666666668
-450.0   60.0   16.666666666666668
-400.0   60.0   16.666666666666668
-450.0   60.0   0.0
-450.0   30.0   16.666666666666668
-400.0   60.0   16.666666666666668
-400.0   30.0   16.666666666666668
-400.0   30.0   0.0
-450.0   30.0   16.666666666666668
-400.0   60.0   16.666666666666668
-400.0   30.0   0.0
-450.0   60.0   0.0
-450.0   30.0   16.666666666666668
-400.0   30.0   16.666666666666668
-450.0   60.0   16.666666666666668
-450.0   30.0   33.333333333333336
-400.0   30.0   16.666666666666668
-400.0   60.0   16.666666666666668
-450.0   60.0   16.666666666666668
-400.0   60.0   33.333333333333336
-450.0   30.0   33.333333333333336
-450.0   60.0   33.333333333333336
-400.0   60.0   33.333333333333336
-450.0   60.0   16.666666666666668
-450.0   30.0   33.333333333333336
-400.0   60.0   33.333333333333336
-400.0   30.0   33.333333333333336
-400.0   30.0   16.666666666666668
-450.0   30.0   33.333333333333336
-400.0   60.0   33.333333333333336
-400.0   30.0   16.666666666666668
-450.0   60.0   16.666666666666668
-450.0   30.0   33.333333333333336
-400.0   30.0   33.333333333333336
-450.0   60.0   33.333333333333336
-450.0   30.0   50.0
-400.0   30.0   33.333333333333336
-400.0   60.0   33.333333333333336
-450.0   60.0   33.333333333333336
-400.0   60.0   50.0
-450.0   30.0   50.0
-450.0   60.0   50.0
-400.0   60.0   50.0
-450.0   60.0   33.333333333333336
-450.0   30.0   50.0
-400.0   60.0   50.0
-400.0   30.0   50.0
-400.0   30.0   33.333333333333336
-450.0   30.0   50.0
-400.0   60.0   50.0
-400.0   30.0   33.333333333333336
-450.0   60.0   33.333333333333336
-450.0   60.0   0.0
-400.0   60.0   0.0
-450.0   90.0   0.0
-450.0   60.0   16.666666666666668
-400.0   60.0   0.0
-400.0   90.0   0.0
-450.0   90.0   0.0
-400.0   90.0   16.666666666666668
-450.0   60.0   16.666666666666668
-450.0   90.0   16.666666666666668
-400.0   90.0   16.666666666666668
-450.0   90.0   0.0
-450.0   60.0   16.666666666666668
-400.0   90.0   16.666666666666668
-400.0   60.0   16.666666666666668
-400.0   60.0   0.0
-450.0   60.0   16.666666666666668
-400.0   90.0   16.666666666666668
-400.0   60.0   0.0
-450.0   90.0   0.0
-450.0   60.0   16.666666666666668
-400.0   60.0   16.666666666666668
-450.0   90.0   16.666666666666668
-450.0   60.0   33.333333333333336
-400.0   60.0   16.666666666666668
-400.0   90.0   16.666666666666668
-450.0   90.0   16.666666666666668
-400.0   90.0   33.333333333333336
-450.0   60.0   33.333333333333336
-450.0   90.0   33.333333333333336
-400.0   90.0   33.333333333333336
-450.0   90.0   16.666666666666668
-450.0   60.0   33.333333333333336
-400.0   90.0   33.333333333333336
-400.0   60.0   33.333333333333336
-400.0   60.0   16.666666666666668
-450.0   60.0   33.333333333333336
-400.0   90.0   33.333333333333336
-400.0   60.0   16.666666666666668
-450.0   90.0   16.666666666666668
-450.0   60.0   33.333333333333336
-400.0   60.0   33.333333333333336
-450.0   90.0   33.333333333333336
-450.0   60.0   50.0
-400.0   60.0   33.333333333333336
-400.0   90.0   33.333333333333336
-450.0   90.0   33.333333333333336
-400.0   90.0   50.0
-450.0   60.0   50.0
-450.0   90.0   50.0
-400.0   90.0   50.0
-450.0   90.0   33.333333333333336
-450.0   60.0   50.0
-400.0   90.0   50.0
-400.0   60.0   50.0
-400.0   60.0   33.333333333333336
-450.0   60.0   50.0
-400.0   90.0   50.0
-400.0   60.0   33.333333333333336
-450.0   90.0   33.333333333333336
-450.0   90.0   0.0
-400.0   90.0   0.0
-450.0   120.0   0.0
-450.0   90.0   16.666666666666668
-400.0   90.0   0.0
-400.0   120.0   0.0
-450.0   120.0   0.0
-400.0   120.0   16.666666666666668
-450.0   90.0   16.666666666666668
-450.0   120.0   16.666666666666668
-400.0   120.0   16.666666666666668
-450.0   120.0   0.0
-450.0   90.0   16.666666666666668
-400.0   120.0   16.666666666666668
-400.0   90.0   16.666666666666668
-400.0   90.0   0.0
-450.0   90.0   16.666666666666668
-400.0   120.0   16.666666666666668
-400.0   90.0   0.0
-450.0   120.0   0.0
-450.0   90.0   16.666666666666668
-400.0   90.0   16.666666666666668
-450.0   120.0   16.666666666666668
-450.0   90.0   33.333333333333336
-400.0   90.0   16.666666666666668
-400.0   120.0   16.666666666666668
-450.0   120.0   16.666666666666668
-400.0   120.0   33.333333333333336
-450.0   90.0   33.333333333333336
-450.0   120.0   33.333333333333336
-400.0   120.0   33.333333333333336
-450.0   120.0   16.666666666666668
-450.0   90.0   33.333333333333336
-400.0   120.0   33.333333333333336
-400.0   90.0   33.333333333333336
-400.0   90.0   16.666666666666668
-450.0   90.0   33.333333333333336
-400.0   120.0   33.333333333333336
-400.0   90.0   16.666666666666668
-450.0   120.0   16.666666666666668
-450.0   90.0   33.333333333333336
-400.0   90.0   33.333333333333336
-450.0   120.0   33.333333333333336
-450.0   90.0   50.0
-400.0   90.0   33.333333333333336
-400.0   120.0   33.333333333333336
-450.0   120.0   33.333333333333336
-400.0   120.0   50.0
-450.0   90.0   50.0
-450.0   120.0   50.0
-400.0   120.0   50.0
-450.0   120.0   33.333333333333336
-450.0   90.0   50.0
-400.0   120.0   50.0
-400.0   90.0   50.0
-400.0   90.0   33.333333333333336
-450.0   90.0   50.0
-400.0   120.0   50.0
-400.0   90.0   33.333333333333336
-450.0   120.0   33.333333333333336
-450.0   120.0   0.0
-400.0   120.0   0.0
-450.0   150.0   0.0
-450.0   120.0   16.666666666666668
-400.0   120.0   0.0
-400.0   150.0   0.0
-450.0   150.0   0.0
-400.0   150.0   16.666666666666668
-450.0   120.0   16.666666666666668
-450.0   150.0   16.666666666666668
-400.0   150.0   16.666666666666668
-450.0   150.0   0.0
-450.0   120.0   16.666666666666668
-400.0   150.0   16.666666666666668
-400.0   120.0   16.666666666666668
-400.0   120.0   0.0
-450.0   120.0   16.666666666666668
-400.0   150.0   16.666666666666668
-400.0   120.0   0.0
-450.0   150.0   0.0
-450.0   120.0   16.666666666666668
-400.0   120.0   16.666666666666668
-450.0   150.0   16.666666666666668
-450.0   120.0   33.333333333333336
-400.0   120.0   16.666666666666668
-400.0   150.0   16.666666666666668
-450.0   150.0   16.666666666666668
-400.0   150.0   33.333333333333336
-450.0   120.0   33.333333333333336
-450.0   150.0   33.333333333333336
-400.0   150.0   33.333333333333336
-450.0   150.0   16.666666666666668
-450.0   120.0   33.333333333333336
-400.0   150.0   33.333333333333336
-400.0   120.0   33.333333333333336
-400.0   120.0   16.666666666666668
-450.0   120.0   33.333333333333336
-400.0   150.0   33.333333333333336
-400.0   120.0   16.666666666666668
-450.0   150.0   16.666666666666668
-450.0   120.0   33.333333333333336
-400.0   120.0   33.333333333333336
-450.0   150.0   33.333333333333336
-450.0   120.0   50.0
-400.0   120.0   33.333333333333336
-400.0   150.0   33.333333333333336
-450.0   150.0   33.333333333333336
-400.0   150.0   50.0
-450.0   120.0   50.0
-450.0   150.0   50.0
-400.0   150.0   50.0
-450.0   150.0   33.333333333333336
-450.0   120.0   50.0
-400.0   150.0   50.0
-400.0   120.0   50.0
-400.0   120.0   33.333333333333336
-450.0   120.0   50.0
-400.0   150.0   50.0
-400.0   120.0   33.333333333333336
-450.0   150.0   33.333333333333336
-400.0   0.0   0.0
-350.0   0.0   0.0
-400.0   30.0   0.0
-400.0   0.0   16.666666666666668
-350.0   0.0   0.0
-350.0   30.0   0.0
-400.0   30.0   0.0
-350.0   30.0   16.666666666666668
-400.0   0.0   16.666666666666668
-400.0   30.0   16.666666666666668
-350.0   30.0   16.666666666666668
-400.0   30.0   0.0
-400.0   0.0   16.666666666666668
-350.0   30.0   16.666666666666668
-350.0   0.0   16.666666666666668
-350.0   0.0   0.0
-400.0   0.0   16.666666666666668
-350.0   30.0   16.666666666666668
-350.0   0.0   0.0
-400.0   30.0   0.0
-400.0   0.0   16.666666666666668
-350.0   0.0   16.666666666666668
-400.0   30.0   16.666666666666668
-400.0   0.0   33.333333333333336
-350.0   0.0   16.666666666666668
-350.0   30.0   16.666666666666668
-400.0   30.0   16.666666666666668
-350.0   30.0   33.333333333333336
-400.0   0.0   33.333333333333336
-400.0   30.0   33.333333333333336
-350.0   30.0   33.333333333333336
-400.0   30.0   16.666666666666668
-400.0   0.0   33.333333333333336
-350.0   30.0   33.333333333333336
-350.0   0.0   33.333333333333336
-350.0   0.0   16.666666666666668
-400.0   0.0   33.333333333333336
-350.0   30.0   33.333333333333336
-350.0   0.0   16.666666666666668
-400.0   30.0   16.666666666666668
-400.0   0.0   33.333333333333336
-350.0   0.0   33.333333333333336
-400.0   30.0   33.333333333333336
-400.0   0.0   50.0
-350.0   0.0   33.333333333333336
-350.0   30.0   33.333333333333336
-400.0   30.0   33.333333333333336
-350.0   30.0   50.0
-400.0   0.0   50.0
-400.0   30.0   50.0
-350.0   30.0   50.0
-400.0   30.0   33.333333333333336
-400.0   0.0   50.0
-350.0   30.0   50.0
-350.0   0.0   50.0
-350.0   0.0   33.333333333333336
-400.0   0.0   50.0
-350.0   30.0   50.0
-350.0   0.0   33.333333333333336
-400.0   30.0   33.333333333333336
-400.0   30.0   0.0
-350.0   30.0   0.0
-400.0   60.0   0.0
-400.0   30.0   16.666666666666668
-350.0   30.0   0.0
-350.0   60.0   0.0
-400.0   60.0   0.0
-350.0   60.0   16.666666666666668
-400.0   30.0   16.666666666666668
-400.0   60.0   16.666666666666668
-350.0   60.0   16.666666666666668
-400.0   60.0   0.0
-400.0   30.0   16.666666666666668
-350.0   60.0   16.666666666666668
-350.0   30.0   16.666666666666668
-350.0   30.0   0.0
-400.0   30.0   16.666666666666668
-350.0   60.0   16.666666666666668
-350.0   30.0   0.0
-400.0   60.0   0.0
-400.0   30.0   16.666666666666668
-350.0   30.0   16.666666666666668
-400.0   60.0   16.666666666666668
-400.0   30.0   33.333333333333336
-350.0   30.0   16.666666666666668
-350.0   60.0   16.666666666666668
-400.0   60.0   16.666666666666668
-350.0   60.0   33.333333333333336
-400.0   30.0   33.333333333333336
-400.0   60.0   33.333333333333336
-350.0   60.0   33.333333333333336
-400.0   60.0   16.666666666666668
-400.0   30.0   33.333333333333336
-350.0   60.0   33.333333333333336
-350.0   30.0   33.333333333333336
-350.0   30.0   16.666666666666668
-400.0   30.0   33.333333333333336
-350.0   60.0   33.333333333333336
-350.0   30.0   16.666666666666668
-400.0   60.0   16.666666666666668
-400.0   30.0   33.333333333333336
-350.0   30.0   33.333333333333336
-400.0   60.0   33.333333333333336
-400.0   30.0   50.0
-350.0   30.0   33.333333333333336
-350.0   60.0   33.333333333333336
-400.0   60.0   33.333333333333336
-350.0   60.0   50.0
-400.0   30.0   50.0
-400.0   60.0   50.0
-350.0   60.0   50.0
-400.0   60.0   33.333333333333336
-400.0   30.0   50.0
-350.0   60.0   50.0
-350.0   30.0   50.0
-350.0   30.0   33.333333333333336
-400.0   30.0   50.0
-350.0   60.0   50.0
-350.0   30.0   33.333333333333336
-400.0   60.0   33.333333333333336
-400.0   60.0   0.0
-350.0   60.0   0.0
-400.0   90.0   0.0
-400.0   60.0   16.666666666666668
-350.0   60.0   0.0
-350.0   90.0   0.0
-400.0   90.0   0.0
-350.0   90.0   16.666666666666668
-400.0   60.0   16.666666666666668
-400.0   90.0   16.666666666666668
-350.0   90.0   16.666666666666668
-400.0   90.0   0.0
-400.0   60.0   16.666666666666668
-350.0   90.0   16.666666666666668
-350.0   60.0   16.666666666666668
-350.0   60.0   0.0
-400.0   60.0   16.666666666666668
-350.0   90.0   16.666666666666668
-350.0   60.0   0.0
-400.0   90.0   0.0
-400.0   60.0   16.666666666666668
-350.0   60.0   16.666666666666668
-400.0   90.0   16.666666666666668
-400.0   60.0   33.333333333333336
-350.0   60.0   16.666666666666668
-350.0   90.0   16.666666666666668
-400.0   90.0   16.666666666666668
-350.0   90.0   33.333333333333336
-400.0   60.0   33.333333333333336
-400.0   90.0   33.333333333333336
-350.0   90.0   33.333333333333336
-400.0   90.0   16.666666666666668
-400.0   60.0   33.333333333333336
-350.0   90.0   33.333333333333336
-350.0   60.0   33.333333333333336
-350.0   60.0   16.666666666666668
-400.0   60.0   33.333333333333336
-350.0   90.0   33.333333333333336
-350.0   60.0   16.666666666666668
-400.0   90.0   16.666666666666668
-400.0   60.0   33.333333333333336
-350.0   60.0   33.333333333333336
-400.0   90.0   33.333333333333336
-400.0   60.0   50.0
-350.0   60.0   33.333333333333336
-350.0   90.0   33.333333333333336
-400.0   90.0   33.333333333333336
-350.0   90.0   50.0
-400.0   60.0   50.0
-400.0   90.0   50.0
-350.0   90.0   50.0
-400.0   90.0   33.333333333333336
-400.0   60.0   50.0
-350.0   90.0   50.0
-350.0   60.0   50.0
-350.0   60.0   33.333333333333336
-400.0   60.0   50.0
-350.0   90.0   50.0
-350.0   60.0   33.333333333333336
-400.0   90.0   33.333333333333336
-400.0   90.0   0.0
-350.0   90.0   0.0
-400.0   120.0   0.0
-400.0   90.0   16.666666666666668
-350.0   90.0   0.0
-350.0   120.0   0.0
-400.0   120.0   0.0
-350.0   120.0   16.666666666666668
-400.0   90.0   16.666666666666668
-400.0   120.0   16.666666666666668
-350.0   120.0   16.666666666666668
-400.0   120.0   0.0
-400.0   90.0   16.666666666666668
-350.0   120.0   16.666666666666668
-350.0   90.0   16.666666666666668
-350.0   90.0   0.0
-400.0   90.0   16.666666666666668
-350.0   120.0   16.666666666666668
-350.0   90.0   0.0
-400.0   120.0   0.0
-400.0   90.0   16.666666666666668
-350.0   90.0   16.666666666666668
-400.0   120.0   16.666666666666668
-400.0   90.0   33.333333333333336
-350.0   90.0   16.666666666666668
-350.0   120.0   16.666666666666668
-400.0   120.0   16.666666666666668
-350.0   120.0   33.333333333333336
-400.0   90.0   33.333333333333336
-400.0   120.0   33.333333333333336
-350.0   120.0   33.333333333333336
-400.0   120.0   16.666666666666668
-400.0   90.0   33.333333333333336
-350.0   120.0   33.333333333333336
-350.0   90.0   33.333333333333336
-350.0   90.0   16.666666666666668
-400.0   90.0   33.333333333333336
-350.0   120.0   33.333333333333336
-350.0   90.0   16.666666666666668
-400.0   120.0   16.666666666666668
-400.0   90.0   33.333333333333336
-350.0   90.0   33.333333333333336
-400.0   120.0   33.333333333333336
-400.0   90.0   50.0
-350.0   90.0   33.333333333333336
-350.0   120.0   33.333333333333336
-400.0   120.0   33.333333333333336
-350.0   120.0   50.0
-400.0   90.0   50.0
-400.0   120.0   50.0
-350.0   120.0   50.0
-400.0   120.0   33.333333333333336
-400.0   90.0   50.0
-350.0   120.0   50.0
-350.0   90.0   50.0
-350.0   90.0   33.333333333333336
-400.0   90.0   50.0
-350.0   120.0   50.0
-350.0   90.0   33.333333333333336
-400.0   120.0   33.333333333333336
-400.0   120.0   0.0
-350.0   120.0   0.0
-400.0   150.0   0.0
-400.0   120.0   16.666666666666668
-350.0   120.0   0.0
-350.0   150.0   0.0
-400.0   150.0   0.0
-350.0   150.0   16.666666666666668
-400.0   120.0   16.666666666666668
-400.0   150.0   16.666666666666668
-350.0   150.0   16.666666666666668
-400.0   150.0   0.0
-400.0   120.0   16.666666666666668
-350.0   150.0   16.666666666666668
-350.0   120.0   16.666666666666668
-350.0   120.0   0.0
-400.0   120.0   16.666666666666668
-350.0   150.0   16.666666666666668
-350.0   120.0   0.0
-400.0   150.0   0.0
-400.0   120.0   16.666666666666668
-350.0   120.0   16.666666666666668
-400.0   150.0   16.666666666666668
-400.0   120.0   33.333333333333336
-350.0   120.0   16.666666666666668
-350.0   150.0   16.666666666666668
-400.0   150.0   16.666666666666668
-350.0   150.0   33.333333333333336
-400.0   120.0   33.333333333333336
-400.0   150.0   33.333333333333336
-350.0   150.0   33.333333333333336
-400.0   150.0   16.666666666666668
-400.0   120.0   33.333333333333336
-350.0   150.0   33.333333333333336
-350.0   120.0   33.333333333333336
-350.0   120.0   16.666666666666668
-400.0   120.0   33.333333333333336
-350.0   150.0   33.333333333333336
-350.0   120.0   16.666666666666668
-400.0   150.0   16.666666666666668
-400.0   120.0   33.333333333333336
-350.0   120.0   33.333333333333336
-400.0   150.0   33.333333333333336
-400.0   120.0   50.0
-350.0   120.0   33.333333333333336
-350.0   150.0   33.333333333333336
-400.0   150.0   33.333333333333336
-350.0   150.0   50.0
-400.0   120.0   50.0
-400.0   150.0   50.0
-350.0   150.0   50.0
-400.0   150.0   33.333333333333336
-400.0   120.0   50.0
-350.0   150.0   50.0
-350.0   120.0   50.0
-350.0   120.0   33.333333333333336
-400.0   120.0   50.0
-350.0   150.0   50.0
-350.0   120.0   33.333333333333336
-400.0   150.0   33.333333333333336
-350.0   0.0   0.0
-300.0   0.0   0.0
-350.0   30.0   0.0
-350.0   0.0   16.666666666666668
-300.0   0.0   0.0
-300.0   30.0   0.0
-350.0   30.0   0.0
-300.0   30.0   16.666666666666668
-350.0   0.0   16.666666666666668
-350.0   30.0   16.666666666666668
-300.0   30.0   16.666666666666668
-350.0   30.0   0.0
-350.0   0.0   16.666666666666668
-300.0   30.0   16.666666666666668
-300.0   0.0   16.666666666666668
-300.0   0.0   0.0
-350.0   0.0   16.666666666666668
-300.0   30.0   16.666666666666668
-300.0   0.0   0.0
-350.0   30.0   0.0
-350.0   0.0   16.666666666666668
-300.0   0.0   16.666666666666668
-350.0   30.0   16.666666666666668
-350.0   0.0   33.333333333333336
-300.0   0.0   16.666666666666668
-300.0   30.0   16.666666666666668
-350.0   30.0   16.666666666666668
-300.0   30.0   33.333333333333336
-350.0   0.0   33.333333333333336
-350.0   30.0   33.333333333333336
-300.0   30.0   33.333333333333336
-350.0   30.0   16.666666666666668
-350.0   0.0   33.333333333333336
-300.0   30.0   33.333333333333336
-300.0   0.0   33.333333333333336
-300.0   0.0   16.666666666666668
-350.0   0.0   33.333333333333336
-300.0   30.0   33.333333333333336
-300.0   0.0   16.666666666666668
-350.0   30.0   16.666666666666668
-350.0   0.0   33.333333333333336
-300.0   0.0   33.333333333333336
-350.0   30.0   33.333333333333336
-350.0   0.0   50.0
-300.0   0.0   33.333333333333336
-300.0   30.0   33.333333333333336
-350.0   30.0   33.333333333333336
-300.0   30.0   50.0
-350.0   0.0   50.0
-350.0   30.0   50.0
-300.0   30.0   50.0
-350.0   30.0   33.333333333333336
-350.0   0.0   50.0
-300.0   30.0   50.0
-300.0   0.0   50.0
-300.0   0.0   33.333333333333336
-350.0   0.0   50.0
-300.0   30.0   50.0
-300.0   0.0   33.333333333333336
-350.0   30.0   33.333333333333336
-350.0   30.0   0.0
-300.0   30.0   0.0
-350.0   60.0   0.0
-350.0   30.0   16.666666666666668
-300.0   30.0   0.0
-300.0   60.0   0.0
-350.0   60.0   0.0
-300.0   60.0   16.666666666666668
-350.0   30.0   16.666666666666668
-350.0   60.0   16.666666666666668
-300.0   60.0   16.666666666666668
-350.0   60.0   0.0
-350.0   30.0   16.666666666666668
-300.0   60.0   16.666666666666668
-300.0   30.0   16.666666666666668
-300.0   30.0   0.0
-350.0   30.0   16.666666666666668
-300.0   60.0   16.666666666666668
-300.0   30.0   0.0
-350.0   60.0   0.0
-350.0   30.0   16.666666666666668
-300.0   30.0   16.666666666666668
-350.0   60.0   16.666666666666668
-350.0   30.0   33.333333333333336
-300.0   30.0   16.666666666666668
-300.0   60.0   16.666666666666668
-350.0   60.0   16.666666666666668
-300.0   60.0   33.333333333333336
-350.0   30.0   33.333333333333336
-350.0   60.0   33.333333333333336
-300.0   60.0   33.333333333333336
-350.0   60.0   16.666666666666668
-350.0   30.0   33.333333333333336
-300.0   60.0   33.333333333333336
-300.0   30.0   33.333333333333336
-300.0   30.0   16.666666666666668
-350.0   30.0   33.333333333333336
-300.0   60.0   33.333333333333336
-300.0   30.0   16.666666666666668
-350.0   60.0   16.666666666666668
-350.0   30.0   33.333333333333336
-300.0   30.0   33.333333333333336
-350.0   60.0   33.333333333333336
-350.0   30.0   50.0
-300.0   30.0   33.333333333333336
-300.0   60.0   33.333333333333336
-350.0   60.0   33.333333333333336
-300.0   60.0   50.0
-350.0   30.0   50.0
-350.0   60.0   50.0
-300.0   60.0   50.0
-350.0   60.0   33.333333333333336
-350.0   30.0   50.0
-300.0   60.0   50.0
-300.0   30.0   50.0
-300.0   30.0   33.333333333333336
-350.0   30.0   50.0
-300.0   60.0   50.0
-300.0   30.0   33.333333333333336
-350.0   60.0   33.333333333333336
-350.0   60.0   0.0
-300.0   60.0   0.0
-350.0   90.0   0.0
-350.0   60.0   16.666666666666668
-300.0   60.0   0.0
-300.0   90.0   0.0
-350.0   90.0   0.0
-300.0   90.0   16.666666666666668
-350.0   60.0   16.666666666666668
-350.0   90.0   16.666666666666668
-300.0   90.0   16.666666666666668
-350.0   90.0   0.0
-350.0   60.0   16.666666666666668
-300.0   90.0   16.666666666666668
-300.0   60.0   16.666666666666668
-300.0   60.0   0.0
-350.0   60.0   16.666666666666668
-300.0   90.0   16.666666666666668
-300.0   60.0   0.0
-350.0   90.0   0.0
-350.0   60.0   16.666666666666668
-300.0   60.0   16.666666666666668
-350.0   90.0   16.666666666666668
-350.0   60.0   33.333333333333336
-300.0   60.0   16.666666666666668
-300.0   90.0   16.666666666666668
-350.0   90.0   16.666666666666668
-300.0   90.0   33.333333333333336
-350.0   60.0   33.333333333333336
-350.0   90.0   33.333333333333336
-300.0   90.0   33.333333333333336
-350.0   90.0   16.666666666666668
-350.0   60.0   33.333333333333336
-300.0   90.0   33.333333333333336
-300.0   60.0   33.333333333333336
-300.0   60.0   16.666666666666668
-350.0   60.0   33.333333333333336
-300.0   90.0   33.333333333333336
-300.0   60.0   16.666666666666668
-350.0   90.0   16.666666666666668
-350.0   60.0   33.333333333333336
-300.0   60.0   33.333333333333336
-350.0   90.0   33.333333333333336
-350.0   60.0   50.0
-300.0   60.0   33.333333333333336
-300.0   90.0   33.333333333333336
-350.0   90.0   33.333333333333336
-300.0   90.0   50.0
-350.0   60.0   50.0
-350.0   90.0   50.0
-300.0   90.0   50.0
-350.0   90.0   33.333333333333336
-350.0   60.0   50.0
-300.0   90.0   50.0
-300.0   60.0   50.0
-300.0   60.0   33.333333333333336
-350.0   60.0   50.0
-300.0   90.0   50.0
-300.0   60.0   33.333333333333336
-350.0   90.0   33.333333333333336
-350.0   90.0   0.0
-300.0   90.0   0.0
-350.0   120.0   0.0
-350.0   90.0   16.666666666666668
-300.0   90.0   0.0
-300.0   120.0   0.0
-350.0   120.0   0.0
-300.0   120.0   16.666666666666668
-350.0   90.0   16.666666666666668
-350.0   120.0   16.666666666666668
-300.0   120.0   16.666666666666668
-350.0   120.0   0.0
-350.0   90.0   16.666666666666668
-300.0   120.0   16.666666666666668
-300.0   90.0   16.666666666666668
-300.0   90.0   0.0
-350.0   90.0   16.666666666666668
-300.0   120.0   16.666666666666668
-300.0   90.0   0.0
-350.0   120.0   0.0
-350.0   90.0   16.666666666666668
-300.0   90.0   16.666666666666668
-350.0   120.0   16.666666666666668
-350.0   90.0   33.333333333333336
-300.0   90.0   16.666666666666668
-300.0   120.0   16.666666666666668
-350.0   120.0   16.666666666666668
-300.0   120.0   33.333333333333336
-350.0   90.0   33.333333333333336
-350.0   120.0   33.333333333333336
-300.0   120.0   33.333333333333336
-350.0   120.0   16.666666666666668
-350.0   90.0   33.333333333333336
-300.0   120.0   33.333333333333336
-300.0   90.0   33.333333333333336
-300.0   90.0   16.666666666666668
-350.0   90.0   33.333333333333336
-300.0   120.0   33.333333333333336
-300.0   90.0   16.666666666666668
-350.0   120.0   16.666666666666668
-350.0   90.0   33.333333333333336
-300.0   90.0   33.333333333333336
-350.0   120.0   33.333333333333336
-350.0   90.0   50.0
-300.0   90.0   33.333333333333336
-300.0   120.0   33.333333333333336
-350.0   120.0   33.333333333333336
-300.0   120.0   50.0
-350.0   90.0   50.0
-350.0   120.0   50.0
-300.0   120.0   50.0
-350.0   120.0   33.333333333333336
-350.0   90.0   50.0
-300.0   120.0   50.0
-300.0   90.0   50.0
-300.0   90.0   33.333333333333336
-350.0   90.0   50.0
-300.0   120.0   50.0
-300.0   90.0   33.333333333333336
-350.0   120.0   33.333333333333336
-350.0   120.0   0.0
-300.0   120.0   0.0
-350.0   150.0   0.0
-350.0   120.0   16.666666666666668
-300.0   120.0   0.0
-300.0   150.0   0.0
-350.0   150.0   0.0
-300.0   150.0   16.666666666666668
-350.0   120.0   16.666666666666668
-350.0   150.0   16.666666666666668
-300.0   150.0   16.666666666666668
-350.0   150.0   0.0
-350.0   120.0   16.666666666666668
-300.0   150.0   16.666666666666668
-300.0   120.0   16.666666666666668
-300.0   120.0   0.0
-350.0   120.0   16.666666666666668
-300.0   150.0   16.666666666666668
-300.0   120.0   0.0
-350.0   150.0   0.0
-350.0   120.0   16.666666666666668
-300.0   120.0   16.666666666666668
-350.0   150.0   16.666666666666668
-350.0   120.0   33.333333333333336
-300.0   120.0   16.666666666666668
-300.0   150.0   16.666666666666668
-350.0   150.0   16.666666666666668
-300.0   150.0   33.333333333333336
-350.0   120.0   33.333333333333336
-350.0   150.0   33.333333333333336
-300.0   150.0   33.333333333333336
-350.0   150.0   16.666666666666668
-350.0   120.0   33.333333333333336
-300.0   150.0   33.333333333333336
-300.0   120.0   33.333333333333336
-300.0   120.0   16.666666666666668
-350.0   120.0   33.333333333333336
-300.0   150.0   33.333333333333336
-300.0   120.0   16.666666666666668
-350.0   150.0   16.666666666666668
-350.0   120.0   33.333333333333336
-300.0   120.0   33.333333333333336
-350.0   150.0   33.333333333333336
-350.0   120.0   50.0
-300.0   120.0   33.333333333333336
-300.0   150.0   33.333333333333336
-350.0   150.0   33.333333333333336
-300.0   150.0   50.0
-350.0   120.0   50.0
-350.0   150.0   50.0
-300.0   150.0   50.0
-350.0   150.0   33.333333333333336
-350.0   120.0   50.0
-300.0   150.0   50.0
-300.0   120.0   50.0
-300.0   120.0   33.333333333333336
-350.0   120.0   50.0
-300.0   150.0   50.0
-300.0   120.0   33.333333333333336
-350.0   150.0   33.333333333333336
-300.0   0.0   0.0
-250.0   0.0   0.0
-300.0   30.0   0.0
-300.0   0.0   16.666666666666668
-250.0   0.0   0.0
-250.0   30.0   0.0
-300.0   30.0   0.0
-250.0   30.0   16.666666666666668
-300.0   0.0   16.666666666666668
-300.0   30.0   16.666666666666668
-250.0   30.0   16.666666666666668
-300.0   30.0   0.0
-300.0   0.0   16.666666666666668
-250.0   30.0   16.666666666666668
-250.0   0.0   16.666666666666668
-250.0   0.0   0.0
-300.0   0.0   16.666666666666668
-250.0   30.0   16.666666666666668
-250.0   0.0   0.0
-300.0   30.0   0.0
-300.0   0.0   16.666666666666668
-250.0   0.0   16.666666666666668
-300.0   30.0   16.666666666666668
-300.0   0.0   33.333333333333336
-250.0   0.0   16.666666666666668
-250.0   30.0   16.666666666666668
-300.0   30.0   16.666666666666668
-250.0   30.0   33.333333333333336
-300.0   0.0   33.333333333333336
-300.0   30.0   33.333333333333336
-250.0   30.0   33.333333333333336
-300.0   30.0   16.666666666666668
-300.0   0.0   33.333333333333336
-250.0   30.0   33.333333333333336
-250.0   0.0   33.333333333333336
-250.0   0.0   16.666666666666668
-300.0   0.0   33.333333333333336
-250.0   30.0   33.333333333333336
-250.0   0.0   16.666666666666668
-300.0   30.0   16.666666666666668
-300.0   0.0   33.333333333333336
-250.0   0.0   33.333333333333336
-300.0   30.0   33.333333333333336
-300.0   0.0   50.0
-250.0   0.0   33.333333333333336
-250.0   30.0   33.333333333333336
-300.0   30.0   33.333333333333336
-250.0   30.0   50.0
-300.0   0.0   50.0
-300.0   30.0   50.0
-250.0   30.0   50.0
-300.0   30.0   33.333333333333336
-300.0   0.0   50.0
-250.0   30.0   50.0
-250.0   0.0   50.0
-250.0   0.0   33.333333333333336
-300.0   0.0   50.0
-250.0   30.0   50.0
-250.0   0.0   33.333333333333336
-300.0   30.0   33.333333333333336
-300.0   30.0   0.0
-250.0   30.0   0.0
-300.0   60.0   0.0
-300.0   30.0   16.666666666666668
-250.0   30.0   0.0
-250.0   60.0   0.0
-300.0   60.0   0.0
-250.0   60.0   16.666666666666668
-300.0   30.0   16.666666666666668
-300.0   60.0   16.666666666666668
-250.0   60.0   16.666666666666668
-300.0   60.0   0.0
-300.0   30.0   16.666666666666668
-250.0   60.0   16.666666666666668
-250.0   30.0   16.666666666666668
-250.0   30.0   0.0
-300.0   30.0   16.666666666666668
-250.0   60.0   16.666666666666668
-250.0   30.0   0.0
-300.0   60.0   0.0
-300.0   30.0   16.666666666666668
-250.0   30.0   16.666666666666668
-300.0   60.0   16.666666666666668
-300.0   30.0   33.333333333333336
-250.0   30.0   16.666666666666668
-250.0   60.0   16.666666666666668
-300.0   60.0   16.666666666666668
-250.0   60.0   33.333333333333336
-300.0   30.0   33.333333333333336
-300.0   60.0   33.333333333333336
-250.0   60.0   33.333333333333336
-300.0   60.0   16.666666666666668
-300.0   30.0   33.333333333333336
-250.0   60.0   33.333333333333336
-250.0   30.0   33.333333333333336
-250.0   30.0   16.666666666666668
-300.0   30.0   33.333333333333336
-250.0   60.0   33.333333333333336
-250.0   30.0   16.666666666666668
-300.0   60.0   16.666666666666668
-300.0   30.0   33.333333333333336
-250.0   30.0   33.333333333333336
-300.0   60.0   33.333333333333336
-300.0   30.0   50.0
-250.0   30.0   33.333333333333336
-250.0   60.0   33.333333333333336
-300.0   60.0   33.333333333333336
-250.0   60.0   50.0
-300.0   30.0   50.0
-300.0   60.0   50.0
-250.0   60.0   50.0
-300.0   60.0   33.333333333333336
-300.0   30.0   50.0
-250.0   60.0   50.0
-250.0   30.0   50.0
-250.0   30.0   33.333333333333336
-300.0   30.0   50.0
-250.0   60.0   50.0
-250.0   30.0   33.333333333333336
-300.0   60.0   33.333333333333336
-300.0   60.0   0.0
-250.0   60.0   0.0
-300.0   90.0   0.0
-300.0   60.0   16.666666666666668
-250.0   60.0   0.0
-250.0   90.0   0.0
-300.0   90.0   0.0
-250.0   90.0   16.666666666666668
-300.0   60.0   16.666666666666668
-300.0   90.0   16.666666666666668
-250.0   90.0   16.666666666666668
-300.0   90.0   0.0
-300.0   60.0   16.666666666666668
-250.0   90.0   16.666666666666668
-250.0   60.0   16.666666666666668
-250.0   60.0   0.0
-300.0   60.0   16.666666666666668
-250.0   90.0   16.666666666666668
-250.0   60.0   0.0
-300.0   90.0   0.0
-300.0   60.0   16.666666666666668
-250.0   60.0   16.666666666666668
-300.0   90.0   16.666666666666668
-300.0   60.0   33.333333333333336
-250.0   60.0   16.666666666666668
-250.0   90.0   16.666666666666668
-300.0   90.0   16.666666666666668
-250.0   90.0   33.333333333333336
-300.0   60.0   33.333333333333336
-300.0   90.0   33.333333333333336
-250.0   90.0   33.333333333333336
-300.0   90.0   16.666666666666668
-300.0   60.0   33.333333333333336
-250.0   90.0   33.333333333333336
-250.0   60.0   33.333333333333336
-250.0   60.0   16.666666666666668
-300.0   60.0   33.333333333333336
-250.0   90.0   33.333333333333336
-250.0   60.0   16.666666666666668
-300.0   90.0   16.666666666666668
-300.0   60.0   33.333333333333336
-250.0   60.0   33.333333333333336
-300.0   90.0   33.333333333333336
-300.0   60.0   50.0
-250.0   60.0   33.333333333333336
-250.0   90.0   33.333333333333336
-300.0   90.0   33.333333333333336
-250.0   90.0   50.0
-300.0   60.0   50.0
-300.0   90.0   50.0
-250.0   90.0   50.0
-300.0   90.0   33.333333333333336
-300.0   60.0   50.0
-250.0   90.0   50.0
-250.0   60.0   50.0
-250.0   60.0   33.333333333333336
-300.0   60.0   50.0
-250.0   90.0   50.0
-250.0   60.0   33.333333333333336
-300.0   90.0   33.333333333333336
-300.0   90.0   0.0
-250.0   90.0   0.0
-300.0   120.0   0.0
-300.0   90.0   16.666666666666668
-250.0   90.0   0.0
-250.0   120.0   0.0
-300.0   120.0   0.0
-250.0   120.0   16.666666666666668
-300.0   90.0   16.666666666666668
-300.0   120.0   16.666666666666668
-250.0   120.0   16.666666666666668
-300.0   120.0   0.0
-300.0   90.0   16.666666666666668
-250.0   120.0   16.666666666666668
-250.0   90.0   16.666666666666668
-250.0   90.0   0.0
-300.0   90.0   16.666666666666668
-250.0   120.0   16.666666666666668
-250.0   90.0   0.0
-300.0   120.0   0.0
-300.0   90.0   16.666666666666668
-250.0   90.0   16.666666666666668
-300.0   120.0   16.666666666666668
-300.0   90.0   33.333333333333336
-250.0   90.0   16.666666666666668
-250.0   120.0   16.666666666666668
-300.0   120.0   16.666666666666668
-250.0   120.0   33.333333333333336
-300.0   90.0   33.333333333333336
-300.0   120.0   33.333333333333336
-250.0   120.0   33.333333333333336
-300.0   120.0   16.666666666666668
-300.0   90.0   33.333333333333336
-250.0   120.0   33.333333333333336
-250.0   90.0   33.333333333333336
-250.0   90.0   16.666666666666668
-300.0   90.0   33.333333333333336
-250.0   120.0   33.333333333333336
-250.0   90.0   16.666666666666668
-300.0   120.0   16.666666666666668
-300.0   90.0   33.333333333333336
-250.0   90.0   33.333333333333336
-300.0   120.0   33.333333333333336
-300.0   90.0   50.0
-250.0   90.0   33.333333333333336
-250.0   120.0   33.333333333333336
-300.0   120.0   33.333333333333336
-250.0   120.0   50.0
-300.0   90.0   50.0
-300.0   120.0   50.0
-250.0   120.0   50.0
-300.0   120.0   33.333333333333336
-300.0   90.0   50.0
-250.0   120.0   50.0
-250.0   90.0   50.0
-250.0   90.0   33.333333333333336
-300.0   90.0   50.0
-250.0   120.0   50.0
-250.0   90.0   33.333333333333336
-300.0   120.0   33.333333333333336
-300.0   120.0   0.0
-250.0   120.0   0.0
-300.0   150.0   0.0
-300.0   120.0   16.666666666666668
-250.0   120.0   0.0
-250.0   150.0   0.0
-300.0   150.0   0.0
-250.0   150.0   16.666666666666668
-300.0   120.0   16.666666666666668
-300.0   150.0   16.666666666666668
-250.0   150.0   16.666666666666668
-300.0   150.0   0.0
-300.0   120.0   16.666666666666668
-250.0   150.0   16.666666666666668
-250.0   120.0   16.666666666666668
-250.0   120.0   0.0
-300.0   120.0   16.666666666666668
-250.0   150.0   16.666666666666668
-250.0   120.0   0.0
-300.0   150.0   0.0
-300.0   120.0   16.666666666666668
-250.0   120.0   16.666666666666668
-300.0   150.0   16.666666666666668
-300.0   120.0   33.333333333333336
-250.0   120.0   16.666666666666668
-250.0   150.0   16.666666666666668
-300.0   150.0   16.666666666666668
-250.0   150.0   33.333333333333336
-300.0   120.0   33.333333333333336
-300.0   150.0   33.333333333333336
-250.0   150.0   33.333333333333336
-300.0   150.0   16.666666666666668
-300.0   120.0   33.333333333333336
-250.0   150.0   33.333333333333336
-250.0   120.0   33.333333333333336
-250.0   120.0   16.666666666666668
-300.0   120.0   33.333333333333336
-250.0   150.0   33.333333333333336
-250.0   120.0   16.666666666666668
-300.0   150.0   16.666666666666668
-300.0   120.0   33.333333333333336
-250.0   120.0   33.333333333333336
-300.0   150.0   33.333333333333336
-300.0   120.0   50.0
-250.0   120.0   33.333333333333336
-250.0   150.0   33.333333333333336
-300.0   150.0   33.333333333333336
-250.0   150.0   50.0
-300.0   120.0   50.0
-300.0   150.0   50.0
-250.0   150.0   50.0
-300.0   150.0   33.333333333333336
-300.0   120.0   50.0
-250.0   150.0   50.0
-250.0   120.0   50.0
-250.0   120.0   33.333333333333336
-300.0   120.0   50.0
-250.0   150.0   50.0
-250.0   120.0   33.333333333333336
-300.0   150.0   33.333333333333336
-250.0   0.0   0.0
-200.0   0.0   0.0
-250.0   30.0   0.0
-250.0   0.0   16.666666666666668
-200.0   0.0   0.0
-200.0   30.0   0.0
-250.0   30.0   0.0
-200.0   30.0   16.666666666666668
-250.0   0.0   16.666666666666668
-250.0   30.0   16.666666666666668
-200.0   30.0   16.666666666666668
-250.0   30.0   0.0
-250.0   0.0   16.666666666666668
-200.0   30.0   16.666666666666668
-200.0   0.0   16.666666666666668
-200.0   0.0   0.0
-250.0   0.0   16.666666666666668
-200.0   30.0   16.666666666666668
-200.0   0.0   0.0
-250.0   30.0   0.0
-250.0   0.0   16.666666666666668
-200.0   0.0   16.666666666666668
-250.0   30.0   16.666666666666668
-250.0   0.0   33.333333333333336
-200.0   0.0   16.666666666666668
-200.0   30.0   16.666666666666668
-250.0   30.0   16.666666666666668
-200.0   30.0   33.333333333333336
-250.0   0.0   33.333333333333336
-250.0   30.0   33.333333333333336
-200.0   30.0   33.333333333333336
-250.0   30.0   16.666666666666668
-250.0   0.0   33.333333333333336
-200.0   30.0   33.333333333333336
-200.0   0.0   33.333333333333336
-200.0   0.0   16.666666666666668
-250.0   0.0   33.333333333333336
-200.0   30.0   33.333333333333336
-200.0   0.0   16.666666666666668
-250.0   30.0   16.666666666666668
-250.0   0.0   33.333333333333336
-200.0   0.0   33.333333333333336
-250.0   30.0   33.333333333333336
-250.0   0.0   50.0
-200.0   0.0   33.333333333333336
-200.0   30.0   33.333333333333336
-250.0   30.0   33.333333333333336
-200.0   30.0   50.0
-250.0   0.0   50.0
-250.0   30.0   50.0
-200.0   30.0   50.0
-250.0   30.0   33.333333333333336
-250.0   0.0   50.0
-200.0   30.0   50.0
-200.0   0.0   50.0
-200.0   0.0   33.333333333333336
-250.0   0.0   50.0
-200.0   30.0   50.0
-200.0   0.0   33.333333333333336
-250.0   30.0   33.333333333333336
-250.0   30.0   0.0
-200.0   30.0   0.0
-250.0   60.0   0.0
-250.0   30.0   16.666666666666668
-200.0   30.0   0.0
-200.0   60.0   0.0
-250.0   60.0   0.0
-200.0   60.0   16.666666666666668
-250.0   30.0   16.666666666666668
-250.0   60.0   16.666666666666668
-200.0   60.0   16.666666666666668
-250.0   60.0   0.0
-250.0   30.0   16.666666666666668
-200.0   60.0   16.666666666666668
-200.0   30.0   16.666666666666668
-200.0   30.0   0.0
-250.0   30.0   16.666666666666668
-200.0   60.0   16.666666666666668
-200.0   30.0   0.0
-250.0   60.0   0.0
-250.0   30.0   16.666666666666668
-200.0   30.0   16.666666666666668
-250.0   60.0   16.666666666666668
-250.0   30.0   33.333333333333336
-200.0   30.0   16.666666666666668
-200.0   60.0   16.666666666666668
-250.0   60.0   16.666666666666668
-200.0   60.0   33.333333333333336
-250.0   30.0   33.333333333333336
-250.0   60.0   33.333333333333336
-200.0   60.0   33.333333333333336
-250.0   60.0   16.666666666666668
-250.0   30.0   33.333333333333336
-200.0   60.0   33.333333333333336
-200.0   30.0   33.333333333333336
-200.0   30.0   16.666666666666668
-250.0   30.0   33.333333333333336
-200.0   60.0   33.333333333333336
-200.0   30.0   16.666666666666668
-250.0   60.0   16.666666666666668
-250.0   30.0   33.333333333333336
-200.0   30.0   33.333333333333336
-250.0   60.0   33.333333333333336
-250.0   30.0   50.0
-200.0   30.0   33.333333333333336
-200.0   60.0   33.333333333333336
-250.0   60.0   33.333333333333336
-200.0   60.0   50.0
-250.0   30.0   50.0
-250.0   60.0   50.0
-200.0   60.0   50.0
-250.0   60.0   33.333333333333336
-250.0   30.0   50.0
-200.0   60.0   50.0
-200.0   30.0   50.0
-200.0   30.0   33.333333333333336
-250.0   30.0   50.0
-200.0   60.0   50.0
-200.0   30.0   33.333333333333336
-250.0   60.0   33.333333333333336
-250.0   60.0   0.0
-200.0   60.0   0.0
-250.0   90.0   0.0
-250.0   60.0   16.666666666666668
-200.0   60.0   0.0
-200.0   90.0   0.0
-250.0   90.0   0.0
-200.0   90.0   16.666666666666668
-250.0   60.0   16.666666666666668
-250.0   90.0   16.666666666666668
-200.0   90.0   16.666666666666668
-250.0   90.0   0.0
-250.0   60.0   16.666666666666668
-200.0   90.0   16.666666666666668
-200.0   60.0   16.666666666666668
-200.0   60.0   0.0
-250.0   60.0   16.666666666666668
-200.0   90.0   16.666666666666668
-200.0   60.0   0.0
-250.0   90.0   0.0
-250.0   60.0   16.666666666666668
-200.0   60.0   16.666666666666668
-250.0   90.0   16.666666666666668
-250.0   60.0   33.333333333333336
-200.0   60.0   16.666666666666668
-200.0   90.0   16.666666666666668
-250.0   90.0   16.666666666666668
-200.0   90.0   33.333333333333336
-250.0   60.0   33.333333333333336
-250.0   90.0   33.333333333333336
-200.0   90.0   33.333333333333336
-250.0   90.0   16.666666666666668
-250.0   60.0   33.333333333333336
-200.0   90.0   33.333333333333336
-200.0   60.0   33.333333333333336
-200.0   60.0   16.666666666666668
-250.0   60.0   33.333333333333336
-200.0   90.0   33.333333333333336
-200.0   60.0   16.666666666666668
-250.0   90.0   16.666666666666668
-250.0   60.0   33.333333333333336
-200.0   60.0   33.333333333333336
-250.0   90.0   33.333333333333336
-250.0   60.0   50.0
-200.0   60.0   33.333333333333336
-200.0   90.0   33.333333333333336
-250.0   90.0   33.333333333333336
-200.0   90.0   50.0
-250.0   60.0   50.0
-250.0   90.0   50.0
-200.0   90.0   50.0
-250.0   90.0   33.333333333333336
-250.0   60.0   50.0
-200.0   90.0   50.0
-200.0   60.0   50.0
-200.0   60.0   33.333333333333336
-250.0   60.0   50.0
-200.0   90.0   50.0
-200.0   60.0   33.333333333333336
-250.0   90.0   33.333333333333336
-250.0   90.0   0.0
-200.0   90.0   0.0
-250.0   120.0   0.0
-250.0   90.0   16.666666666666668
-200.0   90.0   0.0
-200.0   120.0   0.0
-250.0   120.0   0.0
-200.0   120.0   16.666666666666668
-250.0   90.0   16.666666666666668
-250.0   120.0   16.666666666666668
-200.0   120.0   16.666666666666668
-250.0   120.0   0.0
-250.0   90.0   16.666666666666668
-200.0   120.0   16.666666666666668
-200.0   90.0   16.666666666666668
-200.0   90.0   0.0
-250.0   90.0   16.666666666666668
-200.0   120.0   16.666666666666668
-200.0   90.0   0.0
-250.0   120.0   0.0
-250.0   90.0   16.666666666666668
-200.0   90.0   16.666666666666668
-250.0   120.0   16.666666666666668
-250.0   90.0   33.333333333333336
-200.0   90.0   16.666666666666668
-200.0   120.0   16.666666666666668
-250.0   120.0   16.666666666666668
-200.0   120.0   33.333333333333336
-250.0   90.0   33.333333333333336
-250.0   120.0   33.333333333333336
-200.0   120.0   33.333333333333336
-250.0   120.0   16.666666666666668
-250.0   90.0   33.333333333333336
-200.0   120.0   33.333333333333336
-200.0   90.0   33.333333333333336
-200.0   90.0   16.666666666666668
-250.0   90.0   33.333333333333336
-200.0   120.0   33.333333333333336
-200.0   90.0   16.666666666666668
-250.0   120.0   16.666666666666668
-250.0   90.0   33.333333333333336
-200.0   90.0   33.333333333333336
-250.0   120.0   33.333333333333336
-250.0   90.0   50.0
-200.0   90.0   33.333333333333336
-200.0   120.0   33.333333333333336
-250.0   120.0   33.333333333333336
-200.0   120.0   50.0
-250.0   90.0   50.0
-250.0   120.0   50.0
-200.0   120.0   50.0
-250.0   120.0   33.333333333333336
-250.0   90.0   50.0
-200.0   120.0   50.0
-200.0   90.0   50.0
-200.0   90.0   33.333333333333336
-250.0   90.0   50.0
-200.0   120.0   50.0
-200.0   90.0   33.333333333333336
-250.0   120.0   33.333333333333336
-250.0   120.0   0.0
-200.0   120.0   0.0
-250.0   150.0   0.0
-250.0   120.0   16.666666666666668
-200.0   120.0   0.0
-200.0   150.0   0.0
-250.0   150.0   0.0
-200.0   150.0   16.666666666666668
-250.0   120.0   16.666666666666668
-250.0   150.0   16.666666666666668
-200.0   150.0   16.666666666666668
-250.0   150.0   0.0
-250.0   120.0   16.666666666666668
-200.0   150.0   16.666666666666668
-200.0   120.0   16.666666666666668
-200.0   120.0   0.0
-250.0   120.0   16.666666666666668
-200.0   150.0   16.666666666666668
-200.0   120.0   0.0
-250.0   150.0   0.0
-250.0   120.0   16.666666666666668
-200.0   120.0   16.666666666666668
-250.0   150.0   16.666666666666668
-250.0   120.0   33.333333333333336
-200.0   120.0   16.666666666666668
-200.0   150.0   16.666666666666668
-250.0   150.0   16.666666666666668
-200.0   150.0   33.333333333333336
-250.0   120.0   33.333333333333336
-250.0   150.0   33.333333333333336
-200.0   150.0   33.333333333333336
-250.0   150.0   16.666666666666668
-250.0   120.0   33.333333333333336
-200.0   150.0   33.333333333333336
-200.0   120.0   33.333333333333336
-200.0   120.0   16.666666666666668
-250.0   120.0   33.333333333333336
-200.0   150.0   33.333333333333336
-200.0   120.0   16.666666666666668
-250.0   150.0   16.666666666666668
-250.0   120.0   33.333333333333336
-200.0   120.0   33.333333333333336
-250.0   150.0   33.333333333333336
-250.0   120.0   50.0
-200.0   120.0   33.333333333333336
-200.0   150.0   33.333333333333336
-250.0   150.0   33.333333333333336
-200.0   150.0   50.0
-250.0   120.0   50.0
-250.0   150.0   50.0
-200.0   150.0   50.0
-250.0   150.0   33.333333333333336
-250.0   120.0   50.0
-200.0   150.0   50.0
-200.0   120.0   50.0
-200.0   120.0   33.333333333333336
-250.0   120.0   50.0
-200.0   150.0   50.0
-200.0   120.0   33.333333333333336
-250.0   150.0   33.333333333333336
-200.0   0.0   0.0
-150.0   0.0   0.0
-200.0   30.0   0.0
-200.0   0.0   16.666666666666668
-150.0   0.0   0.0
-150.0   30.0   0.0
-200.0   30.0   0.0
-150.0   30.0   16.666666666666668
-200.0   0.0   16.666666666666668
-200.0   30.0   16.666666666666668
-150.0   30.0   16.666666666666668
-200.0   30.0   0.0
-200.0   0.0   16.666666666666668
-150.0   30.0   16.666666666666668
-150.0   0.0   16.666666666666668
-150.0   0.0   0.0
-200.0   0.0   16.666666666666668
-150.0   30.0   16.666666666666668
-150.0   0.0   0.0
-200.0   30.0   0.0
-200.0   0.0   16.666666666666668
-150.0   0.0   16.666666666666668
-200.0   30.0   16.666666666666668
-200.0   0.0   33.333333333333336
-150.0   0.0   16.666666666666668
-150.0   30.0   16.666666666666668
-200.0   30.0   16.666666666666668
-150.0   30.0   33.333333333333336
-200.0   0.0   33.333333333333336
-200.0   30.0   33.333333333333336
-150.0   30.0   33.333333333333336
-200.0   30.0   16.666666666666668
-200.0   0.0   33.333333333333336
-150.0   30.0   33.333333333333336
-150.0   0.0   33.333333333333336
-150.0   0.0   16.666666666666668
-200.0   0.0   33.333333333333336
-150.0   30.0   33.333333333333336
-150.0   0.0   16.666666666666668
-200.0   30.0   16.666666666666668
-200.0   0.0   33.333333333333336
-150.0   0.0   33.333333333333336
-200.0   30.0   33.333333333333336
-200.0   0.0   50.0
-150.0   0.0   33.333333333333336
-150.0   30.0   33.333333333333336
-200.0   30.0   33.333333333333336
-150.0   30.0   50.0
-200.0   0.0   50.0
-200.0   30.0   50.0
-150.0   30.0   50.0
-200.0   30.0   33.333333333333336
-200.0   0.0   50.0
-150.0   30.0   50.0
-150.0   0.0   50.0
-150.0   0.0   33.333333333333336
-200.0   0.0   50.0
-150.0   30.0   50.0
-150.0   0.0   33.333333333333336
-200.0   30.0   33.333333333333336
-200.0   30.0   0.0
-150.0   30.0   0.0
-200.0   60.0   0.0
-200.0   30.0   16.666666666666668
-150.0   30.0   0.0
-150.0   60.0   0.0
-200.0   60.0   0.0
-150.0   60.0   16.666666666666668
-200.0   30.0   16.666666666666668
-200.0   60.0   16.666666666666668
-150.0   60.0   16.666666666666668
-200.0   60.0   0.0
-200.0   30.0   16.666666666666668
-150.0   60.0   16.666666666666668
-150.0   30.0   16.666666666666668
-150.0   30.0   0.0
-200.0   30.0   16.666666666666668
-150.0   60.0   16.666666666666668
-150.0   30.0   0.0
-200.0   60.0   0.0
-200.0   30.0   16.666666666666668
-150.0   30.0   16.666666666666668
-200.0   60.0   16.666666666666668
-200.0   30.0   33.333333333333336
-150.0   30.0   16.666666666666668
-150.0   60.0   16.666666666666668
-200.0   60.0   16.666666666666668
-150.0   60.0   33.333333333333336
-200.0   30.0   33.333333333333336
-200.0   60.0   33.333333333333336
-150.0   60.0   33.333333333333336
-200.0   60.0   16.666666666666668
-200.0   30.0   33.333333333333336
-150.0   60.0   33.333333333333336
-150.0   30.0   33.333333333333336
-150.0   30.0   16.666666666666668
-200.0   30.0   33.333333333333336
-150.0   60.0   33.333333333333336
-150.0   30.0   16.666666666666668
-200.0   60.0   16.666666666666668
-200.0   30.0   33.333333333333336
-150.0   30.0   33.333333333333336
-200.0   60.0   33.333333333333336
-200.0   30.0   50.0
-150.0   30.0   33.333333333333336
-150.0   60.0   33.333333333333336
-200.0   60.0   33.333333333333336
-150.0   60.0   50.0
-200.0   30.0   50.0
-200.0   60.0   50.0
-150.0   60.0   50.0
-200.0   60.0   33.333333333333336
-200.0   30.0   50.0
-150.0   60.0   50.0
-150.0   30.0   50.0
-150.0   30.0   33.333333333333336
-200.0   30.0   50.0
-150.0   60.0   50.0
-150.0   30.0   33.333333333333336
-200.0   60.0   33.333333333333336
-200.0   60.0   0.0
-150.0   60.0   0.0
-200.0   90.0   0.0
-200.0   60.0   16.666666666666668
-150.0   60.0   0.0
-150.0   90.0   0.0
-200.0   90.0   0.0
-150.0   90.0   16.666666666666668
-200.0   60.0   16.666666666666668
-200.0   90.0   16.666666666666668
-150.0   90.0   16.666666666666668
-200.0   90.0   0.0
-200.0   60.0   16.666666666666668
-150.0   90.0   16.666666666666668
-150.0   60.0   16.666666666666668
-150.0   60.0   0.0
-200.0   60.0   16.666666666666668
-150.0   90.0   16.666666666666668
-150.0   60.0   0.0
-200.0   90.0   0.0
-200.0   60.0   16.666666666666668
-150.0   60.0   16.666666666666668
-200.0   90.0   16.666666666666668
-200.0   60.0   33.333333333333336
-150.0   60.0   16.666666666666668
-150.0   90.0   16.666666666666668
-200.0   90.0   16.666666666666668
-150.0   90.0   33.333333333333336
-200.0   60.0   33.333333333333336
-200.0   90.0   33.333333333333336
-150.0   90.0   33.333333333333336
-200.0   90.0   16.666666666666668
-200.0   60.0   33.333333333333336
-150.0   90.0   33.333333333333336
-150.0   60.0   33.333333333333336
-150.0   60.0   16.666666666666668
-200.0   60.0   33.333333333333336
-150.0   90.0   33.333333333333336
-150.0   60.0   16.666666666666668
-200.0   90.0   16.666666666666668
-200.0   60.0   33.333333333333336
-150.0   60.0   33.333333333333336
-200.0   90.0   33.333333333333336
-200.0   60.0   50.0
-150.0   60.0   33.333333333333336
-150.0   90.0   33.333333333333336
-200.0   90.0   33.333333333333336
-150.0   90.0   50.0
-200.0   60.0   50.0
-200.0   90.0   50.0
-150.0   90.0   50.0
-200.0   90.0   33.333333333333336
-200.0   60.0   50.0
-150.0   90.0   50.0
-150.0   60.0   50.0
-150.0   60.0   33.333333333333336
-200.0   60.0   50.0
-150.0   90.0   50.0
-150.0   60.0   33.333333333333336
-200.0   90.0   33.333333333333336
-200.0   90.0   0.0
-150.0   90.0   0.0
-200.0   120.0   0.0
-200.0   90.0   16.666666666666668
-150.0   90.0   0.0
-150.0   120.0   0.0
-200.0   120.0   0.0
-150.0   120.0   16.666666666666668
-200.0   90.0   16.666666666666668
-200.0   120.0   16.666666666666668
-150.0   120.0   16.666666666666668
-200.0   120.0   0.0
-200.0   90.0   16.666666666666668
-150.0   120.0   16.666666666666668
-150.0   90.0   16.666666666666668
-150.0   90.0   0.0
-200.0   90.0   16.666666666666668
-150.0   120.0   16.666666666666668
-150.0   90.0   0.0
-200.0   120.0   0.0
-200.0   90.0   16.666666666666668
-150.0   90.0   16.666666666666668
-200.0   120.0   16.666666666666668
-200.0   90.0   33.333333333333336
-150.0   90.0   16.666666666666668
-150.0   120.0   16.666666666666668
-200.0   120.0   16.666666666666668
-150.0   120.0   33.333333333333336
-200.0   90.0   33.333333333333336
-200.0   120.0   33.333333333333336
-150.0   120.0   33.333333333333336
-200.0   120.0   16.666666666666668
-200.0   90.0   33.333333333333336
-150.0   120.0   33.333333333333336
-150.0   90.0   33.333333333333336
-150.0   90.0   16.666666666666668
-200.0   90.0   33.333333333333336
-150.0   120.0   33.333333333333336
-150.0   90.0   16.666666666666668
-200.0   120.0   16.666666666666668
-200.0   90.0   33.333333333333336
-150.0   90.0   33.333333333333336
-200.0   120.0   33.333333333333336
-200.0   90.0   50.0
-150.0   90.0   33.333333333333336
-150.0   120.0   33.333333333333336
-200.0   120.0   33.333333333333336
-150.0   120.0   50.0
-200.0   90.0   50.0
-200.0   120.0   50.0
-150.0   120.0   50.0
-200.0   120.0   33.333333333333336
-200.0   90.0   50.0
-150.0   120.0   50.0
-150.0   90.0   50.0
-150.0   90.0   33.333333333333336
-200.0   90.0   50.0
-150.0   120.0   50.0
-150.0   90.0   33.333333333333336
-200.0   120.0   33.333333333333336
-200.0   120.0   0.0
-150.0   120.0   0.0
-200.0   150.0   0.0
-200.0   120.0   16.666666666666668
-150.0   120.0   0.0
-150.0   150.0   0.0
-200.0   150.0   0.0
-150.0   150.0   16.666666666666668
-200.0   120.0   16.666666666666668
-200.0   150.0   16.666666666666668
-150.0   150.0   16.666666666666668
-200.0   150.0   0.0
-200.0   120.0   16.666666666666668
-150.0   150.0   16.666666666666668
-150.0   120.0   16.666666666666668
-150.0   120.0   0.0
-200.0   120.0   16.666666666666668
-150.0   150.0   16.666666666666668
-150.0   120.0   0.0
-200.0   150.0   0.0
-200.0   120.0   16.666666666666668
-150.0   120.0   16.666666666666668
-200.0   150.0   16.666666666666668
-200.0   120.0   33.333333333333336
-150.0   120.0   16.666666666666668
-150.0   150.0   16.666666666666668
-200.0   150.0   16.666666666666668
-150.0   150.0   33.333333333333336
-200.0   120.0   33.333333333333336
-200.0   150.0   33.333333333333336
-150.0   150.0   33.333333333333336
-200.0   150.0   16.666666666666668
-200.0   120.0   33.333333333333336
-150.0   150.0   33.333333333333336
-150.0   120.0   33.333333333333336
-150.0   120.0   16.666666666666668
-200.0   120.0   33.333333333333336
-150.0   150.0   33.333333333333336
-150.0   120.0   16.666666666666668
-200.0   150.0   16.666666666666668
-200.0   120.0   33.333333333333336
-150.0   120.0   33.333333333333336
-200.0   150.0   33.333333333333336
-200.0   120.0   50.0
-150.0   120.0   33.333333333333336
-150.0   150.0   33.333333333333336
-200.0   150.0   33.333333333333336
-150.0   150.0   50.0
-200.0   120.0   50.0
-200.0   150.0   50.0
-150.0   150.0   50.0
-200.0   150.0   33.333333333333336
-200.0   120.0   50.0
-150.0   150.0   50.0
-150.0   120.0   50.0
-150.0   120.0   33.333333333333336
-200.0   120.0   50.0
-150.0   150.0   50.0
-150.0   120.0   33.333333333333336
-200.0   150.0   33.333333333333336
-150.0   0.0   0.0
-100.0   0.0   0.0
-150.0   30.0   0.0
-150.0   0.0   16.666666666666668
-100.0   0.0   0.0
-100.0   30.0   0.0
-150.0   30.0   0.0
-100.0   30.0   16.666666666666668
-150.0   0.0   16.666666666666668
-150.0   30.0   16.666666666666668
-100.0   30.0   16.666666666666668
-150.0   30.0   0.0
-150.0   0.0   16.666666666666668
-100.0   30.0   16.666666666666668
-100.0   0.0   16.666666666666668
-100.0   0.0   0.0
-150.0   0.0   16.666666666666668
-100.0   30.0   16.666666666666668
-100.0   0.0   0.0
-150.0   30.0   0.0
-150.0   0.0   16.666666666666668
-100.0   0.0   16.666666666666668
-150.0   30.0   16.666666666666668
-150.0   0.0   33.333333333333336
-100.0   0.0   16.666666666666668
-100.0   30.0   16.666666666666668
-150.0   30.0   16.666666666666668
-100.0   30.0   33.333333333333336
-150.0   0.0   33.333333333333336
-150.0   30.0   33.333333333333336
-100.0   30.0   33.333333333333336
-150.0   30.0   16.666666666666668
-150.0   0.0   33.333333333333336
-100.0   30.0   33.333333333333336
-100.0   0.0   33.333333333333336
-100.0   0.0   16.666666666666668
-150.0   0.0   33.333333333333336
-100.0   30.0   33.333333333333336
-100.0   0.0   16.666666666666668
-150.0   30.0   16.666666666666668
-150.0   0.0   33.333333333333336
-100.0   0.0   33.333333333333336
-150.0   30.0   33.333333333333336
-150.0   0.0   50.0
-100.0   0.0   33.333333333333336
-100.0   30.0   33.333333333333336
-150.0   30.0   33.333333333333336
-100.0   30.0   50.0
-150.0   0.0   50.0
-150.0   30.0   50.0
-100.0   30.0   50.0
-150.0   30.0   33.333333333333336
-150.0   0.0   50.0
-100.0   30.0   50.0
-100.0   0.0   50.0
-100.0   0.0   33.333333333333336
-150.0   0.0   50.0
-100.0   30.0   50.0
-100.0   0.0   33.333333333333336
-150.0   30.0   33.333333333333336
-150.0   30.0   0.0
-100.0   30.0   0.0
-150.0   60.0   0.0
-150.0   30.0   16.666666666666668
-100.0   30.0   0.0
-100.0   60.0   0.0
-150.0   60.0   0.0
-100.0   60.0   16.666666666666668
-150.0   30.0   16.666666666666668
-150.0   60.0   16.666666666666668
-100.0   60.0   16.666666666666668
-150.0   60.0   0.0
-150.0   30.0   16.666666666666668
-100.0   60.0   16.666666666666668
-100.0   30.0   16.666666666666668
-100.0   30.0   0.0
-150.0   30.0   16.666666666666668
-100.0   60.0   16.666666666666668
-100.0   30.0   0.0
-150.0   60.0   0.0
-150.0   30.0   16.666666666666668
-100.0   30.0   16.666666666666668
-150.0   60.0   16.666666666666668
-150.0   30.0   33.333333333333336
-100.0   30.0   16.666666666666668
-100.0   60.0   16.666666666666668
-150.0   60.0   16.666666666666668
-100.0   60.0   33.333333333333336
-150.0   30.0   33.333333333333336
-150.0   60.0   33.333333333333336
-100.0   60.0   33.333333333333336
-150.0   60.0   16.666666666666668
-150.0   30.0   33.333333333333336
-100.0   60.0   33.333333333333336
-100.0   30.0   33.333333333333336
-100.0   30.0   16.666666666666668
-150.0   30.0   33.333333333333336
-100.0   60.0   33.333333333333336
-100.0   30.0   16.666666666666668
-150.0   60.0   16.666666666666668
-150.0   30.0   33.333333333333336
-100.0   30.0   33.333333333333336
-150.0   60.0   33.333333333333336
-150.0   30.0   50.0
-100.0   30.0   33.333333333333336
-100.0   60.0   33.333333333333336
-150.0   60.0   33.333333333333336
-100.0   60.0   50.0
-150.0   30.0   50.0
-150.0   60.0   50.0
-100.0   60.0   50.0
-150.0   60.0   33.333333333333336
-150.0   30.0   50.0
-100.0   60.0   50.0
-100.0   30.0   50.0
-100.0   30.0   33.333333333333336
-150.0   30.0   50.0
-100.0   60.0   50.0
-100.0   30.0   33.333333333333336
-150.0   60.0   33.333333333333336
-150.0   60.0   0.0
-100.0   60.0   0.0
-150.0   90.0   0.0
-150.0   60.0   16.666666666666668
-100.0   60.0   0.0
-100.0   90.0   0.0
-150.0   90.0   0.0
-100.0   90.0   16.666666666666668
-150.0   60.0   16.666666666666668
-150.0   90.0   16.666666666666668
-100.0   90.0   16.666666666666668
-150.0   90.0   0.0
-150.0   60.0   16.666666666666668
-100.0   90.0   16.666666666666668
-100.0   60.0   16.666666666666668
-100.0   60.0   0.0
-150.0   60.0   16.666666666666668
-100.0   90.0   16.666666666666668
-100.0   60.0   0.0
-150.0   90.0   0.0
-150.0   60.0   16.666666666666668
-100.0   60.0   16.666666666666668
-150.0   90.0   16.666666666666668
-150.0   60.0   33.333333333333336
-100.0   60.0   16.666666666666668
-100.0   90.0   16.666666666666668
-150.0   90.0   16.666666666666668
-100.0   90.0   33.333333333333336
-150.0   60.0   33.333333333333336
-150.0   90.0   33.333333333333336
-100.0   90.0   33.333333333333336
-150.0   90.0   16.666666666666668
-150.0   60.0   33.333333333333336
-100.0   90.0   33.333333333333336
-100.0   60.0   33.333333333333336
-100.0   60.0   16.666666666666668
-150.0   60.0   33.333333333333336
-100.0   90.0   33.333333333333336
-100.0   60.0   16.666666666666668
-150.0   90.0   16.666666666666668
-150.0   60.0   33.333333333333336
-100.0   60.0   33.333333333333336
-150.0   90.0   33.333333333333336
-150.0   60.0   50.0
-100.0   60.0   33.333333333333336
-100.0   90.0   33.333333333333336
-150.0   90.0   33.333333333333336
-100.0   90.0   50.0
-150.0   60.0   50.0
-150.0   90.0   50.0
-100.0   90.0   50.0
-150.0   90.0   33.333333333333336
-150.0   60.0   50.0
-100.0   90.0   50.0
-100.0   60.0   50.0
-100.0   60.0   33.333333333333336
-150.0   60.0   50.0
-100.0   90.0   50.0
-100.0   60.0   33.333333333333336
-150.0   90.0   33.333333333333336
-150.0   90.0   0.0
-100.0   90.0   0.0
-150.0   120.0   0.0
-150.0   90.0   16.666666666666668
-100.0   90.0   0.0
-100.0   120.0   0.0
-150.0   120.0   0.0
-100.0   120.0   16.666666666666668
-150.0   90.0   16.666666666666668
-150.0   120.0   16.666666666666668
-100.0   120.0   16.666666666666668
-150.0   120.0   0.0
-150.0   90.0   16.666666666666668
-100.0   120.0   16.666666666666668
-100.0   90.0   16.666666666666668
-100.0   90.0   0.0
-150.0   90.0   16.666666666666668
-100.0   120.0   16.666666666666668
-100.0   90.0   0.0
-150.0   120.0   0.0
-150.0   90.0   16.666666666666668
-100.0   90.0   16.666666666666668
-150.0   120.0   16.666666666666668
-150.0   90.0   33.333333333333336
-100.0   90.0   16.666666666666668
-100.0   120.0   16.666666666666668
-150.0   120.0   16.666666666666668
-100.0   120.0   33.333333333333336
-150.0   90.0   33.333333333333336
-150.0   120.0   33.333333333333336
-100.0   120.0   33.333333333333336
-150.0   120.0   16.666666666666668
-150.0   90.0   33.333333333333336
-100.0   120.0   33.333333333333336
-100.0   90.0   33.333333333333336
-100.0   90.0   16.666666666666668
-150.0   90.0   33.333333333333336
-100.0   120.0   33.333333333333336
-100.0   90.0   16.666666666666668
-150.0   120.0   16.666666666666668
-150.0   90.0   33.333333333333336
-100.0   90.0   33.333333333333336
-150.0   120.0   33.333333333333336
-150.0   90.0   50.0
-100.0   90.0   33.333333333333336
-100.0   120.0   33.333333333333336
-150.0   120.0   33.333333333333336
-100.0   120.0   50.0
-150.0   90.0   50.0
-150.0   120.0   50.0
-100.0   120.0   50.0
-150.0   120.0   33.333333333333336
-150.0   90.0   50.0
-100.0   120.0   50.0
-100.0   90.0   50.0
-100.0   90.0   33.333333333333336
-150.0   90.0   50.0
-100.0   120.0   50.0
-100.0   90.0   33.333333333333336
-150.0   120.0   33.333333333333336
-150.0   120.0   0.0
-100.0   120.0   0.0
-150.0   150.0   0.0
-150.0   120.0   16.666666666666668
-100.0   120.0   0.0
-100.0   150.0   0.0
-150.0   150.0   0.0
-100.0   150.0   16.666666666666668
-150.0   120.0   16.666666666666668
-150.0   150.0   16.666666666666668
-100.0   150.0   16.666666666666668
-150.0   150.0   0.0
-150.0   120.0   16.666666666666668
-100.0   150.0   16.666666666666668
-100.0   120.0   16.666666666666668
-100.0   120.0   0.0
-150.0   120.0   16.666666666666668
-100.0   150.0   16.666666666666668
-100.0   120.0   0.0
-150.0   150.0   0.0
-150.0   120.0   16.666666666666668
-100.0   120.0   16.666666666666668
-150.0   150.0   16.666666666666668
-150.0   120.0   33.333333333333336
-100.0   120.0   16.666666666666668
-100.0   150.0   16.666666666666668
-150.0   150.0   16.666666666666668
-100.0   150.0   33.333333333333336
-150.0   120.0   33.333333333333336
-150.0   150.0   33.333333333333336
-100.0   150.0   33.333333333333336
-150.0   150.0   16.666666666666668
-150.0   120.0   33.333333333333336
-100.0   150.0   33.333333333333336
-100.0   120.0   33.333333333333336
-100.0   120.0   16.666666666666668
-150.0   120.0   33.333333333333336
-100.0   150.0   33.333333333333336
-100.0   120.0   16.666666666666668
-150.0   150.0   16.666666666666668
-150.0   120.0   33.333333333333336
-100.0   120.0   33.333333333333336
-150.0   150.0   33.333333333333336
-150.0   120.0   50.0
-100.0   120.0   33.333333333333336
-100.0   150.0   33.333333333333336
-150.0   150.0   33.333333333333336
-100.0   150.0   50.0
-150.0   120.0   50.0
-150.0   150.0   50.0
-100.0   150.0   50.0
-150.0   150.0   33.333333333333336
-150.0   120.0   50.0
-100.0   150.0   50.0
-100.0   120.0   50.0
-100.0   120.0   33.333333333333336
-150.0   120.0   50.0
-100.0   150.0   50.0
-100.0   120.0   33.333333333333336
-150.0   150.0   33.333333333333336
-100.0   0.0   0.0
-50.0   0.0   0.0
-100.0   30.0   0.0
-100.0   0.0   16.666666666666668
-50.0   0.0   0.0
-50.0   30.0   0.0
-100.0   30.0   0.0
-50.0   30.0   16.666666666666668
-100.0   0.0   16.666666666666668
-100.0   30.0   16.666666666666668
-50.0   30.0   16.666666666666668
-100.0   30.0   0.0
-100.0   0.0   16.666666666666668
-50.0   30.0   16.666666666666668
-50.0   0.0   16.666666666666668
-50.0   0.0   0.0
-100.0   0.0   16.666666666666668
-50.0   30.0   16.666666666666668
-50.0   0.0   0.0
-100.0   30.0   0.0
-100.0   0.0   16.666666666666668
-50.0   0.0   16.666666666666668
-100.0   30.0   16.666666666666668
-100.0   0.0   33.333333333333336
-50.0   0.0   16.666666666666668
-50.0   30.0   16.666666666666668
-100.0   30.0   16.666666666666668
-50.0   30.0   33.333333333333336
-100.0   0.0   33.333333333333336
-100.0   30.0   33.333333333333336
-50.0   30.0   33.333333333333336
-100.0   30.0   16.666666666666668
-100.0   0.0   33.333333333333336
-50.0   30.0   33.333333333333336
-50.0   0.0   33.333333333333336
-50.0   0.0   16.666666666666668
-100.0   0.0   33.333333333333336
-50.0   30.0   33.333333333333336
-50.0   0.0   16.666666666666668
-100.0   30.0   16.666666666666668
-100.0   0.0   33.333333333333336
-50.0   0.0   33.333333333333336
-100.0   30.0   33.333333333333336
-100.0   0.0   50.0
-50.0   0.0   33.333333333333336
-50.0   30.0   33.333333333333336
-100.0   30.0   33.333333333333336
-50.0   30.0   50.0
-100.0   0.0   50.0
-100.0   30.0   50.0
-50.0   30.0   50.0
-100.0   30.0   33.333333333333336
-100.0   0.0   50.0
-50.0   30.0   50.0
-50.0   0.0   50.0
-50.0   0.0   33.333333333333336
-100.0   0.0   50.0
-50.0   30.0   50.0
-50.0   0.0   33.333333333333336
-100.0   30.0   33.333333333333336
-100.0   30.0   0.0
-50.0   30.0   0.0
-100.0   60.0   0.0
-100.0   30.0   16.666666666666668
-50.0   30.0   0.0
-50.0   60.0   0.0
-100.0   60.0   0.0
-50.0   60.0   16.666666666666668
-100.0   30.0   16.666666666666668
-100.0   60.0   16.666666666666668
-50.0   60.0   16.666666666666668
-100.0   60.0   0.0
-100.0   30.0   16.666666666666668
-50.0   60.0   16.666666666666668
-50.0   30.0   16.666666666666668
-50.0   30.0   0.0
-100.0   30.0   16.666666666666668
-50.0   60.0   16.666666666666668
-50.0   30.0   0.0
-100.0   60.0   0.0
-100.0   30.0   16.666666666666668
-50.0   30.0   16.666666666666668
-100.0   60.0   16.666666666666668
-100.0   30.0   33.333333333333336
-50.0   30.0   16.666666666666668
-50.0   60.0   16.666666666666668
-100.0   60.0   16.666666666666668
-50.0   60.0   33.333333333333336
-100.0   30.0   33.333333333333336
-100.0   60.0   33.333333333333336
-50.0   60.0   33.333333333333336
-100.0   60.0   16.666666666666668
-100.0   30.0   33.333333333333336
-50.0   60.0   33.333333333333336
-50.0   30.0   33.333333333333336
-50.0   30.0   16.666666666666668
-100.0   30.0   33.333333333333336
-50.0   60.0   33.333333333333336
-50.0   30.0   16.666666666666668
-100.0   60.0   16.666666666666668
-100.0   30.0   33.333333333333336
-50.0   30.0   33.333333333333336
-100.0   60.0   33.333333333333336
-100.0   30.0   50.0
-50.0   30.0   33.333333333333336
-50.0   60.0   33.333333333333336
-100.0   60.0   33.333333333333336
-50.0   60.0   50.0
-100.0   30.0   50.0
-100.0   60.0   50.0
-50.0   60.0   50.0
-100.0   60.0   33.333333333333336
-100.0   30.0   50.0
-50.0   60.0   50.0
-50.0   30.0   50.0
-50.0   30.0   33.333333333333336
-100.0   30.0   50.0
-50.0   60.0   50.0
-50.0   30.0   33.333333333333336
-100.0   60.0   33.333333333333336
-100.0   60.0   0.0
-50.0   60.0   0.0
-100.0   90.0   0.0
-100.0   60.0   16.666666666666668
-50.0   60.0   0.0
-50.0   90.0   0.0
-100.0   90.0   0.0
-50.0   90.0   16.666666666666668
-100.0   60.0   16.666666666666668
-100.0   90.0   16.666666666666668
-50.0   90.0   16.666666666666668
-100.0   90.0   0.0
-100.0   60.0   16.666666666666668
-50.0   90.0   16.666666666666668
-50.0   60.0   16.666666666666668
-50.0   60.0   0.0
-100.0   60.0   16.666666666666668
-50.0   90.0   16.666666666666668
-50.0   60.0   0.0
-100.0   90.0   0.0
-100.0   60.0   16.666666666666668
-50.0   60.0   16.666666666666668
-100.0   90.0   16.666666666666668
-100.0   60.0   33.333333333333336
-50.0   60.0   16.666666666666668
-50.0   90.0   16.666666666666668
-100.0   90.0   16.666666666666668
-50.0   90.0   33.333333333333336
-100.0   60.0   33.333333333333336
-100.0   90.0   33.333333333333336
-50.0   90.0   33.333333333333336
-100.0   90.0   16.666666666666668
-100.0   60.0   33.333333333333336
-50.0   90.0   33.333333333333336
-50.0   60.0   33.333333333333336
-50.0   60.0   16.666666666666668
-100.0   60.0   33.333333333333336
-50.0   90.0   33.333333333333336
-50.0   60.0   16.666666666666668
-100.0   90.0   16.666666666666668
-100.0   60.0   33.333333333333336
-50.0   60.0   33.333333333333336
-100.0   90.0   33.333333333333336
-100.0   60.0   50.0
-50.0   60.0   33.333333333333336
-50.0   90.0   33.333333333333336
-100.0   90.0   33.333333333333336
-50.0   90.0   50.0
-100.0   60.0   50.0
-100.0   90.0   50.0
-50.0   90.0   50.0
-100.0   90.0   33.333333333333336
-100.0   60.0   50.0
-50.0   90.0   50.0
-50.0   60.0   50.0
-50.0   60.0   33.333333333333336
-100.0   60.0   50.0
-50.0   90.0   50.0
-50.0   60.0   33.333333333333336
-100.0   90.0   33.333333333333336
-100.0   90.0   0.0
-50.0   90.0   0.0
-100.0   120.0   0.0
-100.0   90.0   16.666666666666668
-50.0   90.0   0.0
-50.0   120.0   0.0
-100.0   120.0   0.0
-50.0   120.0   16.666666666666668
-100.0   90.0   16.666666666666668
-100.0   120.0   16.666666666666668
-50.0   120.0   16.666666666666668
-100.0   120.0   0.0
-100.0   90.0   16.666666666666668
-50.0   120.0   16.666666666666668
-50.0   90.0   16.666666666666668
-50.0   90.0   0.0
-100.0   90.0   16.666666666666668
-50.0   120.0   16.666666666666668
-50.0   90.0   0.0
-100.0   120.0   0.0
-100.0   90.0   16.666666666666668
-50.0   90.0   16.666666666666668
-100.0   120.0   16.666666666666668
-100.0   90.0   33.333333333333336
-50.0   90.0   16.666666666666668
-50.0   120.0   16.666666666666668
-100.0   120.0   16.666666666666668
-50.0   120.0   33.333333333333336
-100.0   90.0   33.333333333333336
-100.0   120.0   33.333333333333336
-50.0   120.0   33.333333333333336
-100.0   120.0   16.666666666666668
-100.0   90.0   33.333333333333336
-50.0   120.0   33.333333333333336
-50.0   90.0   33.333333333333336
-50.0   90.0   16.666666666666668
-100.0   90.0   33.333333333333336
-50.0   120.0   33.333333333333336
-50.0   90.0   16.666666666666668
-100.0   120.0   16.666666666666668
-100.0   90.0   33.333333333333336
-50.0   90.0   33.333333333333336
-100.0   120.0   33.333333333333336
-100.0   90.0   50.0
-50.0   90.0   33.333333333333336
-50.0   120.0   33.333333333333336
-100.0   120.0   33.333333333333336
-50.0   120.0   50.0
-100.0   90.0   50.0
-100.0   120.0   50.0
-50.0   120.0   50.0
-100.0   120.0   33.333333333333336
-100.0   90.0   50.0
-50.0   120.0   50.0
-50.0   90.0   50.0
-50.0   90.0   33.333333333333336
-100.0   90.0   50.0
-50.0   120.0   50.0
-50.0   90.0   33.333333333333336
-100.0   120.0   33.333333333333336
-100.0   120.0   0.0
-50.0   120.0   0.0
-100.0   150.0   0.0
-100.0   120.0   16.666666666666668
-50.0   120.0   0.0
-50.0   150.0   0.0
-100.0   150.0   0.0
-50.0   150.0   16.666666666666668
-100.0   120.0   16.666666666666668
-100.0   150.0   16.666666666666668
-50.0   150.0   16.666666666666668
-100.0   150.0   0.0
-100.0   120.0   16.666666666666668
-50.0   150.0   16.666666666666668
-50.0   120.0   16.666666666666668
-50.0   120.0   0.0
-100.0   120.0   16.666666666666668
-50.0   150.0   16.666666666666668
-50.0   120.0   0.0
-100.0   150.0   0.0
-100.0   120.0   16.666666666666668
-50.0   120.0   16.666666666666668
-100.0   150.0   16.666666666666668
-100.0   120.0   33.333333333333336
-50.0   120.0   16.666666666666668
-50.0   150.0   16.666666666666668
-100.0   150.0   16.666666666666668
-50.0   150.0   33.333333333333336
-100.0   120.0   33.333333333333336
-100.0   150.0   33.333333333333336
-50.0   150.0   33.333333333333336
-100.0   150.0   16.666666666666668
-100.0   120.0   33.333333333333336
-50.0   150.0   33.333333333333336
-50.0   120.0   33.333333333333336
-50.0   120.0   16.666666666666668
-100.0   120.0   33.333333333333336
-50.0   150.0   33.333333333333336
-50.0   120.0   16.666666666666668
-100.0   150.0   16.666666666666668
-100.0   120.0   33.333333333333336
-50.0   120.0   33.333333333333336
-100.0   150.0   33.333333333333336
-100.0   120.0   50.0
-50.0   120.0   33.333333333333336
-50.0   150.0   33.333333333333336
-100.0   150.0   33.333333333333336
-50.0   150.0   50.0
-100.0   120.0   50.0
-100.0   150.0   50.0
-50.0   150.0   50.0
-100.0   150.0   33.333333333333336
-100.0   120.0   50.0
-50.0   150.0   50.0
-50.0   120.0   50.0
-50.0   120.0   33.333333333333336
-100.0   120.0   50.0
-50.0   150.0   50.0
-50.0   120.0   33.333333333333336
-100.0   150.0   33.333333333333336
-50.0   0.0   0.0
0.0   0.0   0.0
-50.0   30.0   0.0
-50.0   0.0   16.666666666666668
0.0   0.0   0.0
0.0   30.0   0.0
-50.0   30.0   0.0
0.0   30.0   16.666666666666668
-50.0   0.0   16.666666666666668
-50.0   30.0   16.666666666666668
0.0   30.0   16.666666666666668
-50.0   30.0   0.0
-50.0   0.0   16.666666666666668
0.0   30.0   16.666666666666668
0.0   0.0   16.666666666666668
0.0   0.0   0.0
-50.0   0.0   16.666666666666668
0.0   30.0   16.666666666666668
0.0   0.0   0.0
-50.0   30.0   0.0
-50.0   0.0   16.666666666666668
0.0   0.0   16.666666666666668
-50.0   30.0   16.666666666666668
-50.0   0.0   33.333333333333336
0.0   0.0   16.666666666666668
0.0   30.0   16.666666666666668
-50.0   30.0   16.666666666666668
0.0   30.0   33.333333333333336
-50.0   0.0   33.333333333333336
-50.0   30.0   33.333333333333336
0.0   30.0   33.333333333333336
-50.0   30.0   16.666666666666668
-50.0   0.0   33.333333333333336
0.0   30.0   33.333333333333336
0.0   0.0   33.333333333333336
0.0   0.0   16.666666666666668
-50.0   0.0   33.333333333333336
0.0   30.0   33.333333333333336
0.0   0.0   16.666666666666668
-50.0   30.0   16.666666666666668
-50.0   0.0   33.333333333333336
0.0   0.0   33.333333333333336
-50.0   30.0   33.333333333333336
-50.0   0.0   50.0
0.0   0.0   33.333333333333336
0.0   30.0   33.333333333333336
-50.0   30.0   33.333333333333336
0.0   30.0   50.0
-50.0   0.0   50.0
-50.0   30.0   50.0
0.0   30.0   50.0
-50.0   30.0   33.333333333333336
-50.0   0.0   50.0
0.0   30.0   50.0
0.0   0.0   50.0
0.0   0.0   33.333333333333336
-50.0   0.0   50.0
0.0   30.0   50.0
0.0   0.0   33.333333333333336
-50.0   30.0   33.333333333333336
-50.0   30.0   0.0
0.0   30.0   0.0
-50.0   60.0   0.0
-50.0   30.0   16.666666666666668
0.0   30.0   0.0
0.0   60.0   0.0
-50.0   60.0   0.0
0.0   60.0   16.666666666666668
-50.0   30.0   16.666666666666668
-50.0   60.0   16.666666666666668
0.0   60.0   16.666666666666668
-50.0   60.0   0.0
-50.0   30.0   16.666666666666668
0.0   60.0   16.666666666666668
0.0   30.0   16.666666666666668
0.0   30.0   0.0
-50.0   30.0   16.666666666666668
0.0   60.0   16.666666666666668
0.0   30.0   0.0
-50.0   60.0   0.0
-50.0   30.0   16.666666666666668
0.0   30.0   16.666666666666668
-50.0   60.0   16.666666666666668
-50.0   30.0   33.333333333333336
0.0   30.0   16.666666666666668
0.0   60.0   16.666666666666668
-50.0   60.0   16.666666666666668
0.0   60.0   33.333333333333336
-50.0   30.0   33.333333333333336
-50.0   60.0   33.333333333333336
0.0   60.0   33.333333333333336
-50.0   60.0   16.666666666666668
-50.0   30.0   33.333333333333336
0.0   60.0   33.333333333333336
0.0   30.0   33.333333333333336
0.0   30.0   16.666666666666668
-50.0   30.0   33.333333333333336
0.0   60.0   33.333333333333336
0.0   30.0   16.666666666666668
-50.0   60.0   16.666666666666668
-50.0   30.0   33.333333333333336
0.0   30.0   33.333333333333336
-50.0   60.0   33.333333333333336
-50.0   30.0   50.0
0.0   30.0   33.333333333333336
0.0   60.0   33.333333333333336
-50.0   60.0   33.333333333333336
0.0   60.0   50.0
-50.0   30.0   50.0
-50.0   60.0   50.0
0.0   60.0   50.0
-50.0   60.0   33.333333333333336
-50.0   30.0   50.0
0.0   60.0   50.0
0.0   30.0   50.0
0.0   30.0   33.333333333333336
-50.0   30.0   50.0
0.0   60.0   50.0
0.0   30.0   33.333333333333336
-50.0   60.0   33.333333333333336
-50.0   60.0   0.0
0.0   60.0   0.0
-50.0   90.0   0.0
-50.0   60.0   16.666666666666668
0.0   60.0   0.0
0.0   90.0   0.0
-50.0   90.0   0.0
0.0   90.0   16.666666666666668
-50.0   60.0   16.666666666666668
-50.0   90.0   16.666666666666668
0.0   90.0   16.666666666666668
-50.0   90.0   0.0
-50.0   60.0   16.666666666666668
0.0   90.0   16.666666666666668
0.0   60.0   16.666666666666668
0.0   60.0   0.0
-50.0   60.0   16.666666666666668
0.0   90.0   16.666666666666668
0.0   60.0   0.0
-50.0   90.0   0.0
-50.0   60.0   16.666666666666668
0.0   60.0   16.666666666666668
-50.0   90.0   16.666666666666668
-50.0   60.0   33.333333333333336
0.0   60.0   16.666666666666668
0.0   90.0   16.666666666666668
-50.0   90.0   16.666666666666668
0.0   90.0   33.333333333333336
-50.0   60.0   33.333333333333336
-50.0   90.0   33.333333333333336
0.0   90.0   33.333333333333336
-50.0   90.0   16.666666666666668
-50.0   60.0   33.333333333333336
0.0   90.0   33.333333333333336
0.0   60.0   33.333333333333336
0.0   60.0   16.666666666666668
-50.0   60.0   33.333333333333336
0.0   90.0   33.333333333333336
0.0   60.0   16.666666666666668
-50.0   90.0   16.666666666666668
-50.0   60.0   33.333333333333336
0.0   60.0   33.333333333333336
-50.0   90.0   33.333333333333336
-50.0   60.0   50.0
0.0   60.0   33.333333333333336
0.0   90.0   33.333333333333336
-50.0   90.0   33.333333333333336
0.0   90.0   50.0
-50.0   60.0   50.0
-50.0   90.0   50.0
0.0   90.0   50.0
-50.0   90.0   33.333333333333336
-50.0   60.0   50.0
0.0   90.0   50.0
0.0   60.0   50.0
0.0   60.0   33.333333333333336
-50.0   60.0   50.0
0.0   90.0   50.0
0.0   60.0   33.333333333333336
-50.0   90.0   33.333333333333336
-50.0   90.0   0.0
0.0   90.0   0.0
-50.0   120.0   0.0
-50.0   90.0   16.666666666666668
0.0   90.0   0.0
0.0   120.0   0.0
-50.0   120.0   0.0
0.0   120.0   16.666666666666668
-50.0   90.0   16.666666666666668
-50.0   120.0   16.666666666666668
0.0   120.0   16.666666666666668
-50.0   120.0   0.0
-50.0   90.0   16.666666666666668
0.0   120.0   16.666666666666668
0.0   90.0   16.666666666666668
0.0   90.0   0.0
-50.0   90.0   16.666666666666668
0.0   120.0   16.666666666666668
0.0   90.0   0.0
-50.0   120.0   0.0
-50.0   90.0   16.666666666666668
0.0   90.0   16.666666666666668
-50.0   120.0   16.666666666666668
-50.0   90.0   33.333333333333336
0.0   90.0   16.666666666666668
0.0   120.0   16.666666666666668
-50.0   120.0   16.666666666666668
0.0   120.0   33.333333333333336
-50.0   90.0   33.333333333333336
-50.0   120.0   33.333333333333336
0.0   120.0   33.333333333333336
-50.0   120.0   16.666666666666668
-50.0   90.0   33.333333333333336
0.0   120.0   33.333333333333336
0.0   90.0   33.333333333333336
0.0   90.0   16.666666666666668
-50.0   90.0   33.333333333333336
0.0   120.0   33.333333333333336
0.0   90.0   16.666666666666668
-50.0   120.0   16.666666666666668
-50.0   90.0   33.333333333333336
0.0   90.0   33.333333333333336
-50.0   120.0   33.333333333333336
-50.0   90.0   50.0
0.0   90.0   33.333333333333336
0.0   120.0   33.333333333333336
-50.0   120.0   33.333333333333336
0.0   120.0   50.0
-50.0   90.0   50.0
-50.0   120.0   50.0
0.0   120.0   50.0
-50.0   120.0   33.333333333333336
-50.0   90.0   50.0
0.0   120.0   50.0
0.0   90.0   50.0
0.0   90.0   33.333333333333336
-50.0   90.0   50.0
0.0   120.0   50.0
0.0   90.0   33.333333333333336
-50.0   120.0   33.333333333333336
-50.0   120.0   0.0
0.0   120.0   0.0
-50.0   150.0   0.0
-50.0   120.0   16.666666666666668
0.0   120.0   0.0
0.0   150.0   0.0
-50.0   150.0   0.0
0.0   150.0   16.666666666666668
-50.0   120.0   16.666666666666668
-50.0   150.0   16.666666666666668
0.0   150.0   16.666666666666668
-50.0   150.0   0.0
-50.0   120.0   16.666666666666668
0.0   150.0   16.666666666666668
0.0   120.0   16.666666666666668
0.0   120.0   0.0
-50.0   120.0   16.666666666666668
0.0   150.0   16.666666666666668
0.0   120.0   0.0
-50.0   150.0   0.0
-50.0   120.0   16.666666666666668
0.0   120.0   16.666666666666668
-50.0   150.0   16.666666666666668
-50.0   120.0   33.333333333333336
0.0   120.0   16.666666666666668
0.0   150.0   16.666666666666668
-50.0   150.0   16.666666666666668
0.0   150.0   33.333333333333336
-50.0   120.0   33.333333333333336
-50.0   150.0   33.333333333333336
0.0   150.0   33.333333333333336
-50.0   150.0   16.666666666666668
-50.0   120.0   33.333333333333336
0.0   150.0   33.333333333333336
0.0   120.0   33.333333333333336
0.0   120.0   16.666666666666668
-50.0   120.0   33.333333333333336
0.0   150.0   33.333333333333336
0.0   120.0   16.666666666666668
-50.0   150.0   16.666666666666668
-50.0   120.0   33.333333333333336
0.0   120.0   33.333333333333336
-50.0   150.0   33.333333333333336
-50.0   120.0   50.0
0.0   120.0   33.333333333333336
0.0   150.0   33.333333333333336
-50.0   150.0   33.333333333333336
0.0   150.0   50.0
-50.0   120.0   50.0
-50.0   150.0   50.0
0.0   150.0   50.0
-50.0   150.0   33.333333333333336
-50.0   120.0   50.0
0.0   150.0   50.0
0.0   120.0   50.0
0.0   120.0   33.333333333333336
-50.0   120.0   50.0
0.0   150.0   50.0
0.0   120.0   33.333333333333336
-50.0   150.0   33.333333333333336
0.0   0.0   0.0
50.0   0.0   0.0
0.0   30.0   0.0
0.0   0.0   16.666666666666668
50.0   0.0   0.0
50.0   30.0   0.0
0.0   30.0   0.0
50.0   30.0   16.666666666666668
0.0   0.0   16.666666666666668
0.0   30.0   16.666666666666668
50.0   30.0   16.666666666666668
0.0   30.0   0.0
0.0   0.0   16.666666666666668
50.0   30.0   16.666666666666668
50.0   0.0   16.666666666666668
50.0   0.0   0.0
0.0   0.0   16.666666666666668
50.0   30.0   16.666666666666668
50.0   0.0   0.0
0.0   30.0   0.0
0.0   0.0   16.666666666666668
50.0   0.0   16.666666666666668
0.0   30.0   16.666666666666668
0.0   0.0   33.333333333333336
50.0   0.0   16.666666666666668
50.0   30.0   16.666666666666668
0.0   30.0   16.666666666666668
50.0   30.0   33.333333333333336
0.0   0.0   33.333333333333336
0.0   30.0   33.333333333333336
50.0   30.0   33.333333333333336
0.0   30.0   16.666666666666668
0.0   0.0   33.333333333333336
50.0   30.0   33.333333333333336
50.0   0.0   33.333333333333336
50.0   0.0   16.666666666666668
0.0   0.0   33.333333333333336
50.0   30.0   33.333333333333336
50.0   0.0   16.666666666666668
0.0   30.0   16.666666666666668
0.0   0.0   33.333333333333336
50.0   0.0   33.333333333333336
0.0   30.0   33.333333333333336
0.0   0.0   50.0
50.0   0.0   33.333333333333336
50.0   30.0   33.333333333333336
0.0   30.0   33.333333333333336
50.0   30.0   50.0
0.0   0.0   50.0
0.0   30.0   50.0
50.0   30.0   50.0
0.0   30.0   33.333333333333336
0.0   0.0   50.0
50.0   30.0   50.0
50.0   0.0   50.0
50.0   0.0   33.333333333333336
0.0   0.0   50.0
50.0   30.0   50.0
50.0   0.0   33.333333333333336
0.0   30.0   33.333333333333336
0.0   30.0   0.0
50.0   30.0   0.0
0.0   60.0   0.0
0.0   30.0   16.666666666666668
50.0   30.0   0.0
50.0   60.0   0.0
0.0   60.0   0.0
50.0   60.0   16.666666666666668
0.0   30.0   16.666666666666668
0.0   60.0   16.666666666666668
50.0   60.0   16.666666666666668
0.0   60.0   0.0
0.0   30.0   16.666666666666668
50.0   60.0   16.666666666666668
50.0   30.0   16.666666666666668
50.0   30.0   0.0
0.0   30.0   16.666666666666668
50.0   60.0   16.666666666666668
50.0   30.0   0.0
0.0   60.0   0.0
0.0   30.0   16.666666666666668
50.0   30.0   16.666666666666668
0.0   60.0   16.666666666666668
0.0   30.0   33.333333333333336
50.0   30.0   16.666666666666668
50.0   60.0   16.666666666666668
0.0   60.0   16.666666666666668
50.0   60.0   33.333333333333336
0.0   30.0   33.333333333333336
0.0   60.0   33.333333333333336
50.0   60.0   33.333333333333336
0.0   60.0   16.666666666666668
0.0   30.0   33.333333333333336
50.0   60.0   33.333333333333336
50.0   30.0   33.333333333333336
50.0   30.0   16.666666666666668
0.0   30.0   33.333333333333336
50.0   60.0   33.333333333333336
50.0   30.0   16.666666666666668
0.0   60.0   16.666666666666668
0.0   30.0   33.333333333333336
50.0   30.0   33.333333333333336
0.0   60.0   33.333333333333336
0.0   30.0   50.0
50.0   30.0   33.333333333333336
50.0   60.0   33.333333333333336
0.0   60.0   33.333333333333336
50.0   60.0   50.0
0.0   30.0   50.0
0.0   60.0   50.0
50.0   60.0   50.0
0.0   60.0   33.333333333333336
0.0   30.0   50.0
50.0   60.0   50.0
50.0   30.0   50.0
50.0   30.0   33.333333333333336
0.0   30.0   50.0
50.0   60.0   50.0
50.0   30.0   33.333333333333336
0.0   60.0   33.333333333333336
0.0   60.0   0.0
50.0   60.0   0.0
0.0   90.0   0.0
0.0   60.0   16.666666666666668
50.0   60.0   0.0
50.0   90.0   0.0
0.0   90.0   0.0
50.0   90.0   16.666666666666668
0.0   60.0   16.666666666666668
0.0   90.0   16.666666666666668
50.0   90.0   16.666666666666668
0.0   90.0   0.0
0.0   60.0   16.666666666666668
50.0   90.0   16.666666666666668
50.0   60.0   16.666666666666668
50.0   60.0   0.0
0.0   60.0   16.666666666666668
50.0   90.0   16.666666666666668
50.0   60.0   0.0
0.0   90.0   0.0
0.0   60.0   16.666666666666668
50.0   60.0   16.666666666666668
0.0   90.0   16.666666666666668
0.0   60.0   33.333333333333336
50.0   60.0   16.666666666666668
50.0   90.0   16.666666666666668
0.0   90.0   16.666666666666668
50.0   90.0   33.333333333333336
0.0   60.0   33.333333333333336
0.0   90.0   33.333333333333336
50.0   90.0   33.333333333333336
0.0   90.0   16.666666666666668
0.0   60.0   33.333333333333336
50.0   90.0   33.333333333333336
50.0   60.0   33.333333333333336
50.0   60.0   16.666666666666668
0.0   60.0   33.333333333333336
50.0   90.0   33.333333333333336
50.0   60.0   16.666666666666668
0.0   90.0   16.666666666666668
0.0   60.0   33.333333333333336
50.0   60.0   33.333333333333336
0.0   90.0   33.333333333333336
0.0   60.0   50.0
50.0   60.0   33.333333333333336
50.0   90.0   33.333333333333336
0.0   90.0   33.333333333333336
50.0   90.0   50.0
0.0   60.0   50.0
0.0   90.0   50.0
50.0   90.0   50.0
0.0   90.0   33.333333333333336
0.0   60.0   50.0
50.0   90.0   50.0
50.0   60.0   50.0
50.0   60.0   33.333333333333336
0.0   60.0   50.0
50.0   90.0   50.0
50.0   60.0   33.333333333333336
0.0   90.0   33.333333333333336
0.0   90.0   0.0
50.0   90.0   0.0
0.0   120.0   0.0
0.0   90.0   16.666666666666668
50.0   90.0   0.0
50.0   120.0   0.0
0.0   120.0   0.0
50.0   120.0   16.666666666666668
0.0   90.0   16.666666666666668
0.0   120.0   16.666666666666668
50.0   120.0   16.666666666666668
0.0   120.0   0.0
0.0   90.0   16.666666666666668
50.0   120.0   16.666666666666668
50.0   90.0   16.666666666666668
50.0   90.0   0.0
0.0   90.0   16.666666666666668
50.0   120.0   16.666666666666668
50.0   90.0   0.0
0.0   120.0   0.0
0.0   90.0   16.666666666666668
50.0   90.0   16.666666666666668
0.0   120.0   16.666666666666668
0.0   90.0   33.333333333333336
50.0   90.0   16.666666666666668
50.0   120.0   16.666666666666668
0.0   120.0   16.666666666666668
50.0   120.0   33.333333333333336
0.0   90.0   33.333333333333336
0.0   120.0   33.333333333333336
50.0   120.0   33.333333333333336
0.0   120.0   16.666666666666668
0.0   90.0   33.333333333333336
50.0   120.0   33.333333333333336
50.0   90.0   33.333333333333336
50.0   90.0   16.666666666666668
0.0   90.0   33.333333333333336
50.0   120.0   33.333333333333336
50.0   90.0   16.666666666666668
0.0   120.0   16.666666666666668
0.0   90.0   33.333333333333336
50.0   90.0   33.333333333333336
0.0   120.0   33.333333333333336
0.0   90.0   50.0
50.0   90.0   33.333333333333336
50.0   120.0   33.333333333333336
0.0   120.0   33.333333333333336
50.0   120.0   50.0
0.0   90.0   50.0
0.0   120.0   50.0
50.0   120.0   50.0
0.0   120.0   33.333333333333336
0.0   90.0   50.0
50.0   120.0   50.0
50.0   90.0   50.0
50.0   90.0   33.333333333333336
0.0   90.0   50.0
50.0   120.0   50.0
50.0   90.0   33.333333333333336
0.0   120.0   33.333333333333336
0.0   120.0   0.0
50.0   120.0   0.0
0.0   150.0   0.0
0.0   120.0   16.666666666666668
50.0   120.0   0.0
50.0   150.0   0.0
0.0   150.0   0.0
50.0   150.0   16.666666666666668
0.0   120.0   16.666666666666668
0.0   150.0   16.666666666666668
50.0   150.0   16.666666666666668
0.0   150.0   0.0
0.0   120.0   16.666666666666668
50.0   150.0   16.666666666666668
50.0   120.0   16.666666666666668
50.0   120.0   0.0
0.0   120.0   16.666666666666668
50.0   150.0   16.666666666666668
50.0   120.0   0.0
0.0   150.0   0.0
0.0   120.0   16.666666666666668
50.0   120.0   16.666666666666668
0.0   150.0   16.666666666666668
0.0   120.0   33.333333333333336
50.0   120.0   16.666666666666668
50.0   150.0   16.666666666666668
0.0   150.0   16.666666666666668
50.0   150.0   33.333333333333336
0.0   120.0   33.333333333333336
0.0   150.0   33.333333333333336
50.0   150.0   33.333333333333336
0.0   150.0   16.666666666666668
0.0   120.0   33.333333333333336
50.0   150.0   33.333333333333336
50.0   120.0   33.333333333333336
50.0   120.0   16.666666666666668
0.0   120.0   33.333333333333336
50.0   150.0   33.333333333333336
50.0   120.0   16.666666666666668
0.0   150.0   16.666666666666668
0.0   120.0   33.333333333333336
50.0   120.0   33.333333333333336
0.0   150.0   33.333333333333336
0.0   120.0   50.0
50.0   120.0   33.333333333333336
50.0   150.0   33.333333333333336
0.0   150.0   33.333333333333336
50.0   150.0   50.0
0.0   120.0   50.0
0.0   150.0   50.0
50.0   150.0   50.0
0.0   150.0   33.333333333333336
0.0   120.0   50.0
50.0   150.0   50.0
50.0   120.0   50.0
50.0   120.0   33.333333333333336
0.0   120.0   50.0
50.0   150.0   50.0
50.0   120.0   33.333333333333336
0.0   150.0   33.333333333333336
50.0   0.0   0.0
100.0   0.0   0.0
50.0   30.0   0.0
50.0   0.0   16.666666666666668
100.0   0.0   0.0
100.0   30.0   0.0
50.0   30.0   0.0
100.0   30.0   16.666666666666668
50.0   0.0   16.666666666666668
50.0   30.0   16.666666666666668
100.0   30.0   16.666666666666668
50.0   30.0   0.0
50.0   0.0   16.666666666666668
100.0   30.0   16.666666666666668
100.0   0.0   16.666666666666668
100.0   0.0   0.0
50.0   0.0   16.666666666666668
100.0   30.0   16.666666666666668
100.0   0.0   0.0
50.0   30.0   0.0
50.0   0.0   16.666666666666668
100.0   0.0   16.666666666666668
50.0   30.0   16.666666666666668
50.0   0.0   33.333333333333336
100.0   0.0   16.666666666666668
100.0   30.0   16.666666666666668
50.0   30.0   16.666666666666668
100.0   30.0   33.333333333333336
50.0   0.0   33.333333333333336
50.0   30.0   33.333333333333336
100.0   30.0   33.333333333333336
50.0   30.0   16.666666666666668
50.0   0.0   33.333333333333336
100.0   30.0   33.333333333333336
100.0   0.0   33.333333333333336
100.0   0.0   16.666666666666668
50.0   0.0   33.333333333333336
100.0   30.0   33.333333333333336
100.0   0.0   16.666666666666668
50.0   30.0   16.666666666666668
50.0   0.0   33.333333333333336
100.0   0.0   33.333333333333336
50.0   30.0   33.333333333333336
50.0   0.0   50.0
100.0   0.0   33.333333333333336
100.0   30.0   33.333333333333336
50.0   30.0   33.333333333333336
100.0   30.0   50.0
50.0   0.0   50.0
50.0   30.0   50.0
100.0   30.0   50.0
50.0   30.0   33.333333333333336
50.0   0.0   50.0
100.0   30.0   50.0
100.0   0.0   50.0
100.0   0.0   33.333333333333336
50.0   0.0   50.0
100.0   30.0   50.0
100.0   0.0   33.333333333333336
50.0   30.0   33.333333333333336
50.0   30.0   0.0
100.0   30.0   0.0
50.0   60.0   0.0
50.0   30.0   16.666666666666668
100.0   30.0   0.0
100.0   60.0   0.0
50.0   60.0   0.0
100.0   60.0   16.666666666666668
50.0   30.0   16.666666666666668
50.0   60.0   16.666666666666668
100.0   60.0   16.666666666666668
50.0   60.0   0.0
50.0   30.0   16.666666666666668
100.0   60.0   16.666666666666668
100.0   30.0   16.666666666666668
100.0   30.0   0.0
50.0   30.0   16.666666666666668
100.0   60.0   16.666666666666668
100.0   30.0   0.0
50.0   60.0   0.0
50.0   30.0   16.666666666666668
100.0   30.0   16.666666666666668
50.0   60.0   16.666666666666668
50.0   30.0   33.333333333333336
100.0   30.0   16.666666666666668
100.0   60.0   16.666666666666668
50.0   60.0   16.666666666666668
100.0   60.0   33.333333333333336
50.0   30.0   33.333333333333336
50.0   60.0   33.333333333333336
100.0   60.0   33.333333333333336
50.0   60.0   16.666666666666668
50.0   30.0   33.333333333333336
100.0   60.0   33.333333333333336
100.0   30.0   33.333333333333336
100.0   30.0   16.666666666666668
50.0   30.0   33.333333333333336
100.0   60.0   33.333333333333336
100.0   30.0   16.666666666666668
50.0   60.0   16.666666666666668
50.0   30.0   33.333333333333336
100.0   30.0   33.333333333333336
50.0   60.0   33.333333333333336
50.0   30.0   50.0
100.0   30.0   33.333333333333336
100.0   60.0   33.333333333333336
50.0   60.0   33.333333333333336
100.0   60.0   50.0
50.0   30.0   50.0
50.0   60.0   50.0
100.0   60.0   50.0
50.0   60.0   33.333333333333336
50.0   30.0   50.0
100.0   60.0   50.0
100.0   30.0   50.0
100.0   30.0   33.333333333333336
50.0   30.0   50.0
100.0   60.0   50.0
100.0   30.0   33.333333333333336
50.0   60.0   33.333333333333336
50.0   60.0   0.0
100.0   60.0   0.0
50.0   90.0   0.0
50.0   60.0   16.666666666666668
100.0   60.0   0.0
100.0   90.0   0.0
50.0   90.0   0.0
100.0   90.0   16.666666666666668
50.0   60.0   16.666666666666668
50.0   90.0   16.666666666666668
100.0   90.0   16.666666666666668
50.0   90.0   0.0
50.0   60.0   16.666666666666668
100.0   90.0   16.666666666666668
100.0   60.0   16.666666666666668
100.0   60.0   0.0
50.0   60.0   16.666666666666668
100.0   90.0   16.666666666666668
100.0   60.0   0.0
50.0   90.0   0.0
50.0   60.0   16.666666666666668
100.0   60.0   16.666666666666668
50.0   90.0   16.666666666666668
50.0   60.0   33.333333333333336
100.0   60.0   16.666666666666668
100.0   90.0   16.666666666666668
50.0   90.0   16.666666666666668
100.0   90.0   33.333333333333336
50.0   60.0   33.333333333333336
50.0   90.0   33.333333333333336
100.0   90.0   33.333333333333336
50.0   90.0   16.666666666666668
50.0   60.0   33.333333333333336
100.0   90.0   33.333333333333336
100.0   60.0   33.333333333333336
100.0   60.0   16.666666666666668
50.0   60.0   33.333333333333336
100.0   90.0   33.333333333333336
100.0   60.0   16.666666666666668
50.0   90.0   16.666666666666668
50.0   60.0   33.333333333333336
100.0   60.0   33.333333333333336
50.0   90.0   33.333333333333336
50.0   60.0   50.0
100.0   60.0   33.333333333333336
100.0   90.0   33.333333333333336
50.0   90.0   33.333333333333336
100.0   90.0   50.0
50.0   60.0   50.0
50.0   90.0   50.0
100.0   90.0   50.0
50.0   90.0   33.333333333333336
50.0   60.0   50.0
100.0   90.0   50.0
100.0   60.0   50.0
100.0   60.0   33.333333333333336
50.0   60.0   50.0
100.0   90.0   50.0
100.0   60.0   33.333333333333336
50.0   90.0   33.333333333333336
50.0   90.0   0.0
100.0   90.0   0.0
50.0   120.0   0.0
50.0   90.0   16.666666666666668
100.0   90.0   0.0
100.0   120.0   0.0
50.0   120.0   0.0
100.0   120.0   16.666666666666668
50.0   90.0   16.666666666666668
50.0   120.0   16.666666666666668
100.0   120.0   16.666666666666668
50.0   120.0   0.0
50.0   90.0   16.666666666666668
100.0   120.0   16.666666666666668
100.0   90.0   16.666666666666668
100.0   90.0   0.0
50.0   90.0   16.666666666666668
100.0   120.0   16.666666666666668
100.0   90.0   0.0
50.0   120.0   0.0
50.0   90.0   16.666666666666668
100.0   90.0   16.666666666666668
50.0   120.0   16.666666666666668
50.0   90.0   33.333333333333336
100.0   90.0   16.666666666666668
100.0   120.0   16.666666666666668
50.0   120.0   16.666666666666668
100.0   120.0   33.333333333333336
50.0   90.0   33.333333333333336
50.0   120.0   33.333333333333336
100.0   120.0   33.333333333333336
50.0   120.0   16.666666666666668
50.0   90.0   33.333333333333336
100.0   120.0   33.333333333333336
100.0   90.0   33.333333333333336
100.0   90.0   16.666666666666668
50.0   90.0   33.333333333333336
100.0   120.0   33.333333333333336
100.0   90.0   16.666666666666668
50.0   120.0   16.666666666666668
50.0   90.0   33.333333333333336
100.0   90.0   33.333333333333336
50.0   120.0   33.333333333333336
50.0   90.0   50.0
100.0   90.0   33.333333333333336
100.0   120.0   33.333333333333336
50.0   120.0   33.333333333333336
100.0   120.0   50.0
50.0   90.0   50.0
50.0   120.0   50.0
100.0   120.0   50.0
50.0   120.0   33.333333333333336
50.0   90.0   50.0
100.0   120.0   50.0
100.0   90.0   50.0
100.0   90.0   33.333333333333336
50.0   90.0   50.0
100.0   120.0   50.0
100.0   90.0   33.333333333333336
50.0   120.0   33.333333333333336
50.0   120.0   0.0
100.0   120.0   0.0
50.0   150.0   0.0
50.0   120.0   16.666666666666668
100.0   120.0   0.0
100.0   150.0   0.0
50.0   150.0   0.0
100.0   150.0   16.666666666666668
50.0   120.0   16.666666666666668
50.0   150.0   16.666666666666668
100.0   150.0   16.666666666666668
50.0   150.0   0.0
50.0   120.0   16.666666666666668
100.0   150.0   16.666666666666668
100.0   120.0   16.666666666666668
100.0   120.0   0.0
50.0   120.0   16.666666666666668
100.0   150.0   16.666666666666668
100.0   120.0   0.0
50.0   150.0   0.0
50.0   120.0   16.666666666666668
100.0   120.0   16.666666666666668
50.0   150.0   16.666666666666668
50.0   120.0   33.333333333333336
100.0   120.0   16.666666666666668
100.0   150.0   16.666666666666668
50.0   150.0   16.666666666666668
100.0   150.0   33.333333333333336
50.0   120.0   33.333333333333336
50.0   150.0   33.333333333333336
100.0   150.0   33.333333333333336
50.0   150.0   16.666666666666668
50.0   120.0   33.333333333333336
100.0   150.0   33.333333333333336
100.0   120.0   33.333333333333336
100.0   120.0   16.666666666666668
50.0   120.0   33.333333333333336
100.0   150.0   33.333333333333336
100.0   120.0   16.666666666666668
50.0   150.0   16.666666666666668
50.0   120.0   33.333333333333336
100.0   120.0   33.333333333333336
50.0   150.0   33.333333333333336
50.0   120.0   50.0
100.0   120.0   33.333333333333336
100.0   150.0   33.333333333333336
50.0   150.0   33.333333333333336
100.0   150.0   50.0
50.0   120.0   50.0
50.0   150.0   50.0
100.0   150.0   50.0
50.0   150.0   33.333333333333336
50.0   120.0   50.0
100.0   150.0   50.0
100.0   120.0   50.0
100.0   120.0   33.333333333333336
50.0   120.0   50.0
100.0   150.0   50.0
100.0   120.0   33.333333333333336
50.0   150.0   33.333333333333336
100.0   0.0   0.0
150.0   0.0   0.0
100.0   30.0   0.0
100.0   0.0   16.666666666666668
150.0   0.0   0.0
150.0   30.0   0.0
100.0   30.0   0.0
150.0   30.0   16.666666666666668
100.0   0.0   16.666666666666668
100.0   30.0   16.666666666666668
150.0   30.0   16.666666666666668
100.0   30.0   0.0
100.0   0.0   16.666666666666668
150.0   30.0   16.666666666666668
150.0   0.0   16.666666666666668
150.0   0.0   0.0
100.0   0.0   16.666666666666668
150.0   30.0   16.666666666666668
150.0   0.0   0.0
100.0   30.0   0.0
100.0   0.0   16.666666666666668
150.0   0.0   16.666666666666668
100.0   30.0   16.666666666666668
100.0   0.0   33.333333333333336
150.0   0.0   16.666666666666668
150.0   30.0   16.666666666666668
100.0   30.0   16.666666666666668
150.0   30.0   33.333333333333336
100.0   0.0   33.333333333333336
100.0   30.0   33.333333333333336
150.0   30.0   33.333333333333336
100.0   30.0   16.666666666666668
100.0   0.0   33.333333333333336
150.0   30.0   33.333333333333336
150.0   0.0   33.333333333333336
150.0   0.0   16.666666666666668
100.0   0.0   33.333333333333336
150.0   30.0   33.333333333333336
150.0   0.0   16.666666666666668
100.0   30.0   16.666666666666668
100.0   0.0   33.333333333333336
150.0   0.0   33.333333333333336
100.0   30.0   33.333333333333336
100.0   0.0   50.0
150.0   0.0   33.333333333333336
150.0   30.0   33.333333333333336
100.0   30.0   33.333333333333336
150.0   30.0   50.0
100.0   0.0   50.0
100.0   30.0   50.0
150.0   30.0   50.0
100.0   30.0   33.333333333333336
100.0   0.0   50.0
150.0   30.0   50.0
150.0   0.0   50.0
150.0   0.0   33.333333333333336
100.0   0.0   50.0
150.0   30.0   50.0
150.0   0.0   33.333333333333336
100.0   30.0   33.333333333333336
100.0   30.0   0.0
150.0   30.0   0.0
100.0   60.0   0.0
100.0   30.0   16.666666666666668
150.0   30.0   0.0
150.0   60.0   0.0
100.0   60.0   0.0
150.0   60.0   16.666666666666668
100.0   30.0   16.666666666666668
100.0   60.0   16.666666666666668
150.0   60.0   16.666666666666668
100.0   60.0   0.0
100.0   30.0   16.666666666666668
150.0   60.0   16.666666666666668
150.0   30.0   16.666666666666668
150.0   30.0   0.0
100.0   30.0   16.666666666666668
150.0   60.0   16.666666666666668
150.0   30.0   0.0
100.0   60.0   0.0
100.0   30.0   16.666666666666668
150.0   30.0   16.666666666666668
100.0   60.0   16.666666666666668
100.0   30.0   33.333333333333336
150.0   30.0   16.666666666666668
150.0   60.0   16.666666666666668
100.0   60.0   16.666666666666668
150.0   60.0   33.333333333333336
100.0   30.0   33.333333333333336
100.0   60.0   33.333333333333336
150.0   60.0   33.333333333333336
100.0   60.0   16.666666666666668
100.0   30.0   33.333333333333336
150.0   60.0   33.333333333333336
150.0   30.0   33.333333333333336
150.0   30.0   16.666666666666668
100.0   30.0   33.333333333333336
150.0   60.0   33.333333333333336
150.0   30.0   16.666666666666668
100.0   60.0   16.666666666666668
100.0   30.0   33.333333333333336
150.0   30.0   33.333333333333336
100.0   60.0   33.333333333333336
100.0   30.0   50.0
150.0   30.0   33.333333333333336
150.0   60.0   33.333333333333336
100.0   60.0   33.333333333333336
150.0   60.0   50.0
100.0   30.0   50.0
100.0   60.0   50.0
150.0   60.0   50.0
100.0   60.0   33.333333333333336
100.0   30.0   50.0
150.0   60.0   50.0
150.0   30.0   50.0
150.0   30.0   33.333333333333336
100.0   30.0   50.0
150.0   60.0   50.0
150.0   30.0   33.333333333333336
100.0   60.0   33.333333333333336
100.0   60.0   0.0
150.0   60.0   0.0
100.0   90.0   0.0
100.0   60.0   16.666666666666668
150.0   60.0   0.0
150.0   90.0   0.0
100.0   90.0   0.0
150.0   90.0   16.666666666666668
100.0   60.0   16.666666666666668
100.0   90.0   16.666666666666668
150.0   90.0   16.666666666666668
100.0   90.0   0.0
100.0   60.0   16.666666666666668
150.0   90.0   16.666666666666668
150.0   60.0   16.666666666666668
150.0   60.0   0.0
100.0   60.0   16.666666666666668
150.0   90.0   16.666666666666668
150.0   60.0   0.0
100.0   90.0   0.0
100.0   60.0   16.666666666666668
150.0   60.0   16.666666666666668
100.0   90.0   16.666666666666668
100.0   60.0   33.333333333333336
150.0   60.0   16.666666666666668
150.0   90.0   16.666666666666668
100.0   90.0   16.666666666666668
150.0   90.0   33.333333333333336
100.0   60.0   33.333333333333336
100.0   90.0   33.333333333333336
150.0   90.0   33.333333333333336
100.0   90.0   16.666666666666668
100.0   60.0   33.333333333333336
150.0   90.0   33.333333333333336
150.0   60.0   33.333333333333336
150.0   60.0   16.666666666666668
100.0   60.0   33.333333333333336
150.0   90.0   33.333333333333336
150.0   60.0   16.666666666666668
100.0   90.0   16.666666666666668
100.0   60.0   33.333333333333336
150.0   60.0   33.333333333333336
100.0   90.0   33.333333333333336
100.0   60.0   50.0
150.0   60.0   33.333333333333336
150.0   90.0   33.333333333333336
100.0   90.0   33.333333333333336
150.0   90.0   50.0
100.0   60.0   50.0
100.0   90.0   50.0
150.0   90.0   50.0
100.0   90.0   33.333333333333336
100.0   60.0   50.0
150.0   90.0   50.0
150.0   60.0   50.0
150.0   60.0   33.333333333333336
100.0   60.0   50.0
150.0   90.0   50.0
150.0   60.0   33.333333333333336
100.0   90.0   33.333333333333336
100.0   90.0   0.0
150.0   90.0   0.0
100.0   120.0   0.0
100.0   90.0   16.666666666666668
150.0   90.0   0.0
150.0   120.0   0.0
100.0   120.0   0.0
150.0   120.0   16.666666666666668
100.0   90.0   16.666666666666668
100.0   120.0   16.666666666666668
150.0   120.0   16.666666666666668
100.0   120.0   0.0
100.0   90.0   16.666666666666668
150.0   120.0   16.666666666666668
150.0   90.0   16.666666666666668
150.0   90.0   0.0
100.0   90.0   16.666666666666668
150.0   120.0   16.666666666666668
150.0   90.0   0.0
100.0   120.0   0.0
100.0   90.0   16.666666666666668
150.0   90.0   16.666666666666668
100.0   120.0   16.666666666666668
100.0   90.0   33.333333333333336
150.0   90.0   16.666666666666668
150.0   120.0   16.666666666666668
100.0   120.0   16.666666666666668
150.0   120.0   33.333333333333336
100.0   90.0   33.333333333333336
100.0   120.0   33.333333333333336
150.0   120.0   33.333333333333336
100.0   120.0   16.666666666666668
100.0   90.0   33.333333333333336
150.0   120.0   33.333333333333336
150.0   90.0   33.333333333333336
150.0   90.0   16.666666666666668
100.0   90.0   33.333333333333336
150.0   120.0   33.333333333333336
150.0   90.0   16.666666666666668
100.0   120.0   16.666666666666668
100.0   90.0   33.333333333333336
150.0   90.0   33.333333333333336
100.0   120.0   33.333333333333336
100.0   90.0   50.0
150.0   90.0   33.333333333333336
150.0   120.0   33.333333333333336
100.0   120.0   33.333333333333336
150.0   120.0   50.0
100.0   90.0   50.0
100.0   120.0   50.0
150.0   120.0   50.0
100.0   120.0   33.333333333333336
100.0   90.0   50.0
150.0   120.0   50.0
150.0   90.0   50.0
150.0   90.0   33.333333333333336
100.0   90.0   50.0
150.0   120.0   50.0
150.0   90.0   33.333333333333336
100.0   120.0   33.333333333333336
100.0   120.0   0.0
150.0   120.0   0.0
100.0   150.0   0.0
100.0   120.0   16.666666666666668
150.0   120.0   0.0
150.0   150.0   0.0
100.0   150.0   0.0
150.0   150.0   16.666666666666668
100.0   120.0   16.666666666666668
100.0   150.0   16.666666666666668
150.0   150.0   16.666666666666668
100.0   150.0   0.0
100.0   120.0   16.666666666666668
150.0   150.0   16.666666666666668
150.0   120.0   16.666666666666668
150.0   120.0   0.0
100.0   120.0   16.666666666666668
150.0   150.0   16.666666666666668
150.0   120.0   0.0
100.0   150.0   0.0
100.0   120.0   16.666666666666668
150.0   120.0   16.666666666666668
100.0   150.0   16.666666666666668
100.0   120.0   33.333333333333336
150.0   120.0   16.666666666666668
150.0   150.0   16.666666666666668
100.0   150.0   16.666666666666668
150.0   150.0   33.333333333333336
100.0   120.0   33.333333333333336
100.0   150.0   33.333333333333336
150.0   150.0   33.333333333333336
100.0   150.0   16.666666666666668
100.0   120.0   33.333333333333336
150.0   150.0   33.333333333333336
150.0   120.0   33.333333333333336
150.0   120.0   16.666666666666668
100.0   120.0   33.333333333333336
150.0   150.0   33.333333333333336
150.0   120.0   16.666666666666668
100.0   150.0   16.666666666666668
100.0   120.0   33.333333333333336
150.0   120.0   33.333333333333336
100.0   150.0   33.333333333333336
100.0   120.0   50.0
150.0   120.0   33.333333333333336
150.0   150.0   33.333333333333336
100.0   150.0   33.333333333333336
150.0   150.0   50.0
100.0   120.0   50.0
100.0   150.0   50.0
150.0   150.0   50.0
100.0   150.0   33.333333333333336
100.0   120.0   50.0
150.0   150.0   50.0
150.0   120.0   50.0
150.0   120.0   33.333333333333336
100.0   120.0   50.0
150.0   150.0   50.0
150.0   120.0   33.333333333333336
100.0   150.0   33.333333333333336
150.0   0.0   0.0
200.0   0.0   0.0
150.0   30.0   0.0
150.0   0.0   16.666666666666668
200.0   0.0   0.0
200.0   30.0   0.0
150.0   30.0   0.0
200.0   30.0   16.666666666666668
150.0   0.0   16.666666666666668
150.0   30.0   16.666666666666668
200.0   30.0   16.666666666666668
150.0   30.0   0.0
150.0   0.0   16.666666666666668
200.0   30.0   16.666666666666668
200.0   0.0   16.666666666666668
200.0   0.0   0.0
150.0   0.0   16.666666666666668
200.0   30.0   16.666666666666668
200.0   0.0   0.0
150.0   30.0   0.0
150.0   0.0   16.666666666666668
200.0   0.0   16.666666666666668
150.0   30.0   16.666666666666668
150.0   0.0   33.333333333333336
200.0   0.0   16.666666666666668
200.0   30.0   16.666666666666668
150.0   30.0   16.666666666666668
200.0   30.0   33.333333333333336
150.0   0.0   33.333333333333336
150.0   30.0   33.333333333333336
200.0   30.0   33.333333333333336
150.0   30.0   16.666666666666668
150.0   0.0   33.333333333333336
200.0   30.0   33.333333333333336
200.0   0.0   33.333333333333336
200.0   0.0   16.666666666666668
150.0   0.0   33.333333333333336
200.0   30.0   33.333333333333336
200.0   0.0   16.666666666666668
150.0   30.0   16.666666666666668
150.0   0.0   33.333333333333336
200.0   0.0   33.333333333333336
150.0   30.0   33.333333333333336
150.0   0.0   50.0
200.0   0.0   33.333333333333336
200.0   30.0   33.333333333333336
150.0   30.0   33.333333333333336
200.0   30.0   50.0
150.0   0.0   50.0
150.0   30.0   50.0
200.0   30.0   50.0
150.0   30.0   33.333333333333336
150.0   0.0   50.0
200.0   30.0   50.0
200.0   0.0   50.0
200.0   0.0   33.333333333333336
150.0   0.0   50.0
200.0   30.0   50.0
200.0   0.0   33.333333333333336
150.0   30.0   33.333333333333336
150.0   30.0   0.0
200.0   30.0   0.0
150.0   60.0   0.0
150.0   30.0   16.666666666666668
200.0   30.0   0.0
200.0   60.0   0.0
150.0   60.0   0.0
200.0   60.0   16.666666666666668
150.0   30.0   16.666666666666668
150.0   60.0   16.666666666666668
200.0   60.0   16.666666666666668
150.0   60.0   0.0
150.0   30.0   16.666666666666668
200.0   60.0   16.666666666666668
200.0   30.0   16.666666666666668
200.0   30.0   0.0
150.0   30.0   16.666666666666668
200.0   60.0   16.666666666666668
200.0   30.0   0.0
150.0   60.0   0.0
150.0   30.0   16.666666666666668
200.0   30.0   16.666666666666668
150.0   60.0   16.666666666666668
150.0   30.0   33.333333333333336
200.0   30.0   16.666666666666668
200.0   60.0   16.666666666666668
150.0   60.0   16.666666666666668
200.0   60.0   33.333333333333336
150.0   30.0   33.333333333333336
150.0   60.0   33.333333333333336
200.0   60.0   33.333333333333336
150.0   60.0   16.666666666666668
150.0   30.0   33.333333333333336
200.0   60.0   33.333333333333336
200.0   30.0   33.333333333333336
200.0   30.0   16.666666666666668
150.0   30.0   33.333333333333336
200.0   60.0   33.333333333333336
200.0   30.0   16.666666666666668
150.0   60.0   16.666666666666668
150.0   30.0   33.333333333333336
200.0   30.0   33.333333333333336
150.0   60.0   33.333333333333336
150.0   30.0   50.0
200.0   30.0   33.333333333333336
200.0   60.0   33.333333333333336
150.0   60.0   33.333333333333336
200.0   60.0   50.0
150.0   30.0   50.0
150.0   60.0   50.0
200.0   60.0   50.0
150.0   60.0   33.333333333333336
150.0   30.0   50.0
200.0   60.0   50.0
200.0   30.0   50.0
200.0   30.0   33.333333333333336
150.0   30.0   50.0
200.0   60.0   50.0
200.0   30.0   33.333333333333336
150.0   60.0   33.333333333333336
150.0   60.0   0.0
200.0   60.0   0.0
150.0   90.0   0.0
150.0   60.0   16.666666666666668
200.0   60.0   0.0
200.0   90.0   0.0
150.0   90.0   0.0
200.0   90.0   16.666666666666668
150.0   60.0   16.666666666666668
150.0   90.0   16.666666666666668
200.0   90.0   16.666666666666668
150.0   90.0   0.0
150.0   60.0   16.666666666666668
200.0   90.0   16.666666666666668
200.0   60.0   16.666666666666668
200.0   60.0   0.0
150.0   60.0   16.666666666666668
200.0   90.0   16.666666666666668
200.0   60.0   0.0
150.0   90.0   0.0
150.0   60.0   16.666666666666668
200.0   60.0   16.666666666666668
150.0   90.0   16.666666666666668
150.0   60.0   33.333333333333336
200.0   60.0   16.666666666666668
200.0   90.0   16.666666666666668
150.0   90.0   16.666666666666668
200.0   90.0   33.333333333333336
150.0   60.0   33.333333333333336
150.0   90.0   33.333333333333336
200.0   90.0   33.333333333333336
150.0   90.0   16.666666666666668
150.0   60.0   33.333333333333336
200.0   90.0   33.333333333333336
200.0   60.0   33.333333333333336
200.0   60.0   16.666666666666668
150.0   60.0   33.333333333333336
200.0   90.0   33.333333333333336
200.0   60.0   16.666666666666668
150.0   90.0   16.666666666666668
150.0   60.0   33.333333333333336
200.0   60.0   33.333333333333336
150.0   90.0   33.333333333333336
150.0   60.0   50.0
200.0   60.0   33.333333333333336
200.0   90.0   33.333333333333336
150.0   90.0   33.333333333333336
200.0   90.0   50.0
150.0   60.0   50.0
150.0   90.0   50.0
200.0   90.0   50.0
150.0   90.0   33.333333333333336
150.0   60.0   50.0
200.0   90.0   50.0
200.0   60.0   50.0
200.0   60.0   33.333333333333336
150.0   60.0   50.0
200.0   90.0   50.0
200.0   60.0   33.333333333333336
150.0   90.0   33.333333333333336
150.0   90.0   0.0
200.0   90.0   0.0
150.0   120.0   0.0
150.0   90.0   16.666666666666668
200.0   90.0   0.0
200.0   120.0   0.0
150.0   120.0   0.0
200.0   120.0   16.666666666666668
150.0   90.0   16.666666666666668
150.0   120.0   16.666666666666668
200.0   120.0   16.666666666666668
150.0   120.0   0.0
150.0   90.0   16.666666666666668
200.0   120.0   16.666666666666668
200.0   90.0   16.666666666666668
200.0   90.0   0.0
150.0   90.0   16.666666666666668
200.0   120.0   16.666666666666668
200.0   90.0   0.0
150.0   120.0   0.0
150.0   90.0   16.666666666666668
200.0   90.0   16.666666666666668
150.0   120.0   16.666666666666668
150.0   90.0   33.333333333333336
200.0   90.0   16.666666666666668
200.0   120.0   16.666666666666668
150.0   120.0   16.666666666666668
200.0   120.0   33.333333333333336
150.0   90.0   33.333333333333336
150.0   120.0   33.333333333333336
200.0   120.0   33.333333333333336
150.0   120.0   16.666666666666668
150.0   90.0   33.333333333333336
200.0   120.0   33.333333333333336
200.0   90.0   33.333333333333336
200.0   90.0   16.666666666666668
150.0   90.0   33.333333333333336
200.0   120.0   33.333333333333336
200.0   90.0   16.666666666666668
150.0   120.0   16.666666666666668
150.0   90.0   33.333333333333336
200.0   90.0   33.333333333333336
150.0   120.0   33.333333333333336
150.0   90.0   50.0
200.0   90.0   33.333333333333336
200.0   120.0   33.333333333333336
150.0   120.0   33.333333333333336
200.0   120.0   50.0
150.0   90.0   50.0
150.0   120.0   50.0
200.0   120.0   50.0
150.0   120.0   33.333333333333336
150.0   90.0   50.0
200.0   120.0   50.0
200.0   90.0   50.0
200.0   90.0   33.333333333333336
150.0   90.0   50.0
200.0   120.0   50.0
200.0   90.0   33.333333333333336
150.0   120.0   33.333333333333336
150.0   120.0   0.0
200.0   120.0   0.0
150.0   150.0   0.0
150.0   120.0   16.666666666666668
200.0   120.0   0.0
200.0   150.0   0.0
150.0   150.0   0.0
200.0   150.0   16.666666666666668
150.0   120.0   16.666666666666668
150.0   150.0   16.666666666666668
200.0   150.0   16.666666666666668
150.0   150.0   0.0
150.0   120.0   16.666666666666668
200.0   150.0   16.666666666666668
200.0   120.0   16.666666666666668
200.0   120.0   0.0
150.0   120.0   16.666666666666668
200.0   150.0   16.666666666666668
200.0   120.0   0.0
150.0   150.0   0.0
150.0   120.0   16.666666666666668
200.0   120.0   16.666666666666668
150.0   150.0   16.666666666666668
150.0   120.0   33.333333333333336
200.0   120.0   16.666666666666668
200.0   150.0   16.666666666666668
150.0   150.0   16.666666666666668
200.0   150.0   33.333333333333336
150.0   120.0   33.333333333333336
150.0   150.0   33.333333333333336
200.0   150.0   33.333333333333336
150.0   150.0   16.666666666666668
150.0   120.0   33.333333333333336
200.0   150.0   33.333333333333336
200.0   120.0   33.333333333333336
200.0   120.0   16.666666666666668
150.0   120.0   33.333333333333336
200.0   150.0   33.333333333333336
200.0   120.0   16.666666666666668
150.0   150.0   16.666666666666668
150.0   120.0   33.333333333333336
200.0   120.0   33.333333333333336
150.0   150.0   33.333333333333336
150.0   120.0   50.0
200.0   120.0   33.333333333333336
200.0   150.0   33.333333333333336
150.0   150.0   33.333333333333336
200.0   150.0   50.0
150.0   120.0   50.0
150.0   150.0   50.0
200.0   150.0   50.0
150.0   150.0   33.333333333333336
150.0   120.0   50.0
200.0   150.0   50.0
200.0   120.0   50.0
200.0   120.0   33.333333333333336
150.0   120.0   50.0
200.0   150.0   50.0
200.0   120.0   33.333333333333336
150.0   150.0   33.333333333333336
200.0   0.0   0.0
250.0   0.0   0.0
200.0   30.0   0.0
200.0   0.0   16.666666666666668
250.0   0.0   0.0
250.0   30.0   0.0
200.0   30.0   0.0
250.0   30.0   16.666666666666668
200.0   0.0   16.666666666666668
200.0   30.0   16.666666666666668
250.0   30.0   16.666666666666668
200.0   30.0   0.0
200.0   0.0   16.666666666666668
250.0   30.0   16.666666666666668
250.0   0.0   16.666666666666668
250.0   0.0   0.0
200.0   0.0   16.666666666666668
250.0   30.0   16.666666666666668
250.0   0.0   0.0
200.0   30.0   0.0
200.0   0.0   16.666666666666668
250.0   0.0   16.666666666666668
200.0   30.0   16.666666666666668
200.0   0.0   33.333333333333336
250.0   0.0   16.666666666666668
250.0   30.0   16.666666666666668
200.0   30.0   16.666666666666668
250.0   30.0   33.333333333333336
200.0   0.0   33.333333333333336
200.0   30.0   33.333333333333336
250.0   30.0   33.333333333333336
200.0   30.0   16.666666666666668
200.0   0.0   33.333333333333336
250.0   30.0   33.333333333333336
250.0   0.0   33.333333333333336
250.0   0.0   16.666666666666668
200.0   0.0   33.333333333333336
250.0   30.0   33.333333333333336
250.0   0.0   16.666666666666668
200.0   30.0   16.666666666666668
200.0   0.0   33.333333333333336
250.0   0.0   33.333333333333336
200.0   30.0   33.333333333333336
200.0   0.0   50.0
250.0   0.0   33.333333333333336
250.0   30.0   33.333333333333336
200.0   30.0   33.333333333333336
250.0   30.0   50.0
200.0   0.0   50.0
200.0   30.0   50.0
250.0   30.0   50.0
200.0   30.0   33.333333333333336
200.0   0.0   50.0
250.0   30.0   50.0
250.0   0.0   50.0
250.0   0.0   33.333333333333336
200.0   0.0   50.0
250.0   30.0   50.0
250.0   0.0   33.333333333333336
200.0   30.0   33.333333333333336
200.0   30.0   0.0
250.0   30.0   0.0
200.0   60.0   0.0
200.0   30.0   16.666666666666668
250.0   30.0   0.0
250.0   60.0   0.0
200.0   60.0   0.0
250.0   60.0   16.666666666666668
200.0   30.0   16.666666666666668
200.0   60.0   16.666666666666668
250.0   60.0   16.666666666666668
200.0   60.0   0.0
200.0   30.0   16.666666666666668
250.0   60.0   16.666666666666668
250.0   30.0   16.666666666666668
250.0   30.0   0.0
200.0   30.0   16.666666666666668
250.0   60.0   16.666666666666668
250.0   30.0   0.0
200.0   60.0   0.0
200.0   30.0   16.666666666666668
250.0   30.0   16.666666666666668
200.0   60.0   16.666666666666668
200.0   30.0   33.333333333333336
250.0   30.0   16.666666666666668
250.0   60.0   16.666666666666668
200.0   60.0   16.666666666666668
250.0   60.0   33.333333333333336
200.0   30.0   33.333333333333336
200.0   60.0   33.333333333333336
250.0   60.0   33.333333333333336
200.0   60.0   16.666666666666668
200.0   30.0   33.333333333333336
250.0   60.0   33.333333333333336
250.0   30.0   33.333333333333336
250.0   30.0   16.666666666666668
200.0   30.0   33.333333333333336
250.0   60.0   33.333333333333336
250.0   30.0   16.666666666666668
200.0   60.0   16.666666666666668
200.0   30.0   33.333333333333336
250.0   30.0   33.333333333333336
200.0   60.0   33.333333333333336
200.0   30.0   50.0
250.0   30.0   33.333333333333336
250.0   60.0   33.333333333333336
200.0   60.0   33.333333333333336
250.0   60.0   50.0
200.0   30.0   50.0
200.0   60.0   50.0
250.0   60.0   50.0
200.0   60.0   33.333333333333336
200.0   30.0   50.0
250.0   60.0   50.0
250.0   30.0   50.0
250.0   30.0   33.333333333333336
200.0   30.0   50.0
250.0   60.0   50.0
250.0   30.0   33.333333333333336
200.0   60.0   33.333333333333336
200.0   60.0   0.0
250.0   60.0   0.0
200.0   90.0   0.0
200.0   60.0   16.666666666666668
250.0   60.0   0.0
250.0   90.0   0.0
200.0   90.0   0.0
250.0   90.0   16.666666666666668
200.0   60.0   16.666666666666668
200.0   90.0   16.666666666666668
250.0   90.0   16.666666666666668
200.0   90.0   0.0
200.0   60.0   16.666666666666668
250.0   90.0   16.666666666666668
250.0   60.0   16.666666666666668
250.0   60.0   0.0
200.0   60.0   16.666666666666668
250.0   90.0   16.666666666666668
250.0   60.0   0.0
200.0   90.0   0.0
200.0   60.0   16.666666666666668
250.0   60.0   16.666666666666668
200.0   90.0   16.666666666666668
200.0   60.0   33.333333333333336
250.0   60.0   16.666666666666668
250.0   90.0   16.666666666666668
200.0   90.0   16.666666666666668
250.0   90.0   33.333333333333336
200.0   60.0   33.333333333333336
200.0   90.0   33.333333333333336
250.0   90.0   33.333333333333336
200.0   90.0   16.666666666666668
200.0   60.0   33.333333333333336
250.0   90.0   33.333333333333336
250.0   60.0   33.333333333333336
250.0   60.0   16.666666666666668
200.0   60.0   33.333333333333336
250.0   90.0   33.333333333333336
250.0   60.0   16.666666666666668
200.0   90.0   16.666666666666668
200.0   60.0   33.333333333333336
250.0   60.0   33.333333333333336
200.0   90.0   33.333333333333336
200.0   60.0   50.0
250.0   60.0   33.333333333333336
250.0   90.0   33.333333333333336
200.0   90.0   33.333333333333336
250.0   90.0   50.0
200.0   60.0   50.0
200.0   90.0   50.0
250.0   90.0   50.0
200.0   90.0   33.333333333333336
200.0   60.0   50.0
250.0   90.0   50.0
250.0   60.0   50.0
250.0   60.0   33.333333333333336
200.0   60.0   50.0
250.0   90.0   50.0
250.0   60.0   33.333333333333336
200.0   90.0   33.333333333333336
200.0   90.0   0.0
250.0   90.0   0.0
200.0   120.0   0.0
200.0   90.0   16.666666666666668
250.0   90.0   0.0
250.0   120.0   0.0
200.0   120.0   0.0
250.0   120.0   16.666666666666668
200.0   90.0   16.666666666666668
200.0   120.0   16.666666666666668
250.0   120.0   16.666666666666668
200.0   120.0   0.0
200.0   90.0   16.666666666666668
250.0   120.0   16.666666666666668
250.0   90.0   16.666666666666668
250.0   90.0   0.0
200.0   90.0   16.666666666666668
250.0   120.0   16.666666666666668
250.0   90.0   0.0
200.0   120.0   0.0
200.0   90.0   16.666666666666668
250.0   90.0   16.666666666666668
200.0   120.0   16.666666666666668
200.0   90.0   33.333333333333336
250.0   90.0   16.666666666666668
250.0   120.0   16.666666666666668
200.0   120.0   16.666666666666668
250.0   120.0   33.333333333333336
200.0   90.0   33.333333333333336
200.0   120.0   33.333333333333336
250.0   120.0   33.333333333333336
200.0   120.0   16.666666666666668
200.0   90.0   33.333333333333336
250.0   120.0   33.333333333333336
250.0   90.0   33.333333333333336
250.0   90.0   16.666666666666668
200.0   90.0   33.333333333333336
250.0   120.0   33.333333333333336
250.0   90.0   16.666666666666668
200.0   120.0   16.666666666666668
200.0   90.0   33.333333333333336
250.0   90.0   33.333333333333336
200.0   120.0   33.333333333333336
200.0   90.0   50.0
250.0   90.0   33.333333333333336
250.0   120.0   33.333333333333336
200.0   120.0   33.333333333333336
250.0   120.0   50.0
200.0   90.0   50.0
200.0   120.0   50.0
250.0   120.0   50.0
200.0   120.0   33.333333333333336
200.0   90.0   50.0
250.0   120.0   50.0
250.0   90.0   50.0
250.0   90.0   33.333333333333336
200.0   90.0   50.0
250.0   120.0   50.0
250.0   90.0   33.333333333333336
200.0   120.0   33.333333333333336
200.0   120.0   0.0
250.0   120.0   0.0
200.0   150.0   0.0
200.0   120.0   16.666666666666668
250.0   120.0   0.0
250.0   150.0   0.0
200.0   150.0   0.0
250.0   150.0   16.666666666666668
200.0   120.0   16.666666666666668
200.0   150.0   16.666666666666668
250.0   150.0   16.666666666666668
200.0   150.0   0.0
200.0   120.0   16.666666666666668
250.0   150.0   16.666666666666668
250.0   120.0   16.666666666666668
250.0   120.0   0.0
200.0   120.0   16.666666666666668
250.0   150.0   16.666666666666668
250.0   120.0   0.0
200.0   150.0   0.0
200.0   120.0   16.666666666666668
250.0   120.0   16.666666666666668
200.0   150.0   16.666666666666668
200.0   120.0   33.333333333333336
250.0   120.0   16.666666666666668
250.0   150.0   16.666666666666668
200.0   150.0   16.666666666666668
250.0   150.0   33.333333333333336
200.0   120.0   33.333333333333336
200.0   150.0   33.333333333333336
250.0   150.0   33.333333333333336
200.0   150.0   16.666666666666668
200.0   120.0   33.333333333333336
250.0   150.0   33.333333333333336
250.0   120.0   33.333333333333336
250.0   120.0   16.666666666666668
200.0   120.0   33.333333333333336
250.0   150.0   33.333333333333336
250.0   120.0   16.666666666666668
200.0   150.0   16.666666666666668
200.0   120.0   33.333333333333336
250.0   120.0   33.333333333333336
200.0   150.0   33.333333333333336
200.0   120.0   50.0
250.0   120.0   33.333333333333336
250.0   150.0   33.333333333333336
200.0   150.0   33.333333333333336
250.0   150.0   50.0
200.0   120.0   50.0
200.0   150.0   50.0
250.0   150.0   50.0
200.0   150.0   33.333333333333336
200.0   120.0   50.0
250.0   150.0   50.0
250.0   120.0   50.0
250.0   120.0   33.333333333333336
200.0   120.0   50.0
250.0   150.0   50.0
250.0   120.0   33.333333333333336
200.0   150.0   33.333333333333336
250.0   0.0   0.0
300.0   0.0   0.0
250.0   30.0   0.0
250.0   0.0   16.666666666666668
300.0   0.0   0.0
300.0   30.0   0.0
250.0   30.0   0.0
300.0   30.0   16.666666666666668
250.0   0.0   16.666666666666668
250.0   30.0   16.666666666666668
300.0   30.0   16.666666666666668
250.0   30.0   0.0
250.0   0.0   16.666666666666668
300.0   30.0   16.666666666666668
300.0   0.0   16.666666666666668
300.0   0.0   0.0
250.0   0.0   16.666666666666668
300.0   30.0   16.666666666666668
300.0   0.0   0.0
250.0   30.0   0.0
250.0   0.0   16.666666666666668
300.0   0.0   16.666666666666668
250.0   30.0   16.666666666666668
250.0   0.0   33.333333333333336
300.0   0.0   16.666666666666668
300.0   30.0   16.666666666666668
250.0   30.0   16.666666666666668
300.0   30.0   33.333333333333336
250.0   0.0   33.333333333333336
250.0   30.0   33.333333333333336
300.0   30.0   33.333333333333336
250.0   30.0   16.666666666666668
250.0   0.0   33.333333333333336
300.0   30.0   33.333333333333336
300.0   0.0   33.333333333333336
300.0   0.0   16.666666666666668
250.0   0.0   33.333333333333336
300.0   30.0   33.333333333333336
300.0   0.0   16.666666666666668
250.0   30.0   16.666666666666668
250.0   0.0   33.333333333333336
300.0   0.0   33.333333333333336
250.0   30.0   33.333333333333336
250.0   0.0   50.0
300.0   0.0   33.333333333333336
300.0   30.0   33.333333333333336
250.0   30.0   33.333333333333336
300.0   30.0   50.0
250.0   0.0   50.0
250.0   30.0   50.0
300.0   30.0   50.0
250.0   30.0   33.333333333333336
250.0   0.0   50.0
300.0   30.0   50.0
300.0   0.0   50.0
300.0   0.0   33.333333333333336
250.0   0.0   50.0
300.0   30.0   50.0
300.0   0.0   33.333333333333336
250.0   30.0   33.333333333333336
250.0   30.0   0.0
300.0   30.0   0.0
250.0   60.0   0.0
250.0   30.0   16.666666666666668
300.0   30.0   0.0
300.0   60.0   0.0
250.0   60.0   0.0
300.0   60.0   16.666666666666668
250.0   30.0   16.666666666666668
250.0   60.0   16.666666666666668
300.0   60.0   16.666666666666668
250.0   60.0   0.0
250.0   30.0   16.666666666666668
300.0   60.0   16.666666666666668
300.0   30.0   16.666666666666668
300.0   30.0   0.0
250.0   30.0   16.666666666666668
300.0   60.0   16.666666666666668
300.0   30.0   0.0
250.0   60.0   0.0
250.0   30.0   16.666666666666668
300.0   30.0   16.666666666666668
250.0   60.0   16.666666666666668
250.0   30.0   33.333333333333336
300.0   30.0   16.666666666666668
300.0   60.0   16.666666666666668
250.0   60.0   16.666666666666668
300.0   60.0   33.333333333333336
250.0   30.0   33.333333333333336
250.0   60.0   33.333333333333336
300.0   60.0   33.333333333333336
250.0   60.0   16.666666666666668
250.0   30.0   33.333333333333336
300.0   60.0   33.333333333333336
300.0   30.0   33.333333333333336
300.0   30.0   16.666666666666668
250.0   30.0   33.333333333333336
300.0   60.0   33.333333333333336
300.0   30.0   16.666666666666668
250.0   60.0   16.666666666666668
250.0   30.0   33.333333333333336
300.0   30.0   33.333333333333336
250.0   60.0   33.333333333333336
250.0   30.0   50.0
300.0   30.0   33.333333333333336
300.0   60.0   33.333333333333336
250.0   60.0   33.333333333333336
300.0   60.0   50.0
250.0   30.0   50.0
250.0   60.0   50.0
300.0   60.0   50.0
250.0   60.0   33.333333333333336
250.0   30.0   50.0
300.0   60.0   50.0
300.0   30.0   50.0
300.0   30.0   33.333333333333336
250.0   30.0   50.0
300.0   60.0   50.0
300.0   30.0   33.333333333333336
250.0   60.0   33.333333333333336
250.0   60.0   0.0
300.0   60.0   0.0
250.0   90.0   0.0
250.0   60.0   16.666666666666668
300.0   60.0   0.0
300.0   90.0   0.0
250.0   90.0   0.0
300.0   90.0   16.666666666666668
250.0   60.0   16.666666666666668
250.0   90.0   16.666666666666668
300.0   90.0   16.666666666666668
250.0   90.0   0.0
250.0   60.0   16.666666666666668
300.0   90.0   16.666666666666668
300.0   60.0   16.666666666666668
300.0   60.0   0.0
250.0   60.0   16.666666666666668
300.0   90.0   16.666666666666668
300.0   60.0   0.0
250.0   90.0   0.0
250.0   60.0   16.666666666666668
300.0   60.0   16.666666666666668
250.0   90.0   16.666666666666668
250.0   60.0   33.333333333333336
300.0   60.0   16.666666666666668
300.0   90.0   16.666666666666668
250.0   90.0   16.666666666666668
300.0   90.0   33.333333333333336
250.0   60.0   33.333333333333336
250.0   90.0   33.333333333333336
300.0   90.0   33.333333333333336
250.0   90.0   16.666666666666668
250.0   60.0   33.333333333333336
300.0   90.0   33.333333333333336
300.0   60.0   33.333333333333336
300.0   60.0   16.666666666666668
250.0   60.0   33.333333333333336
300.0   90.0   33.333333333333336
300.0   60.0   16.666666666666668
250.0   90.0   16.666666666666668
250.0   60.0   33.333333333333336
300.0   60.0   33.333333333333336
250.0   90.0   33.333333333333336
250.0   60.0   50.0
300.0   60.0   33.333333333333336
300.0   90.0   33.333333333333336
250.0   90.0   33.333333333333336
300.0   90.0   50.0
250.0   60.0   50.0
250.0   90.0   50.0
300.0   90.0   50.0
250.0   90.0   33.333333333333336
250.0   60.0   50.0
300.0   90.0   50.0
300.0   60.0   50.0
300.0   60.0   33.333333333333336
250.0   60.0   50.0
300.0   90.0   50.0
300.0   60.0   33.333333333333336
250.0   90.0   33.333333333333336
250.0   90.0   0.0
300.0   90.0   0.0
250.0   120.0   0.0
250.0   90.0   16.666666666666668
300.0   90.0   0.0
300.0   120.0   0.0
250.0   120.0   0.0
300.0   120.0   16.666666666666668
250.0   90.0   16.666666666666668
250.0   120.0   16.666666666666668
300.0   120.0   16.666666666666668
250.0   120.0   0.0
250.0   90.0   16.666666666666668
300.0   120.0   16.666666666666668
300.0   90.0   16.666666666666668
300.0   90.0   0.0
250.0   90.0   16.666666666666668
300.0   120.0   16.666666666666668
300.0   90.0   0.0
250.0   120.0   0.0
250.0   90.0   16.666666666666668
300.0   90.0   16.666666666666668
250.0   120.0   16.666666666666668
250.0   90.0   33.333333333333336
300.0   90.0   16.666666666666668
300.0   120.0   16.666666666666668
250.0   120.0   16.666666666666668
300.0   120.0   33.333333333333336
250.0   90.0   33.333333333333336
250.0   120.0   33.333333333333336
300.0   120.0   33.333333333333336
250.0   120.0   16.666666666666668
250.0   90.0   33.333333333333336
300.0   120.0   33.333333333333336
300.0   90.0   33.333333333333336
300.0   90.0   16.666666666666668
250.0   90.0   33.333333333333336
300.0   120.0   33.333333333333336
300.0   90.0   16.666666666666668
250.0   120.0   16.666666666666668
250.0   90.0   33.333333333333336
300.0   90.0   33.333333333333336
250.0   120.0   33.333333333333336
250.0   90.0   50.0
300.0   90.0   33.333333333333336
300.0   120.0   33.333333333333336
250.0   120.0   33.333333333333336
300.0   120.0   50.0
250.0   90.0   50.0
250.0   120.0   50.0
300.0   120.0   50.0
250.0   120.0   33.333333333333336
250.0   90.0   50.0
300.0   120.0   50.0
300.0   90.0   50.0
300.0   90.0   33.333333333333336
250.0   90.0   50.0
300.0   120.0   50.0
300.0   90.0   33.333333333333336
250.0   120.0   33.333333333333336
250.0   120.0   0.0
300.0   120.0   0.0
250.0   150.0   0.0
250.0   120.0   16.666666666666668
300.0   120.0   0.0
300.0   150.0   0.0
250.0   150.0   0.0
300.0   150.0   16.666666666666668
250.0   120.0   16.666666666666668
250.0   150.0   16.666666666666668
300.0   150.0   16.666666666666668
250.0   150.0   0.0
250.0   120.0   16.666666666666668
300.0   150.0   16.666666666666668
300.0   120.0   16.666666666666668
300.0   120.0   0.0
250.0   120.0   16.666666666666668
300.0   150.0   16.666666666666668
300.0   120.0   0.0
250.0   150.0   0.0
250.0   120.0   16.666666666666668
300.0   120.0   16.666666666666668
250.0   150.0   16.666666666666668
250.0   120.0   33.333333333333336
300.0   120.0   16.666666666666668
300.0   150.0   16.666666666666668
250.0   150.0   16.666666666666668
300.0   150.0   33.333333333333336
250.0   120.0   33.333333333333336
250.0   150.0   33.333333333333336
300.0   150.0   33.333333333333336
250.0   150.0   16.666666666666668
250.0   120.0   33.333333333333336
300.0   150.0   33.333333333333336
300.0   120.0   33.333333333333336
300.0   120.0   16.666666666666668
250.0   120.0   33.333333333333336
300.0   150.0   33.333333333333336
300.0   120.0   16.666666666666668
250.0   150.0   16.666666666666668
250.0   120.0   33.333333333333336
300.0   120.0   33.333333333333336
250.0   150.0   33.333333333333336
250.0   120.0   50.0
300.0   120.0   33.333333333333336
300.0   150.0   33.333333333333336
250.0   150.0   33.333333333333336
300.0   150.0   50.0
250.0   120.0   50.0
250.0   150.0   50.0
300.0   150.0   50.0
250.0   150.0   33.333333333333336
250.0   120.0   50.0
300.0   150.0   50.0
300.0   120.0   50.0
300.0   120.0   33.333333333333336
250.0   120.0   50.0
300.0   150.0   50.0
300.0   120.0   33.333333333333336
250.0   150.0   33.333333333333336
300.0   0.0   0.0
350.0   0.0   0.0
300.0   30.0   0.0
300.0   0.0   16.666666666666668
350.0   0.0   0.0
350.0   30.0   0.0
300.0   30.0   0.0
350.0   30.0   16.666666666666668
300.0   0.0   16.666666666666668
300.0   30.0   16.666666666666668
350.0   30.0   16.666666666666668
300.0   30.0   0.0
300.0   0.0   16.666666666666668
350.0   30.0   16.666666666666668
350.0   0.0   16.666666666666668
350.0   0.0   0.0
300.0   0.0   16.666666666666668
350.0   30.0   16.666666666666668
350.0   0.0   0.0
300.0   30.0   0.0
300.0   0.0   16.666666666666668
350.0   0.0   16.666666666666668
300.0   30.0   16.666666666666668
300.0   0.0   33.333333333333336
350.0   0.0   16.666666666666668
350.0   30.0   16.666666666666668
300.0   30.0   16.666666666666668
350.0   30.0   33.333333333333336
300.0   0.0   33.333333333333336
300.0   30.0   33.333333333333336
350.0   30.0   33.333333333333336
300.0   30.0   16.666666666666668
300.0   0.0   33.333333333333336
350.0   30.0   33.333333333333336
350.0   0.0   33.333333333333336
350.0   0.0   16.666666666666668
300.0   0.0   33.333333333333336
350.0   30.0   33.333333333333336
350.0   0.0   16.666666666666668
300.0   30.0   16.666666666666668
300.0   0.0   33.333333333333336
350.0   0.0   33.333333333333336
300.0   30.0   33.333333333333336
300.0   0.0   50.0
350.0   0.0   33.333333333333336
350.0   30.0   33.333333333333336
300.0   30.0   33.333333333333336
350.0   30.0   50.0
300.0   0.0   50.0
300.0   30.0   50.0
350.0   30.0   50.0
300.0   30.0   33.333333333333336
300.0   0.0   50.0
350.0   30.0   50.0
350.0   0.0   50.0
350.0   0.0   33.333333333333336
300.0   0.0   50.0
350.0   30.0   50.0
350.0   0.0   33.333333333333336
300.0   30.0   33.333333333333336
300.0   30.0   0.0
350.0   30.0   0.0
300.0   60.0   0.0
300.0   30.0   16.666666666666668
350.0   30.0   0.0
350.0   60.0   0.0
300.0   60.0   0.0
350.0   60.0   16.666666666666668
300.0   30.0   16.666666666666668
300.0   60.0   16.666666666666668
350.0   60.0   16.666666666666668
300.0   60.0   0.0
300.0   30.0   16.666666666666668
350.0   60.0   16.666666666666668
350.0   30.0   16.666666666666668
350.0   30.0   0.0
300.0   30.0   16.666666666666668
350.0   60.0   16.666666666666668
350.0   30.0   0.0
300.0   60.0   0.0
300.0   30.0   16.666666666666668
350.0   30.0   16.666666666666668
300.0   60.0   16.666666666666668
300.0   30.0   33.333333333333336
350.0   30.0   16.666666666666668
350.0   60.0   16.666666666666668
300.0   60.0   16.666666666666668
350.0   60.0   33.333333333333336
300.0   30.0   33.333333333333336
300.0   60.0   33.333333333333336
350.0   60.0   33.333333333333336
300.0   60.0   16.666666666666668
300.0   30.0   33.333333333333336
350.0   60.0   33.333333333333336
350.0   30.0   33.333333333333336
350.0   30.0   16.666666666666668
300.0   30.0   33.333333333333336
350.0   60.0   33.333333333333336
350.0   30.0   16.666666666666668
300.0   60.0   16.666666666666668
300.0   30.0   33.333333333333336
350.0   30.0   33.333333333333336
300.0   60.0   33.333333333333336
300.0   30.0   50.0
350.0   30.0   33.333333333333336
350.0   60.0   33.333333333333336
300.0   60.0   33.333333333333336
350.0   60.0   50.0
300.0   30.0   50.0
300.0   60.0   50.0
350.0   60.0   50.0
300.0   60.0   33.333333333333336
300.0   30.0   50.0
350.0   60.0   50.0
350.0   30.0   50.0
350.0   30.0   33.333333333333336
300.0   30.0   50.0
350.0   60.0   50.0
350.0   30.0   33.333333333333336
300.0   60.0   33.333333333333336
300.0   60.0   0.0
350.0   60.0   0.0
300.0   90.0   0.0
300.0   60.0   16.666666666666668
350.0   60.0   0.0
350.0   90.0   0.0
300.0   90.0   0.0
350.0   90.0   16.666666666666668
300.0   60.0   16.666666666666668
300.0   90.0   16.666666666666668
350.0   90.0   16.666666666666668
300.0   90.0   0.0
300.0   60.0   16.666666666666668
350.0   90.0   16.666666666666668
350.0   60.0   16.666666666666668
350.0   60.0   0.0
300.0   60.0   16.666666666666668
350.0   90.0   16.666666666666668
350.0   60.0   0.0
300.0   90.0   0.0
300.0   60.0   16.666666666666668
350.0   60.0   16.666666666666668
300.0   90.0   16.666666666666668
300.0   60.0   33.333333333333336
350.0   60.0   16.666666666666668
350.0   90.0   16.666666666666668
300.0   90.0   16.666666666666668
350.0   90.0   33.333333333333336
300.0   60.0   33.333333333333336
300.0   90.0   33.333333333333336
350.0   90.0   33.333333333333336
300.0   90.0   16.666666666666668
300.0   60.0   33.333333333333336
350.0   90.0   33.333333333333336
350.0   60.0   33.333333333333336
350.0   60.0   16.666666666666668
300.0   60.0   33.333333333333336
350.0   90.0   33.333333333333336
350.0   60.0   16.666666666666668
300.0   90.0   16.666666666666668
300.0   60.0   33.333333333333336
350.0   60.0   33.333333333333336
300.0   90.0   33.333333333333336
300.0   60.0   50.0
350.0   60.0   33.333333333333336
350.0   90.0   33.333333333333336
300.0   90.0   33.333333333333336
350.0   90.0   50.0
300.0   60.0   50.0
300.0   90.0   50.0
350.0   90.0   50.0
300.0   90.0   33.333333333333336
300.0   60.0   50.0
350.0   90.0   50.0
350.0   60.0   50.0
350.0   60.0   33.333333333333336
300.0   60.0   50.0
350.0   90.0   50.0
350.0   60.0   33.333333333333336
300.0   90.0   33.333333333333336
300.0   90.0   0.0
350.0   90.0   0.0
300.0   120.0   0.0
300.0   90.0   16.666666666666668
350.0   90.0   0.0
350.0   120.0   0.0
300.0   120.0   0.0
350.0   120.0   16.666666666666668
300.0   90.0   16.666666666666668
300.0   120.0   16.666666666666668
350.0   120.0   16.666666666666668
300.0   120.0   0.0
300.0   90.0   16.666666666666668
350.0   120.0   16.666666666666668
350.0   90.0   16.666666666666668
350.0   90.0   0.0
300.0   90.0   16.666666666666668
350.0   120.0   16.666666666666668
350.0   90.0   0.0
300.0   120.0   0.0
300.0   90.0   16.666666666666668
350.0   90.0   16.666666666666668
300.0   120.0   16.666666666666668
300.0   90.0   33.333333333333336
350.0   90.0   16.666666666666668
350.0   120.0   16.666666666666668
300.0   120.0   16.666666666666668
350.0   120.0   33.333333333333336
300.0   90.0   33.333333333333336
300.0   120.0   33.333333333333336
350.0   120.0   33.333333333333336
300.0   120.0   16.666666666666668
300.0   90.0   33.333333333333336
350.0   120.0   33.333333333333336
350.0   90.0   33.333333333333336
350.0   90.0   16.666666666666668
300.0   90.0   33.333333333333336
350.0   120.0   33.333333333333336
350.0   90.0   16.666666666666668
300.0   120.0   16.666666666666668
300.0   90.0   33.333333333333336
350.0   90.0   33.333333333333336
300.0   120.0   33.333333333333336
300.0   90.0   50.0
350.0   90.0   33.333333333333336
350.0   120.0   33.333333333333336
300.0   120.0   33.333333333333336
350.0   120.0   50.0
300.0   90.0   50.0
300.0   120.0   50.0
350.0   120.0   50.0
300.0   120.0   33.333333333333336
300.0   90.0   50.0
350.0   120.0   50.0
350.0   90.0   50.0
350.0   90.0   33.333333333333336
300.0   90.0   50.0
350.0   120.0   50.0
350.0   90.0   33.333333333333336
300.0   120.0   33.333333333333336
300.0   120.0   0.0
350.0   120.0   0.0
300.0   150.0   0.0
300.0   120.0   16.666666666666668
350.0   120.0   0.0
350.0   150.0   0.0
300.0   150.0   0.0
350.0   150.0   16.666666666666668
300.0   120.0   16.666666666666668
300.0   150.0   16.666666666666668
350.0   150.0   16.666666666666668
300.0   150.0   0.0
300.0   120.0   16.666666666666668
350.0   150.0   16.666666666666668
350.0   120.0   16.666666666666668
350.0   120.0   0.0
300.0   120.0   16.666666666666668
350.0   150.0   16.666666666666668
350.0   120.0   0.0
300.0   150.0   0.0
300.0   120.0   16.666666666666668
350.0   120.0   16.666666666666668
300.0   150.0   16.666666666666668
300.0   120.0   33.333333333333336
350.0   120.0   16.666666666666668
350.0   150.0   16.666666666666668
300.0   150.0   16.666666666666668
350.0   150.0   33.333333333333336
300.0   120.0   33.333333333333336
300.0   150.0   33.333333333333336
350.0   150.0   33.333333333333336
300.0   150.0   16.666666666666668
300.0   120.0   33.333333333333336
350.0   150.0   33.333333333333336
350.0   120.0   33.333333333333336
350.0   120.0   16.666666666666668
300.0   120.0   33.333333333333336
350.0   150.0   33.333333333333336
350.0   120.0   16.666666666666668
300.0   150.0   16.666666666666668
300.0   120.0   33.333333333333336
350.0   120.0   33.333333333333336
300.0   150.0   33.333333333333336
300.0   120.0   50.0
350.0   120.0   33.333333333333336
350.0   150.0   33.333333333333336
300.0   150.0   33.333333333333336
350.0   150.0   50.0
300.0   120.0   50.0
300.0   150.0   50.0
350.0   150.0   50.0
300.0   150.0   33.333333333333336
300.0   120.0   50.0
350.0   150.0   50.0
350.0   120.0   50.0
350.0   120.0   33.333333333333336
300.0   120.0   50.0
350.0   150.0   50.0
350.0   120.0   33.333333333333336
300.0   150.0   33.333333333333336
350.0   0.0   0.0
400.0   0.0   0.0
350.0   30.0   0.0
350.0   0.0   16.666666666666668
400.0   0.0   0.0
400.0   30.0   0.0
350.0   30.0   0.0
400.0   30.0   16.666666666666668
350.0   0.0   16.666666666666668
350.0   30.0   16.666666666666668
400.0   30.0   16.666666666666668
350.0   30.0   0.0
350.0   0.0   16.666666666666668
400.0   30.0   16.666666666666668
400.0   0.0   16.666666666666668
400.0   0.0   0.0
350.0   0.0   16.666666666666668
400.0   30.0   16.666666666666668
400.0   0.0   0.0
350.0   30.0   0.0
350.0   0.0   16.666666666666668
400.0   0.0   16.666666666666668
350.0   30.0   16.666666666666668
350.0   0.0   33.333333333333336
400.0   0.0   16.666666666666668
400.0   30.0   16.666666666666668
350.0   30.0   16.666666666666668
400.0   30.0   33.333333333333336
350.0   0.0   33.333333333333336
350.0   30.0   33.333333333333336
400.0   30.0   33.333333333333336
350.0   30.0   16.666666666666668
350.0   0.0   33.333333333333336
400.0   30.0   33.333333333333336
400.0   0.0   33.333333333333336
400.0   0.0   16.666666666666668
350.0   0.0   33.333333333333336
400.0   30.0   33.333333333333336
400.0   0.0   16.666666666666668
350.0   30.0   16.666666666666668
350.0   0.0   33.333333333333336
400.0   0.0   33.333333333333336
350.0   30.0   33.333333333333336
350.0   0.0   50.0
400.0   0.0   33.333333333333336
400.0   30.0   33.333333333333336
350.0   30.0   33.333333333333336
400.0   30.0   50.0
350.0   0.0   50.0
350.0   30.0   50.0
400.0   30.0   50.0
350.0   30.0   33.333333333333336
350.0   0.0   50.0
400.0   30.0   50.0
400.0   0.0   50.0
400.0   0.0   33.333333333333336
350.0   0.0   50.0
400.0   30.0   50.0
400.0   0.0   33.333333333333336
350.0   30.0   33.333333333333336
350.0   30.0   0.0
400.0   30.0   0.0
350.0   60.0   0.0
350.0   30.0   16.666666666666668
400.0   30.0   0.0
400.0   60.0   0.0
350.0   60.0   0.0
400.0   60.0   16.666666666666668
350.0   30.0   16.666666666666668
350.0   60.0   16.666666666666668
400.0   60.0   16.666666666666668
350.0   60.0   0.0
350.0   30.0   16.666666666666668
400.0   60.0   16.666666666666668
400.0   30.0   16.666666666666668
400.0   30.0   0.0
350.0   30.0   16.666666666666668
400.0   60.0   16.666666666666668
400.0   30.0   0.0
350.0   60.0   0.0
350.0   30.0   16.666666666666668
400.0   30.0   16.666666666666668
350.0   60.0   16.666666666666668
350.0   30.0   33.333333333333336
400.0   30.0   16.666666666666668
400.0   60.0   16.666666666666668
350.0   60.0   16.666666666666668
400.0   60.0   33.333333333333336
350.0   30.0   33.333333333333336
350.0   60.0   33.333333333333336
400.0   60.0   33.333333333333336
350.0   60.0   16.666666666666668
350.0   30.0   33.333333333333336
400.0   60.0   33.333333333333336
400.0   30.0   33.333333333333336
400.0   30.0   16.666666666666668
350.0   30.0   33.333333333333336
400.0   60.0   33.333333333333336
400.0   30.0   16.666666666666668
350.0   60.0   16.666666666666668
350.0   30.0   33.333333333333336
400.0   30.0   33.333333333333336
350.0   60.0   33.333333333333336
350.0   30.0   50.0
400.0   30.0   33.333333333333336
400.0   60.0   33.333333333333336
350.0   60.0   33.333333333333336
400.0   60.0   50.0
350.0   30.0   50.0
350.0   60.0   50.0
400.0   60.0   50.0
350.0   60.0   33.333333333333336
350.0   30.0   50.0
400.0   60.0   50.0
400.0   30.0   50.0
400.0   30.0   33.333333333333336
350.0   30.0   50.0
400.0   60.0   50.0
400.0   30.0   33.333333333333336
350.0   60.0   33.333333333333336
350.0   60.0   0.0
400.0   60.0   0.0
350.0   90.0   0.0
350.0   60.0   16.666666666666668
400.0   60.0   0.0
400.0   90.0   0.0
350.0   90.0   0.0
400.0   90.0   16.666666666666668
350.0   60.0   16.666666666666668
350.0   90.0   16.666666666666668
400.0   90.0   16.666666666666668
350.0   90.0   0.0
350.0   60.0   16.666666666666668
400.0   90.0   16.666666666666668
400.0   60.0   16.666666666666668
400.0   60.0   0.0
350.0   60.0   16.666666666666668
400.0   90.0   16.666666666666668
400.0   60.0   0.0
350.0   90.0   0.0
350.0   60.0   16.666666666666668
400.0   60.0   16.666666666666668
350.0   90.0   16.666666666666668
350.0   60.0   33.333333333333336
400.0   60.0   16.666666666666668
400.0   90.0   16.666666666666668
350.0   90.0   16.666666666666668
400.0   90.0   33.333333333333336
350.0   60.0   33.333333333333336
350.0   90.0   33.333333333333336
400.0   90.0   33.333333333333336
350.0   90.0   16.666666666666668
350.0   60.0   33.333333333333336
400.0   90.0   33.333333333333336
400.0   60.0   33.333333333333336
400.0   60.0   16.666666666666668
350.0   60.0   33.333333333333336
400.0   90.0   33.333333333333336
400.0   60.0   16.666666666666668
350.0   90.0   16.666666666666668
350.0   60.0   33.333333333333336
400.0   60.0   33.333333333333336
350.0   90.0   33.333333333333336
350.0   60.0   50.0
400.0   60.0   33.333333333333336
400.0   90.0   33.333333333333336
350.0   90.0   33.333333333333336
400.0   90.0   50.0
350.0   60.0   50.0
350.0   90.0   50.0
400.0   90.0   50.0
350.0   90.0   33.333333333333336
350.0   60.0   50.0
400.0   90.0   50.0
400.0   60.0   50.0
400.0   60.0   33.333333333333336
350.0   60.0   50.0
400.0   90.0   50.0
400.0   60.0   33.333333333333336
350.0   90.0   33.333333333333336
350.0   90.0   0.0
400.0   90.0   0.0
350.0   120.0   0.0
350.0   90.0   16.666666666666668
400.0   90.0   0.0
400.0   120.0   0.0
350.0   120.0   0.0
400.0   120.0   16.666666666666668
350.0   90.0   16.666666666666668
350.0   120.0   16.666666666666668
400.0   120.0   16.666666666666668
350.0   120.0   0.0
350.0   90.0   16.666666666666668
400.0   120.0   16.666666666666668
400.0   90.0   16.666666666666668
400.0   90.0   0.0
350.0   90.0   16.666666666666668
400.0   120.0   16.666666666666668
400.0   90.0   0.0
350.0   120.0   0.0
350.0   90.0   16.666666666666668
400.0   90.0   16.666666666666668
350.0   120.0   16.666666666666668
350.0   90.0   33.333333333333336
400.0   90.0   16.666666666666668
400.0   120.0   16.666666666666668
350.0   120.0   16.666666666666668
400.0   120.0   33.333333333333336
350.0   90.0   33.333333333333336
350.0   120.0   33.333333333333336
400.0   120.0   33.333333333333336
350.0   120.0   16.666666666666668
350.0   90.0   33.333333333333336
400.0   120.0   33.333333333333336
400.0   90.0   33.333333333333336
400.0   90.0   16.666666666666668
350.0   90.0   33.333333333333336
400.0   120.0   33.333333333333336
400.0   90.0   16.666666666666668
350.0   120.0   16.666666666666668
350.0   90.0   33.333333333333336
400.0   90.0   33.333333333333336
350.0   120.0   33.333333333333336
350.0   90.0   50.0
400.0   90.0   33.333333333333336
400.0   120.0   33.333333333333336
350.0   120.0   33.333333333333336
400.0   120.0   50.0
350.0   90.0   50.0
350.0   120.0   50.0
400.0   120.0   50.0
350.0   120.0   33.333333333333336
350.0   90.0   50.0
400.0   120.0   50.0
400.0   90.0   50.0
400.0   90.0   33.333333333333336
350.0   90.0   50.0
400.0   120.0   50.0
400.0   90.0   33.333333333333336
350.0   120.0   33.333333333333336
350.0   120.0   0.0
400.0   120.0   0.0
350.0   150.0   0.0
350.0   120.0   16.666666666666668
400.0   120.0   0.0
400.0   150.0   0.0
350.0   150.0   0.0
400.0   150.0   16.666666666666668
350.0   120.0   16.666666666666668
350.0   150.0   16.666666666666668
400.0   150.0   16.666666666666668
350.0   150.0   0.0
350.0   120.0   16.666666666666668
400.0   150.0   16.666666666666668
400.0   120.0   16.666666666666668
400.0   120.0   0.0
350.0   120.0   16.666666666666668
400.0   150.0   16.666666666666668
400.0   120.0   0.0
350.0   150.0   0.0
350.0   120.0   16.666666666666668
400.0   120.0   16.666666666666668
350.0   150.0   16.666666666666668
350.0   120.0   33.333333333333336
400.0   120.0   16.666666666666668
400.0   150.0   16.666666666666668
350.0   150.0   16.666666666666668
400.0   150.0   33.333333333333336
350.0   120.0   33.333333333333336
350.0   150.0   33.333333333333336
400.0   150.0   33.333333333333336
350.0   150.0   16.666666666666668
350.0   120.0   33.333333333333336
400.0   150.0   33.333333333333336
400.0   120.0   33.333333333333336
400.0   120.0   16.666666666666668
350.0   120.0   33.333333333333336
400.0   150.0   33.333333333333336
400.0   120.0   16.666666666666668
350.0   150.0   16.666666666666668
350.0   120.0   33.333333333333336
400.0   120.0   33.333333333333336
350.0   150.0   33.333333333333336
350.0   120.0   50.0
400.0   120.0   33.333333333333336
400.0   150.0   33.333333333333336
350.0   150.0   33.333333333333336
400.0   150.0   50.0
350.0   120.0   50.0
350.0   150.0   50.0
400.0   150.0   50.0
350.0   150.0   33.333333333333336
350.0   120.0   50.0
400.0   150.0   50.0
400.0   120.0   50.0
400.0   120.0   33.333333333333336
350.0   120.0   50.0
400.0   150.0   50.0
400.0   120.0   33.333333333333336
350.0   150.0   33.333333333333336
400.0   0.0   0.0
450.0   0.0   0.0
400.0   30.0   0.0
400.0   0.0   16.666666666666668
450.0   0.0   0.0
450.0   30.0   0.0
400.0   30.0   0.0
450.0   30.0   16.666666666666668
400.0   0.0   16.666666666666668
400.0   30.0   16.666666666666668
450.0   30.0   16.666666666666668
400.0   30.0   0.0
400.0   0.0   16.666666666666668
450.0   30.0   16.666666666666668
450.0   0.0   16.666666666666668
450.0   0.0   0.0
400.0   0.0   16.666666666666668
450.0   30.0   16.666666666666668
450.0   0.0   0.0
400.0   30.0   0.0
400.0   0.0   16.666666666666668
450.0   0.0   16.666666666666668
400.0   30.0   16.666666666666668
400.0   0.0   33.333333333333336
450.0   0.0   16.666666666666668
450.0   30.0   16.666666666666668
400.0   30.0   16.666666666666668
450.0   30.0   33.333333333333336
400.0   0.0   33.333333333333336
400.0   30.0   33.333333333333336
450.0   30.0   33.333333333333336
400.0   30.0   16.666666666666668
400.0   0.0   33.333333333333336
450.0   30.0   33.333333333333336
450.0   0.0   33.333333333333336
450.0   0.0   16.666666666666668
400.0   0.0   33.333333333333336
450.0   30.0   33.333333333333336
450.0   0.0   16.666666666666668
400.0   30.0   16.666666666666668
400.0   0.0   33.333333333333336
450.0   0.0   33.333333333333336
400.0   30.0   33.333333333333336
400.0   0.0   50.0
450.0   0.0   33.333333333333336
450.0   30.0   33.333333333333336
400.0   30.0   33.333333333333336
450.0   30.0   50.0
400.0   0.0   50.0
400.0   30.0   50.0
450.0   30.0   50.0
400.0   30.0   33.333333333333336
400.0   0.0   50.0
450.0   30.0   50.0
450.0   0.0   50.0
450.0   0.0   33.333333333333336
400.0   0.0   50.0
450.0   30.0   50.0
450.0   0.0   33.333333333333336
400.0   30.0   33.333333333333336
400.0   30.0   0.0
450.0   30.0   0.0
400.0   60.0   0.0
400.0   30.0   16.666666666666668
450.0   30.0   0.0
450.0   60.0   0.0
400.0   60.0   0.0
450.0   60.0   16.666666666666668
400.0   30.0   16.666666666666668
400.0   60.0   16.666666666666668
450.0   60.0   16.666666666666668
400.0   60.0   0.0
400.0   30.0   16.666666666666668
450.0   60.0   16.666666666666668
450.0   30.0   16.666666666666668
450.0   30.0   0.0
400.0   30.0   16.666666666666668
450.0   60.0   16.666666666666668
450.0   30.0   0.0
400.0   60.0   0.0
400.0   30.0   16.666666666666668
450.0   30.0   16.666666666666668
400.0   60.0   16.666666666666668
400.0   30.0   33.333333333333336
450.0   30.0   16.666666666666668
450.0   60.0   16.666666666666668
400.0   60.0   16.666666666666668
450.0   60.0   33.333333333333336
400.0   30.0   33.333333333333336
400.0   60.0   33.333333333333336
450.0   60.0   33.333333333333336
400.0   60.0   16.666666666666668
400.0   30.0   33.333333333333336
450.0   60.0   33.333333333333336
450.0   30.0   33.333333333333336
450.0   30.0   16.666666666666668
400.0   30.0   33.333333333333336
450.0   60.0   33.333333333333336
450.0   30.0   16.666666666666668
400.0   60.0   16.666666666666668
400.0   30.0   33.333333333333336
450.0   30.0   33.333333333333336
400.0   60.0   33.333333333333336
400.0   30.0   50.0
450.0   30.0   33.333333333333336
450.0   60.0   33.333333333333336
400.0   60.0   33.333333333333336
450.0   60.0   50.0
400.0   30.0   50.0
400.0   60.0   50.0
450.0   60.0   50.0
400.0   60.0   33.333333333333336
400.0   30.0   50.0
450.0   60.0   50.0
450.0   30.0   50.0
450.0   30.0   33.333333333333336
400.0   30.0   50.0
450.0   60.0   50.0
450.0   30.0   33.333333333333336
400.0   60.0   33.333333333333336
400.0   60.0   0.0
450.0   60.0   0.0
400.0   90.0   0.0
400.0   60.0   16.666666666666668
450.0   60.0   0.0
450.0   90.0   0.0
400.0   90.0   0.0
450.0   90.0   16.666666666666668
400.0   60.0   16.666666666666668
400.0   90.0   16.666666666666668
450.0   90.0   16.666666666666668
400.0   90.0   0.0
400.0   60.0   16.666666666666668
450.0   90.0   16.666666666666668
450.0   60.0   16.666666666666668
450.0   60.0   0.0
400.0   60.0   16.666666666666668
450.0   90.0   16.666666666666668
450.0   60.0   0.0
400.0   90.0   0.0
400.0   60.0   16.666666666666668
450.0   60.0   16.666666666666668
400.0   90.0   16.666666666666668
400.0   60.0   33.333333333333336
450.0   60.0   16.666666666666668
450.0   90.0   16.666666666666668
400.0   90.0   16.666666666666668
450.0   90.0   33.333333333333336
400.0   60.0   33.333333333333336
400.0   90.0   33.333333333333336
450.0   90.0   33.333333333333336
400.0   90.0   16.666666666666668
400.0   60.0   33.333333333333336
450.0   90.0   33.333333333333336
450.0   60.0   33.333333333333336
450.0   60.0   16.666666666666668
400.0   60.0   33.333333333333336
450.0   90.0   33.333333333333336
450.0   60.0   16.666666666666668
400.0   90.0   16.666666666666668
400.0   60.0   33.333333333333336
450.0   60.0   33.333333333333336
400.0   90.0   33.333333333333336
400.0   60.0   50.0
450.0   60.0   33.333333333333336
450.0   90.0   33.333333333333336
400.0   90.0   33.333333333333336
450.0   90.0   50.0
400.0   60.0   50.0
400.0   90.0   50.0
450.0   90.0   50.0
400.0   90.0   33.333333333333336
400.0   60.0   50.0
450.0   90.0   50.0
450.0   60.0   50.0
450.0   60.0   33.333333333333336
400.0   60.0   50.0
450.0   90.0   50.0
450.0   60.0   33.333333333333336
400.0   90.0   33.333333333333336
400.0   90.0   0.0
450.0   90.0   0.0
400.0   120.0   0.0
400.0   90.0   16.666666666666668
450.0   90.0   0.0
450.0   120.0   0.0
400.0   120.0   0.0
450.0   120.0   16.666666666666668
400.0   90.0   16.666666666666668
400.0   120.0   16.666666666666668
450.0   120.0   16.666666666666668
400.0   120.0   0.0
400.0   90.0   16.666666666666668
450.0   120.0   16.666666666666668
450.0   90.0   16.666666666666668
450.0   90.0   0.0
400.0   90.0   16.666666666666668
450.0   120.0   16.666666666666668
450.0   90.0   0.0
400.0   120.0   0.0
400.0   90.0   16.666666666666668
450.0   90.0   16.666666666666668
400.0   120.0   16.666666666666668
400.0   90.0   33.333333333333336
450.0   90.0   16.666666666666668
450.0   120.0   16.666666666666668
400.0   120.0   16.666666666666668
450.0   120.0   33.333333333333336
400.0   90.0   33.333333333333336
400.0   120.0   33.333333333333336
450.0   120.0   33.333333333333336
400.0   120.0   16.666666666666668
400.0   90.0   33.333333333333336
450.0   120.0   33.333333333333336
450.0   90.0   33.333333333333336
450.0   90.0   16.666666666666668
400.0   90.0   33.333333333333336
450.0   120.0   33.333333333333336
450.0   90.0   16.666666666666668
400.0   120.0   16.666666666666668
400.0   90.0   33.333333333333336
450.0   90.0   33.333333333333336
400.0   120.0   33.333333333333336
400.0   90.0   50.0
450.0   90.0   33.333333333333336
450.0   120.0   33.333333333333336
400.0   120.0   33.333333333333336
450.0   120.0   50.0
400.0   90.0   50.0
400.0   120.0   50.0
450.0   120.0   50.0
400.0   120.0   33.333333333333336
400.0   90.0   50.0
450.0   120.0   50.0
450.0   90.0   50.0
450.0   90.0   33.333333333333336
400.0   90.0   50.0
450.0   120.0   50.0
450.0   90.0   33.333333333333336
400.0   120.0   33.333333333333336
400.0   120.0   0.0
450.0   120.0   0.0
400.0   150.0   0.0
400.0   120.0   16.666666666666668
450.0   120.0   0.0
450.0   150.0   0.0
400.0   150.0   0.0
450.0   150.0   16.666666666666668
400.0   120.0   16.666666666666668
400.0   150.0   16.666666666666668
450.0   150.0   16.666666666666668
400.0   150.0   0.0
400.0   120.0   16.666666666666668
450.0   150.0   16.666666666666668
450.0   120.0   16.666666666666668
450.0   120.0   0.0
400.0   120.0   16.666666666666668
450.0   150.0   16.666666666666668
450.0   120.0   0.0
400.0   150.0   0.0
400.0   120.0   16.666666666666668
450.0   120.0   16.666666666666668
400.0   150.0   16.666666666666668
400.0   120.0   33.333333333333336
450.0   120.0   16.666666666666668
450.0   150.0   16.666666666666668
400.0   150.0   16.666666666666668
450.0   150.0   33.333333333333336
400.0   120.0   33.333333333333336
400.0   150.0   33.333333333333336
450.0   150.0   33.333333333333336
400.0   150.0   16.666666666666668
400.0   120.0   33.333333333333336
450.0   150.0   33.333333333333336
450.0   120.0   33.333333333333336
450.0   120.0   16.666666666666668
400.0   120.0   33.333333333333336
450.0   150.0   33.333333333333336
450.0   120.0   16.666666666666668
400.0   150.0   16.666666666666668
400.0   120.0   33.333333333333336
450.0   120.0   33.333333333333336
400.0   150.0   33.333333333333336
400.0   120.0   50.0
450.0   120.0   33.333333333333336
450.0   150.0   33.333333333333336
400.0   150.0   33.333333333333336
450.0   150.0   50.0
400.0   120.0   50.0
400.0   150.0   50.0
450.0   150.0   50.0
400.0   150.0   33.333333333333336
400.0   120.0   50.0
450.0   150.0   50.0
450.0   120.0   50.0
450.0   120.0   33.333333333333336
400.0   120.0   50.0
450.0   150.0   50.0
450.0   120.0   33.333333333333336
400.0   150.0   33.333333333333336
450.0   0.0   0.0
500.0   0.0   0.0
450.0   30.0   0.0
450.0   0.0   16.666666666666668
500.0   0.0   0.0
500.0   30.0   0.0
450.0   30.0   0.0
500.0   30.0   16.666666666666668
450.0   0.0   16.666666666666668
450.0   30.0   16.666666666666668
500.0   30.0   16.666666666666668
450.0   30.0   0.0
450.0   0.0   16.666666666666668
500.0   30.0   16.666666666666668
500.0   0.0   16.666666666666668
500.0   0.0   0.0
450.0   0.0   16.666666666666668
500.0   30.0   16.666666666666668
500.0   0.0   0.0
450.0   30.0   0.0
450.0   0.0   16.666666666666668
500.0   0.0   16.666666666666668
450.0   30.0   16.666666666666668
450.0   0.0   33.333333333333336
500.0   0.0   16.666666666666668
500.0   30.0   16.666666666666668
450.0   30.0   16.666666666666668
500.0   30.0   33.333333333333336
450.0   0.0   33.333333333333336
450.0   30.0   33.333333333333336
500.0   30.0   33.333333333333336
450.0   30.0   16.666666666666668
450.0   0.0   33.333333333333336
500.0   30.0   33.333333333333336
500.0   0.0   33.333333333333336
500.0   0.0   16.666666666666668
450.0   0.0   33.333333333333336
500.0   30.0   33.333333333333336
500.0   0.0   16.666666666666668
450.0   30.0   16.666666666666668
450.0   0.0   33.333333333333336
500.0   0.0   33.333333333333336
450.0   30.0   33.333333333333336
450.0   0.0   50.0
500.0   0.0   33.333333333333336
500.0   30.0   33.333333333333336
450.0   30.0   33.333333333333336
500.0   30.0   50.0
450.0   0.0   50.0
450.0   30.0   50.0
500.0   30.0   50.0
450.0   30.0   33.333333333333336
450.0   0.0   50.0
500.0   30.0   50.0
500.0   0.0   50.0
500.0   0.0   33.333333333333336
450.0   0.0   50.0
500.0   30.0   50.0
500.0   0.0   33.333333333333336
450.0   30.0   33.333333333333336
450.0   30.0   0.0
500.0   30.0   0.0
450.0   60.0   0.0
450.0   30.0   16.666666666666668
500.0   30.0   0.0
500.0   60.0   0.0
450.0   60.0   0.0
500.0   60.0   16.666666666666668
450.0   30.0   16.666666666666668
450.0   60.0   16.666666666666668
500.0   60.0   16.666666666666668
450.0   60.0   0.0
450.0   30.0   16.666666666666668
500.0   60.0   16.666666666666668
500.0   30.0   16.666666666666668
500.0   30.0   0.0
450.0   30.0   16.666666666666668
500.0   60.0   16.666666666666668
500.0   30.0   0.0
450.0   60.0   0.0
450.0   30.0   16.666666666666668
500.0   30.0   16.666666666666668
450.0   60.0   16.666666666666668
450.0   30.0   33.333333333333336
500.0   30.0   16.666666666666668
500.0   60.0   16.666666666666668
450.0   60.0   16.666666666666668
500.0   60.0   33.333333333333336
450.0   30.0   33.333333333333336
450.0   60.0   33.333333333333336
500.0   60.0   33.333333333333336
450.0   60.0   16.666666666666668
450.0   30.0   33.333333333333336
500.0   60.0   33.333333333333336
500.0   30.0   33.333333333333336
500.0   30.0   16.666666666666668
450.0   30.0   33.333333333333336
500.0   60.0   33.333333333333336
500.0   30.0   16.666666666666668
450.0   60.0   16.666666666666668
450.0   30.0   33.333333333333336
500.0   30.0   33.333333333333336
450.0   60.0   33.333333333333336
450.0   30.0   50.0
500.0   30.0   33.333333333333336
500.0   60.0   33.333333333333336
450.0   60.0   33.333333333333336
500.0   60.0   50.0
450.0   30.0   50.0
450.0   60.0   50.0
500.0   60.0   50.0
450.0   60.0   33.333333333333336
450.0   30.0   50.0
500.0   60.0   50.0
500.0   30.0   50.0
500.0   30.0   33.333333333333336
450.0   30.0   50.0
500.0   60.0   50.0
500.0   30.0   33.333333333333336
450.0   60.0   33.333333333333336
450.0   60.0   0.0
500.0   60.0   0.0
450.0   90.0   0.0
450.0   60.0   16.666666666666668
500.0   60.0   0.0
500.0   90.0   0.0
450.0   90.0   0.0
500.0   90.0   16.666666666666668
450.0   60.0   16.666666666666668
450.0   90.0   16.666666666666668
500.0   90.0   16.666666666666668
450.0   90.0   0.0
450.0   60.0   16.666666666666668
500.0   90.0   16.666666666666668
500.0   60.0   16.666666666666668
500.0   60.0   0.0
450.0   60.0   16.666666666666668
500.0   90.0   16.666666666666668
500.0   60.0   0.0
450.0   90.0   0.0
450.0   60.0   16.666666666666668
500.0   60.0   16.666666666666668
450.0   90.0   16.666666666666668
450.0   60.0   33.333333333333336
500.0   60.0   16.666666666666668
500.0   90.0   16.666666666666668
450.0   90.0   16.666666666666668
500.0   90.0   33.333333333333336
450.0   60.0   33.333333333333336
450.0   90.0   33.333333333333336
500.0   90.0   33.333333333333336
450.0   90.0   16.666666666666668
450.0   60.0   33.333333333333336
500.0   90.0   33.333333333333336
500.0   60.0   33.333333333333336
500.0   60.0   16.666666666666668
450.0   60.0   33.333333333333336
500.0   90.0   33.333333333333336
500.0   60.0   16.666666666666668
450.0   90.0   16.666666666666668
450.0   60.0   33.333333333333336
500.0   60.0   33.333333333333336
450.0   90.0   33.333333333333336
450.0   60.0   50.0
500.0   60.0   33.333333333333336
500.0   90.0   33.333333333333336
450.0   90.0   33.333333333333336
500.0   90.0   50.0
450.0   60.0   50.0
450.0   90.0   50.0
500.0   90.0   50.0
450.0   90.0   33.333333333333336
450.0   60.0   50.0
500.0   90.0   50.0
500.0   60.0   50.0
500.0   60.0   33.333333333333336
450.0   60.0   50.0
500.0   90.0   50.0
500.0   60.0   33.333333333333336
450.0   90.0   33.333333333333336
450.0   90.0   0.0
500.0   90.0   0.0
450.0   120.0   0.0
450.0   90.0   16.666666666666668
500.0   90.0   0.0
500.0   120.0   0.0
450.0   120.0   0.0
500.0   120.0   16.666666666666668
450.0   90.0   16.666666666666668
450.0   120.0   16.666666666666668
500.0   120.0   16.666666666666668
450.0   120.0   0.0
450.0   90.0   16.666666666666668
500.0   120.0   16.666666666666668
500.0   90.0   16.666666666666668
500.0   90.0   0.0
450.0   90.0   16.666666666666668
500.0   120.0   16.666666666666668
500.0   90.0   0.0
450.0   120.0   0.0
450.0   90.0   16.666666666666668
500.0   90.0   16.666666666666668
450.0   120.0   16.666666666666668
450.0   90.0   33.333333333333336
500.0   90.0   16.666666666666668
500.0   120.0   16.666666666666668
450.0   120.0   16.666666666666668
500.0   120.0   33.333333333333336
450.0   90.0   33.333333333333336
450.0   120.0   33.333333333333336
500.0   120.0   33.333333333333336
450.0   120.0   16.666666666666668
450.0   90.0   33.333333333333336
500.0   120.0   33.333333333333336
500.0   90.0   33.333333333333336
500.0   90.0   16.666666666666668
450.0   90.0   33.333333333333336
500.0   120.0   33.333333333333336
500.0   90.0   16.666666666666668
450.0   120.0   16.666666666666668
450.0   90.0   33.333333333333336
500.0   90.0   33.333333333333336
450.0   120.0   33.333333333333336
450.0   90.0   50.0
500.0   90.0   33.333333333333336
500.0   120.0   33.333333333333336
450.0   120.0   33.333333333333336
500.0   120.0   50.0
450.0   90.0   50.0
450.0   120.0   50.0
500.0   120.0   50.0
450.0   120.0   33.333333333333336
450.0   90.0   50.0
500.0   120.0   50.0
500.0   90.0   50.0
500.0   90.0   33.333333333333336
450.0   90.0   50.0
500.0   120.0   50.0
500.0   90.0   33.333333333333336
450.0   120.0   33.333333333333336
450.0   120.0   0.0
500.0   120.0   0.0
450.0   150.0   0.0
450.0   120.0   16.666666666666668
500.0   120.0   0.0
500.0   150.0   0.0
450.0   150.0   0.0
500.0   150.0   16.666666666666668
450.0   120.0   16.666666666666668
450.0   150.0   16.666666666666668
500.0   150.0   16.666666666666668
450.0   150.0   0.0
450.0   120.0   16.666666666666668
500.0   150.0   16.666666666666668
500.0   120.0   16.666666666666668
500.0   120.0   0.0
450.0   120.0   16.666666666666668
500.0   150.0   16.666666666666668
500.0   120.0   0.0
450.0   150.0   0.0
450.0   120.0   16.666666666666668
500.0   120.0   16.666666666666668
450.0   150.0   16.666666666666668
450.0   120.0   33.333333333333336
500.0   120.0   16.666666666666668
500.0   150.0   16.666666666666668
450.0   150.0   16.666666666666668
500.0   150.0   33.333333333333336
450.0   120.0   33.333333333333336
450.0   150.0   33.333333333333336
500.0   150.0   33.333333333333336
450.0   150.0   16.666666666666668
450.0   120.0   33.333333333333336
500.0   150.0   33.333333333333336
500.0   120.0   33.333333333333336
500.0   120.0   16.666666666666668
450.0   120.0   33.333333333333336
500.0   150.0   33.333333333333336
500.0   120.0   16.666666666666668
450.0   150.0   16.666666666666668
450.0   120.0   33.333333333333336
500.0   120.0   33.333333333333336
450.0   150.0   33.333333333333336
450.0   120.0   50.0
500.0   120.0   33.333333333333336
500.0   150.0   33.333333333333336
450.0   150.0   33.333333333333336
500.0   150.0   50.0
450.0   120.0   50.0
450.0   150.0   50.0
500.0   150.0   50.0
450.0   150.0   33.333333333333336
450.0   120.0   50.0
500.0   150.0   50.0
500.0   120.0   50.0
500.0   120.0   33.333333333333336
450.0   120.0   50.0
500.0   150.0   50.0
500.0   120.0   33.333333333333336
450.0   150.0   33.333333333333336
             </DataArray>   
          </Points>  
          <Cells>  
             <DataArray type="Int32" Name="connectivity" format="ascii">   
0   1   2   3
4   5   6   7
8   9   10   11
12   13   14   15
16   17   18   19
20   21   22   23
24   25   26   27
28   29   30   31
32   33   34   35
36   37   38   39
40   41   42   43
44   45   46   47
48   49   50   51
52   53   54   55
56   57   58   59
60   61   62   63
64   65   66   67
68   69   70   71
72   73   74   75
76   77   78   79
80   81   82   83
84   85   86   87
88   89   90   91
92   93   94   95
96   97   98   99
100   101   102   103
104   105   106   107
108   109   110   111
112   113   114   115
116   117   118   119
120   121   122   123
124   125   126   127
128   129   130   131
132   133   134   135
136   137   138   139
140   141   142   143
144   145   146   147
148   149   150   151
152   153   154   155
156   157   158   159
160   161   162   163
164   165   166   167
168   169   170   171
172   173   174   175
176   177   178   179
180   181   182   183
184   185   186   187
188   189   190   191
192   193   194   195
196   197   198   199
200   201   202   203
204   205   206   207
208   209   210   211
212   213   214   215
216   217   218   219
220   221   222   223
224   225   226   227
228   229   230   231
232   233   234   235
236   237   238   239
240   241   242   243
244   245   246   247
248   249   250   251
252   253   254   255
256   257   258   259
260   261   262   263
264   265   266   267
268   269   270   271
272   273   274   275
276   277   278   279
280   281   282   283
284   285   286   287
288   289   290   291
292   293   294   295
296   297   298   299
300   301   302   303
304   305   306   307
308   309   310   311
312   313   314   315
316   317   318   319
320   321   322   323
324   325   326   327
328   329   330   331
332   333   334   335
336   337   338   339
340   341   342   343
344   345   346   347
348   349   350   351
352   353   354   355
356   357   358   359
360   361   362   363
364   365   366   367
368   369   370   371
372   373   374   375
376   377   378   379
380   381   382   383
384   385   386   387
388   389   390   391
392   393   394   395
396   397   398   399
400   401   402   403
404   405   406   407
408   409   410   411
412   413   414   415
416   417   418   419
420   421   422   423
424   425   426   427
428   429   430   431
432   433   434   435
436   437   438   439
440   441   442   443
444   445   446   447
448   449   450   451
452   453   454   455
456   457   458   459
460   461   462   463
464   465   466   467
468   469   470   471
472   473   474   475
476   477   478   479
480   481   482   483
484   485   486   487
488   489   490   491
492   493   494   495
496   497   498   499
500   501   502   503
504   505   506   507
508   509   510   511
512   513   514   515
516   517   518   519
520   521   522   523
524   525   526   527
528   529   530   531
532   533   534   535
536   537   538   539
540   541   542   543
544   545   546   547
548   549   550   551
552   553   554   555
556   557   558   559
560   561   562   563
564   565   566   567
568   569   570   571
572   573   574   575
576   577   578   579
580   581   582   583
584   585   586   587
588   589   590   591
592   593   594   595
596   597   598   599
600   601   602   603
604   605   606   607
608   609   610   611
612   613   614   615
616   617   618   619
620   621   622   623
624   625   626   627
628   629   630   631
632   633   634   635
636   637   638   639
640   641   642   643
644   645   646   647
648   649   650   651
652   653   654   655
656   657   658   659
660   661   662   663
664   665   666   667
668   669   670   671
672   673   674   675
676   677   678   679
680   681   682   683
684   685   686   687
688   689   690   691
692   693   694   695
696   697   698   699
700   701   702   703
704   705   706   707
708   709   710   711
712   713   714   715
716   717   718   719
720   721   722   723
724   725   726   727
728   729   730   731
732   733   734   735
736   737   738   739
740   741   742   743
744   745   746   747
748   749   750   751
752   753   754   755
756   757   758   759
760   761   762   763
764   765   766   767
768   769   770   771
772   773   774   775
776   777   778   779
780   781   782   783
784   785   786   787
788   789   790   791
792   793   794   795
796   797   798   799
800   801   802   803
804   805   806   807
808   809   810   811
812   813   814   815
816   817   818   819
820   821   822   823
824   825   826   827
828   829   830   831
832   833   834   835
836   837   838   839
840   841   842   843
844   845   846   847
848   849   850   851
852   853   854   855
856   857   858   859
860   861   862   863
864   865   866   867
868   869   870   871
872   873   874   875
876   877   878   879
880   881   882   883
884   885   886   887
888   889   890   891
892   893   894   895
896   897   898   899
900   901   902   903
904   905   906   907
908   909   910   911
912   913   914   915
916   917   918   919
920   921   922   923
924   925   926   927
928   929   930   931
932   933   934   935
936   937   938   939
940   941   942   943
944   945   946   947
948   949   950   951
952   953   954   955
956   957   958   959
960   961   962   963
964   965   966   967
968   969   970   971
972   973   974   975
976   977   978   979
980   981   982   983
984   985   986   987
988   989   990   991
992   993   994   995
996   997   998   999
1000   1001   1002   1003
1004   1005   1006   1007
1008   1009   1010   1011
1012   1013   1014   1015
1016   1017   1018   1019
1020   1021   1022   1023
1024   1025   1026   1027
1028   1029   1030   1031
1032   1033   1034   1035
1036   1037   1038   1039
1040   1041   1042   1043
1044   1045   1046   1047
1048   1049   1050   1051
1052   1053   1054   1055
1056   1057   1058   1059
1060   1061   1062   1063
1064   1065   1066   1067
1068   1069   1070   1071
1072   1073   1074   1075
1076   1077   1078   1079
1080   1081   1082   1083
1084   1085   1086   1087
1088   1089   1090   1091
1092   1093   1094   1095
1096   1097   1098   1099
1100   1101   1102   1103
1104   1105   1106   1107
1108   1109   1110   1111
1112   1113   1114   1115
1116   1117   1118   1119
1120   1121   1122   1123
1124   1125   1126   1127
1128   1129   1130   1131
1132   1133   1134   1135
1136   1137   1138   1139
1140   1141   1142   1143
1144   1145   1146   1147
1148   1149   1150   1151
1152   1153   1154   1155
1156   1157   1158   1159
1160   1161   1162   1163
1164   1165   1166   1167
1168   1169   1170   1171
1172   1173   1174   1175
1176   1177   1178   1179
1180   1181   1182   1183
1184   1185   1186   1187
1188   1189   1190   1191
1192   1193   1194   1195
1196   1197   1198   1199
1200   1201   1202   1203
1204   1205   1206   1207
1208   1209   1210   1211
1212   1213   1214   1215
1216   1217   1218   1219
1220   1221   1222   1223
1224   1225   1226   1227
1228   1229   1230   1231
1232   1233   1234   1235
1236   1237   1238   1239
1240   1241   1242   1243
1244   1245   1246   1247
1248   1249   1250   1251
1252   1253   1254   1255
1256   1257   1258   1259
1260   1261   1262   1263
1264   1265   1266   1267
1268   1269   1270   1271
1272   1273   1274   1275
1276   1277   1278   1279
1280   1281   1282   1283
1284   1285   1286   1287
1288   1289   1290   1291
1292   1293   1294   1295
1296   1297   1298   1299
1300   1301   1302   1303
1304   1305   1306   1307
1308   1309   1310   1311
1312   1313   1314   1315
1316   1317   1318   1319
1320   1321   1322   1323
1324   1325   1326   1327
1328   1329   1330   1331
1332   1333   1334   1335
1336   1337   1338   1339
1340   1341   1342   1343
1344   1345   1346   1347
1348   1349   1350   1351
1352   1353   1354   1355
1356   1357   1358   1359
1360   1361   1362   1363
1364   1365   1366   1367
1368   1369   1370   1371
1372   1373   1374   1375
1376   1377   1378   1379
1380   1381   1382   1383
1384   1385   1386   1387
1388   1389   1390   1391
1392   1393   1394   1395
1396   1397   1398   1399
1400   1401   1402   1403
1404   1405   1406   1407
1408   1409   1410   1411
1412   1413   1414   1415
1416   1417   1418   1419
1420   1421   1422   1423
1424   1425   1426   1427
1428   1429   1430   1431
1432   1433   1434   1435
1436   1437   1438   1439
1440   1441   1442   1443
1444   1445   1446   1447
1448   1449   1450   1451
1452   1453   1454   1455
1456   1457   1458   1459
1460   1461   1462   1463
1464   1465   1466   1467
1468   1469   1470   1471
1472   1473   1474   1475
1476   1477   1478   1479
1480   1481   1482   1483
1484   1485   1486   1487
1488   1489   1490   1491
1492   1493   1494   1495
1496   1497   1498   1499
1500   1501   1502   1503
1504   1505   1506   1507
1508   1509   1510   1511
1512   1513   1514   1515
1516   1517   1518   1519
1520   1521   1522   1523
1524   1525   1526   1527
1528   1529   1530   1531
1532   1533   1534   1535
1536   1537   1538   1539
1540   1541   1542   1543
1544   1545   1546   1547
1548   1549   1550   1551
1552   1553   1554   1555
1556   1557   1558   1559
1560   1561   1562   1563
1564   1565   1566   1567
1568   1569   1570   1571
1572   1573   1574   1575
1576   1577   1578   1579
1580   1581   1582   1583
1584   1585   1586   1587
1588   1589   1590   1591
1592   1593   1594   1595
1596   1597   1598   1599
1600   1601   1602   1603
1604   1605   1606   1607
1608   1609   1610   1611
1612   1613   1614   1615
1616   1617   1618   1619
1620   1621   1622   1623
1624   1625   1626   1627
1628   1629   1630   1631
1632   1633   1634   1635
1636   1637   1638   1639
1640   1641   1642   1643
1644   1645   1646   1647
1648   1649   1650   1651
1652   1653   1654   1655
1656   1657   1658   1659
1660   1661   1662   1663
1664   1665   1666   1667
1668   1669   1670   1671
1672   1673   1674   1675
1676   1677   1678   1679
1680   1681   1682   1683
1684   1685   1686   1687
1688   1689   1690   1691
1692   1693   1694   1695
1696   1697   1698   1699
1700   1701   1702   1703
1704   1705   1706   1707
1708   1709   1710   1711
1712   1713   1714   1715
1716   1717   1718   1719
1720   1721   1722   1723
1724   1725   1726   1727
1728   1729   1730   1731
1732   1733   1734   1735
1736   1737   1738   1739
1740   1741   1742   1743
1744   1745   1746   1747
1748   1749   1750   1751
1752   1753   1754   1755
1756   1757   1758   1759
1760   1761   1762   1763
1764   1765   1766   1767
1768   1769   1770   1771
1772   1773   1774   1775
1776   1777   1778   1779
1780   1781   1782   1783
1784   1785   1786   1787
1788   1789   1790   1791
1792   1793   1794   1795
1796   1797   1798   1799
1800   1801   1802   1803
1804   1805   1806   1807
1808   1809   1810   1811
1812   1813   1814   1815
1816   1817   1818   1819
1820   1821   1822   1823
1824   1825   1826   1827
1828   1829   1830   1831
1832   1833   1834   1835
1836   1837   1838   1839
1840   1841   1842   1843
1844   1845   1846   1847
1848   1849   1850   1851
1852   1853   1854   1855
1856   1857   1858   1859
1860   1861   1862   1863
1864   1865   1866   1867
1868   1869   1870   1871
1872   1873   1874   1875
1876   1877   1878   1879
1880   1881   1882   1883
1884   1885   1886   1887
1888   1889   1890   1891
1892   1893   1894   1895
1896   1897   1898   1899
1900   1901   1902   1903
1904   1905   1906   1907
1908   1909   1910   1911
1912   1913   1914   1915
1916   1917   1918   1919
1920   1921   1922   1923
1924   1925   1926   1927
1928   1929   1930   1931
1932   1933   1934   1935
1936   1937   1938   1939
1940   1941   1942   1943
1944   1945   1946   1947
1948   1949   1950   1951
1952   1953   1954   1955
1956   1957   1958   1959
1960   1961   1962   1963
1964   1965   1966   1967
1968   1969   1970   1971
1972   1973   1974   1975
1976   1977   1978   1979
1980   1981   1982   1983
1984   1985   1986   1987
1988   1989   1990   1991
1992   1993   1994   1995
1996   1997   1998   1999
2000   2001   2002   2003
2004   2005   2006   2007
2008   2009   2010   2011
2012   2013   2014   2015
2016   2017   2018   2019
2020   2021   2022   2023
2024   2025   2026   2027
2028   2029   2030   2031
2032   2033   2034   2035
2036   2037   2038   2039
2040   2041   2042   2043
2044   2045   2046   2047
2048   2049   2050   2051
2052   2053   2054   2055
2056   2057   2058   2059
2060   2061   2062   2063
2064   2065   2066   2067
2068   2069   2070   2071
2072   2073   2074   2075
2076   2077   2078   2079
2080   2081   2082   2083
2084   2085   2086   2087
2088   2089   2090   2091
2092   2093   2094   2095
2096   2097   2098   2099
2100   2101   2102   2103
2104   2105   2106   2107
2108   2109   2110   2111
2112   2113   2114   2115
2116   2117   2118   2119
2120   2121   2122   2123
2124   2125   2126   2127
2128   2129   2130   2131
2132   2133   2134   2135
2136   2137   2138   2139
2140   2141   2142   2143
2144   2145   2146   2147
2148   2149   2150   2151
2152   2153   2154   2155
2156   2157   2158   2159
2160   2161   2162   2163
2164   2165   2166   2167
2168   2169   2170   2171
2172   2173   2174   2175
2176   2177   2178   2179
2180   2181   2182   2183
2184   2185   2186   2187
2188   2189   2190   2191
2192   2193   2194   2195
2196   2197   2198   2199
2200   2201   2202   2203
2204   2205   2206   2207
2208   2209   2210   2211
2212   2213   2214   2215
2216   2217   2218   2219
2220   2221   2222   2223
2224   2225   2226   2227
2228   2229   2230   2231
2232   2233   2234   2235
2236   2237   2238   2239
2240   2241   2242   2243
2244   2245   2246   2247
2248   2249   2250   2251
2252   2253   2254   2255
2256   2257   2258   2259
2260   2261   2262   2263
2264   2265   2266   2267
2268   2269   2270   2271
2272   2273   2274   2275
2276   2277   2278   2279
2280   2281   2282   2283
2284   2285   2286   2287
2288   2289   2290   2291
2292   2293   2294   2295
2296   2297   2298   2299
2300   2301   2302   2303
2304   2305   2306   2307
2308   2309   2310   2311
2312   2313   2314   2315
2316   2317   2318   2319
2320   2321   2322   2323
2324   2325   2326   2327
2328   2329   2330   2331
2332   2333   2334   2335
2336   2337   2338   2339
2340   2341   2342   2343
2344   2345   2346   2347
2348   2349   2350   2351
2352   2353   2354   2355
2356   2357   2358   2359
2360   2361   2362   2363
2364   2365   2366   2367
2368   2369   2370   2371
2372   2373   2374   2375
2376   2377   2378   2379
2380   2381   2382   2383
2384   2385   2386   2387
2388   2389   2390   2391
2392   2393   2394   2395
2396   2397   2398   2399
2400   2401   2402   2403
2404   2405   2406   2407
2408   2409   2410   2411
2412   2413   2414   2415
2416   2417   2418   2419
2420   2421   2422   2423
2424   2425   2426   2427
2428   2429   2430   2431
2432   2433   2434   2435
2436   2437   2438   2439
2440   2441   2442   2443
2444   2445   2446   2447
2448   2449   2450   2451
2452   2453   2454   2455
2456   2457   2458   2459
2460   2461   2462   2463
2464   2465   2466   2467
2468   2469   2470   2471
2472   2473   2474   2475
2476   2477   2478   2479
2480   2481   2482   2483
2484   2485   2486   2487
2488   2489   2490   2491
2492   2493   2494   2495
2496   2497   2498   2499
2500   2501   2502   2503
2504   2505   2506   2507
2508   2509   2510   2511
2512   2513   2514   2515
2516   2517   2518   2519
2520   2521   2522   2523
2524   2525   2526   2527
2528   2529   2530   2531
2532   2533   2534   2535
2536   2537   2538   2539
2540   2541   2542   2543
2544   2545   2546   2547
2548   2549   2550   2551
2552   2553   2554   2555
2556   2557   2558   2559
2560   2561   2562   2563
2564   2565   2566   2567
2568   2569   2570   2571
2572   2573   2574   2575
2576   2577   2578   2579
2580   2581   2582   2583
2584   2585   2586   2587
2588   2589   2590   2591
2592   2593   2594   2595
2596   2597   2598   2599
2600   2601   2602   2603
2604   2605   2606   2607
2608   2609   2610   2611
2612   2613   2614   2615
2616   2617   2618   2619
2620   2621   2622   2623
2624   2625   2626   2627
2628   2629   2630   2631
2632   2633   2634   2635
2636   2637   2638   2639
2640   2641   2642   2643
2644   2645   2646   2647
2648   2649   2650   2651
2652   2653   2654   2655
2656   2657   2658   2659
2660   2661   2662   2663
2664   2665   2666   2667
2668   2669   2670   2671
2672   2673   2674   2675
2676   2677   2678   2679
2680   2681   2682   2683
2684   2685   2686   2687
2688   2689   2690   2691
2692   2693   2694   2695
2696   2697   2698   2699
2700   2701   2702   2703
2704   2705   2706   2707
2708   2709   2710   2711
2712   2713   2714   2715
2716   2717   2718   2719
2720   2721   2722   2723
2724   2725   2726   2727
2728   2729   2730   2731
2732   2733   2734   2735
2736   2737   2738   2739
2740   2741   2742   2743
2744   2745   2746   2747
2748   2749   2750   2751
2752   2753   2754   2755
2756   2757   2758   2759
2760   2761   2762   2763
2764   2765   2766   2767
2768   2769   2770   2771
2772   2773   2774   2775
2776   2777   2778   2779
2780   2781   2782   2783
2784   2785   2786   2787
2788   2789   2790   2791
2792   2793   2794   2795
2796   2797   2798   2799
2800   2801   2802   2803
2804   2805   2806   2807
2808   2809   2810   2811
2812   2813   2814   2815
2816   2817   2818   2819
2820   2821   2822   2823
2824   2825   2826   2827
2828   2829   2830   2831
2832   2833   2834   2835
2836   2837   2838   2839
2840   2841   2842   2843
2844   2845   2846   2847
2848   2849   2850   2851
2852   2853   2854   2855
2856   2857   2858   2859
2860   2861   2862   2863
2864   2865   2866   2867
2868   2869   2870   2871
2872   2873   2874   2875
2876   2877   2878   2879
2880   2881   2882   2883
2884   2885   2886   2887
2888   2889   2890   2891
2892   2893   2894   2895
2896   2897   2898   2899
2900   2901   2902   2903
2904   2905   2906   2907
2908   2909   2910   2911
2912   2913   2914   2915
2916   2917   2918   2919
2920   2921   2922   2923
2924   2925   2926   2927
2928   2929   2930   2931
2932   2933   2934   2935
2936   2937   2938   2939
2940   2941   2942   2943
2944   2945   2946   2947
2948   2949   2950   2951
2952   2953   2954   2955
2956   2957   2958   2959
2960   2961   2962   2963
2964   2965   2966   2967
2968   2969   2970   2971
2972   2973   2974   2975
2976   2977   2978   2979
2980   2981   2982   2983
2984   2985   2986   2987
2988   2989   2990   2991
2992   2993   2994   2995
2996   2997   2998   2999
3000   3001   3002   3003
3004   3005   3006   3007
3008   3009   3010   3011
3012   3013   3014   3015
3016   3017   3018   3019
3020   3021   3022   3023
3024   3025   3026   3027
3028   3029   3030   3031
3032   3033   3034   3035
3036   3037   3038   3039
3040   3041   3042   3043
3044   3045   3046   3047
3048   3049   3050   3051
3052   3053   3054   3055
3056   3057   3058   3059
3060   3061   3062   3063
3064   3065   3066   3067
3068   3069   3070   3071
3072   3073   3074   3075
3076   3077   3078   3079
3080   3081   3082   3083
3084   3085   3086   3087
3088   3089   3090   3091
3092   3093   3094   3095
3096   3097   3098   3099
3100   3101   3102   3103
3104   3105   3106   3107
3108   3109   3110   3111
3112   3113   3114   3115
3116   3117   3118   3119
3120   3121   3122   3123
3124   3125   3126   3127
3128   3129   3130   3131
3132   3133   3134   3135
3136   3137   3138   3139
3140   3141   3142   3143
3144   3145   3146   3147
3148   3149   3150   3151
3152   3153   3154   3155
3156   3157   3158   3159
3160   3161   3162   3163
3164   3165   3166   3167
3168   3169   3170   3171
3172   3173   3174   3175
3176   3177   3178   3179
3180   3181   3182   3183
3184   3185   3186   3187
3188   3189   3190   3191
3192   3193   3194   3195
3196   3197   3198   3199
3200   3201   3202   3203
3204   3205   3206   3207
3208   3209   3210   3211
3212   3213   3214   3215
3216   3217   3218   3219
3220   3221   3222   3223
3224   3225   3226   3227
3228   3229   3230   3231
3232   3233   3234   3235
3236   3237   3238   3239
3240   3241   3242   3243
3244   3245   3246   3247
3248   3249   3250   3251
3252   3253   3254   3255
3256   3257   3258   3259
3260   3261   3262   3263
3264   3265   3266   3267
3268   3269   3270   3271
3272   3273   3274   3275
3276   3277   3278   3279
3280   3281   3282   3283
3284   3285   3286   3287
3288   3289   3290   3291
3292   3293   3294   3295
3296   3297   3298   3299
3300   3301   3302   3303
3304   3305   3306   3307
3308   3309   3310   3311
3312   3313   3314   3315
3316   3317   3318   3319
3320   3321   3322   3323
3324   3325   3326   3327
3328   3329   3330   3331
3332   3333   3334   3335
3336   3337   3338   3339
3340   3341   3342   3343
3344   3345   3346   3347
3348   3349   3350   3351
3352   3353   3354   3355
3356   3357   3358   3359
3360   3361   3362   3363
3364   3365   3366   3367
3368   3369   3370   3371
3372   3373   3374   3375
3376   3377   3378   3379
3380   3381   3382   3383
3384   3385   3386   3387
3388   3389   3390   3391
3392   3393   3394   3395
3396   3397   3398   3399
3400   3401   3402   3403
3404   3405   3406   3407
3408   3409   3410   3411
3412   3413   3414   3415
3416   3417   3418   3419
3420   3421   3422   3423
3424   3425   3426   3427
3428   3429   3430   3431
3432   3433   3434   3435
3436   3437   3438   3439
3440   3441   3442   3443
3444   3445   3446   3447
3448   3449   3450   3451
3452   3453   3454   3455
3456   3457   3458   3459
3460   3461   3462   3463
3464   3465   3466   3467
3468   3469   3470   3471
3472   3473   3474   3475
3476   3477   3478   3479
3480   3481   3482   3483
3484   3485   3486   3487
3488   3489   3490   3491
3492   3493   3494   3495
3496   3497   3498   3499
3500   3501   3502   3503
3504   3505   3506   3507
3508   3509   3510   3511
3512   3513   3514   3515
3516   3517   3518   3519
3520   3521   3522   3523
3524   3525   3526   3527
3528   3529   3530   3531
3532   3533   3534   3535
3536   3537   3538   3539
3540   3541   3542   3543
3544   3545   3546   3547
3548   3549   3550   3551
3552   3553   3554   3555
3556   3557   3558   3559
3560   3561   3562   3563
3564   3565   3566   3567
3568   3569   3570   3571
3572   3573   3574   3575
3576   3577   3578   3579
3580   3581   3582   3583
3584   3585   3586   3587
3588   3589   3590   3591
3592   3593   3594   3595
3596   3597   3598   3599
3600   3601   3602   3603
3604   3605   3606   3607
3608   3609   3610   3611
3612   3613   3614   3615
3616   3617   3618   3619
3620   3621   3622   3623
3624   3625   3626   3627
3628   3629   3630   3631
3632   3633   3634   3635
3636   3637   3638   3639
3640   3641   3642   3643
3644   3645   3646   3647
3648   3649   3650   3651
3652   3653   3654   3655
3656   3657   3658   3659
3660   3661   3662   3663
3664   3665   3666   3667
3668   3669   3670   3671
3672   3673   3674   3675
3676   3677   3678   3679
3680   3681   3682   3683
3684   3685   3686   3687
3688   3689   3690   3691
3692   3693   3694   3695
3696   3697   3698   3699
3700   3701   3702   3703
3704   3705   3706   3707
3708   3709   3710   3711
3712   3713   3714   3715
3716   3717   3718   3719
3720   3721   3722   3723
3724   3725   3726   3727
3728   3729   3730   3731
3732   3733   3734   3735
3736   3737   3738   3739
3740   3741   3742   3743
3744   3745   3746   3747
3748   3749   3750   3751
3752   3753   3754   3755
3756   3757   3758   3759
3760   3761   3762   3763
3764   3765   3766   3767
3768   3769   3770   3771
3772   3773   3774   3775
3776   3777   3778   3779
3780   3781   3782   3783
3784   3785   3786   3787
3788   3789   3790   3791
3792   3793   3794   3795
3796   3797   3798   3799
3800   3801   3802   3803
3804   3805   3806   3807
3808   3809   3810   3811
3812   3813   3814   3815
3816   3817   3818   3819
3820   3821   3822   3823
3824   3825   3826   3827
3828   3829   3830   3831
3832   3833   3834   3835
3836   3837   3838   3839
3840   3841   3842   3843
3844   3845   3846   3847
3848   3849   3850   3851
3852   3853   3854   3855
3856   3857   3858   3859
3860   3861   3862   3863
3864   3865   3866   3867
3868   3869   3870   3871
3872   3873   3874   3875
3876   3877   3878   3879
3880   3881   3882   3883
3884   3885   3886   3887
3888   3889   3890   3891
3892   3893   3894   3895
3896   3897   3898   3899
3900   3901   3902   3903
3904   3905   3906   3907
3908   3909   3910   3911
3912   3913   3914   3915
3916   3917   3918   3919
3920   3921   3922   3923
3924   3925   3926   3927
3928   3929   3930   3931
3932   3933   3934   3935
3936   3937   3938   3939
3940   3941   3942   3943
3944   3945   3946   3947
3948   3949   3950   3951
3952   3953   3954   3955
3956   3957   3958   3959
3960   3961   3962   3963
3964   3965   3966   3967
3968   3969   3970   3971
3972   3973   3974   3975
3976   3977   3978   3979
3980   3981   3982   3983
3984   3985   3986   3987
3988   3989   3990   3991
3992   3993   3994   3995
3996   3997   3998   3999
4000   4001   4002   4003
4004   4005   4006   4007
4008   4009   4010   4011
4012   4013   4014   4015
4016   4017   4018   4019
4020   4021   4022   4023
4024   4025   4026   4027
4028   4029   4030   4031
4032   4033   4034   4035
4036   4037   4038   4039
4040   4041   4042   4043
4044   4045   4046   4047
4048   4049   4050   4051
4052   4053   4054   4055
4056   4057   4058   4059
4060   4061   4062   4063
4064   4065   4066   4067
4068   4069   4070   4071
4072   4073   4074   4075
4076   4077   4078   4079
4080   4081   4082   4083
4084   4085   4086   4087
4088   4089   4090   4091
4092   4093   4094   4095
4096   4097   4098   4099
4100   4101   4102   4103
4104   4105   4106   4107
4108   4109   4110   4111
4112   4113   4114   4115
4116   4117   4118   4119
4120   4121   4122   4123
4124   4125   4126   4127
4128   4129   4130   4131
4132   4133   4134   4135
4136   4137   4138   4139
4140   4141   4142   4143
4144   4145   4146   4147
4148   4149   4150   4151
4152   4153   4154   4155
4156   4157   4158   4159
4160   4161   4162   4163
4164   4165   4166   4167
4168   4169   4170   4171
4172   4173   4174   4175
4176   4177   4178   4179
4180   4181   4182   4183
4184   4185   4186   4187
4188   4189   4190   4191
4192   4193   4194   4195
4196   4197   4198   4199
4200   4201   4202   4203
4204   4205   4206   4207
4208   4209   4210   4211
4212   4213   4214   4215
4216   4217   4218   4219
4220   4221   4222   4223
4224   4225   4226   4227
4228   4229   4230   4231
4232   4233   4234   4235
4236   4237   4238   4239
4240   4241   4242   4243
4244   4245   4246   4247
4248   4249   4250   4251
4252   4253   4254   4255
4256   4257   4258   4259
4260   4261   4262   4263
4264   4265   4266   4267
4268   4269   4270   4271
4272   4273   4274   4275
4276   4277   4278   4279
4280   4281   4282   4283
4284   4285   4286   4287
4288   4289   4290   4291
4292   4293   4294   4295
4296   4297   4298   4299
4300   4301   4302   4303
4304   4305   4306   4307
4308   4309   4310   4311
4312   4313   4314   4315
4316   4317   4318   4319
4320   4321   4322   4323
4324   4325   4326   4327
4328   4329   4330   4331
4332   4333   4334   4335
4336   4337   4338   4339
4340   4341   4342   4343
4344   4345   4346   4347
4348   4349   4350   4351
4352   4353   4354   4355
4356   4357   4358   4359
4360   4361   4362   4363
4364   4365   4366   4367
4368   4369   4370   4371
4372   4373   4374   4375
4376   4377   4378   4379
4380   4381   4382   4383
4384   4385   4386   4387
4388   4389   4390   4391
4392   4393   4394   4395
4396   4397   4398   4399
4400   4401   4402   4403
4404   4405   4406   4407
4408   4409   4410   4411
4412   4413   4414   4415
4416   4417   4418   4419
4420   4421   4422   4423
4424   4425   4426   4427
4428   4429   4430   4431
4432   4433   4434   4435
4436   4437   4438   4439
4440   4441   4442   4443
4444   4445   4446   4447
4448   4449   4450   4451
4452   4453   4454   4455
4456   4457   4458   4459
4460   4461   4462   4463
4464   4465   4466   4467
4468   4469   4470   4471
4472   4473   4474   4475
4476   4477   4478   4479
4480   4481   4482   4483
4484   4485   4486   4487
4488   4489   4490   4491
4492   4493   4494   4495
4496   4497   4498   4499
4500   4501   4502   4503
4504   4505   4506   4507
4508   4509   4510   4511
4512   4513   4514   4515
4516   4517   4518   4519
4520   4521   4522   4523
4524   4525   4526   4527
4528   4529   4530   4531
4532   4533   4534   4535
4536   4537   4538   4539
4540   4541   4542   4543
4544   4545   4546   4547
4548   4549   4550   4551
4552   4553   4554   4555
4556   4557   4558   4559
4560   4561   4562   4563
4564   4565   4566   4567
4568   4569   4570   4571
4572   4573   4574   4575
4576   4577   4578   4579
4580   4581   4582   4583
4584   4585   4586   4587
4588   4589   4590   4591
4592   4593   4594   4595
4596   4597   4598   4599
4600   4601   4602   4603
4604   4605   4606   4607
4608   4609   4610   4611
4612   4613   4614   4615
4616   4617   4618   4619
4620   4621   4622   4623
4624   4625   4626   4627
4628   4629   4630   4631
4632   4633   4634   4635
4636   4637   4638   4639
4640   4641   4642   4643
4644   4645   4646   4647
4648   4649   4650   4651
4652   4653   4654   4655
4656   4657   4658   4659
4660   4661   4662   4663
4664   4665   4666   4667
4668   4669   4670   4671
4672   4673   4674   4675
4676   4677   4678   4679
4680   4681   4682   4683
4684   4685   4686   4687
4688   4689   4690   4691
4692   4693   4694   4695
4696   4697   4698   4699
4700   4701   4702   4703
4704   4705   4706   4707
4708   4709   4710   4711
4712   4713   4714   4715
4716   4717   4718   4719
4720   4721   4722   4723
4724   4725   4726   4727
4728   4729   4730   4731
4732   4733   4734   4735
4736   4737   4738   4739
4740   4741   4742   4743
4744   4745   4746   4747
4748   4749   4750   4751
4752   4753   4754   4755
4756   4757   4758   4759
4760   4761   4762   4763
4764   4765   4766   4767
4768   4769   4770   4771
4772   4773   4774   4775
4776   4777   4778   4779
4780   4781   4782   4783
4784   4785   4786   4787
4788   4789   4790   4791
4792   4793   4794   4795
4796   4797   4798   4799
4800   4801   4802   4803
4804   4805   4806   4807
4808   4809   4810   4811
4812   4813   4814   4815
4816   4817   4818   4819
4820   4821   4822   4823
4824   4825   4826   4827
4828   4829   4830   4831
4832   4833   4834   4835
4836   4837   4838   4839
4840   4841   4842   4843
4844   4845   4846   4847
4848   4849   4850   4851
4852   4853   4854   4855
4856   4857   4858   4859
4860   4861   4862   4863
4864   4865   4866   4867
4868   4869   4870   4871
4872   4873   4874   4875
4876   4877   4878   4879
4880   4881   4882   4883
4884   4885   4886   4887
4888   4889   4890   4891
4892   4893   4894   4895
4896   4897   4898   4899
4900   4901   4902   4903
4904   4905   4906   4907
4908   4909   4910   4911
4912   4913   4914   4915
4916   4917   4918   4919
4920   4921   4922   4923
4924   4925   4926   4927
4928   4929   4930   4931
4932   4933   4934   4935
4936   4937   4938   4939
4940   4941   4942   4943
4944   4945   4946   4947
4948   4949   4950   4951
4952   4953   4954   4955
4956   4957   4958   4959
4960   4961   4962   4963
4964   4965   4966   4967
4968   4969   4970   4971
4972   4973   4974   4975
4976   4977   4978   4979
4980   4981   4982   4983
4984   4985   4986   4987
4988   4989   4990   4991
4992   4993   4994   4995
4996   4997   4998   4999
5000   5001   5002   5003
5004   5005   5006   5007
5008   5009   5010   5011
5012   5013   5014   5015
5016   5017   5018   5019
5020   5021   5022   5023
5024   5025   5026   5027
5028   5029   5030   5031
5032   5033   5034   5035
5036   5037   5038   5039
5040   5041   5042   5043
5044   5045   5046   5047
5048   5049   5050   5051
5052   5053   5054   5055
5056   5057   5058   5059
5060   5061   5062   5063
5064   5065   5066   5067
5068   5069   5070   5071
5072   5073   5074   5075
5076   5077   5078   5079
5080   5081   5082   5083
5084   5085   5086   5087
5088   5089   5090   5091
5092   5093   5094   5095
5096   5097   5098   5099
5100   5101   5102   5103
5104   5105   5106   5107
5108   5109   5110   5111
5112   5113   5114   5115
5116   5117   5118   5119
5120   5121   5122   5123
5124   5125   5126   5127
5128   5129   5130   5131
5132   5133   5134   5135
5136   5137   5138   5139
5140   5141   5142   5143
5144   5145   5146   5147
5148   5149   5150   5151
5152   5153   5154   5155
5156   5157   5158   5159
5160   5161   5162   5163
5164   5165   5166   5167
5168   5169   5170   5171
5172   5173   5174   5175
5176   5177   5178   5179
5180   5181   5182   5183
5184   5185   5186   5187
5188   5189   5190   5191
5192   5193   5194   5195
5196   5197   5198   5199
5200   5201   5202   5203
5204   5205   5206   5207
5208   5209   5210   5211
5212   5213   5214   5215
5216   5217   5218   5219
5220   5221   5222   5223
5224   5225   5226   5227
5228   5229   5230   5231
5232   5233   5234   5235
5236   5237   5238   5239
5240   5241   5242   5243
5244   5245   5246   5247
5248   5249   5250   5251
5252   5253   5254   5255
5256   5257   5258   5259
5260   5261   5262   5263
5264   5265   5266   5267
5268   5269   5270   5271
5272   5273   5274   5275
5276   5277   5278   5279
5280   5281   5282   5283
5284   5285   5286   5287
5288   5289   5290   5291
5292   5293   5294   5295
5296   5297   5298   5299
5300   5301   5302   5303
5304   5305   5306   5307
5308   5309   5310   5311
5312   5313   5314   5315
5316   5317   5318   5319
5320   5321   5322   5323
5324   5325   5326   5327
5328   5329   5330   5331
5332   5333   5334   5335
5336   5337   5338   5339
5340   5341   5342   5343
5344   5345   5346   5347
5348   5349   5350   5351
5352   5353   5354   5355
5356   5357   5358   5359
5360   5361   5362   5363
5364   5365   5366   5367
5368   5369   5370   5371
5372   5373   5374   5375
5376   5377   5378   5379
5380   5381   5382   5383
5384   5385   5386   5387
5388   5389   5390   5391
5392   5393   5394   5395
5396   5397   5398   5399
5400   5401   5402   5403
5404   5405   5406   5407
5408   5409   5410   5411
5412   5413   5414   5415
5416   5417   5418   5419
5420   5421   5422   5423
5424   5425   5426   5427
5428   5429   5430   5431
5432   5433   5434   5435
5436   5437   5438   5439
5440   5441   5442   5443
5444   5445   5446   5447
5448   5449   5450   5451
5452   5453   5454   5455
5456   5457   5458   5459
5460   5461   5462   5463
5464   5465   5466   5467
5468   5469   5470   5471
5472   5473   5474   5475
5476   5477   5478   5479
5480   5481   5482   5483
5484   5485   5486   5487
5488   5489   5490   5491
5492   5493   5494   5495
5496   5497   5498   5499
5500   5501   5502   5503
5504   5505   5506   5507
5508   5509   5510   5511
5512   5513   5514   5515
5516   5517   5518   5519
5520   5521   5522   5523
5524   5525   5526   5527
5528   5529   5530   5531
5532   5533   5534   5535
5536   5537   5538   5539
5540   5541   5542   5543
5544   5545   5546   5547
5548   5549   5550   5551
5552   5553   5554   5555
5556   5557   5558   5559
5560   5561   5562   5563
5564   5565   5566   5567
5568   5569   5570   5571
5572   5573   5574   5575
5576   5577   5578   5579
5580   5581   5582   5583
5584   5585   5586   5587
5588   5589   5590   5591
5592   5593   5594   5595
5596   5597   5598   5599
5600   5601   5602   5603
5604   5605   5606   5607
5608   5609   5610   5611
5612   5613   5614   5615
5616   5617   5618   5619
5620   5621   5622   5623
5624   5625   5626   5627
5628   5629   5630   5631
5632   5633   5634   5635
5636   5637   5638   5639
5640   5641   5642   5643
5644   5645   5646   5647
5648   5649   5650   5651
5652   5653   5654   5655
5656   5657   5658   5659
5660   5661   5662   5663
5664   5665   5666   5667
5668   5669   5670   5671
5672   5673   5674   5675
5676   5677   5678   5679
5680   5681   5682   5683
5684   5685   5686   5687
5688   5689   5690   5691
5692   5693   5694   5695
5696   5697   5698   5699
5700   5701   5702   5703
5704   5705   5706   5707
5708   5709   5710   5711
5712   5713   5714   5715
5716   5717   5718   5719
5720   5721   5722   5723
5724   5725   5726   5727
5728   5729   5730   5731
5732   5733   5734   5735
5736   5737   5738   5739
5740   5741   5742   5743
5744   5745   5746   5747
5748   5749   5750   5751
5752   5753   5754   5755
5756   5757   5758   5759
5760   5761   5762   5763
5764   5765   5766   5767
5768   5769   5770   5771
5772   5773   5774   5775
5776   5777   5778   5779
5780   5781   5782   5783
5784   5785   5786   5787
5788   5789   5790   5791
5792   5793   5794   5795
5796   5797   5798   5799
5800   5801   5802   5803
5804   5805   5806   5807
5808   5809   5810   5811
5812   5813   5814   5815
5816   5817   5818   5819
5820   5821   5822   5823
5824   5825   5826   5827
5828   5829   5830   5831
5832   5833   5834   5835
5836   5837   5838   5839
5840   5841   5842   5843
5844   5845   5846   5847
5848   5849   5850   5851
5852   5853   5854   5855
5856   5857   5858   5859
5860   5861   5862   5863
5864   5865   5866   5867
5868   5869   5870   5871
5872   5873   5874   5875
5876   5877   5878   5879
5880   5881   5882   5883
5884   5885   5886   5887
5888   5889   5890   5891
5892   5893   5894   5895
5896   5897   5898   5899
5900   5901   5902   5903
5904   5905   5906   5907
5908   5909   5910   5911
5912   5913   5914   5915
5916   5917   5918   5919
5920   5921   5922   5923
5924   5925   5926   5927
5928   5929   5930   5931
5932   5933   5934   5935
5936   5937   5938   5939
5940   5941   5942   5943
5944   5945   5946   5947
5948   5949   5950   5951
5952   5953   5954   5955
5956   5957   5958   5959
5960   5961   5962   5963
5964   5965   5966   5967
5968   5969   5970   5971
5972   5973   5974   5975
5976   5977   5978   5979
5980   5981   5982   5983
5984   5985   5986   5987
5988   5989   5990   5991
5992   5993   5994   5995
5996   5997   5998   5999
              </DataArray>   
              <DataArray type="Int32" Name="offsets" format="ascii">   
4
8
12
16
20
24
28
32
36
40
44
48
52
56
60
64
68
72
76
80
84
88
92
96
100
104
108
112
116
120
124
128
132
136
140
144
148
152
156
160
164
168
172
176
180
184
188
192
196
200
204
208
212
216
220
224
228
232
236
240
244
248
252
256
260
264
268
272
276
280
284
288
292
296
300
304
308
312
316
320
324
328
332
336
340
344
348
352
356
360
364
368
372
376
380
384
388
392
396
400
404
408
412
416
420
424
428
432
436
440
444
448
452
456
460
464
468
472
476
480
484
488
492
496
500
504
508
512
516
520
524
528
532
536
540
544
548
552
556
560
564
568
572
576
580
584
588
592
596
600
604
608
612
616
620
624
628
632
636
640
644
648
652
656
660
664
668
672
676
680
684
688
692
696
700
704
708
712
716
720
724
728
732
736
740
744
748
752
756
760
764
768
772
776
780
784
788
792
796
800
804
808
812
816
820
824
828
832
836
840
844
848
852
856
860
864
868
872
876
880
884
888
892
896
900
904
908
912
916
920
924
928
932
936
940
944
948
952
956
960
964
968
972
976
980
984
988
992
996
1000
1004
1008
1012
1016
1020
1024
1028
1032
1036
1040
1044
1048
1052
1056
1060
1064
1068
1072
1076
1080
1084
1088
1092
1096
1100
1104
1108
1112
1116
1120
1124
1128
1132
1136
1140
1144
1148
1152
1156
1160
1164
1168
1172
1176
1180
1184
1188
1192
1196
1200
1204
1208
1212
1216
1220
1224
1228
1232
1236
1240
1244
1248
1252
1256
1260
1264
1268
1272
1276
1280
1284
1288
1292
1296
1300
1304
1308
1312
1316
1320
1324
1328
1332
1336
1340
1344
1348
1352
1356
1360
1364
1368
1372
1376
1380
1384
1388
1392
1396
1400
1404
1408
1412
1416
1420
1424
1428
1432
1436
1440
1444
1448
1452
1456
1460
1464
1468
1472
1476
1480
1484
1488
1492
1496
1500
1504
1508
1512
1516
1520
1524
1528
1532
1536
1540
1544
1548
1552
1556
1560
1564
1568
1572
1576
1580
1584
1588
1592
1596
1600
1604
1608
1612
1616
1620
1624
1628
1632
1636
1640
1644
1648
1652
1656
1660
1664
1668
1672
1676
1680
1684
1688
1692
1696
1700
1704
1708
1712
1716
1720
1724
1728
1732
1736
1740
1744
1748
1752
1756
1760
1764
1768
1772
1776
1780
1784
1788
1792
1796
1800
1804
1808
1812
1816
1820
1824
1828
1832
1836
1840
1844
1848
1852
1856
1860
1864
1868
1872
1876
1880
1884
1888
1892
1896
1900
1904
1908
1912
1916
1920
1924
1928
1932
1936
1940
1944
1948
1952
1956
1960
1964
1968
1972
1976
1980
1984
1988
1992
1996
2000
2004
2008
2012
2016
2020
2024
2028
2032
2036
2040
2044
2048
2052
2056
2060
2064
2068
2072
2076
2080
2084
2088
2092
2096
2100
2104
2108
2112
2116
2120
2124
2128
2132
2136
2140
2144
2148
2152
2156
2160
2164
2168
2172
2176
2180
2184
2188
2192
2196
2200
2204
2208
2212
2216
2220
2224
2228
2232
2236
2240
2244
2248
2252
2256
2260
2264
2268
2272
2276
2280
2284
2288
2292
2296
2300
2304
2308
2312
2316
2320
2324
2328
2332
2336
2340
2344
2348
2352
2356
2360
2364
2368
2372
2376
2380
2384
2388
2392
2396
2400
2404
2408
2412
2416
2420
2424
2428
2432
2436
2440
2444
2448
2452
2456
2460
2464
2468
2472
2476
2480
2484
2488
2492
2496
2500
2504
2508
2512
2516
2520
2524
2528
2532
2536
2540
2544
2548
2552
2556
2560
2564
2568
2572
2576
2580
2584
2588
2592
2596
2600
2604
2608
2612
2616
2620
2624
2628
2632
2636
2640
2644
2648
2652
2656
2660
2664
2668
2672
2676
2680
2684
2688
2692
2696
2700
2704
2708
2712
2716
2720
2724
2728
2732
2736
2740
2744
2748
2752
2756
2760
2764
2768
2772
2776
2780
2784
2788
2792
2796
2800
2804
2808
2812
2816
2820
2824
2828
2832
2836
2840
2844
2848
2852
2856
2860
2864
2868
2872
2876
2880
2884
2888
2892
2896
2900
2904
2908
2912
2916
2920
2924
2928
2932
2936
2940
2944
2948
2952
2956
2960
2964
2968
2972
2976
2980
2984
2988
2992
2996
3000
3004
3008
3012
3016
3020
3024
3028
3032
3036
3040
3044
3048
3052
3056
3060
3064
3068
3072
3076
3080
3084
3088
3092
3096
3100
3104
3108
3112
3116
3120
3124
3128
3132
3136
3140
3144
3148
3152
3156
3160
3164
3168
3172
3176
3180
3184
3188
3192
3196
3200
3204
3208
3212
3216
3220
3224
3228
3232
3236
3240
3244
3248
3252
3256
3260
3264
3268
3272
3276
3280
3284
3288
3292
3296
3300
3304
3308
3312
3316
3320
3324
3328
3332
3336
3340
3344
3348
3352
3356
3360
3364
3368
3372
3376
3380
3384
3388
3392
3396
3400
3404
3408
3412
3416
3420
3424
3428
3432
3436
3440
3444
3448
3452
3456
3460
3464
3468
3472
3476
3480
3484
3488
3492
3496
3500
3504
3508
3512
3516
3520
3524
3528
3532
3536
3540
3544
3548
3552
3556
3560
3564
3568
3572
3576
3580
3584
3588
3592
3596
3600
3604
3608
3612
3616
3620
3624
3628
3632
3636
3640
3644
3648
3652
3656
3660
3664
3668
3672
3676
3680
3684
3688
3692
3696
3700
3704
3708
3712
3716
3720
3724
3728
3732
3736
3740
3744
3748
3752
3756
3760
3764
3768
3772
3776
3780
3784
3788
3792
3796
3800
3804
3808
3812
3816
3820
3824
3828
3832
3836
3840
3844
3848
3852
3856
3860
3864
3868
3872
3876
3880
3884
3888
3892
3896
3900
3904
3908
3912
3916
3920
3924
3928
3932
3936
3940
3944
3948
3952
3956
3960
3964
3968
3972
3976
3980
3984
3988
3992
3996
4000
4004
4008
4012
4016
4020
4024
4028
4032
4036
4040
4044
4048
4052
4056
4060
4064
4068
4072
4076
4080
4084
4088
4092
4096
4100
4104
4108
4112
4116
4120
4124
4128
4132
4136
4140
4144
4148
4152
4156
4160
4164
4168
4172
4176
4180
4184
4188
4192
4196
4200
4204
4208
4212
4216
4220
4224
4228
4232
4236
4240
4244
4248
4252
4256
4260
4264
4268
4272
4276
4280
4284
4288
4292
4296
4300
4304
4308
4312
4316
4320
4324
4328
4332
4336
4340
4344
4348
4352
4356
4360
4364
4368
4372
4376
4380
4384
4388
4392
4396
4400
4404
4408
4412
4416
4420
4424
4428
4432
4436
4440
4444
4448
4452
4456
4460
4464
4468
4472
4476
4480
4484
4488
4492
4496
4500
4504
4508
4512
4516
4520
4524
4528
4532
4536
4540
4544
4548
4552
4556
4560
4564
4568
4572
4576
4580
4584
4588
4592
4596
4600
4604
4608
4612
4616
4620
4624
4628
4632
4636
4640
4644
4648
4652
4656
4660
4664
4668
4672
4676
4680
4684
4688
4692
4696
4700
4704
4708
4712
4716
4720
4724
4728
4732
4736
4740
4744
4748
4752
4756
4760
4764
4768
4772
4776
4780
4784
4788
4792
4796
4800
4804
4808
4812
4816
4820
4824
4828
4832
4836
4840
4844
4848
4852
4856
4860
4864
4868
4872
4876
4880
4884
4888
4892
4896
4900
4904
4908
4912
4916
4920
4924
4928
4932
4936
4940
4944
4948
4952
4956
4960
4964
4968
4972
4976
4980
4984
4988
4992
4996
5000
5004
5008
5012
5016
5020
5024
5028
5032
5036
5040
5044
5048
5052
5056
5060
5064
5068
5072
5076
5080
5084
5088
5092
5096
5100
5104
5108
5112
5116
5120
5124
5128
5132
5136
5140
5144
5148
5152
5156
5160
5164
5168
5172
5176
5180
5184
5188
5192
5196
5200
5204
5208
5212
5216
5220
5224
5228
5232
5236
5240
5244
5248
5252
5256
5260
5264
5268
5272
5276
5280
5284
5288
5292
5296
5300
5304
5308
5312
5316
5320
5324
5328
5332
5336
5340
5344
5348
5352
5356
5360
5364
5368
5372
5376
5380
5384
5388
5392
5396
5400
5404
5408
5412
5416
5420
5424
5428
5432
5436
5440
5444
5448
5452
5456
5460
5464
5468
5472
5476
5480
5484
5488
5492
5496
5500
5504
5508
5512
5516
5520
5524
5528
5532
5536
5540
5544
5548
5552
5556
5560
5564
5568
5572
5576
5580
5584
5588
5592
5596
5600
5604
5608
5612
5616
5620
5624
5628
5632
5636
5640
5644
5648
5652
5656
5660
5664
5668
5672
5676
5680
5684
5688
5692
5696
5700
5704
5708
5712
5716
5720
5724
5728
5732
5736
5740
5744
5748
5752
5756
5760
5764
5768
5772
5776
5780
5784
5788
5792
5796
5800
5804
5808
5812
5816
5820
5824
5828
5832
5836
5840
5844
5848
5852
5856
5860
5864
5868
5872
5876
5880
5884
5888
5892
5896
5900
5904
5908
5912
5916
5920
5924
5928
5932
5936
5940
5944
5948
5952
5956
5960
5964
5968
5972
5976
5980
5984
5988
5992
5996
6000
              </DataArray>   
              <DataArray type="UInt8" Name="types" format="ascii">   
10
10
10
10
10
10
10
10
10
10
10
10
10
10
10
10
10
10
10
10
10
10
10
10
10
10
10
10
10
10
10
10
10
10
10
10
10
10
10
10
10
10
10
10
10
10
10
10
10
10
10
10
10
10
10
10
10
10
10
10
10
10
10
10
10
10
10
10
10
10
10
10
10
10
10
10
10
10
10
10
10
10
10
10
10
10
10
10
10
10
10
10
10
10
10
10
10
10
10
10
10
10
10
10
10
10
10
10
10
10
10
10
10
10
10
10
10
10
10
10
10
10
10
10
10
10
10
10
10
10
10
10
10
10
10
10
10
10
10
10
10
10
10
10
10
10
10
10
10
10
10
10
10
10
10
10
10
10
10
10
10
10
10
10
10
10
10
10
10
10
10
10
10
10
10
10
10
10
10
10
10
10
10
10
10
10
10
10
10
10
10
10
10
10
10
10
10
10
10
10
10
10
10
10
10
10
10
10
10
10
10
10
10
10
10
10
10
10
10
10
10
10
10
10
10
10
10
10
10
10
10
10
10
10
10
10
10
10
10
10
10
10
10
10
10
10
10
10
10
10
10
10
10
10
10
10
10
10
10
10
10
10
10
10
10
10
10
10
10
10
10
10
10
10
10
10
10
10
10
10
10
10
10
10
10
10
10
10
10
10
10
10
10
10
10
10
10
10
10
10
10
10
10
10
10
10
10
10
10
10
10
10
10
10
10
10
10
10
10
10
10
10
10
10
10
10
10
10
10
10
10
10
10
10
10
10
10
10
10
10
10
10
10
10
10
10
10
10
10
10
10
10
10
10
10
10
10
10
10
10
10
10
10
10
10
10
10
10
10
10
10
10
10
10
10
10
10
10
10
10
10
10
10
10
10
10
10
10
10
10
10
10
10
10
10
10
10
10
10
10
10
10
10
10
10
10
10
10
10
10
10
10
10
10
10
10
10
10
10
10
10
10
10
10
10
10
10
10
10
10
10
10
10
10
10
10
10
10
10
10
10
10
10
10
10
10
10
10
10
10
10
10
10
10
10
10
10
10
10
10
10
10
10
10
10
10
10
10
10
10
10
10
10
10
10
10
10
10
10
10
10
10
10
10
10
10
10
10
10
10
10
10
10
10
10
10
10
10
10
10
10
10
10
10
10
10
10
10
10
10
10
10
10
10
10
10
10
10
10
10
10
10
10
10
10
10
10
10
10
10
10
10
10
10
10
10
10
10
10
10
10
10
10
10
10
10
10
10
10
10
10
10
10
10
10
10
10
10
10
10
10
10
10
10
10
10
10
10
10
10
10
10
10
10
10
10
10
10
10
10
10
10
10
10
10
10
10
10
10
10
10
10
10
10
10
10
10
10
10
10
10
10
10
10
10
10
10
10
10
10
10
10
10
10
10
10
10
10
10
10
10
10
10
10
10
10
10
10
10
10
10
10
10
10
10
10
10
10
10
10
10
10
10
10
10
10
10
10
10
10
10
10
10
10
10
10
10
10
10
10
10
10
10
10
10
10
10
10
10
10
10
10
10
10
10
10
10
10
10
10
10
10
10
10
10
10
10
10
10
10
10
10
10
10
10
10
10
10
10
10
10
10
10
10
10
10
10
10
10
10
10
10
10
10
10
10
10
10
10
10
10
10
10
10
10
10
10
10
10
10
10
10
10
10
10
10
10
10
10
10
10
10
10
10
10
10
10
10
10
10
10
10
10
10
10
10
10
10
10
10
10
10
10
10
10
10
10
10
10
10
10
10
10
10
10
10
10
10
10
10
10
10
10
10
10
10
10
10
10
10
10
10
10
10
10
10
10
10
10
10
10
10
10
10
10
10
10
10
10
10
10
10
10
10
10
10
10
10
10
10
10
10
10
10
10
10
10
10
10
10
10
10
10
10
10
10
10
10
10
10
10
10
10
10
10
10
10
10
10
10
10
10
10
10
10
10
10
10
10
10
10
10
10
10
10
10
10
10
10
10
10
10
10
10
10
10
10
10
10
10
10
10
10
10
10
10
10
10
10
10
10
10
10
10
10
10
10
10
10
10
10
10
10
10
10
10
10
10
10
10
10
10
10
10
10
10
10
10
10
10
10
10
10
10
10
10
10
10
10
10
10
10
10
10
10
10
10
10
10
10
10
10
10
10
10
10
10
10
10
10
10
10
10
10
10
10
10
10
10
10
10
10
10
10
10
10
10
10
10
10
10
10
10
10
10
10
10
10
10
10
10
10
10
10
10
10
10
10
10
10
10
10
10
10
10
10
10
10
10
10
10
10
10
10
10
10
10
10
10
10
10
10
10
10
10
10
10
10
10
10
10
10
10
10
10
10
10
10
10
10
10
10
10
10
10
10
10
10
10
10
10
10
10
10
10
10
10
10
10
10
10
10
10
10
10
10
10
10
10
10
10
10
10
10
10
10
10
10
10
10
10
10
10
10
10
10
10
10
10
10
10
10
10
10
10
10
10
10
10
10
10
10
10
10
10
10
10
10
10
10
10
10
10
10
10
10
10
10
10
10
10
10
10
10
10
10
10
10
10
10
10
10
10
10
10
10
10
10
10
10
10
10
10
10
10
10
10
10
10
10
10
10
10
10
10
10
10
10
10
10
10
10
10
10
10
10
10
10
10
10
10
10
10
10
10
10
10
10
10
10
10
10
10
10
10
10
10
10
10
10
10
10
10
10
10
10
10
10
10
10
10
10
10
10
10
10
10
10
10
10
10
10
10
10
10
10
10
10
10
10
10
10
10
10
10
10
10
10
10
10
10
10
10
10
10
10
10
10
10
10
10
10
10
10
10
10
10
10
10
10
10
10
10
10
10
10
10
10
10
10
10
10
10
10
10
10
10
10
10
10
10
10
10
10
10
10
10
10
10
10
10
10
10
10
10
10
10
10
10
10
10
10
10
10
10
10
10
10
10
10
10
10
10
10
10
10
10
10
10
10
10
10
10
10
10
10
10
10
10
10
10
10
10
10
10
10
10
10
10
10
10
10
10
10
10
10
10
10
10
10
10
10
10
10
10
10
10
10
10
10
10
10
10
10
10
10
10
10
10
10
10
10
10
10
10
10
10
10
10
10
10
10
10
10
10
10
10
10
10
10
10
10
10
10
10
10
10
10
10
10
10
10
10
10
10
10
10
10
10
10
10
10
10
10
10
10
10
10
10
10
10
10
10
10
10
10
10
10
10
10
10
10
10
10
10
10
10
10
10
10
10
10
10
10
10
10
10
10
10
10
10
10
10
10
10
10
10
10
10
10
10
10
10
10
10
10
10
10
10
10
10
10
10
10
10
10
10
10
10
10
10
10
10
10
10
10
10
10
10
10
10
10
10
10
10
10
10
10
10
10
10
10
10
10
10
10
10
10
10
10
10
10
10
10
10
10
10
10
10
10
              </DataArray>   
          </Cells>  
          <PointData>  
             <DataArray type="Float64" NumberOfComponents="3" Name="Strains" format="ascii">   
-0.00010063189759967668   0.0   -6.602799002685506e-05
-0.00010063189759967668   0.0   -6.602799002685506e-05
-0.00010063189759967668   0.0   -6.602799002685506e-05
-0.00010063189759967668   0.0   -6.602799002685506e-05
-6.403569818432658e-05   1.1150327294092436e-05   1.6558720418504162e-06
-6.403569818432658e-05   1.1150327294092436e-05   1.6558720418504162e-06
-6.403569818432658e-05   1.1150327294092436e-05   1.6558720418504162e-06
-6.403569818432658e-05   1.1150327294092436e-05   1.6558720418504162e-06
-6.277061967548852e-05   0.0   -6.231517048247373e-05
-6.277061967548852e-05   0.0   -6.231517048247373e-05
-6.277061967548852e-05   0.0   -6.231517048247373e-05
-6.277061967548852e-05   0.0   -6.231517048247373e-05
-0.00010531770089546341   1.3379890609270667e-05   5.686971852555977e-07
-0.00010531770089546341   1.3379890609270667e-05   5.686971852555977e-07
-0.00010531770089546341   1.3379890609270667e-05   5.686971852555977e-07
-0.00010531770089546341   1.3379890609270667e-05   5.686971852555977e-07
-8.170125863758246e-05   3.0940162869844373e-06   -3.2620515317840865e-05
-8.170125863758246e-05   3.0940162869844373e-06   -3.2620515317840865e-05
-8.170125863758246e-05   3.0940162869844373e-06   -3.2620515317840865e-05
-8.170125863758246e-05   3.0940162869844373e-06   -3.2620515317840865e-05
-0.00010531770089546358   0.0   -7.034310484803615e-05
-0.00010531770089546358   0.0   -7.034310484803615e-05
-0.00010531770089546358   0.0   -7.034310484803615e-05
-0.00010531770089546358   0.0   -7.034310484803615e-05
-6.277061967548852e-05   1.3379890609270694e-05   8.596631550818014e-06
-6.277061967548852e-05   1.3379890609270694e-05   8.596631550818014e-06
-6.277061967548852e-05   1.3379890609270694e-05   8.596631550818014e-06
-6.277061967548852e-05   1.3379890609270694e-05   8.596631550818014e-06
-6.294909331254612e-05   0.0   -6.384081701998007e-05
-6.294909331254612e-05   0.0   -6.384081701998007e-05
-6.294909331254612e-05   0.0   -6.384081701998007e-05
-6.294909331254612e-05   0.0   -6.384081701998007e-05
-0.00010860916001977543   1.433424419916393e-05   3.6587476392373826e-06
-0.00010860916001977543   1.433424419916393e-05   3.6587476392373826e-06
-0.00010860916001977543   1.433424419916393e-05   3.6587476392373826e-06
-0.00010860916001977543   1.433424419916393e-05   3.6587476392373826e-06
-8.413339710400471e-05   5.418573190046731e-06   -3.1784787948243476e-05
-8.413339710400471e-05   5.418573190046731e-06   -3.1784787948243476e-05
-8.413339710400471e-05   5.418573190046731e-06   -3.1784787948243476e-05
-8.413339710400471e-05   5.418573190046731e-06   -3.1784787948243476e-05
-0.00010860916001977562   0.0   -7.244136353947843e-05
-0.00010860916001977562   0.0   -7.244136353947843e-05
-0.00010860916001977562   0.0   -7.244136353947843e-05
-0.00010860916001977562   0.0   -7.244136353947843e-05
-6.294909331254612e-05   1.4334244199163957e-05   1.225929415873576e-05
-6.294909331254612e-05   1.4334244199163957e-05   1.225929415873576e-05
-6.294909331254612e-05   1.4334244199163957e-05   1.225929415873576e-05
-6.294909331254612e-05   1.4334244199163957e-05   1.225929415873576e-05
-6.291763973707586e-05   0.0   -6.423261878088678e-05
-6.291763973707586e-05   0.0   -6.423261878088678e-05
-6.291763973707586e-05   0.0   -6.423261878088678e-05
-6.291763973707586e-05   0.0   -6.423261878088678e-05
-0.00011569843139316373   1.6328730152992182e-05   1.3938129220797976e-05
-0.00011569843139316373   1.6328730152992182e-05   1.3938129220797976e-05
-0.00011569843139316373   1.6328730152992182e-05   1.3938129220797976e-05
-0.00011569843139316373   1.6328730152992182e-05   1.3938129220797976e-05
-8.576339987842559e-05   6.8406206321597145e-06   -3.026072425793274e-05
-8.576339987842559e-05   6.8406206321597145e-06   -3.026072425793274e-05
-8.576339987842559e-05   6.8406206321597145e-06   -3.026072425793274e-05
-8.576339987842559e-05   6.8406206321597145e-06   -3.026072425793274e-05
-6.403569818432668e-05   0.0   -5.9337793650399596e-05
-6.403569818432668e-05   0.0   -5.9337793650399596e-05
-6.403569818432668e-05   0.0   -5.9337793650399596e-05
-6.403569818432668e-05   0.0   -5.9337793650399596e-05
-2.9160527126992763e-05   4.089934337523415e-06   1.2414520476709468e-06
-2.9160527126992763e-05   4.089934337523415e-06   1.2414520476709468e-06
-2.9160527126992763e-05   4.089934337523415e-06   1.2414520476709468e-06
-2.9160527126992763e-05   4.089934337523415e-06   1.2414520476709468e-06
-2.8047595072740616e-05   0.0   -5.882193404067165e-05
-2.8047595072740616e-05   0.0   -5.882193404067165e-05
-2.8047595072740616e-05   0.0   -5.882193404067165e-05
-2.8047595072740616e-05   0.0   -5.882193404067165e-05
-6.277061967548852e-05   5.822060736336817e-06   -4.443462811227233e-06
-6.277061967548852e-05   5.822060736336817e-06   -4.443462811227233e-06
-6.277061967548852e-05   5.822060736336817e-06   -4.443462811227233e-06
-6.277061967548852e-05   5.822060736336817e-06   -4.443462811227233e-06
-4.604164662853357e-05   4.29883008106628e-07   -2.9089777919213826e-05
-4.604164662853357e-05   4.29883008106628e-07   -2.9089777919213826e-05
-4.604164662853357e-05   4.29883008106628e-07   -2.9089777919213826e-05
-4.604164662853357e-05   4.29883008106628e-07   -2.9089777919213826e-05
-6.277061967548846e-05   0.0   -6.231517048247368e-05
-6.277061967548846e-05   0.0   -6.231517048247368e-05
-6.277061967548846e-05   0.0   -6.231517048247368e-05
-6.277061967548846e-05   0.0   -6.231517048247368e-05
-2.8047595072740616e-05   5.822060736336817e-06   -9.502263694251471e-07
-2.8047595072740616e-05   5.822060736336817e-06   -9.502263694251471e-07
-2.8047595072740616e-05   5.822060736336817e-06   -9.502263694251471e-07
-2.8047595072740616e-05   5.822060736336817e-06   -9.502263694251471e-07
-2.7423130635194958e-05   0.0   -5.9560607740316573e-05
-2.7423130635194958e-05   0.0   -5.9560607740316573e-05
-2.7423130635194958e-05   0.0   -5.9560607740316573e-05
-2.7423130635194958e-05   0.0   -5.9560607740316573e-05
-6.294909331254612e-05   7.133682132772496e-06   -4.630879224394816e-06
-6.294909331254612e-05   7.133682132772496e-06   -4.630879224394816e-06
-6.294909331254612e-05   7.133682132772496e-06   -4.630879224394816e-06
-6.294909331254612e-05   7.133682132772496e-06   -4.630879224394816e-06
-4.5096875155341645e-05   2.295468951797639e-06   -3.1481648244483746e-05
-4.5096875155341645e-05   2.295468951797639e-06   -3.1481648244483746e-05
-4.5096875155341645e-05   2.295468951797639e-06   -3.1481648244483746e-05
-4.5096875155341645e-05   2.295468951797639e-06   -3.1481648244483746e-05
-6.294909331254612e-05   0.0   -6.384081701998007e-05
-6.294909331254612e-05   0.0   -6.384081701998007e-05
-6.294909331254612e-05   0.0   -6.384081701998007e-05
-6.294909331254612e-05   0.0   -6.384081701998007e-05
-2.7423130635194958e-05   7.133682132772496e-06   -3.506699447313182e-07
-2.7423130635194958e-05   7.133682132772496e-06   -3.506699447313182e-07
-2.7423130635194958e-05   7.133682132772496e-06   -3.506699447313182e-07
-2.7423130635194958e-05   7.133682132772496e-06   -3.506699447313182e-07
-2.6854746281388192e-05   0.0   -5.925230201395896e-05
-2.6854746281388192e-05   0.0   -5.925230201395896e-05
-2.6854746281388192e-05   0.0   -5.925230201395896e-05
-2.6854746281388192e-05   0.0   -5.925230201395896e-05
-6.29176397370757e-05   8.300527944879585e-06   -4.127796354740638e-06
-6.29176397370757e-05   8.300527944879585e-06   -4.127796354740638e-06
-6.29176397370757e-05   8.300527944879585e-06   -4.127796354740638e-06
-6.29176397370757e-05   8.300527944879585e-06   -4.127796354740638e-06
-4.4901919796967144e-05   3.823762505017548e-06   -3.146793699100457e-05
-4.4901919796967144e-05   3.823762505017548e-06   -3.146793699100457e-05
-4.4901919796967144e-05   3.823762505017548e-06   -3.146793699100457e-05
-4.4901919796967144e-05   3.823762505017548e-06   -3.146793699100457e-05
-2.9160527126992814e-05   0.0   -5.688383304788555e-05
-2.9160527126992814e-05   0.0   -5.688383304788555e-05
-2.9160527126992814e-05   0.0   -5.688383304788555e-05
-2.9160527126992814e-05   0.0   -5.688383304788555e-05
3.7911967136126175e-06   -5.236549873281228e-07   -2.2784863059399796e-06
3.7911967136126175e-06   -5.236549873281228e-07   -2.2784863059399796e-06
3.7911967136126175e-06   -5.236549873281228e-07   -2.2784863059399796e-06
3.7911967136126175e-06   -5.236549873281228e-07   -2.2784863059399796e-06
4.500907538903192e-06   0.0   -5.820271880977364e-05
4.500907538903192e-06   0.0   -5.820271880977364e-05
4.500907538903192e-06   0.0   -5.820271880977364e-05
4.500907538903192e-06   0.0   -5.820271880977364e-05
-2.8047595072740616e-05   1.0320253848296681e-06   -4.574429687931951e-06
-2.8047595072740616e-05   1.0320253848296681e-06   -4.574429687931951e-06
-2.8047595072740616e-05   1.0320253848296681e-06   -4.574429687931951e-06
-2.8047595072740616e-05   1.0320253848296681e-06   -4.574429687931951e-06
-1.2329809794044782e-05   -1.0990714682402453e-06   -2.9492080373916274e-05
-1.2329809794044782e-05   -1.0990714682402453e-06   -2.9492080373916274e-05
-1.2329809794044782e-05   -1.0990714682402453e-06   -2.9492080373916274e-05
-1.2329809794044782e-05   -1.0990714682402453e-06   -2.9492080373916274e-05
-2.8047595072740616e-05   0.0   -5.882193404067165e-05
-2.8047595072740616e-05   0.0   -5.882193404067165e-05
-2.8047595072740616e-05   0.0   -5.882193404067165e-05
-2.8047595072740616e-05   0.0   -5.882193404067165e-05
4.5009075389032e-06   1.0320253848296681e-06   -3.955214457034133e-06
4.5009075389032e-06   1.0320253848296681e-06   -3.955214457034133e-06
4.5009075389032e-06   1.0320253848296681e-06   -3.955214457034133e-06
4.5009075389032e-06   1.0320253848296681e-06   -3.955214457034133e-06
5.060864738226731e-06   0.0   -5.811956234458752e-05
5.060864738226731e-06   0.0   -5.811956234458752e-05
5.060864738226731e-06   0.0   -5.811956234458752e-05
5.060864738226731e-06   0.0   -5.811956234458752e-05
-2.742313063519491e-05   2.401742326214908e-06   -5.420615451280406e-06
-2.742313063519491e-05   2.401742326214908e-06   -5.420615451280406e-06
-2.742313063519491e-05   2.401742326214908e-06   -5.420615451280406e-06
-2.742313063519491e-05   2.401742326214908e-06   -5.420615451280406e-06
-1.1493365167256938e-05   5.853097467366846e-07   -3.0880365016823485e-05
-1.1493365167256938e-05   5.853097467366846e-07   -3.0880365016823485e-05
-1.1493365167256938e-05   5.853097467366846e-07   -3.0880365016823485e-05
-1.1493365167256938e-05   5.853097467366846e-07   -3.0880365016823485e-05
-2.7423130635194958e-05   0.0   -5.9560607740316573e-05
-2.7423130635194958e-05   0.0   -5.9560607740316573e-05
-2.7423130635194958e-05   0.0   -5.9560607740316573e-05
-2.7423130635194958e-05   0.0   -5.9560607740316573e-05
5.06086473822674e-06   2.401742326214908e-06   -3.979570055551466e-06
5.06086473822674e-06   2.401742326214908e-06   -3.979570055551466e-06
5.06086473822674e-06   2.401742326214908e-06   -3.979570055551466e-06
5.06086473822674e-06   2.401742326214908e-06   -3.979570055551466e-06
5.814770956452792e-06   0.0   -5.685931613002687e-05
5.814770956452792e-06   0.0   -5.685931613002687e-05
5.814770956452792e-06   0.0   -5.685931613002687e-05
5.814770956452792e-06   0.0   -5.685931613002687e-05
-2.6854746281388168e-05   3.9883098065533935e-06   -4.803106617557313e-06
-2.6854746281388168e-05   3.9883098065533935e-06   -4.803106617557313e-06
-2.6854746281388168e-05   3.9883098065533935e-06   -4.803106617557313e-06
-2.6854746281388168e-05   3.9883098065533935e-06   -4.803106617557313e-06
-1.080417983937106e-05   2.2510763419079905e-06   -3.0511710608798567e-05
-1.080417983937106e-05   2.2510763419079905e-06   -3.0511710608798567e-05
-1.080417983937106e-05   2.2510763419079905e-06   -3.0511710608798567e-05
-1.080417983937106e-05   2.2510763419079905e-06   -3.0511710608798567e-05
3.791196713612624e-06   0.0   -5.719802604028242e-05
3.791196713612624e-06   0.0   -5.719802604028242e-05
3.791196713612624e-06   0.0   -5.719802604028242e-05
3.791196713612624e-06   0.0   -5.719802604028242e-05
3.955856125895215e-05   -4.639807544520045e-06   -3.6963632476186704e-07
3.955856125895215e-05   -4.639807544520045e-06   -3.6963632476186704e-07
3.955856125895215e-05   -4.639807544520045e-06   -3.6963632476186704e-07
3.955856125895215e-05   -4.639807544520045e-06   -3.6963632476186704e-07
3.962647778345033e-05   0.0   -6.030164446848812e-05
3.962647778345033e-05   0.0   -6.030164446848812e-05
3.962647778345033e-05   0.0   -6.030164446848812e-05
3.962647778345033e-05   0.0   -6.030164446848812e-05
4.500907538903208e-06   -3.498209431190461e-06   3.398982644713615e-07
4.500907538903208e-06   -3.498209431190461e-06   3.398982644713615e-07
4.500907538903208e-06   -3.498209431190461e-06   3.398982644713615e-07
4.500907538903208e-06   -3.498209431190461e-06   3.398982644713615e-07
2.1708837248531477e-05   -2.586348690171421e-06   -2.888710102952049e-05
2.1708837248531477e-05   -2.586348690171421e-06   -2.888710102952049e-05
2.1708837248531477e-05   -2.586348690171421e-06   -2.888710102952049e-05
2.1708837248531477e-05   -2.586348690171421e-06   -2.888710102952049e-05
4.500907538903208e-06   0.0   -5.8202718809773845e-05
4.500907538903208e-06   0.0   -5.8202718809773845e-05
4.500907538903208e-06   0.0   -5.8202718809773845e-05
4.500907538903208e-06   0.0   -5.8202718809773845e-05
3.962647778345033e-05   -3.498209431190461e-06   -1.7590273942429151e-06
3.962647778345033e-05   -3.498209431190461e-06   -1.7590273942429151e-06
3.962647778345033e-05   -3.498209431190461e-06   -1.7590273942429151e-06
3.962647778345033e-05   -3.498209431190461e-06   -1.7590273942429151e-06
3.945467328914657e-05   0.0   -5.9440542378523164e-05
3.945467328914657e-05   0.0   -5.9440542378523164e-05
3.945467328914657e-05   0.0   -5.9440542378523164e-05
3.945467328914657e-05   0.0   -5.9440542378523164e-05
5.06086473822674e-06   -2.2016333898925653e-06   -7.965480930545919e-07
5.06086473822674e-06   -2.2016333898925653e-06   -7.965480930545919e-07
5.06086473822674e-06   -2.2016333898925653e-06   -7.965480930545919e-07
5.06086473822674e-06   -2.2016333898925653e-06   -7.965480930545919e-07
2.1977790414024888e-05   -1.0315196406244321e-06   -2.9693492468945687e-05
2.1977790414024888e-05   -1.0315196406244321e-06   -2.9693492468945687e-05
2.1977790414024888e-05   -1.0315196406244321e-06   -2.9693492468945687e-05
2.1977790414024888e-05   -1.0315196406244321e-06   -2.9693492468945687e-05
5.060864738226735e-06   0.0   -5.8119562344587566e-05
5.060864738226735e-06   0.0   -5.8119562344587566e-05
5.060864738226735e-06   0.0   -5.8119562344587566e-05
5.060864738226735e-06   0.0   -5.8119562344587566e-05
3.945467328914657e-05   -2.2016333898925653e-06   -2.1175281269901318e-06
3.945467328914657e-05   -2.2016333898925653e-06   -2.1175281269901318e-06
3.945467328914657e-05   -2.2016333898925653e-06   -2.1175281269901318e-06
3.945467328914657e-05   -2.2016333898925653e-06   -2.1175281269901318e-06
4.0216783342155474e-05   0.0   -5.71348345267979e-05
4.0216783342155474e-05   0.0   -5.71348345267979e-05
4.0216783342155474e-05   0.0   -5.71348345267979e-05
4.0216783342155474e-05   0.0   -5.71348345267979e-05
5.8147709564528025e-06   -4.591973279515491e-07   4.773711794774577e-07
5.8147709564528025e-06   -4.591973279515491e-07   4.773711794774577e-07
5.8147709564528025e-06   -4.591973279515491e-07   4.773711794774577e-07
5.8147709564528025e-06   -4.591973279515491e-07   4.773711794774577e-07
2.2638824040191086e-05   8.206065148247686e-07   -2.8330599599085438e-05
2.2638824040191086e-05   8.206065148247686e-07   -2.8330599599085438e-05
2.2638824040191086e-05   8.206065148247686e-07   -2.8330599599085438e-05
2.2638824040191086e-05   8.206065148247686e-07   -2.8330599599085438e-05
3.955856125895215e-05   0.0   -5.998191056699445e-05
3.955856125895215e-05   0.0   -5.998191056699445e-05
3.955856125895215e-05   0.0   -5.998191056699445e-05
3.955856125895215e-05   0.0   -5.998191056699445e-05
8.929627765712684e-05   -1.1760259147572497e-05   1.585812794142034e-05
8.929627765712684e-05   -1.1760259147572497e-05   1.585812794142034e-05
8.929627765712684e-05   -1.1760259147572497e-05   1.585812794142034e-05
8.929627765712684e-05   -1.1760259147572497e-05   1.585812794142034e-05
8.38604649969506e-05   0.0   -6.630607853841641e-05
8.38604649969506e-05   0.0   -6.630607853841641e-05
8.38604649969506e-05   0.0   -6.630607853841641e-05
8.38604649969506e-05   0.0   -6.630607853841641e-05
3.962647778345033e-05   -1.0007390116547154e-05   1.3421667554012304e-05
3.962647778345033e-05   -1.0007390116547154e-05   1.3421667554012304e-05
3.962647778345033e-05   -1.0007390116547154e-05   1.3421667554012304e-05
3.962647778345033e-05   -1.0007390116547154e-05   1.3421667554012304e-05
6.170951312795137e-05   -5.270139976184976e-06   -2.6225741437706702e-05
6.170951312795137e-05   -5.270139976184976e-06   -2.6225741437706702e-05
6.170951312795137e-05   -5.270139976184976e-06   -2.6225741437706702e-05
6.170951312795137e-05   -5.270139976184976e-06   -2.6225741437706702e-05
3.96264777834503e-05   0.0   -6.030164446848807e-05
3.96264777834503e-05   0.0   -6.030164446848807e-05
3.96264777834503e-05   0.0   -6.030164446848807e-05
3.96264777834503e-05   0.0   -6.030164446848807e-05
8.386046499695031e-05   -1.0007390116547113e-05   7.417233484083996e-06
8.386046499695031e-05   -1.0007390116547113e-05   7.417233484083996e-06
8.386046499695031e-05   -1.0007390116547113e-05   7.417233484083996e-06
8.386046499695031e-05   -1.0007390116547113e-05   7.417233484083996e-06
8.135285038237124e-05   0.0   -6.492751596793001e-05
8.135285038237124e-05   0.0   -6.492751596793001e-05
8.135285038237124e-05   0.0   -6.492751596793001e-05
8.135285038237124e-05   0.0   -6.492751596793001e-05
3.945467328914657e-05   -9.144955982344751e-06   1.0389752776851282e-05
3.945467328914657e-05   -9.144955982344751e-06   1.0389752776851282e-05
3.945467328914657e-05   -9.144955982344751e-06   1.0389752776851282e-05
3.945467328914657e-05   -9.144955982344751e-06   1.0389752776851282e-05
6.0489664082910756e-05   -3.854892916201577e-06   -2.7842603052441604e-05
6.0489664082910756e-05   -3.854892916201577e-06   -2.7842603052441604e-05
6.0489664082910756e-05   -3.854892916201577e-06   -2.7842603052441604e-05
6.0489664082910756e-05   -3.854892916201577e-06   -2.7842603052441604e-05
3.945467328914657e-05   0.0   -5.9440542378523164e-05
3.945467328914657e-05   0.0   -5.9440542378523164e-05
3.945467328914657e-05   0.0   -5.9440542378523164e-05
3.945467328914657e-05   0.0   -5.9440542378523164e-05
8.135285038237096e-05   -9.144955982344724e-06   4.902779187444426e-06
8.135285038237096e-05   -9.144955982344724e-06   4.902779187444426e-06
8.135285038237096e-05   -9.144955982344724e-06   4.902779187444426e-06
8.135285038237096e-05   -9.144955982344724e-06   4.902779187444426e-06
7.762117838159351e-05   0.0   -6.140034601265004e-05
7.762117838159351e-05   0.0   -6.140034601265004e-05
7.762117838159351e-05   0.0   -6.140034601265004e-05
7.762117838159351e-05   0.0   -6.140034601265004e-05
4.0216783342155474e-05   -7.1091858097537485e-06   5.205823872265713e-06
4.0216783342155474e-05   -7.1091858097537485e-06   5.205823872265713e-06
4.0216783342155474e-05   -7.1091858097537485e-06   5.205823872265713e-06
4.0216783342155474e-05   -7.1091858097537485e-06   5.205823872265713e-06
5.8537925835370106e-05   -1.633169695105823e-06   -2.8615023285214058e-05
5.8537925835370106e-05   -1.633169695105823e-06   -2.8615023285214058e-05
5.8537925835370106e-05   -1.633169695105823e-06   -2.8615023285214058e-05
5.8537925835370106e-05   -1.633169695105823e-06   -2.8615023285214058e-05
-8.732498610903817e-05   1.1150327294092422e-05   -5.728523075408373e-05
-8.732498610903817e-05   1.1150327294092422e-05   -5.728523075408373e-05
-8.732498610903817e-05   1.1150327294092422e-05   -5.728523075408373e-05
-8.732498610903817e-05   1.1150327294092422e-05   -5.728523075408373e-05
-5.592981583851937e-05   1.002805566860317e-05   -5.633309945179228e-06
-5.592981583851937e-05   1.002805566860317e-05   -5.633309945179228e-06
-5.592981583851937e-05   1.002805566860317e-05   -5.633309945179228e-06
-5.592981583851937e-05   1.002805566860317e-05   -5.633309945179228e-06
-5.733802157193911e-05   1.3379890609270653e-05   -4.810932599372809e-05
-5.733802157193911e-05   1.3379890609270653e-05   -4.810932599372809e-05
-5.733802157193911e-05   1.3379890609270653e-05   -4.810932599372809e-05
-5.733802157193911e-05   1.3379890609270653e-05   -4.810932599372809e-05
-8.82723572068611e-05   1.2035256989492487e-05   4.254680236342274e-06
-8.82723572068611e-05   1.2035256989492487e-05   4.254680236342274e-06
-8.82723572068611e-05   1.2035256989492487e-05   4.254680236342274e-06
-8.82723572068611e-05   1.2035256989492487e-05   4.254680236342274e-06
-6.935606293817623e-05   1.1646582634443055e-05   -2.703927226510328e-05
-6.935606293817623e-05   1.1646582634443055e-05   -2.703927226510328e-05
-6.935606293817623e-05   1.1646582634443055e-05   -2.703927226510328e-05
-6.935606293817623e-05   1.1646582634443055e-05   -2.703927226510328e-05
-8.82723572068611e-05   1.3379890609270653e-05   -4.7302545821861235e-05
-8.82723572068611e-05   1.3379890609270653e-05   -4.7302545821861235e-05
-8.82723572068611e-05   1.3379890609270653e-05   -4.7302545821861235e-05
-8.82723572068611e-05   1.3379890609270653e-05   -4.7302545821861235e-05
-5.7338021571939316e-05   1.2035256989492596e-05   3.4479000644754073e-06
-5.7338021571939316e-05   1.2035256989492596e-05   3.4479000644754073e-06
-5.7338021571939316e-05   1.2035256989492596e-05   3.4479000644754073e-06
-5.7338021571939316e-05   1.2035256989492596e-05   3.4479000644754073e-06
-5.763408526893114e-05   1.4334244199163917e-05   -4.325226655997957e-05
-5.763408526893114e-05   1.4334244199163917e-05   -4.325226655997957e-05
-5.763408526893114e-05   1.4334244199163917e-05   -4.325226655997957e-05
-5.763408526893114e-05   1.4334244199163917e-05   -4.325226655997957e-05
-8.889537337015831e-05   1.2941135353879835e-05   9.685745582569153e-06
-8.889537337015831e-05   1.2941135353879835e-05   9.685745582569153e-06
-8.889537337015831e-05   1.2941135353879835e-05   9.685745582569153e-06
-8.889537337015831e-05   1.2941135353879835e-05   9.685745582569153e-06
-7.139672849426905e-05   1.2908709167932039e-05   -1.9459206832343995e-05
-7.139672849426905e-05   1.2908709167932039e-05   -1.9459206832343995e-05
-7.139672849426905e-05   1.2908709167932039e-05   -1.9459206832343995e-05
-7.139672849426905e-05   1.2908709167932039e-05   -1.9459206832343995e-05
-8.889537337015815e-05   1.4334244199163917e-05   -4.241640125280913e-05
-8.889537337015815e-05   1.4334244199163917e-05   -4.241640125280913e-05
-8.889537337015815e-05   1.4334244199163917e-05   -4.241640125280913e-05
-8.889537337015815e-05   1.4334244199163917e-05   -4.241640125280913e-05
-5.7634085268931236e-05   1.2941135353879835e-05   8.849880275398699e-06
-5.7634085268931236e-05   1.2941135353879835e-05   8.849880275398699e-06
-5.7634085268931236e-05   1.2941135353879835e-05   8.849880275398699e-06
-5.7634085268931236e-05   1.2941135353879835e-05   8.849880275398699e-06
-5.7307845743702934e-05   1.632873015299217e-05   -3.195599738067286e-05
-5.7307845743702934e-05   1.632873015299217e-05   -3.195599738067286e-05
-5.7307845743702934e-05   1.632873015299217e-05   -3.195599738067286e-05
-5.7307845743702934e-05   1.632873015299217e-05   -3.195599738067286e-05
-8.643291993210319e-05   1.3661093701862015e-05   1.8186374804005383e-05
-8.643291993210319e-05   1.3661093701862015e-05   1.8186374804005383e-05
-8.643291993210319e-05   1.3661093701862015e-05   1.8186374804005383e-05
-8.643291993210319e-05   1.3661093701862015e-05   1.8186374804005383e-05
-6.954124708250138e-05   1.4158594640554742e-05   -1.0264913841879863e-05
-6.954124708250138e-05   1.4158594640554742e-05   -1.0264913841879863e-05
-6.954124708250138e-05   1.4158594640554742e-05   -1.0264913841879863e-05
-6.954124708250138e-05   1.4158594640554742e-05   -1.0264913841879863e-05
-5.592981583851937e-05   4.089934337523401e-06   -6.082697432607078e-05
-5.592981583851937e-05   4.089934337523401e-06   -6.082697432607078e-05
-5.592981583851937e-05   4.089934337523401e-06   -6.082697432607078e-05
-5.592981583851937e-05   4.089934337523401e-06   -6.082697432607078e-05
-2.6500709736981914e-05   4.666184983907274e-06   -1.1432713769011247e-05
-2.6500709736981914e-05   4.666184983907274e-06   -1.1432713769011247e-05
-2.6500709736981914e-05   4.666184983907274e-06   -1.1432713769011247e-05
-2.6500709736981914e-05   4.666184983907274e-06   -1.1432713769011247e-05
-2.7134914587117077e-05   5.822060736336804e-06   -6.0735484894285525e-05
-2.7134914587117077e-05   5.822060736336804e-06   -6.0735484894285525e-05
-2.7134914587117077e-05   5.822060736336804e-06   -6.0735484894285525e-05
-2.7134914587117077e-05   5.822060736336804e-06   -6.0735484894285525e-05
-5.733802157193911e-05   6.511953172149885e-06   -1.0810908714403163e-05
-5.733802157193911e-05   6.511953172149885e-06   -1.0810908714403163e-05
-5.733802157193911e-05   6.511953172149885e-06   -1.0810908714403163e-05
-5.733802157193911e-05   6.511953172149885e-06   -1.0810908714403163e-05
-4.160843844011128e-05   5.243553250342746e-06   -3.6265840647698946e-05
-4.160843844011128e-05   5.243553250342746e-06   -3.6265840647698946e-05
-4.160843844011128e-05   5.243553250342746e-06   -3.6265840647698946e-05
-4.160843844011128e-05   5.243553250342746e-06   -3.6265840647698946e-05
-5.733802157193906e-05   5.822060736336804e-06   -6.114942035577324e-05
-5.733802157193906e-05   5.822060736336804e-06   -6.114942035577324e-05
-5.733802157193906e-05   5.822060736336804e-06   -6.114942035577324e-05
-5.733802157193906e-05   5.822060736336804e-06   -6.114942035577324e-05
-2.7134914587117125e-05   6.5119531721498304e-06   -1.039697325291535e-05
-2.7134914587117125e-05   6.5119531721498304e-06   -1.039697325291535e-05
-2.7134914587117125e-05   6.5119531721498304e-06   -1.039697325291535e-05
-2.7134914587117125e-05   6.5119531721498304e-06   -1.039697325291535e-05
-2.733531624852727e-05   7.133682132772469e-06   -5.959885241004493e-05
-2.733531624852727e-05   7.133682132772469e-06   -5.959885241004493e-05
-2.733531624852727e-05   7.133682132772469e-06   -5.959885241004493e-05
-2.733531624852727e-05   7.133682132772469e-06   -5.959885241004493e-05
-5.763408526893114e-05   8.039661354547836e-06   -9.64449157577041e-06
-5.763408526893114e-05   8.039661354547836e-06   -9.64449157577041e-06
-5.763408526893114e-05   8.039661354547836e-06   -9.64449157577041e-06
-5.763408526893114e-05   8.039661354547836e-06   -9.64449157577041e-06
-4.1935199872931605e-05   6.654819619046116e-06   -3.497839552780177e-05
-4.1935199872931605e-05   6.654819619046116e-06   -3.497839552780177e-05
-4.1935199872931605e-05   6.654819619046116e-06   -3.497839552780177e-05
-4.1935199872931605e-05   6.654819619046116e-06   -3.497839552780177e-05
-5.763408526893114e-05   7.133682132772469e-06   -6.0142439943110135e-05
-5.763408526893114e-05   7.133682132772469e-06   -6.0142439943110135e-05
-5.763408526893114e-05   7.133682132772469e-06   -6.0142439943110135e-05
-5.763408526893114e-05   7.133682132772469e-06   -6.0142439943110135e-05
-2.7335316248527364e-05   8.039661354547836e-06   -9.100904042705196e-06
-2.7335316248527364e-05   8.039661354547836e-06   -9.100904042705196e-06
-2.7335316248527364e-05   8.039661354547836e-06   -9.100904042705196e-06
-2.7335316248527364e-05   8.039661354547836e-06   -9.100904042705196e-06
-2.7270181249156134e-05   8.300527944879571e-06   -5.898947838045869e-05
-2.7270181249156134e-05   8.300527944879571e-06   -5.898947838045869e-05
-2.7270181249156134e-05   8.300527944879571e-06   -5.898947838045869e-05
-2.7270181249156134e-05   8.300527944879571e-06   -5.898947838045869e-05
-5.730784574370288e-05   9.683332390792972e-06   -9.756386890428799e-06
-5.730784574370288e-05   9.683332390792972e-06   -9.756386890428799e-06
-5.730784574370288e-05   9.683332390792972e-06   -9.756386890428799e-06
-5.730784574370288e-05   9.683332390792972e-06   -9.756386890428799e-06
-4.218366786987544e-05   7.932169148901447e-06   -3.3912652068339845e-05
-4.218366786987544e-05   7.932169148901447e-06   -3.3912652068339845e-05
-4.218366786987544e-05   7.932169148901447e-06   -3.3912652068339845e-05
-4.218366786987544e-05   7.932169148901447e-06   -3.3912652068339845e-05
-2.6500709736981863e-05   -5.236549873281228e-07   -6.36869692994545e-05
-2.6500709736981863e-05   -5.236549873281228e-07   -6.36869692994545e-05
-2.6500709736981863e-05   -5.236549873281228e-07   -6.36869692994545e-05
-2.6500709736981863e-05   -5.236549873281228e-07   -6.36869692994545e-05
2.55734915672286e-06   -1.387820693088404e-07   -1.5025947392468362e-05
2.55734915672286e-06   -1.387820693088404e-07   -1.5025947392468362e-05
2.55734915672286e-06   -1.387820693088404e-07   -1.5025947392468362e-05
2.55734915672286e-06   -1.387820693088404e-07   -1.5025947392468362e-05
2.4363188356312484e-06   1.0320253848296681e-06   -6.404183181571416e-05
2.4363188356312484e-06   1.0320253848296681e-06   -6.404183181571416e-05
2.4363188356312484e-06   1.0320253848296681e-06   -6.404183181571416e-05
2.4363188356312484e-06   1.0320253848296681e-06   -6.404183181571416e-05
-2.7134914587117077e-05   1.5617860466267354e-06   -1.507429917487831e-05
-2.7134914587117077e-05   1.5617860466267354e-06   -1.507429917487831e-05
-2.7134914587117077e-05   1.5617860466267354e-06   -1.507429917487831e-05
-2.7134914587117077e-05   1.5617860466267354e-06   -1.507429917487831e-05
-1.2233806065156113e-05   5.184959198699997e-07   -3.9283505968759325e-05
-1.2233806065156113e-05   5.184959198699997e-07   -3.9283505968759325e-05
-1.2233806065156113e-05   5.184959198699997e-07   -3.9283505968759325e-05
-1.2233806065156113e-05   5.184959198699997e-07   -3.9283505968759325e-05
-2.7134914587117077e-05   1.0320253848296681e-06   -6.435968821279231e-05
-2.7134914587117077e-05   1.0320253848296681e-06   -6.435968821279231e-05
-2.7134914587117077e-05   1.0320253848296681e-06   -6.435968821279231e-05
-2.7134914587117077e-05   1.0320253848296681e-06   -6.435968821279231e-05
2.4363188356312484e-06   1.5617860466267896e-06   -1.4756442777800053e-05
2.4363188356312484e-06   1.5617860466267896e-06   -1.4756442777800053e-05
2.4363188356312484e-06   1.5617860466267896e-06   -1.4756442777800053e-05
2.4363188356312484e-06   1.5617860466267896e-06   -1.4756442777800053e-05
2.2719870463944677e-06   2.4017423262149217e-06   -6.417584279454811e-05
2.2719870463944677e-06   2.4017423262149217e-06   -6.417584279454811e-05
2.2719870463944677e-06   2.4017423262149217e-06   -6.417584279454811e-05
2.2719870463944677e-06   2.4017423262149217e-06   -6.417584279454811e-05
-2.733531624852727e-05   3.223334196291415e-06   -1.5323292425057858e-05
-2.733531624852727e-05   3.223334196291415e-06   -1.5323292425057858e-05
-2.733531624852727e-05   3.223334196291415e-06   -1.5323292425057858e-05
-2.733531624852727e-05   3.223334196291415e-06   -1.5323292425057858e-05
-1.246371738947237e-05   1.9596817571455286e-06   -3.935109905999498e-05
-1.246371738947237e-05   1.9596817571455286e-06   -3.935109905999498e-05
-1.246371738947237e-05   1.9596817571455286e-06   -3.935109905999498e-05
-1.246371738947237e-05   1.9596817571455286e-06   -3.935109905999498e-05
-2.733531624852727e-05   2.4017423262149217e-06   -6.4668797916594e-05
-2.733531624852727e-05   2.4017423262149217e-06   -6.4668797916594e-05
-2.733531624852727e-05   2.4017423262149217e-06   -6.4668797916594e-05
-2.733531624852727e-05   2.4017423262149217e-06   -6.4668797916594e-05
2.271987046394471e-06   3.223334196291415e-06   -1.4830337303011943e-05
2.271987046394471e-06   3.223334196291415e-06   -1.4830337303011943e-05
2.271987046394471e-06   3.223334196291415e-06   -1.4830337303011943e-05
2.271987046394471e-06   3.223334196291415e-06   -1.4830337303011943e-05
1.9426383424012202e-06   3.98830980655338e-06   -6.406536440568299e-05
1.9426383424012202e-06   3.98830980655338e-06   -6.406536440568299e-05
1.9426383424012202e-06   3.98830980655338e-06   -6.406536440568299e-05
1.9426383424012202e-06   3.98830980655338e-06   -6.406536440568299e-05
-2.7270181249156158e-05   4.954544814087013e-06   -1.5957072757607607e-05
-2.7270181249156158e-05   4.954544814087013e-06   -1.5957072757607607e-05
-2.7270181249156158e-05   4.954544814087013e-06   -1.5957072757607607e-05
-2.7270181249156158e-05   4.954544814087013e-06   -1.5957072757607607e-05
-1.2603578020853366e-05   3.4402180693387174e-06   -3.949281542459654e-05
-1.2603578020853366e-05   3.4402180693387174e-06   -3.949281542459654e-05
-1.2603578020853366e-05   3.4402180693387174e-06   -3.949281542459654e-05
-1.2603578020853366e-05   3.4402180693387174e-06   -3.949281542459654e-05
2.55734915672286e-06   -4.639807544520031e-06   -5.8763311040752785e-05
2.55734915672286e-06   -4.639807544520031e-06   -5.8763311040752785e-05
2.55734915672286e-06   -4.639807544520031e-06   -5.8763311040752785e-05
2.55734915672286e-06   -4.639807544520031e-06   -5.8763311040752785e-05
3.2502174088874475e-05   -4.77026189012311e-06   -8.933542094528613e-06
3.2502174088874475e-05   -4.77026189012311e-06   -8.933542094528613e-06
3.2502174088874475e-05   -4.77026189012311e-06   -8.933542094528613e-06
3.2502174088874475e-05   -4.77026189012311e-06   -8.933542094528613e-06
3.2766813972553975e-05   -3.4982094311904476e-06   -5.95829380784795e-05
3.2766813972553975e-05   -3.4982094311904476e-06   -5.95829380784795e-05
3.2766813972553975e-05   -3.4982094311904476e-06   -5.95829380784795e-05
3.2766813972553975e-05   -3.4982094311904476e-06   -5.95829380784795e-05
2.4363188356312484e-06   -3.2252410716421785e-06   -9.195893866003789e-06
2.4363188356312484e-06   -3.2252410716421785e-06   -9.195893866003789e-06
2.4363188356312484e-06   -3.2252410716421785e-06   -9.195893866003789e-06
2.4363188356312484e-06   -3.2252410716421785e-06   -9.195893866003789e-06
1.7341184414242244e-05   -3.860650045971512e-06   -3.3656091112424616e-05
1.7341184414242244e-05   -3.860650045971512e-06   -3.3656091112424616e-05
1.7341184414242244e-05   -3.860650045971512e-06   -3.3656091112424616e-05
1.7341184414242244e-05   -3.860650045971512e-06   -3.3656091112424616e-05
2.436318835631245e-06   -3.4982094311904476e-06   -5.974671909420856e-05
2.436318835631245e-06   -3.4982094311904476e-06   -5.974671909420856e-05
2.436318835631245e-06   -3.4982094311904476e-06   -5.974671909420856e-05
2.436318835631245e-06   -3.4982094311904476e-06   -5.974671909420856e-05
3.276681397255403e-05   -3.2252410716421785e-06   -9.032112850274797e-06
3.276681397255403e-05   -3.2252410716421785e-06   -9.032112850274797e-06
3.276681397255403e-05   -3.2252410716421785e-06   -9.032112850274797e-06
3.276681397255403e-05   -3.2252410716421785e-06   -9.032112850274797e-06
3.2602967487871654e-05   -2.2016333898925653e-06   -6.069888834411013e-05
3.2602967487871654e-05   -2.2016333898925653e-06   -6.069888834411013e-05
3.2602967487871654e-05   -2.2016333898925653e-06   -6.069888834411013e-05
3.2602967487871654e-05   -2.2016333898925653e-06   -6.069888834411013e-05
2.2719870463944677e-06   -1.7117459099909435e-06   -1.0441186762922544e-05
2.2719870463944677e-06   -1.7117459099909435e-06   -1.0441186762922544e-05
2.2719870463944677e-06   -1.7117459099909435e-06   -1.0441186762922544e-05
2.2719870463944677e-06   -1.7117459099909435e-06   -1.0441186762922544e-05
1.7153762314937832e-05   -2.6270600998660023e-06   -3.469495702990299e-05
1.7153762314937832e-05   -2.6270600998660023e-06   -3.469495702990299e-05
1.7153762314937832e-05   -2.6270600998660023e-06   -3.469495702990299e-05
1.7153762314937832e-05   -2.6270600998660023e-06   -3.469495702990299e-05
2.271987046394466e-06   -2.2016333898925653e-06   -6.099282083205113e-05
2.271987046394466e-06   -2.2016333898925653e-06   -6.099282083205113e-05
2.271987046394466e-06   -2.2016333898925653e-06   -6.099282083205113e-05
2.271987046394466e-06   -2.2016333898925653e-06   -6.099282083205113e-05
3.2602967487871776e-05   -1.7117459099908893e-06   -1.014725427498156e-05
3.2602967487871776e-05   -1.7117459099908893e-06   -1.014725427498156e-05
3.2602967487871776e-05   -1.7117459099908893e-06   -1.014725427498156e-05
3.2602967487871776e-05   -1.7117459099908893e-06   -1.014725427498156e-05
3.164810136051536e-05   -4.5919732795153556e-07   -6.080614418270998e-05
3.164810136051536e-05   -4.5919732795153556e-07   -6.080614418270998e-05
3.164810136051536e-05   -4.5919732795153556e-07   -6.080614418270998e-05
3.164810136051536e-05   -4.5919732795153556e-07   -6.080614418270998e-05
1.9426383424012202e-06   1.603498551653714e-07   -1.1668767462389972e-05
1.9426383424012202e-06   1.603498551653714e-07   -1.1668767462389972e-05
1.9426383424012202e-06   1.603498551653714e-07   -1.1668767462389972e-05
1.9426383424012202e-06   1.603498551653714e-07   -1.1668767462389972e-05
1.6964146120846365e-05   -1.186245699447277e-06   -3.5896656427030886e-05
1.6964146120846365e-05   -1.186245699447277e-06   -3.5896656427030886e-05
1.6964146120846365e-05   -1.186245699447277e-06   -3.5896656427030886e-05
1.6964146120846365e-05   -1.186245699447277e-06   -3.5896656427030886e-05
3.2502174088874475e-05   -1.1760259147572497e-05   -3.555766389338892e-05
3.2502174088874475e-05   -1.1760259147572497e-05   -3.555766389338892e-05
3.2502174088874475e-05   -1.1760259147572497e-05   -3.555766389338892e-05
3.2502174088874475e-05   -1.1760259147572497e-05   -3.555766389338892e-05
6.205889136144468e-05   -8.867058020845745e-06   1.5439452236930642e-05
6.205889136144468e-05   -8.867058020845745e-06   1.5439452236930642e-05
6.205889136144468e-05   -8.867058020845745e-06   1.5439452236930642e-05
6.205889136144468e-05   -8.867058020845745e-06   1.5439452236930642e-05
6.441408385189216e-05   -1.000739011654714e-05   -4.322477657725766e-05
6.441408385189216e-05   -1.000739011654714e-05   -4.322477657725766e-05
6.441408385189216e-05   -1.000739011654714e-05   -4.322477657725766e-05
6.441408385189216e-05   -1.000739011654714e-05   -4.322477657725766e-05
3.27668139725541e-05   -8.044945861602495e-06   8.343206668672449e-06
3.27668139725541e-05   -8.044945861602495e-06   8.343206668672449e-06
3.27668139725541e-05   -8.044945861602495e-06   8.343206668672449e-06
3.27668139725541e-05   -8.044945861602495e-06   8.343206668672449e-06
4.5706264378045985e-05   -9.629016889902195e-06   -1.2272101390167631e-05
4.5706264378045985e-05   -9.629016889902195e-06   -1.2272101390167631e-05
4.5706264378045985e-05   -9.629016889902195e-06   -1.2272101390167631e-05
4.5706264378045985e-05   -9.629016889902195e-06   -1.2272101390167631e-05
3.276681397255401e-05   -1.0007390116547127e-05   -4.440224313022432e-05
3.276681397255401e-05   -1.0007390116547127e-05   -4.440224313022432e-05
3.276681397255401e-05   -1.0007390116547127e-05   -4.440224313022432e-05
3.276681397255401e-05   -1.0007390116547127e-05   -4.440224313022432e-05
6.441408385189216e-05   -8.044945861602495e-06   9.520673221639247e-06
6.441408385189216e-05   -8.044945861602495e-06   9.520673221639247e-06
6.441408385189216e-05   -8.044945861602495e-06   9.520673221639247e-06
6.441408385189216e-05   -8.044945861602495e-06   9.520673221639247e-06
6.416871754747073e-05   -9.144955982344751e-06   -4.700900214337289e-05
6.416871754747073e-05   -9.144955982344751e-06   -4.700900214337289e-05
6.416871754747073e-05   -9.144955982344751e-06   -4.700900214337289e-05
6.416871754747073e-05   -9.144955982344751e-06   -4.700900214337289e-05
3.2602967487871776e-05   -7.173947154184639e-06   4.417975992395919e-06
3.2602967487871776e-05   -7.173947154184639e-06   4.417975992395919e-06
3.2602967487871776e-05   -7.173947154184639e-06   4.417975992395919e-06
3.2602967487871776e-05   -7.173947154184639e-06   4.417975992395919e-06
4.7299860699874554e-05   -8.504291504464554e-06   -1.9278639417440722e-05
4.7299860699874554e-05   -8.504291504464554e-06   -1.9278639417440722e-05
4.7299860699874554e-05   -8.504291504464554e-06   -1.9278639417440722e-05
4.7299860699874554e-05   -8.504291504464554e-06   -1.9278639417440722e-05
3.260296748787172e-05   -9.144955982344738e-06   -4.8191607440268854e-05
3.260296748787172e-05   -9.144955982344738e-06   -4.8191607440268854e-05
3.260296748787172e-05   -9.144955982344738e-06   -4.8191607440268854e-05
3.260296748787172e-05   -9.144955982344738e-06   -4.8191607440268854e-05
6.416871754747073e-05   -7.173947154184639e-06   5.600581289291957e-06
6.416871754747073e-05   -7.173947154184639e-06   5.600581289291957e-06
6.416871754747073e-05   -7.173947154184639e-06   5.600581289291957e-06
6.416871754747073e-05   -7.173947154184639e-06   5.600581289291957e-06
6.377572157766867e-05   -7.1091858097537485e-06   -5.471637462065973e-05
6.377572157766867e-05   -7.1091858097537485e-06   -5.471637462065973e-05
6.377572157766867e-05   -7.1091858097537485e-06   -5.471637462065973e-05
6.377572157766867e-05   -7.1091858097537485e-06   -5.471637462065973e-05
3.164810136051548e-05   -5.299521688934949e-06   -2.25613939789576e-06
3.164810136051548e-05   -5.299521688934949e-06   -2.25613939789576e-06
3.164810136051548e-05   -5.299521688934949e-06   -2.25613939789576e-06
3.164810136051548e-05   -5.299521688934949e-06   -2.25613939789576e-06
4.594245350587698e-05   -7.323012916115874e-06   -2.4865964903856305e-05
4.594245350587698e-05   -7.323012916115874e-06   -2.4865964903856305e-05
4.594245350587698e-05   -7.323012916115874e-06   -2.4865964903856305e-05
4.594245350587698e-05   -7.323012916115874e-06   -2.4865964903856305e-05
-6.9572555019997e-05   1.002805566860317e-05   -4.801378607484361e-05
-6.9572555019997e-05   1.002805566860317e-05   -4.801378607484361e-05
-6.9572555019997e-05   1.002805566860317e-05   -4.801378607484361e-05
-6.9572555019997e-05   1.002805566860317e-05   -4.801378607484361e-05
-4.5608681216068066e-05   7.66332698874661e-06   -9.492833609542665e-06
-4.5608681216068066e-05   7.66332698874661e-06   -9.492833609542665e-06
-4.5608681216068066e-05   7.66332698874661e-06   -9.492833609542665e-06
-4.5608681216068066e-05   7.66332698874661e-06   -9.492833609542665e-06
-4.582996411908188e-05   1.2035256989492487e-05   -3.9865509207330095e-05
-4.582996411908188e-05   1.2035256989492487e-05   -3.9865509207330095e-05
-4.582996411908188e-05   1.2035256989492487e-05   -3.9865509207330095e-05
-4.582996411908188e-05   1.2035256989492487e-05   -3.9865509207330095e-05
-6.852066864654959e-05   9.269952634665497e-06   -3.884857153209744e-07
-6.852066864654959e-05   9.269952634665497e-06   -3.884857153209744e-07
-6.852066864654959e-05   9.269952634665497e-06   -3.884857153209744e-07
-6.852066864654959e-05   9.269952634665497e-06   -3.884857153209744e-07
-5.4956235985025405e-05   1.01968215394366e-05   -2.3551994827390786e-05
-5.4956235985025405e-05   1.01968215394366e-05   -2.3551994827390786e-05
-5.4956235985025405e-05   1.01968215394366e-05   -2.3551994827390786e-05
-5.4956235985025405e-05   1.01968215394366e-05   -2.3551994827390786e-05
-6.852066864654959e-05   1.2035256989492487e-05   -3.8206326594433836e-05
-6.852066864654959e-05   1.2035256989492487e-05   -3.8206326594433836e-05
-6.852066864654959e-05   1.2035256989492487e-05   -3.8206326594433836e-05
-6.852066864654959e-05   1.2035256989492487e-05   -3.8206326594433836e-05
-4.582996411908188e-05   9.269952634665605e-06   -2.047668328217044e-06
-4.582996411908188e-05   9.269952634665605e-06   -2.047668328217044e-06
-4.582996411908188e-05   9.269952634665605e-06   -2.047668328217044e-06
-4.582996411908188e-05   9.269952634665605e-06   -2.047668328217044e-06
-4.578438040646568e-05   1.2941135353879835e-05   -3.4105090234926396e-05
-4.578438040646568e-05   1.2941135353879835e-05   -3.4105090234926396e-05
-4.578438040646568e-05   1.2941135353879835e-05   -3.4105090234926396e-05
-4.578438040646568e-05   1.2941135353879835e-05   -3.4105090234926396e-05
-6.749492512308762e-05   9.975757859122746e-06   3.85837745629753e-06
-6.749492512308762e-05   9.975757859122746e-06   3.85837745629753e-06
-6.749492512308762e-05   9.975757859122746e-06   3.85837745629753e-06
-6.749492512308762e-05   9.975757859122746e-06   3.85837745629753e-06
-5.543255554972792e-05   1.1128201535776788e-05   -1.6937038038627116e-05
-5.543255554972792e-05   1.1128201535776788e-05   -1.6937038038627116e-05
-5.543255554972792e-05   1.1128201535776788e-05   -1.6937038038627116e-05
-5.543255554972792e-05   1.1128201535776788e-05   -1.6937038038627116e-05
-6.749492512308762e-05   1.2941135353879835e-05   -3.23258637380721e-05
-6.749492512308762e-05   1.2941135353879835e-05   -3.23258637380721e-05
-6.749492512308762e-05   1.2941135353879835e-05   -3.23258637380721e-05
-6.749492512308762e-05   1.2941135353879835e-05   -3.23258637380721e-05
-4.5784380406465775e-05   9.975757859122746e-06   2.0791509594436267e-06
-4.5784380406465775e-05   9.975757859122746e-06   2.0791509594436267e-06
-4.5784380406465775e-05   9.975757859122746e-06   2.0791509594436267e-06
-4.5784380406465775e-05   9.975757859122746e-06   2.0791509594436267e-06
-4.583166555078995e-05   1.3661093701862015e-05   -2.6037955884340995e-05
-4.583166555078995e-05   1.3661093701862015e-05   -2.6037955884340995e-05
-4.583166555078995e-05   1.3661093701862015e-05   -2.6037955884340995e-05
-4.583166555078995e-05   1.3661093701862015e-05   -2.6037955884340995e-05
-6.615489951096771e-05   1.067022751878523e-05   9.62862042580109e-06
-6.615489951096771e-05   1.067022751878523e-05   9.62862042580109e-06
-6.615489951096771e-05   1.067022751878523e-05   9.62862042580109e-06
-6.615489951096771e-05   1.067022751878523e-05   9.62862042580109e-06
-5.417103981892296e-05   1.1618105744825463e-05   -1.0913205996563539e-05
-5.417103981892296e-05   1.1618105744825463e-05   -1.0913205996563539e-05
-5.417103981892296e-05   1.1618105744825463e-05   -1.0913205996563539e-05
-5.417103981892296e-05   1.1618105744825463e-05   -1.0913205996563539e-05
-4.5608681216068066e-05   4.666184983907274e-06   -5.5577777494419933e-05
-4.5608681216068066e-05   4.666184983907274e-06   -5.5577777494419933e-05
-4.5608681216068066e-05   4.666184983907274e-06   -5.5577777494419933e-05
-4.5608681216068066e-05   4.666184983907274e-06   -5.5577777494419933e-05
-2.3210481427371672e-05   3.820840633134148e-06   -1.8754651123723092e-05
-2.3210481427371672e-05   3.820840633134148e-06   -1.8754651123723092e-05
-2.3210481427371672e-05   3.820840633134148e-06   -1.8754651123723092e-05
-2.3210481427371672e-05   3.820840633134148e-06   -1.8754651123723092e-05
-2.3493102534941312e-05   6.511953172149885e-06   -5.479096552123857e-05
-2.3493102534941312e-05   6.511953172149885e-06   -5.479096552123857e-05
-2.3493102534941312e-05   6.511953172149885e-06   -5.479096552123857e-05
-2.3493102534941312e-05   6.511953172149885e-06   -5.479096552123857e-05
-4.582996411908178e-05   5.400873947099824e-06   -1.689621534597431e-05
-4.582996411908178e-05   5.400873947099824e-06   -1.689621534597431e-05
-4.582996411908178e-05   5.400873947099824e-06   -1.689621534597431e-05
-4.582996411908178e-05   5.400873947099824e-06   -1.689621534597431e-05
-3.423996466115541e-05   5.3810590158205455e-06   -3.6200992150417526e-05
-3.423996466115541e-05   5.3810590158205455e-06   -3.6200992150417526e-05
-3.423996466115541e-05   5.3810590158205455e-06   -3.6200992150417526e-05
-3.423996466115541e-05   5.3810590158205455e-06   -3.6200992150417526e-05
-4.5829964119081836e-05   6.511953172149885e-06   -5.412431798620845e-05
-4.5829964119081836e-05   6.511953172149885e-06   -5.412431798620845e-05
-4.5829964119081836e-05   6.511953172149885e-06   -5.412431798620845e-05
-4.5829964119081836e-05   6.511953172149885e-06   -5.412431798620845e-05
-2.3493102534941353e-05   5.400873947099824e-06   -1.7562862881004278e-05
-2.3493102534941353e-05   5.400873947099824e-06   -1.7562862881004278e-05
-2.3493102534941353e-05   5.400873947099824e-06   -1.7562862881004278e-05
-2.3493102534941353e-05   5.400873947099824e-06   -1.7562862881004278e-05
-2.3676622441328658e-05   8.039661354547836e-06   -5.334055572959556e-05
-2.3676622441328658e-05   8.039661354547836e-06   -5.334055572959556e-05
-2.3676622441328658e-05   8.039661354547836e-06   -5.334055572959556e-05
-2.3676622441328658e-05   8.039661354547836e-06   -5.334055572959556e-05
-4.578438040646568e-05   6.804505282047551e-06   -1.5753198810867315e-05
-4.578438040646568e-05   6.804505282047551e-06   -1.5753198810867315e-05
-4.578438040646568e-05   6.804505282047551e-06   -1.5753198810867315e-05
-4.578438040646568e-05   6.804505282047551e-06   -1.5753198810867315e-05
-3.4303993225112704e-05   6.68088676860284e-06   -3.481300633838817e-05
-3.4303993225112704e-05   6.68088676860284e-06   -3.481300633838817e-05
-3.4303993225112704e-05   6.68088676860284e-06   -3.481300633838817e-05
-3.4303993225112704e-05   6.68088676860284e-06   -3.481300633838817e-05
-4.578438040646568e-05   8.039661354547782e-06   -5.2599462086095505e-05
-4.578438040646568e-05   8.039661354547782e-06   -5.2599462086095505e-05
-4.578438040646568e-05   8.039661354547782e-06   -5.2599462086095505e-05
-4.578438040646568e-05   8.039661354547782e-06   -5.2599462086095505e-05
-2.3676622441328753e-05   6.804505282047659e-06   -1.649429245436723e-05
-2.3676622441328753e-05   6.804505282047659e-06   -1.649429245436723e-05
-2.3676622441328753e-05   6.804505282047659e-06   -1.649429245436723e-05
-2.3676622441328753e-05   6.804505282047659e-06   -1.649429245436723e-05
-2.391383070270677e-05   9.683332390793026e-06   -5.321162512418121e-05
-2.391383070270677e-05   9.683332390793026e-06   -5.321162512418121e-05
-2.391383070270677e-05   9.683332390793026e-06   -5.321162512418121e-05
-2.391383070270677e-05   9.683332390793026e-06   -5.321162512418121e-05
-4.583166555078991e-05   8.29751669731947e-06   -1.585041096129183e-05
-4.583166555078991e-05   8.29751669731947e-06   -1.585041096129183e-05
-4.583166555078991e-05   8.29751669731947e-06   -1.585041096129183e-05
-4.583166555078991e-05   8.29751669731947e-06   -1.585041096129183e-05
-3.471119242834648e-05   7.968268990266709e-06   -3.4186984207798825e-05
-3.471119242834648e-05   7.968268990266709e-06   -3.4186984207798825e-05
-3.471119242834648e-05   7.968268990266709e-06   -3.4186984207798825e-05
-3.471119242834648e-05   7.968268990266709e-06   -3.4186984207798825e-05
-2.3210481427371618e-05   -1.387820693088404e-07   -5.990914147915245e-05
-2.3210481427371618e-05   -1.387820693088404e-07   -5.990914147915245e-05
-2.3210481427371618e-05   -1.387820693088404e-07   -5.990914147915245e-05
-2.3210481427371618e-05   -1.387820693088404e-07   -5.990914147915245e-05
-1.063609195708891e-06   2.0335722828357296e-07   -2.2792404181159158e-05
-1.063609195708891e-06   2.0335722828357296e-07   -2.2792404181159158e-05
-1.063609195708891e-06   2.0335722828357296e-07   -2.2792404181159158e-05
-1.063609195708891e-06   2.0335722828357296e-07   -2.2792404181159158e-05
-1.290465066942147e-06   1.5617860466267896e-06   -5.93502128280326e-05
-1.290465066942147e-06   1.5617860466267896e-06   -5.93502128280326e-05
-1.290465066942147e-06   1.5617860466267896e-06   -5.93502128280326e-05
-1.290465066942147e-06   1.5617860466267896e-06   -5.93502128280326e-05
-2.3493102534941312e-05   1.75858373857498e-06   -2.246389566320294e-05
-2.3493102534941312e-05   1.75858373857498e-06   -2.246389566320294e-05
-2.3493102534941312e-05   1.75858373857498e-06   -2.246389566320294e-05
-2.3493102534941312e-05   1.75858373857498e-06   -2.246389566320294e-05
-1.219549659711589e-05   1.0245629478115989e-06   -4.0852826418453955e-05
-1.219549659711589e-05   1.0245629478115989e-06   -4.0852826418453955e-05
-1.219549659711589e-05   1.0245629478115989e-06   -4.0852826418453955e-05
-1.219549659711589e-05   1.0245629478115989e-06   -4.0852826418453955e-05
-2.3493102534941312e-05   1.5617860466267354e-06   -5.94682914432016e-05
-2.3493102534941312e-05   1.5617860466267354e-06   -5.94682914432016e-05
-2.3493102534941312e-05   1.5617860466267354e-06   -5.94682914432016e-05
-2.3493102534941312e-05   1.5617860466267354e-06   -5.94682914432016e-05
-1.2904650669421495e-06   1.7585837385748716e-06   -2.2345817048033943e-05
-1.2904650669421495e-06   1.7585837385748716e-06   -2.2345817048033943e-05
-1.2904650669421495e-06   1.7585837385748716e-06   -2.2345817048033943e-05
-1.2904650669421495e-06   1.7585837385748716e-06   -2.2345817048033943e-05
-1.454635714151708e-06   3.223334196291415e-06   -5.951144473554293e-05
-1.454635714151708e-06   3.223334196291415e-06   -5.951144473554293e-05
-1.454635714151708e-06   3.223334196291415e-06   -5.951144473554293e-05
-1.454635714151708e-06   3.223334196291415e-06   -5.951144473554293e-05
-2.3676622441328712e-05   3.3091664903001214e-06   -2.2526299566653446e-05
-2.3676622441328712e-05   3.3091664903001214e-06   -2.2526299566653446e-05
-2.3676622441328712e-05   3.3091664903001214e-06   -2.2526299566653446e-05
-2.3676622441328712e-05   3.3091664903001214e-06   -2.2526299566653446e-05
-1.2488087807570869e-05   2.3960953862424113e-06   -4.0626014627148194e-05
-1.2488087807570869e-05   2.3960953862424113e-06   -4.0626014627148194e-05
-1.2488087807570869e-05   2.3960953862424113e-06   -4.0626014627148194e-05
-1.2488087807570869e-05   2.3960953862424113e-06   -4.0626014627148194e-05
-2.3676622441328712e-05   3.223334196291415e-06   -5.9562944111948244e-05
-2.3676622441328712e-05   3.223334196291415e-06   -5.9562944111948244e-05
-2.3676622441328712e-05   3.223334196291415e-06   -5.9562944111948244e-05
-2.3676622441328712e-05   3.223334196291415e-06   -5.9562944111948244e-05
-1.4546357141517106e-06   3.3091664903001214e-06   -2.2474800190247968e-05
-1.4546357141517106e-06   3.3091664903001214e-06   -2.2474800190247968e-05
-1.4546357141517106e-06   3.3091664903001214e-06   -2.2474800190247968e-05
-1.4546357141517106e-06   3.3091664903001214e-06   -2.2474800190247968e-05
-1.7121746819532223e-06   4.954544814087013e-06   -6.027723770991899e-05
-1.7121746819532223e-06   4.954544814087013e-06   -6.027723770991899e-05
-1.7121746819532223e-06   4.954544814087013e-06   -6.027723770991899e-05
-1.7121746819532223e-06   4.954544814087013e-06   -6.027723770991899e-05
-2.3913830702706743e-05   4.8958047290685244e-06   -2.3239233624318905e-05
-2.3913830702706743e-05   4.8958047290685244e-06   -2.3239233624318905e-05
-2.3913830702706743e-05   4.8958047290685244e-06   -2.3239233624318905e-05
-2.3913830702706743e-05   4.8958047290685244e-06   -2.3239233624318905e-05
-1.2798879481113489e-05   3.783919616526417e-06   -4.1097021259448686e-05
-1.2798879481113489e-05   3.783919616526417e-06   -4.1097021259448686e-05
-1.2798879481113489e-05   3.783919616526417e-06   -4.1097021259448686e-05
-1.2798879481113489e-05   3.783919616526417e-06   -4.1097021259448686e-05
-1.0636091957088936e-06   -4.77026189012311e-06   -5.353317999529542e-05
-1.0636091957088936e-06   -4.77026189012311e-06   -5.353317999529542e-05
-1.0636091957088936e-06   -4.77026189012311e-06   -5.353317999529542e-05
-1.0636091957088936e-06   -4.77026189012311e-06   -5.353317999529542e-05
2.0972370589496253e-05   -3.1991122015337164e-06   -1.5863857206799975e-05
2.0972370589496253e-05   -3.1991122015337164e-06   -1.5863857206799975e-05
2.0972370589496253e-05   -3.1991122015337164e-06   -1.5863857206799975e-05
2.0972370589496253e-05   -3.1991122015337164e-06   -1.5863857206799975e-05
2.0955569561375702e-05   -3.2252410716421785e-06   -5.291871564963612e-05
2.0955569561375702e-05   -3.2252410716421785e-06   -5.291871564963612e-05
2.0955569561375702e-05   -3.2252410716421785e-06   -5.291871564963612e-05
2.0955569561375702e-05   -3.2252410716421785e-06   -5.291871564963612e-05
-1.2904650669421495e-06   -1.7736606273082269e-06   -1.6712939535706696e-05
-1.2904650669421495e-06   -1.7736606273082269e-06   -1.6712939535706696e-05
-1.2904650669421495e-06   -1.7736606273082269e-06   -1.6712939535706696e-05
-1.2904650669421495e-06   -1.7736606273082269e-06   -1.6712939535706696e-05
9.817918134822775e-06   -3.1299699483592507e-06   -3.441312594601764e-05
9.817918134822775e-06   -3.1299699483592507e-06   -3.441312594601764e-05
9.817918134822775e-06   -3.1299699483592507e-06   -3.441312594601764e-05
9.817918134822775e-06   -3.1299699483592507e-06   -3.441312594601764e-05
-1.2904650669421495e-06   -3.2252410716421785e-06   -5.378966391623641e-05
-1.2904650669421495e-06   -3.2252410716421785e-06   -5.378966391623641e-05
-1.2904650669421495e-06   -3.2252410716421785e-06   -5.378966391623641e-05
-1.2904650669421495e-06   -3.2252410716421785e-06   -5.378966391623641e-05
2.0955569561375702e-05   -1.7736606273083353e-06   -1.5841991269106295e-05
2.0955569561375702e-05   -1.7736606273083353e-06   -1.5841991269106295e-05
2.0955569561375702e-05   -1.7736606273083353e-06   -1.5841991269106295e-05
2.0955569561375702e-05   -1.7736606273083353e-06   -1.5841991269106295e-05
2.1053668194730154e-05   -1.7117459099908893e-06   -5.431897411765658e-05
2.1053668194730154e-05   -1.7117459099908893e-06   -5.431897411765658e-05
2.1053668194730154e-05   -1.7117459099908893e-06   -5.431897411765658e-05
2.1053668194730154e-05   -1.7117459099908893e-06   -5.431897411765658e-05
-1.454635714151713e-06   -3.728791136622944e-07   -1.7608454347317478e-05
-1.454635714151713e-06   -3.728791136622944e-07   -1.7608454347317478e-05
-1.454635714151713e-06   -3.728791136622944e-07   -1.7608454347317478e-05
-1.454635714151713e-06   -3.728791136622944e-07   -1.7608454347317478e-05
9.515963369357567e-06   -1.8939236738430227e-06   -3.498015941705755e-05
9.515963369357567e-06   -1.8939236738430227e-06   -3.498015941705755e-05
9.515963369357567e-06   -1.8939236738430227e-06   -3.498015941705755e-05
9.515963369357567e-06   -1.8939236738430227e-06   -3.498015941705755e-05
-1.4546357141517097e-06   -1.7117459099908893e-06   -5.512229419545354e-05
-1.4546357141517097e-06   -1.7117459099908893e-06   -5.512229419545354e-05
-1.4546357141517097e-06   -1.7117459099908893e-06   -5.512229419545354e-05
-1.4546357141517097e-06   -1.7117459099908893e-06   -5.512229419545354e-05
2.1053668194730154e-05   -3.728791136622944e-07   -1.680513426951998e-05
2.1053668194730154e-05   -3.728791136622944e-07   -1.680513426951998e-05
2.1053668194730154e-05   -3.728791136622944e-07   -1.680513426951998e-05
2.1053668194730154e-05   -3.728791136622944e-07   -1.680513426951998e-05
2.0891224356046125e-05   1.603498551653714e-07   -5.5905853805255826e-05
2.0891224356046125e-05   1.603498551653714e-07   -5.5905853805255826e-05
2.0891224356046125e-05   1.603498551653714e-07   -5.5905853805255826e-05
2.0891224356046125e-05   1.603498551653714e-07   -5.5905853805255826e-05
-1.7121746819532257e-06   1.2650492117751398e-06   -1.8896341689222855e-05
-1.7121746819532257e-06   1.2650492117751398e-06   -1.8896341689222855e-05
-1.7121746819532257e-06   1.2650492117751398e-06   -1.8896341689222855e-05
-1.7121746819532257e-06   1.2650492117751398e-06   -1.8896341689222855e-05
9.409637526657063e-06   -5.712843847750521e-07   -3.633089521230966e-05
9.409637526657063e-06   -5.712843847750521e-07   -3.633089521230966e-05
9.409637526657063e-06   -5.712843847750521e-07   -3.633089521230966e-05
9.409637526657063e-06   -5.712843847750521e-07   -3.633089521230966e-05
2.0972370589496212e-05   -8.8670580208458e-06   -2.995341652671857e-05
2.0972370589496212e-05   -8.8670580208458e-06   -2.995341652671857e-05
2.0972370589496212e-05   -8.8670580208458e-06   -2.995341652671857e-05
2.0972370589496212e-05   -8.8670580208458e-06   -2.995341652671857e-05
4.160938303184131e-05   -5.802786453508826e-06   6.280167150925372e-06
4.160938303184131e-05   -5.802786453508826e-06   6.280167150925372e-06
4.160938303184131e-05   -5.802786453508826e-06   6.280167150925372e-06
4.160938303184131e-05   -5.802786453508826e-06   6.280167150925372e-06
4.301035302191965e-05   -8.04494586160244e-06   -3.37053402429049e-05
4.301035302191965e-05   -8.04494586160244e-06   -3.37053402429049e-05
4.301035302191965e-05   -8.04494586160244e-06   -3.37053402429049e-05
4.301035302191965e-05   -8.04494586160244e-06   -3.37053402429049e-05
2.095556956137566e-05   -4.9815193819628244e-06   1.2145763035513002e-06
2.095556956137566e-05   -4.9815193819628244e-06   1.2145763035513002e-06
2.095556956137566e-05   -4.9815193819628244e-06   1.2145763035513002e-06
2.095556956137566e-05   -4.9815193819628244e-06   1.2145763035513002e-06
3.028477351675453e-05   -6.842082013175507e-06   -1.3217759376685847e-05
3.028477351675453e-05   -6.842082013175507e-06   -1.3217759376685847e-05
3.028477351675453e-05   -6.842082013175507e-06   -1.3217759376685847e-05
3.028477351675453e-05   -6.842082013175507e-06   -1.3217759376685847e-05
2.0955569561375648e-05   -8.04494586160244e-06   -3.554339613068863e-05
2.0955569561375648e-05   -8.04494586160244e-06   -3.554339613068863e-05
2.0955569561375648e-05   -8.04494586160244e-06   -3.554339613068863e-05
2.0955569561375648e-05   -8.04494586160244e-06   -3.554339613068863e-05
4.301035302191965e-05   -4.981519381962716e-06   3.05263219133533e-06
4.301035302191965e-05   -4.981519381962716e-06   3.05263219133533e-06
4.301035302191965e-05   -4.981519381962716e-06   3.05263219133533e-06
4.301035302191965e-05   -4.981519381962716e-06   3.05263219133533e-06
4.4086832256813526e-05   -7.173947154184639e-06   -3.801557145637821e-05
4.4086832256813526e-05   -7.173947154184639e-06   -3.801557145637821e-05
4.4086832256813526e-05   -7.173947154184639e-06   -3.801557145637821e-05
4.4086832256813526e-05   -7.173947154184639e-06   -3.801557145637821e-05
2.1053668194730087e-05   -4.27699316435002e-06   -1.3651370801401515e-06
2.1053668194730087e-05   -4.27699316435002e-06   -1.3651370801401515e-06
2.1053668194730087e-05   -4.27699316435002e-06   -1.3651370801401515e-06
2.1053668194730087e-05   -4.27699316435002e-06   -1.3651370801401515e-06
3.131253593908716e-05   -6.3121899181695865e-06   -1.7242131935109968e-05
3.131253593908716e-05   -6.3121899181695865e-06   -1.7242131935109968e-05
3.131253593908716e-05   -6.3121899181695865e-06   -1.7242131935109968e-05
3.131253593908716e-05   -6.3121899181695865e-06   -1.7242131935109968e-05
2.1053668194730127e-05   -7.173947154184639e-06   -3.975374385027899e-05
2.1053668194730127e-05   -7.173947154184639e-06   -3.975374385027899e-05
2.1053668194730127e-05   -7.173947154184639e-06   -3.975374385027899e-05
2.1053668194730127e-05   -7.173947154184639e-06   -3.975374385027899e-05
4.4086832256813444e-05   -4.27699316435002e-06   3.7303531376093983e-07
4.4086832256813444e-05   -4.27699316435002e-06   3.7303531376093983e-07
4.4086832256813444e-05   -4.27699316435002e-06   3.7303531376093983e-07
4.4086832256813444e-05   -4.27699316435002e-06   3.7303531376093983e-07
4.523369173398104e-05   -5.299521688934949e-06   -4.5348371399887475e-05
4.523369173398104e-05   -5.299521688934949e-06   -4.5348371399887475e-05
4.523369173398104e-05   -5.299521688934949e-06   -4.5348371399887475e-05
4.523369173398104e-05   -5.299521688934949e-06   -4.5348371399887475e-05
2.0891224356046057e-05   -2.7718839376945697e-06   -6.294175087406871e-06
2.0891224356046057e-05   -2.7718839376945697e-06   -6.294175087406871e-06
2.0891224356046057e-05   -2.7718839376945697e-06   -6.294175087406871e-06
2.0891224356046057e-05   -2.7718839376945697e-06   -6.294175087406871e-06
3.117772401623946e-05   -5.437935301466168e-06   -2.1838710369466067e-05
3.117772401623946e-05   -5.437935301466168e-06   -2.1838710369466067e-05
3.117772401623946e-05   -5.437935301466168e-06   -2.1838710369466067e-05
3.117772401623946e-05   -5.437935301466168e-06   -2.1838710369466067e-05
-5.0003108294073594e-05   7.66332698874661e-06   -3.803748522499396e-05
-5.0003108294073594e-05   7.66332698874661e-06   -3.803748522499396e-05
-5.0003108294073594e-05   7.66332698874661e-06   -3.803748522499396e-05
-5.0003108294073594e-05   7.66332698874661e-06   -3.803748522499396e-05
-3.404444562806895e-05   4.875606638450841e-06   -1.3112346325163677e-05
-3.404444562806895e-05   4.875606638450841e-06   -1.3112346325163677e-05
-3.404444562806895e-05   4.875606638450841e-06   -1.3112346325163677e-05
-3.404444562806895e-05   4.875606638450841e-06   -1.3112346325163677e-05
-3.3920571732698837e-05   9.269952634665497e-06   -3.2314286200907675e-05
-3.3920571732698837e-05   9.269952634665497e-06   -3.2314286200907675e-05
-3.3920571732698837e-05   9.269952634665497e-06   -3.2314286200907675e-05
-3.3920571732698837e-05   9.269952634665497e-06   -3.2314286200907675e-05
-4.850812711295981e-05   6.205619680093493e-06   -6.163094127729484e-06
-4.850812711295981e-05   6.205619680093493e-06   -6.163094127729484e-06
-4.850812711295981e-05   6.205619680093493e-06   -6.163094127729484e-06
-4.850812711295981e-05   6.205619680093493e-06   -6.163094127729484e-06
-3.985340106710269e-05   7.379197480990394e-06   -2.129178421802954e-05
-3.985340106710269e-05   7.379197480990394e-06   -2.129178421802954e-05
-3.985340106710269e-05   7.379197480990394e-06   -2.129178421802954e-05
-3.985340106710269e-05   7.379197480990394e-06   -2.129178421802954e-05
-4.850812711295981e-05   9.269952634665497e-06   -3.047568642816444e-05
-4.850812711295981e-05   9.269952634665497e-06   -3.047568642816444e-05
-4.850812711295981e-05   9.269952634665497e-06   -3.047568642816444e-05
-4.850812711295981e-05   9.269952634665497e-06   -3.047568642816444e-05
-3.392057173269889e-05   6.205619680093601e-06   -8.001693900472787e-06
-3.392057173269889e-05   6.205619680093601e-06   -8.001693900472787e-06
-3.392057173269889e-05   6.205619680093601e-06   -8.001693900472787e-06
-3.392057173269889e-05   6.205619680093601e-06   -8.001693900472787e-06
-3.366335954372638e-05   9.975757859122746e-06   -2.8177886939686407e-05
-3.366335954372638e-05   9.975757859122746e-06   -2.8177886939686407e-05
-3.366335954372638e-05   9.975757859122746e-06   -2.8177886939686407e-05
-3.366335954372638e-05   9.975757859122746e-06   -2.8177886939686407e-05
-4.739049145232677e-05   6.825249197699927e-06   -3.409028561832052e-06
-4.739049145232677e-05   6.825249197699927e-06   -3.409028561832052e-06
-4.739049145232677e-05   6.825249197699927e-06   -3.409028561832052e-06
-4.739049145232677e-05   6.825249197699927e-06   -3.409028561832052e-06
-3.985585425698635e-05   8.121329622412412e-06   -1.6744405475560477e-05
-3.985585425698635e-05   8.121329622412412e-06   -1.6744405475560477e-05
-3.985585425698635e-05   8.121329622412412e-06   -1.6744405475560477e-05
-3.985585425698635e-05   8.121329622412412e-06   -1.6744405475560477e-05
-4.739049145232677e-05   9.975757859122746e-06   -2.6287581742832726e-05
-4.739049145232677e-05   9.975757859122746e-06   -2.6287581742832726e-05
-4.739049145232677e-05   9.975757859122746e-06   -2.6287581742832726e-05
-4.739049145232677e-05   9.975757859122746e-06   -2.6287581742832726e-05
-3.3663359543726436e-05   6.825249197699927e-06   -5.299333758685533e-06
-3.3663359543726436e-05   6.825249197699927e-06   -5.299333758685533e-06
-3.3663359543726436e-05   6.825249197699927e-06   -5.299333758685533e-06
-3.3663359543726436e-05   6.825249197699927e-06   -5.299333758685533e-06
-3.3560333342561017e-05   1.067022751878512e-05   -2.2451821010444355e-05
-3.3560333342561017e-05   1.067022751878512e-05   -2.2451821010444355e-05
-3.3560333342561017e-05   1.067022751878512e-05   -2.2451821010444355e-05
-3.3560333342561017e-05   1.067022751878512e-05   -2.2451821010444355e-05
-4.592804519958646e-05   7.604333766321686e-06   5.683360762261461e-10
-4.592804519958646e-05   7.604333766321686e-06   5.683360762261461e-10
-4.592804519958646e-05   7.604333766321686e-06   5.683360762261461e-10
-4.592804519958646e-05   7.604333766321686e-06   5.683360762261461e-10
-3.8676812257650226e-05   8.523348466517333e-06   -1.26362287206016e-05
-3.8676812257650226e-05   8.523348466517333e-06   -1.26362287206016e-05
-3.8676812257650226e-05   8.523348466517333e-06   -1.26362287206016e-05
-3.8676812257650226e-05   8.523348466517333e-06   -1.26362287206016e-05
-3.40444456280689e-05   3.820840633134148e-06   -4.846472833888797e-05
-3.40444456280689e-05   3.820840633134148e-06   -4.846472833888797e-05
-3.40444456280689e-05   3.820840633134148e-06   -4.846472833888797e-05
-3.40444456280689e-05   3.820840633134148e-06   -4.846472833888797e-05
-1.9580171995607087e-05   2.5203158787988084e-06   -2.5137920470719394e-05
-1.9580171995607087e-05   2.5203158787988084e-06   -2.5137920470719394e-05
-1.9580171995607087e-05   2.5203158787988084e-06   -2.5137920470719394e-05
-1.9580171995607087e-05   2.5203158787988084e-06   -2.5137920470719394e-05
-1.958965909603493e-05   5.400873947099824e-06   -4.804871240437277e-05
-1.958965909603493e-05   5.400873947099824e-06   -4.804871240437277e-05
-1.958965909603493e-05   5.400873947099824e-06   -4.804871240437277e-05
-1.958965909603493e-05   5.400873947099824e-06   -4.804871240437277e-05
-3.3920571732698837e-05   3.924408637586861e-06   -2.3277978824224948e-05
-3.3920571732698837e-05   3.924408637586861e-06   -2.3277978824224948e-05
-3.3920571732698837e-05   3.924408637586861e-06   -2.3277978824224948e-05
-3.3920571732698837e-05   3.924408637586861e-06   -2.3277978824224948e-05
-2.6536794249980595e-05   4.179042479792675e-06   -3.573705493407895e-05
-2.6536794249980595e-05   4.179042479792675e-06   -3.573705493407895e-05
-2.6536794249980595e-05   4.179042479792675e-06   -3.573705493407895e-05
-2.6536794249980595e-05   4.179042479792675e-06   -3.573705493407895e-05
-3.392057173269881e-05   5.400873947099824e-06   -4.71628332186647e-05
-3.392057173269881e-05   5.400873947099824e-06   -4.71628332186647e-05
-3.392057173269881e-05   5.400873947099824e-06   -4.71628332186647e-05
-3.392057173269881e-05   5.400873947099824e-06   -4.71628332186647e-05
-1.958965909603493e-05   3.924408637586752e-06   -2.4163858009932748e-05
-1.958965909603493e-05   3.924408637586752e-06   -2.4163858009932748e-05
-1.958965909603493e-05   3.924408637586752e-06   -2.4163858009932748e-05
-1.958965909603493e-05   3.924408637586752e-06   -2.4163858009932748e-05
-1.9575119208025085e-05   6.804505282047659e-06   -4.69717512680413e-05
-1.9575119208025085e-05   6.804505282047659e-06   -4.69717512680413e-05
-1.9575119208025085e-05   6.804505282047659e-06   -4.69717512680413e-05
-1.9575119208025085e-05   6.804505282047659e-06   -4.69717512680413e-05
-3.366335954372638e-05   5.2019810186405965e-06   -2.25298361504949e-05
-3.366335954372638e-05   5.2019810186405965e-06   -2.25298361504949e-05
-3.366335954372638e-05   5.2019810186405965e-06   -2.25298361504949e-05
-3.366335954372638e-05   5.2019810186405965e-06   -2.25298361504949e-05
-2.641309722477116e-05   5.3320683356745035e-06   -3.4691659072307035e-05
-2.641309722477116e-05   5.3320683356745035e-06   -3.4691659072307035e-05
-2.641309722477116e-05   5.3320683356745035e-06   -3.4691659072307035e-05
-2.641309722477116e-05   5.3320683356745035e-06   -3.4691659072307035e-05
-3.366335954372638e-05   6.804505282047659e-06   -4.6010236709997064e-05
-3.366335954372638e-05   6.804505282047659e-06   -4.6010236709997064e-05
-3.366335954372638e-05   6.804505282047659e-06   -4.6010236709997064e-05
-3.366335954372638e-05   6.804505282047659e-06   -4.6010236709997064e-05
-1.9575119208025112e-05   5.2019810186405965e-06   -2.349135070853911e-05
-1.9575119208025112e-05   5.2019810186405965e-06   -2.349135070853911e-05
-1.9575119208025112e-05   5.2019810186405965e-06   -2.349135070853911e-05
-1.9575119208025112e-05   5.2019810186405965e-06   -2.349135070853911e-05
-1.9590696602430884e-05   8.29751669731947e-06   -4.7161059212521596e-05
-1.9590696602430884e-05   8.29751669731947e-06   -4.7161059212521596e-05
-1.9590696602430884e-05   8.29751669731947e-06   -4.7161059212521596e-05
-1.9590696602430884e-05   8.29751669731947e-06   -4.7161059212521596e-05
-3.356033334256107e-05   6.589639155935522e-06   -2.2853604787474095e-05
-3.356033334256107e-05   6.589639155935522e-06   -2.2853604787474095e-05
-3.356033334256107e-05   6.589639155935522e-06   -2.2853604787474095e-05
-3.356033334256107e-05   6.589639155935522e-06   -2.2853604787474095e-05
-2.6584076505365758e-05   6.472682327266291e-06   -3.441052541893142e-05
-2.6584076505365758e-05   6.472682327266291e-06   -3.441052541893142e-05
-2.6584076505365758e-05   6.472682327266291e-06   -3.441052541893142e-05
-2.6584076505365758e-05   6.472682327266291e-06   -3.441052541893142e-05
-1.958017199560706e-05   2.0335722828357296e-07   -5.3488079827480645e-05
-1.958017199560706e-05   2.0335722828357296e-07   -5.3488079827480645e-05
-1.958017199560706e-05   2.0335722828357296e-07   -5.3488079827480645e-05
-1.958017199560706e-05   2.0335722828357296e-07   -5.3488079827480645e-05
-5.317235840505642e-06   4.3366821579442476e-07   -2.9578332976471855e-05
-5.317235840505642e-06   4.3366821579442476e-07   -2.9578332976471855e-05
-5.317235840505642e-06   4.3366821579442476e-07   -2.9578332976471855e-05
-5.317235840505642e-06   4.3366821579442476e-07   -2.9578332976471855e-05
-5.327290054605179e-06   1.75858373857498e-06   -5.2897703941333927e-05
-5.327290054605179e-06   1.75858373857498e-06   -5.2897703941333927e-05
-5.327290054605179e-06   1.75858373857498e-06   -5.2897703941333927e-05
-5.327290054605179e-06   1.75858373857498e-06   -5.2897703941333927e-05
-1.958965909603489e-05   1.84531914730363e-06   -2.9179130117521656e-05
-1.958965909603489e-05   1.84531914730363e-06   -2.9179130117521656e-05
-1.958965909603489e-05   1.84531914730363e-06   -2.9179130117521656e-05
-1.958965909603489e-05   1.84531914730363e-06   -2.9179130117521656e-05
-1.2370871756896908e-05   1.2427857546369603e-06   -4.084892231381832e-05
-1.2370871756896908e-05   1.2427857546369603e-06   -4.084892231381832e-05
-1.2370871756896908e-05   1.2427857546369603e-06   -4.084892231381832e-05
-1.2370871756896908e-05   1.2427857546369603e-06   -4.084892231381832e-05
-1.958965909603489e-05   1.75858373857498e-06   -5.294974518657125e-05
-1.958965909603489e-05   1.75858373857498e-06   -5.294974518657125e-05
-1.958965909603489e-05   1.75858373857498e-06   -5.294974518657125e-05
-1.958965909603489e-05   1.75858373857498e-06   -5.294974518657125e-05
-5.327290054605179e-06   1.84531914730363e-06   -2.912708887228447e-05
-5.327290054605179e-06   1.84531914730363e-06   -2.912708887228447e-05
-5.327290054605179e-06   1.84531914730363e-06   -2.912708887228447e-05
-5.327290054605179e-06   1.84531914730363e-06   -2.912708887228447e-05
-5.308471244425549e-06   3.309166490300013e-06   -5.303236908739975e-05
-5.308471244425549e-06   3.309166490300013e-06   -5.303236908739975e-05
-5.308471244425549e-06   3.309166490300013e-06   -5.303236908739975e-05
-5.308471244425549e-06   3.309166490300013e-06   -5.303236908739975e-05
-1.9575119208025085e-05   3.261481978512502e-06   -2.9226011774328102e-05
-1.9575119208025085e-05   3.261481978512502e-06   -2.9226011774328102e-05
-1.9575119208025085e-05   3.261481978512502e-06   -2.9226011774328102e-05
-1.9575119208025085e-05   3.261481978512502e-06   -2.9226011774328102e-05
-1.245360922366566e-05   2.4776442344010387e-06   -4.062489243512684e-05
-1.245360922366566e-05   2.4776442344010387e-06   -4.062489243512684e-05
-1.245360922366566e-05   2.4776442344010387e-06   -4.062489243512684e-05
-1.245360922366566e-05   2.4776442344010387e-06   -4.062489243512684e-05
-1.9575119208025085e-05   3.309166490300013e-06   -5.300375838032732e-05
-1.9575119208025085e-05   3.309166490300013e-06   -5.300375838032732e-05
-1.9575119208025085e-05   3.309166490300013e-06   -5.300375838032732e-05
-1.9575119208025085e-05   3.309166490300013e-06   -5.300375838032732e-05
-5.308471244425557e-06   3.261481978512502e-06   -2.9254622481400452e-05
-5.308471244425557e-06   3.261481978512502e-06   -2.9254622481400452e-05
-5.308471244425557e-06   3.261481978512502e-06   -2.9254622481400452e-05
-5.308471244425557e-06   3.261481978512502e-06   -2.9254622481400452e-05
-5.316783583621621e-06   4.895804729068633e-06   -5.3834432271046594e-05
-5.316783583621621e-06   4.895804729068633e-06   -5.3834432271046594e-05
-5.316783583621621e-06   4.895804729068633e-06   -5.3834432271046594e-05
-5.316783583621621e-06   4.895804729068633e-06   -5.3834432271046594e-05
-1.959069660243087e-05   4.702405043098654e-06   -2.992853742811571e-05
-1.959069660243087e-05   4.702405043098654e-06   -2.992853742811571e-05
-1.959069660243087e-05   4.702405043098654e-06   -2.992853742811571e-05
-1.959069660243087e-05   4.702405043098654e-06   -2.992853742811571e-05
-1.256059766850761e-05   3.7287192359855906e-06   -4.106115750038679e-05
-1.256059766850761e-05   3.7287192359855906e-06   -4.106115750038679e-05
-1.256059766850761e-05   3.7287192359855906e-06   -4.106115750038679e-05
-1.256059766850761e-05   3.7287192359855906e-06   -4.106115750038679e-05
-5.317235840505633e-06   -3.1991122015337164e-06   -4.736403607376853e-05
-5.317235840505633e-06   -3.1991122015337164e-06   -4.736403607376853e-05
-5.317235840505633e-06   -3.1991122015337164e-06   -4.736403607376853e-05
-5.317235840505633e-06   -3.1991122015337164e-06   -4.736403607376853e-05
8.738622512055098e-06   -1.474732697614176e-06   -2.2902977783815712e-05
8.738622512055098e-06   -1.474732697614176e-06   -2.2902977783815712e-05
8.738622512055098e-06   -1.474732697614176e-06   -2.2902977783815712e-05
8.738622512055098e-06   -1.474732697614176e-06   -2.2902977783815712e-05
8.853405500239823e-06   -1.7736606273082269e-06   -4.6287727225717903e-05
8.853405500239823e-06   -1.7736606273082269e-06   -4.6287727225717903e-05
8.853405500239823e-06   -1.7736606273082269e-06   -4.6287727225717903e-05
8.853405500239823e-06   -1.7736606273082269e-06   -4.6287727225717903e-05
-5.327290054605179e-06   -1.4516195516044335e-07   -2.363033383759827e-05
-5.327290054605179e-06   -1.4516195516044335e-07   -2.363033383759827e-05
-5.327290054605179e-06   -1.4516195516044335e-07   -2.363033383759827e-05
-5.327290054605179e-06   -1.4516195516044335e-07   -2.363033383759827e-05
1.7450502034128446e-06   -1.525477300894822e-06   -3.458937839352107e-05
1.7450502034128446e-06   -1.525477300894822e-06   -3.458937839352107e-05
1.7450502034128446e-06   -1.525477300894822e-06   -3.458937839352107e-05
1.7450502034128446e-06   -1.525477300894822e-06   -3.458937839352107e-05
-5.327290054605179e-06   -1.7736606273082269e-06   -4.7264826429006595e-05
-5.327290054605179e-06   -1.7736606273082269e-06   -4.7264826429006595e-05
-5.327290054605179e-06   -1.7736606273082269e-06   -4.7264826429006595e-05
-5.327290054605179e-06   -1.7736606273082269e-06   -4.7264826429006595e-05
8.85340550023985e-06   -1.4516195516055177e-07   -2.2653234634309677e-05
8.85340550023985e-06   -1.4516195516055177e-07   -2.2653234634309677e-05
8.85340550023985e-06   -1.4516195516055177e-07   -2.2653234634309677e-05
8.85340550023985e-06   -1.4516195516055177e-07   -2.2653234634309677e-05
9.123814965517868e-06   -3.728791136622944e-07   -4.726190142730687e-05
9.123814965517868e-06   -3.728791136622944e-07   -4.726190142730687e-05
9.123814965517868e-06   -3.728791136622944e-07   -4.726190142730687e-05
9.123814965517868e-06   -3.728791136622944e-07   -4.726190142730687e-05
-5.308471244425557e-06   1.1339905816079012e-06   -2.411221289456325e-05
-5.308471244425557e-06   1.1339905816079012e-06   -2.411221289456325e-05
-5.308471244425557e-06   1.1339905816079012e-06   -2.411221289456325e-05
-5.308471244425557e-06   1.1339905816079012e-06   -2.411221289456325e-05
1.663758901201942e-06   -4.1943360725089137e-07   -3.4800541957293746e-05
1.663758901201942e-06   -4.1943360725089137e-07   -3.4800541957293746e-05
1.663758901201942e-06   -4.1943360725089137e-07   -3.4800541957293746e-05
1.663758901201942e-06   -4.1943360725089137e-07   -3.4800541957293746e-05
-5.308471244425553e-06   -3.728791136622944e-07   -4.8166023244468835e-05
-5.308471244425553e-06   -3.728791136622944e-07   -4.8166023244468835e-05
-5.308471244425553e-06   -3.728791136622944e-07   -4.8166023244468835e-05
-5.308471244425553e-06   -3.728791136622944e-07   -4.8166023244468835e-05
9.123814965517909e-06   1.1339905816077928e-06   -2.3208091077401086e-05
9.123814965517909e-06   1.1339905816077928e-06   -2.3208091077401086e-05
9.123814965517909e-06   1.1339905816077928e-06   -2.3208091077401086e-05
9.123814965517909e-06   1.1339905816077928e-06   -2.3208091077401086e-05
9.2561288983729e-06   1.2650492117751398e-06   -4.865523921031138e-05
9.2561288983729e-06   1.2650492117751398e-06   -4.865523921031138e-05
9.2561288983729e-06   1.2650492117751398e-06   -4.865523921031138e-05
9.2561288983729e-06   1.2650492117751398e-06   -4.865523921031138e-05
-5.316783583621613e-06   2.600144336154962e-06   -2.516810881494836e-05
-5.316783583621613e-06   2.600144336154962e-06   -2.516810881494836e-05
-5.316783583621613e-06   2.600144336154962e-06   -2.516810881494836e-05
-5.316783583621613e-06   2.600144336154962e-06   -2.516810881494836e-05
1.712719597242264e-06   7.637084934416279e-07   -3.578208594409333e-05
1.712719597242264e-06   7.637084934416279e-07   -3.578208594409333e-05
1.712719597242264e-06   7.637084934416279e-07   -3.578208594409333e-05
1.712719597242264e-06   7.637084934416279e-07   -3.578208594409333e-05
8.738622512055084e-06   -5.802786453508934e-06   -2.6023946954093554e-05
8.738622512055084e-06   -5.802786453508934e-06   -2.6023946954093554e-05
8.738622512055084e-06   -5.802786453508934e-06   -2.6023946954093554e-05
8.738622512055084e-06   -5.802786453508934e-06   -2.6023946954093554e-05
2.122391109912091e-05   -2.710283931682588e-06   -3.359631129221455e-06
2.122391109912091e-05   -2.710283931682588e-06   -3.359631129221455e-06
2.122391109912091e-05   -2.710283931682588e-06   -3.359631129221455e-06
2.122391109912091e-05   -2.710283931682588e-06   -3.359631129221455e-06
2.270625728682815e-05   -4.9815193819628244e-06   -2.7328139828666976e-05
2.270625728682815e-05   -4.9815193819628244e-06   -2.7328139828666976e-05
2.270625728682815e-05   -4.9815193819628244e-06   -2.7328139828666976e-05
2.270625728682815e-05   -4.9815193819628244e-06   -2.7328139828666976e-05
8.853405500239836e-06   -1.8098196746404137e-06   -6.143073342079899e-06
8.853405500239836e-06   -1.8098196746404137e-06   -6.143073342079899e-06
8.853405500239836e-06   -1.8098196746404137e-06   -6.143073342079899e-06
8.853405500239836e-06   -1.8098196746404137e-06   -6.143073342079899e-06
1.4724737119587648e-05   -3.7075837025083488e-06   -1.4789967624272236e-05
1.4724737119587648e-05   -3.7075837025083488e-06   -1.4789967624272236e-05
1.4724737119587648e-05   -3.7075837025083488e-06   -1.4789967624272236e-05
1.4724737119587648e-05   -3.7075837025083488e-06   -1.4789967624272236e-05
8.853405500239836e-06   -4.9815193819628244e-06   -2.92311596530602e-05
8.853405500239836e-06   -4.9815193819628244e-06   -2.92311596530602e-05
8.853405500239836e-06   -4.9815193819628244e-06   -2.92311596530602e-05
8.853405500239836e-06   -4.9815193819628244e-06   -2.92311596530602e-05
2.270625728682804e-05   -1.8098196746404137e-06   -4.240053517686458e-06
2.270625728682804e-05   -1.8098196746404137e-06   -4.240053517686458e-06
2.270625728682804e-05   -1.8098196746404137e-06   -4.240053517686458e-06
2.270625728682804e-05   -1.8098196746404137e-06   -4.240053517686458e-06
2.3847193683160727e-05   -4.27699316435002e-06   -2.9968564780901444e-05
2.3847193683160727e-05   -4.27699316435002e-06   -2.9968564780901444e-05
2.3847193683160727e-05   -4.27699316435002e-06   -2.9968564780901444e-05
2.3847193683160727e-05   -4.27699316435002e-06   -2.9968564780901444e-05
9.123814965517909e-06   -1.1880940693075222e-06   -7.28293970852218e-06
9.123814965517909e-06   -1.1880940693075222e-06   -7.28293970852218e-06
9.123814965517909e-06   -1.1880940693075222e-06   -7.28293970852218e-06
9.123814965517909e-06   -1.1880940693075222e-06   -7.28293970852218e-06
1.5630824922462483e-05   -3.2452197984748042e-06   -1.6893680865929394e-05
1.5630824922462483e-05   -3.2452197984748042e-06   -1.6893680865929394e-05
1.5630824922462483e-05   -3.2452197984748042e-06   -1.6893680865929394e-05
1.5630824922462483e-05   -3.2452197984748042e-06   -1.6893680865929394e-05
9.123814965517882e-06   -4.276993164349912e-06   -3.182190423792685e-05
9.123814965517882e-06   -4.276993164349912e-06   -3.182190423792685e-05
9.123814965517882e-06   -4.276993164349912e-06   -3.182190423792685e-05
9.123814965517882e-06   -4.276993164349912e-06   -3.182190423792685e-05
2.3847193683160646e-05   -1.1880940693075222e-06   -5.429600251496665e-06
2.3847193683160646e-05   -1.1880940693075222e-06   -5.429600251496665e-06
2.3847193683160646e-05   -1.1880940693075222e-06   -5.429600251496665e-06
2.3847193683160646e-05   -1.1880940693075222e-06   -5.429600251496665e-06
2.5363367568860095e-05   -2.7718839376945697e-06   -3.503220251930371e-05
2.5363367568860095e-05   -2.7718839376945697e-06   -3.503220251930371e-05
2.5363367568860095e-05   -2.7718839376945697e-06   -3.503220251930371e-05
2.5363367568860095e-05   -2.7718839376945697e-06   -3.503220251930371e-05
9.256128898372913e-06   3.4265567568254884e-08   -9.870494438315986e-06
9.256128898372913e-06   3.4265567568254884e-08   -9.870494438315986e-06
9.256128898372913e-06   3.4265567568254884e-08   -9.870494438315986e-06
9.256128898372913e-06   3.4265567568254884e-08   -9.870494438315986e-06
1.5932286976998652e-05   -2.5571752016407753e-06   -1.944256010783348e-05
1.5932286976998652e-05   -2.5571752016407753e-06   -1.944256010783348e-05
1.5932286976998652e-05   -2.5571752016407753e-06   -1.944256010783348e-05
1.5932286976998652e-05   -2.5571752016407753e-06   -1.944256010783348e-05
-3.027291076069887e-05   4.875606638450841e-06   -2.8367707718518075e-05
-3.027291076069887e-05   4.875606638450841e-06   -2.8367707718518075e-05
-3.027291076069887e-05   4.875606638450841e-06   -2.8367707718518075e-05
-3.027291076069887e-05   4.875606638450841e-06   -2.8367707718518075e-05
-2.2351634859487317e-05   1.9866917272011713e-06   -1.6898930163248806e-05
-2.2351634859487317e-05   1.9866917272011713e-06   -1.6898930163248806e-05
-2.2351634859487317e-05   1.9866917272011713e-06   -1.6898930163248806e-05
-2.2351634859487317e-05   1.9866917272011713e-06   -1.6898930163248806e-05
-2.2022819296993896e-05   6.205619680093601e-06   -2.5025437375371948e-05
-2.2022819296993896e-05   6.205619680093601e-06   -2.5025437375371948e-05
-2.2022819296993896e-05   6.205619680093601e-06   -2.5025437375371948e-05
-2.2022819296993896e-05   6.205619680093601e-06   -2.5025437375371948e-05
-2.8628121829199612e-05   3.093444733940449e-06   -1.2149294854003445e-05
-2.8628121829199612e-05   3.093444733940449e-06   -1.2149294854003445e-05
-2.8628121829199612e-05   3.093444733940449e-06   -1.2149294854003445e-05
-2.8628121829199612e-05   3.093444733940449e-06   -1.2149294854003445e-05
-2.4724979725434775e-05   4.373379269082944e-06   -1.942249241469843e-05
-2.4724979725434775e-05   4.373379269082944e-06   -1.942249241469843e-05
-2.4724979725434775e-05   4.373379269082944e-06   -1.942249241469843e-05
-2.4724979725434775e-05   4.373379269082944e-06   -1.942249241469843e-05
-2.8628121829199612e-05   6.205619680093601e-06   -2.31581324076801e-05
-2.8628121829199612e-05   6.205619680093601e-06   -2.31581324076801e-05
-2.8628121829199612e-05   6.205619680093601e-06   -2.31581324076801e-05
-2.8628121829199612e-05   6.205619680093601e-06   -2.31581324076801e-05
-2.202281929699395e-05   3.093444733940449e-06   -1.4016599821695537e-05
-2.202281929699395e-05   3.093444733940449e-06   -1.4016599821695537e-05
-2.202281929699395e-05   3.093444733940449e-06   -1.4016599821695537e-05
-2.202281929699395e-05   3.093444733940449e-06   -1.4016599821695537e-05
-2.1553543280528043e-05   6.825249197699927e-06   -2.2346387622829145e-05
-2.1553543280528043e-05   6.825249197699927e-06   -2.2346387622829145e-05
-2.1553543280528043e-05   6.825249197699927e-06   -2.2346387622829145e-05
-2.1553543280528043e-05   6.825249197699927e-06   -2.2346387622829145e-05
-2.7316073713851206e-05   3.652604498214111e-06   -1.0838583414265676e-05
-2.7316073713851206e-05   3.652604498214111e-06   -1.0838583414265676e-05
-2.7316073713851206e-05   3.652604498214111e-06   -1.0838583414265676e-05
-2.7316073713851206e-05   3.652604498214111e-06   -1.0838583414265676e-05
-2.429115521933733e-05   4.970562494254274e-06   -1.6670889036079605e-05
-2.429115521933733e-05   4.970562494254274e-06   -1.6670889036079605e-05
-2.429115521933733e-05   4.970562494254274e-06   -1.6670889036079605e-05
-2.429115521933733e-05   4.970562494254274e-06   -1.6670889036079605e-05
-2.7316073713851206e-05   6.825249197699927e-06   -2.0442800803137742e-05
-2.7316073713851206e-05   6.825249197699927e-06   -2.0442800803137742e-05
-2.7316073713851206e-05   6.825249197699927e-06   -2.0442800803137742e-05
-2.7316073713851206e-05   6.825249197699927e-06   -2.0442800803137742e-05
-2.155354328052807e-05   3.652604498214111e-06   -1.2742170233957296e-05
-2.155354328052807e-05   3.652604498214111e-06   -1.2742170233957296e-05
-2.155354328052807e-05   3.652604498214111e-06   -1.2742170233957296e-05
-2.155354328052807e-05   3.652604498214111e-06   -1.2742170233957296e-05
-2.1233779058951578e-05   7.604333766321686e-06   -1.8909467442172105e-05
-2.1233779058951578e-05   7.604333766321686e-06   -1.8909467442172105e-05
-2.1233779058951578e-05   7.604333766321686e-06   -1.8909467442172105e-05
-2.1233779058951578e-05   7.604333766321686e-06   -1.8909467442172105e-05
-2.5645354373830603e-05   4.53832548708618e-06   -9.717236949832167e-06
-2.5645354373830603e-05   4.53832548708618e-06   -9.717236949832167e-06
-2.5645354373830603e-05   4.53832548708618e-06   -9.717236949832167e-06
-2.5645354373830603e-05   4.53832548708618e-06   -9.717236949832167e-06
-2.315603627239521e-05   5.3845411883534505e-06   -1.4373829872985522e-05
-2.315603627239521e-05   5.3845411883534505e-06   -1.4373829872985522e-05
-2.315603627239521e-05   5.3845411883534505e-06   -1.4373829872985522e-05
-2.315603627239521e-05   5.3845411883534505e-06   -1.4373829872985522e-05
-2.2351634859487317e-05   2.5203158787988084e-06   -4.1346315958222524e-05
-2.2351634859487317e-05   2.5203158787988084e-06   -4.1346315958222524e-05
-2.2351634859487317e-05   2.5203158787988084e-06   -4.1346315958222524e-05
-2.2351634859487317e-05   2.5203158787988084e-06   -4.1346315958222524e-05
-1.5915618072553342e-05   1.1404452929543712e-06   -3.1447543664839316e-05
-1.5915618072553342e-05   1.1404452929543712e-06   -3.1447543664839316e-05
-1.5915618072553342e-05   1.1404452929543712e-06   -3.1447543664839316e-05
-1.5915618072553342e-05   1.1404452929543712e-06   -3.1447543664839316e-05
-1.570027960570487e-05   3.924408637586752e-06   -4.121067065292162e-05
-1.570027960570487e-05   3.924408637586752e-06   -4.121067065292162e-05
-1.570027960570487e-05   3.924408637586752e-06   -4.121067065292162e-05
-1.570027960570487e-05   3.924408637586752e-06   -4.121067065292162e-05
-2.2022819296993977e-05   2.409494714591216e-06   -2.9764156146975444e-05
-2.2022819296993977e-05   2.409494714591216e-06   -2.9764156146975444e-05
-2.2022819296993977e-05   2.409494714591216e-06   -2.9764156146975444e-05
-2.2022819296993977e-05   2.409494714591216e-06   -2.9764156146975444e-05
-1.8812379618423727e-05   2.7421288621308406e-06   -3.53144694331171e-05
-1.8812379618423727e-05   2.7421288621308406e-06   -3.53144694331171e-05
-1.8812379618423727e-05   2.7421288621308406e-06   -3.53144694331171e-05
-1.8812379618423727e-05   2.7421288621308406e-06   -3.53144694331171e-05
-2.202281929699387e-05   3.924408637586752e-06   -4.03017222991238e-05
-2.202281929699387e-05   3.924408637586752e-06   -4.03017222991238e-05
-2.202281929699387e-05   3.924408637586752e-06   -4.03017222991238e-05
-2.202281929699387e-05   3.924408637586752e-06   -4.03017222991238e-05
-1.570027960570487e-05   2.409494714590999e-06   -3.067310450077294e-05
-1.570027960570487e-05   2.409494714590999e-06   -3.067310450077294e-05
-1.570027960570487e-05   2.409494714590999e-06   -3.067310450077294e-05
-1.570027960570487e-05   2.409494714590999e-06   -3.067310450077294e-05
-1.5462463670069647e-05   5.2019810186405965e-06   -4.054438573681618e-05
-1.5462463670069647e-05   5.2019810186405965e-06   -4.054438573681618e-05
-1.5462463670069647e-05   5.2019810186405965e-06   -4.054438573681618e-05
-1.5462463670069647e-05   5.2019810186405965e-06   -4.054438573681618e-05
-2.1553543280528097e-05   3.5894881483444687e-06   -2.9425090663874436e-05
-2.1553543280528097e-05   3.5894881483444687e-06   -2.9425090663874436e-05
-2.1553543280528097e-05   3.5894881483444687e-06   -2.9425090663874436e-05
-2.1553543280528097e-05   3.5894881483444687e-06   -2.9425090663874436e-05
-1.852922938842233e-05   3.768163921399805e-06   -3.457281928121673e-05
-1.852922938842233e-05   3.768163921399805e-06   -3.457281928121673e-05
-1.852922938842233e-05   3.768163921399805e-06   -3.457281928121673e-05
-1.852922938842233e-05   3.768163921399805e-06   -3.457281928121673e-05
-2.1553543280528043e-05   5.2019810186405965e-06   -3.957689001463853e-05
-2.1553543280528043e-05   5.2019810186405965e-06   -3.957689001463853e-05
-2.1553543280528043e-05   5.2019810186405965e-06   -3.957689001463853e-05
-2.1553543280528043e-05   5.2019810186405965e-06   -3.957689001463853e-05
-1.546246367006962e-05   3.5894881483446855e-06   -3.0392586386051874e-05
-1.546246367006962e-05   3.5894881483446855e-06   -3.0392586386051874e-05
-1.546246367006962e-05   3.5894881483446855e-06   -3.0392586386051874e-05
-1.546246367006962e-05   3.5894881483446855e-06   -3.0392586386051874e-05
-1.525095354655471e-05   6.5896391559354135e-06   -4.0937503217925884e-05
-1.525095354655471e-05   6.5896391559354135e-06   -4.0937503217925884e-05
-1.525095354655471e-05   6.5896391559354135e-06   -4.0937503217925884e-05
-1.525095354655471e-05   6.5896391559354135e-06   -4.0937503217925884e-05
-2.1233779058951605e-05   4.900640983133281e-06   -2.995272846024929e-05
-2.1233779058951605e-05   4.900640983133281e-06   -2.995272846024929e-05
-2.1233779058951605e-05   4.900640983133281e-06   -2.995272846024929e-05
-2.1233779058951605e-05   4.900640983133281e-06   -2.995272846024929e-05
-1.8418598643614097e-05   4.807383056972545e-06   -3.458874106344916e-05
-1.8418598643614097e-05   4.807383056972545e-06   -3.458874106344916e-05
-1.8418598643614097e-05   4.807383056972545e-06   -3.458874106344916e-05
-1.8418598643614097e-05   4.807383056972545e-06   -3.458874106344916e-05
-1.5915618072553288e-05   4.3366821579442476e-07   -4.675283740798817e-05
-1.5915618072553288e-05   4.3366821579442476e-07   -4.675283740798817e-05
-1.5915618072553288e-05   4.3366821579442476e-07   -4.675283740798817e-05
-1.5915618072553288e-05   4.3366821579442476e-07   -4.675283740798817e-05
-9.644128233341519e-06   6.535145441997642e-07   -3.616844654559211e-05
-9.644128233341519e-06   6.535145441997642e-07   -3.616844654559211e-05
-9.644128233341519e-06   6.535145441997642e-07   -3.616844654559211e-05
-9.644128233341519e-06   6.535145441997642e-07   -3.616844654559211e-05
-9.434255931018692e-06   1.84531914730363e-06   -4.6165511156259385e-05
-9.434255931018692e-06   1.84531914730363e-06   -4.6165511156259385e-05
-9.434255931018692e-06   1.84531914730363e-06   -4.6165511156259385e-05
-9.434255931018692e-06   1.84531914730363e-06   -4.6165511156259385e-05
-1.570027960570487e-05   1.9460384877226233e-06   -3.578256996936656e-05
-1.570027960570487e-05   1.9460384877226233e-06   -3.578256996936656e-05
-1.570027960570487e-05   1.9460384877226233e-06   -3.578256996936656e-05
-1.570027960570487e-05   1.9460384877226233e-06   -3.578256996936656e-05
-1.2592361290412664e-05   1.3995552486183692e-06   -4.0634543884725456e-05
-1.2592361290412664e-05   1.3995552486183692e-06   -4.0634543884725456e-05
-1.2592361290412664e-05   1.3995552486183692e-06   -4.0634543884725456e-05
-1.2592361290412664e-05   1.3995552486183692e-06   -4.0634543884725456e-05
-1.5700279605704843e-05   1.84531914730363e-06   -4.622594276051039e-05
-1.5700279605704843e-05   1.84531914730363e-06   -4.622594276051039e-05
-1.5700279605704843e-05   1.84531914730363e-06   -4.622594276051039e-05
-1.5700279605704843e-05   1.84531914730363e-06   -4.622594276051039e-05
-9.434255931018692e-06   1.9460384877226233e-06   -3.572213836511545e-05
-9.434255931018692e-06   1.9460384877226233e-06   -3.572213836511545e-05
-9.434255931018692e-06   1.9460384877226233e-06   -3.572213836511545e-05
-9.434255931018692e-06   1.9460384877226233e-06   -3.572213836511545e-05
-9.198144525267555e-06   3.2614819785126105e-06   -4.628600394855121e-05
-9.198144525267555e-06   3.2614819785126105e-06   -4.628600394855121e-05
-9.198144525267555e-06   3.2614819785126105e-06   -4.628600394855121e-05
-9.198144525267555e-06   3.2614819785126105e-06   -4.628600394855121e-05
-1.546246367006962e-05   3.249886735268853e-06   -3.5838514894601434e-05
-1.546246367006962e-05   3.249886735268853e-06   -3.5838514894601434e-05
-1.546246367006962e-05   3.249886735268853e-06   -3.5838514894601434e-05
-1.546246367006962e-05   3.249886735268853e-06   -3.5838514894601434e-05
-1.245161665783674e-05   2.5100289960701405e-06   -4.0412678604803676e-05
-1.245161665783674e-05   2.5100289960701405e-06   -4.0412678604803676e-05
-1.245161665783674e-05   2.5100289960701405e-06   -4.0412678604803676e-05
-1.245161665783674e-05   2.5100289960701405e-06   -4.0412678604803676e-05
-1.5462463670069593e-05   3.261481978512502e-06   -4.627904680260496e-05
-1.5462463670069593e-05   3.261481978512502e-06   -4.627904680260496e-05
-1.5462463670069593e-05   3.261481978512502e-06   -4.627904680260496e-05
-1.5462463670069593e-05   3.261481978512502e-06   -4.627904680260496e-05
-9.19814452526757e-06   3.249886735268853e-06   -3.584547204054766e-05
-9.19814452526757e-06   3.249886735268853e-06   -3.584547204054766e-05
-9.19814452526757e-06   3.249886735268853e-06   -3.584547204054766e-05
-9.19814452526757e-06   3.249886735268853e-06   -3.584547204054766e-05
-8.986013351679754e-06   4.702405043098654e-06   -4.706510591461551e-05
-8.986013351679754e-06   4.702405043098654e-06   -4.706510591461551e-05
-8.986013351679754e-06   4.702405043098654e-06   -4.706510591461551e-05
-8.986013351679754e-06   4.702405043098654e-06   -4.706510591461551e-05
-1.5250953546554736e-05   4.573410741634618e-06   -3.6546142342278384e-05
-1.5250953546554736e-05   4.573410741634618e-06   -3.6546142342278384e-05
-1.5250953546554736e-05   4.573410741634618e-06   -3.6546142342278384e-05
-1.5250953546554736e-05   4.573410741634618e-06   -3.6546142342278384e-05
-1.2335252255954077e-05   3.6352657649060555e-06   -4.084275750724272e-05
-1.2335252255954077e-05   3.6352657649060555e-06   -4.084275750724272e-05
-1.2335252255954077e-05   3.6352657649060555e-06   -4.084275750724272e-05
-1.2335252255954077e-05   3.6352657649060555e-06   -4.084275750724272e-05
-9.644128233341485e-06   -1.474732697614176e-06   -4.098020212064057e-05
-9.644128233341485e-06   -1.474732697614176e-06   -4.098020212064057e-05
-9.644128233341485e-06   -1.474732697614176e-06   -4.098020212064057e-05
-9.644128233341485e-06   -1.474732697614176e-06   -4.098020212064057e-05
-3.561854876474462e-06   2.7917324859662307e-07   -2.979073629146901e-05
-3.561854876474462e-06   2.7917324859662307e-07   -2.979073629146901e-05
-3.561854876474462e-06   2.7917324859662307e-07   -2.979073629146901e-05
-3.561854876474462e-06   2.7917324859662307e-07   -2.979073629146901e-05
-3.2483004568083657e-06   -1.4516195516055177e-07   -3.966295470275976e-05
-3.2483004568083657e-06   -1.4516195516055177e-07   -3.966295470275976e-05
-3.2483004568083657e-06   -1.4516195516055177e-07   -3.966295470275976e-05
-3.2483004568083657e-06   -1.4516195516055177e-07   -3.966295470275976e-05
-9.434255931018675e-06   1.5311737428616058e-06   -3.0358830331222212e-05
-9.434255931018675e-06   1.5311737428616058e-06   -3.0358830331222212e-05
-9.434255931018675e-06   1.5311737428616058e-06   -3.0358830331222212e-05
-9.434255931018675e-06   1.5311737428616058e-06   -3.0358830331222212e-05
-6.406830370387042e-06   1.7835892549065806e-07   -3.4592850708519644e-05
-6.406830370387042e-06   1.7835892549065806e-07   -3.4592850708519644e-05
-6.406830370387042e-06   1.7835892549065806e-07   -3.4592850708519644e-05
-6.406830370387042e-06   1.7835892549065806e-07   -3.4592850708519644e-05
-9.434255931018658e-06   -1.4516195516044335e-07   -4.066875612157301e-05
-9.434255931018658e-06   -1.4516195516044335e-07   -4.066875612157301e-05
-9.434255931018658e-06   -1.4516195516044335e-07   -4.066875612157301e-05
-9.434255931018658e-06   -1.4516195516044335e-07   -4.066875612157301e-05
-3.2483004568083793e-06   1.5311737428616058e-06   -2.9353028912409225e-05
-3.2483004568083793e-06   1.5311737428616058e-06   -2.9353028912409225e-05
-3.2483004568083793e-06   1.5311737428616058e-06   -2.9353028912409225e-05
-3.2483004568083793e-06   1.5311737428616058e-06   -2.9353028912409225e-05
-2.782799556601349e-06   1.1339905816079012e-06   -4.019737788222839e-05
-2.782799556601349e-06   1.1339905816079012e-06   -4.019737788222839e-05
-2.782799556601349e-06   1.1339905816079012e-06   -4.019737788222839e-05
-2.782799556601349e-06   1.1339905816079012e-06   -4.019737788222839e-05
-9.198144525267555e-06   2.7110180474169358e-06   -3.0451352747270203e-05
-9.198144525267555e-06   2.7110180474169358e-06   -3.0451352747270203e-05
-9.198144525267555e-06   2.7110180474169358e-06   -3.0451352747270203e-05
-9.198144525267555e-06   2.7110180474169358e-06   -3.0451352747270203e-05
-6.21723597051521e-06   1.1891968090809325e-06   -3.450644092885572e-05
-6.21723597051521e-06   1.1891968090809325e-06   -3.450644092885572e-05
-6.21723597051521e-06   1.1891968090809325e-06   -3.450644092885572e-05
-6.21723597051521e-06   1.1891968090809325e-06   -3.450644092885572e-05
-9.19814452526753e-06   1.1339905816079012e-06   -4.1143594361713704e-05
-9.19814452526753e-06   1.1339905816079012e-06   -4.1143594361713704e-05
-9.19814452526753e-06   1.1339905816079012e-06   -4.1143594361713704e-05
-9.19814452526753e-06   1.1339905816079012e-06   -4.1143594361713704e-05
-2.782799556601349e-06   2.7110180474169358e-06   -2.950513626778469e-05
-2.782799556601349e-06   2.7110180474169358e-06   -2.950513626778469e-05
-2.782799556601349e-06   2.7110180474169358e-06   -2.950513626778469e-05
-2.782799556601349e-06   2.7110180474169358e-06   -2.950513626778469e-05
-2.4577811078576824e-06   2.600144336154962e-06   -4.1321642472994815e-05
-2.4577811078576824e-06   2.600144336154962e-06   -4.1321642472994815e-05
-2.4577811078576824e-06   2.600144336154962e-06   -4.1321642472994815e-05
-2.4577811078576824e-06   2.600144336154962e-06   -4.1321642472994815e-05
-8.986013351679754e-06   4.045136030940465e-06   -3.130825041682906e-05
-8.986013351679754e-06   4.045136030940465e-06   -3.130825041682906e-05
-8.986013351679754e-06   4.045136030940465e-06   -3.130825041682906e-05
-8.986013351679754e-06   4.045136030940465e-06   -3.130825041682906e-05
-6.0187589102684824e-06   2.248683181996485e-06   -3.517580277648166e-05
-6.0187589102684824e-06   2.248683181996485e-06   -3.517580277648166e-05
-6.0187589102684824e-06   2.248683181996485e-06   -3.517580277648166e-05
-6.0187589102684824e-06   2.248683181996485e-06   -3.517580277648166e-05
-3.561854876474462e-06   -2.7102839316826962e-06   -2.224001341141551e-05
-3.561854876474462e-06   -2.7102839316826962e-06   -2.224001341141551e-05
-3.561854876474462e-06   -2.7102839316826962e-06   -2.224001341141551e-05
-3.561854876474462e-06   -2.7102839316826962e-06   -2.224001341141551e-05
9.375208205579402e-07   3.8693824110157087e-07   -1.288272061269113e-05
9.375208205579402e-07   3.8693824110157087e-07   -1.288272061269113e-05
9.375208205579402e-07   3.8693824110157087e-07   -1.288272061269113e-05
9.375208205579402e-07   3.8693824110157087e-07   -1.288272061269113e-05
2.5917466397913104e-06   -1.8098196746404137e-06   -2.1241015561648834e-05
2.5917466397913104e-06   -1.8098196746404137e-06   -2.1241015561648834e-05
2.5917466397913104e-06   -1.8098196746404137e-06   -2.1241015561648834e-05
2.5917466397913104e-06   -1.8098196746404137e-06   -2.1241015561648834e-05
-3.2483004568083657e-06   1.3764767401616522e-06   -1.3419381582863561e-05
-3.2483004568083657e-06   1.3764767401616522e-06   -1.3419381582863561e-05
-3.2483004568083657e-06   1.3764767401616522e-06   -1.3419381582863561e-05
-3.2483004568083657e-06   1.3764767401616522e-06   -1.3419381582863561e-05
-7.989752984343274e-07   -5.555503169881165e-07   -1.6342373945864373e-05
-7.989752984343274e-07   -5.555503169881165e-07   -1.6342373945864373e-05
-7.989752984343274e-07   -5.555503169881165e-07   -1.6342373945864373e-05
-7.989752984343274e-07   -5.555503169881165e-07   -1.6342373945864373e-05
-3.2483004568083657e-06   -1.8098196746404137e-06   -2.3152793410529792e-05
-3.2483004568083657e-06   -1.8098196746404137e-06   -2.3152793410529792e-05
-3.2483004568083657e-06   -1.8098196746404137e-06   -2.3152793410529792e-05
-3.2483004568083657e-06   -1.8098196746404137e-06   -2.3152793410529792e-05
2.5917466397913104e-06   1.3764767401616522e-06   -1.150760373398263e-05
2.5917466397913104e-06   1.3764767401616522e-06   -1.150760373398263e-05
2.5917466397913104e-06   1.3764767401616522e-06   -1.150760373398263e-05
2.5917466397913104e-06   1.3764767401616522e-06   -1.150760373398263e-05
3.897912041211644e-06   -1.1880940693075222e-06   -2.2399562841933583e-05
3.897912041211644e-06   -1.1880940693075222e-06   -2.2399562841933583e-05
3.897912041211644e-06   -1.1880940693075222e-06   -2.2399562841933583e-05
3.897912041211644e-06   -1.1880940693075222e-06   -2.2399562841933583e-05
-2.782799556601349e-06   1.933012049718831e-06   -1.3137707183661002e-05
-2.782799556601349e-06   1.933012049718831e-06   -1.3137707183661002e-05
-2.782799556601349e-06   1.933012049718831e-06   -1.3137707183661002e-05
-2.782799556601349e-06   1.933012049718831e-06   -1.3137707183661002e-05
4.059458849113378e-08   -8.178916561466659e-08   -1.6634483362948263e-05
4.059458849113378e-08   -8.178916561466659e-08   -1.6634483362948263e-05
4.059458849113378e-08   -8.178916561466659e-08   -1.6634483362948263e-05
4.059458849113378e-08   -8.178916561466659e-08   -1.6634483362948263e-05
-2.782799556601349e-06   -1.1880940693075222e-06   -2.4272226513349406e-05
-2.782799556601349e-06   -1.1880940693075222e-06   -2.4272226513349406e-05
-2.782799556601349e-06   -1.1880940693075222e-06   -2.4272226513349406e-05
-2.782799556601349e-06   -1.1880940693075222e-06   -2.4272226513349406e-05
3.897912041211644e-06   1.933012049719048e-06   -1.1265043512245125e-05
3.897912041211644e-06   1.933012049719048e-06   -1.1265043512245125e-05
3.897912041211644e-06   1.933012049719048e-06   -1.1265043512245125e-05
3.897912041211644e-06   1.933012049719048e-06   -1.1265043512245125e-05
5.5459899789913095e-06   3.4265567568146464e-08   -2.5093612049279163e-05
5.5459899789913095e-06   3.4265567568146464e-08   -2.5093612049279163e-05
5.5459899789913095e-06   3.4265567568146464e-08   -2.5093612049279163e-05
5.5459899789913095e-06   3.4265567568146464e-08   -2.5093612049279163e-05
-2.4577811078576824e-06   2.9200541037536012e-06   -1.3485466692908477e-05
-2.4577811078576824e-06   2.9200541037536012e-06   -1.3485466692908477e-05
-2.4577811078576824e-06   2.9200541037536012e-06   -1.3485466692908477e-05
-2.4577811078576824e-06   2.9200541037536012e-06   -1.3485466692908477e-05
7.622208974267919e-07   4.5908200743357587e-07   -1.7375553443924128e-05
7.622208974267919e-07   4.5908200743357587e-07   -1.7375553443924128e-05
7.622208974267919e-07   4.5908200743357587e-07   -1.7375553443924128e-05
7.622208974267919e-07   4.5908200743357587e-07   -1.7375553443924128e-05
-1.0549584455376996e-05   1.9866917272011713e-06   -1.8911035349765577e-05
-1.0549584455376996e-05   1.9866917272011713e-06   -1.8911035349765577e-05
-1.0549584455376996e-05   1.9866917272011713e-06   -1.8911035349765577e-05
-1.0549584455376996e-05   1.9866917272011713e-06   -1.8911035349765577e-05
-1.068839398347493e-05   -9.235425299559692e-07   -2.0888525117556528e-05
-1.068839398347493e-05   -9.235425299559692e-07   -2.0888525117556528e-05
-1.068839398347493e-05   -9.235425299559692e-07   -2.0888525117556528e-05
-1.068839398347493e-05   -9.235425299559692e-07   -2.0888525117556528e-05
-1.0152855916327079e-05   3.093444733940449e-06   -1.776822163948458e-05
-1.0152855916327079e-05   3.093444733940449e-06   -1.776822163948458e-05
-1.0152855916327079e-05   3.093444733940449e-06   -1.776822163948458e-05
-1.0152855916327079e-05   3.093444733940449e-06   -1.776822163948458e-05
-8.707134280447435e-06   -2.8163948305459652e-08   -1.8304792489936433e-05
-8.707134280447435e-06   -2.8163948305459652e-08   -1.8304792489936433e-05
-8.707134280447435e-06   -2.8163948305459652e-08   -1.8304792489936433e-05
-8.707134280447435e-06   -2.8163948305459652e-08   -1.8304792489936433e-05
-9.58632156694332e-06   1.3676946032800067e-06   -1.7676995476728554e-05
-9.58632156694332e-06   1.3676946032800067e-06   -1.7676995476728554e-05
-9.58632156694332e-06   1.3676946032800067e-06   -1.7676995476728554e-05
-9.58632156694332e-06   1.3676946032800067e-06   -1.7676995476728554e-05
-8.70713428044738e-06   3.093444733940449e-06   -1.5895256430137035e-05
-8.70713428044738e-06   3.093444733940449e-06   -1.5895256430137035e-05
-8.70713428044738e-06   3.093444733940449e-06   -1.5895256430137035e-05
-8.70713428044738e-06   3.093444733940449e-06   -1.5895256430137035e-05
-1.0152855916327079e-05   -2.8163948305459652e-08   -2.0177757699283978e-05
-1.0152855916327079e-05   -2.8163948305459652e-08   -2.0177757699283978e-05
-1.0152855916327079e-05   -2.8163948305459652e-08   -2.0177757699283978e-05
-1.0152855916327079e-05   -2.8163948305459652e-08   -2.0177757699283978e-05
-9.477341264679606e-06   3.652604498214111e-06   -1.6489067764300204e-05
-9.477341264679606e-06   3.652604498214111e-06   -1.6489067764300204e-05
-9.477341264679606e-06   3.652604498214111e-06   -1.6489067764300204e-05
-9.477341264679606e-06   3.652604498214111e-06   -1.6489067764300204e-05
-7.183424152317722e-06   4.783077856662481e-07   -1.840768492404111e-05
-7.183424152317722e-06   4.783077856662481e-07   -1.840768492404111e-05
-7.183424152317722e-06   4.783077856662481e-07   -1.840768492404111e-05
-7.183424152317722e-06   4.783077856662481e-07   -1.840768492404111e-05
-8.713946486478286e-06   1.8273727095928245e-06   -1.666625332146361e-05
-8.713946486478286e-06   1.8273727095928245e-06   -1.666625332146361e-05
-8.713946486478286e-06   1.8273727095928245e-06   -1.666625332146361e-05
-8.713946486478286e-06   1.8273727095928245e-06   -1.666625332146361e-05
-7.183424152317668e-06   3.652604498214111e-06   -1.4584489736771422e-05
-7.183424152317668e-06   3.652604498214111e-06   -1.4584489736771422e-05
-7.183424152317668e-06   3.652604498214111e-06   -1.4584489736771422e-05
-7.183424152317668e-06   3.652604498214111e-06   -1.4584489736771422e-05
-9.477341264679633e-06   4.783077856662481e-07   -2.0312262951569893e-05
-9.477341264679633e-06   4.783077856662481e-07   -2.0312262951569893e-05
-9.477341264679633e-06   4.783077856662481e-07   -2.0312262951569893e-05
-9.477341264679633e-06   4.783077856662481e-07   -2.0312262951569893e-05
-8.950381999184997e-06   4.53832548708618e-06   -1.5299582764184e-05
-8.950381999184997e-06   4.53832548708618e-06   -1.5299582764184e-05
-8.950381999184997e-06   4.53832548708618e-06   -1.5299582764184e-05
-8.950381999184997e-06   4.53832548708618e-06   -1.5299582764184e-05
-5.302131651314305e-06   1.4884435131001707e-06   -1.9550070826243647e-05
-5.302131651314305e-06   1.4884435131001707e-06   -1.9550070826243647e-05
-5.302131651314305e-06   1.4884435131001707e-06   -1.9550070826243647e-05
-5.302131651314305e-06   1.4884435131001707e-06   -1.9550070826243647e-05
-7.623490520967247e-06   2.2678525954059753e-06   -1.6148784826205552e-05
-7.623490520967247e-06   2.2678525954059753e-06   -1.6148784826205552e-05
-7.623490520967247e-06   2.2678525954059753e-06   -1.6148784826205552e-05
-7.623490520967247e-06   2.2678525954059753e-06   -1.6148784826205552e-05
-1.0688393983474903e-05   1.1404452929543712e-06   -3.437786705414369e-05
-1.0688393983474903e-05   1.1404452929543712e-06   -3.437786705414369e-05
-1.0688393983474903e-05   1.1404452929543712e-06   -3.437786705414369e-05
-1.0688393983474903e-05   1.1404452929543712e-06   -3.437786705414369e-05
-1.23128920074236e-05   -2.0016697793029392e-07   -3.788973112325562e-05
-1.23128920074236e-05   -2.0016697793029392e-07   -3.788973112325562e-05
-1.23128920074236e-05   -2.0016697793029392e-07   -3.788973112325562e-05
-1.23128920074236e-05   -2.0016697793029392e-07   -3.788973112325562e-05
-1.1880134216623602e-05   2.409494714590999e-06   -3.440374314338766e-05
-1.1880134216623602e-05   2.409494714590999e-06   -3.440374314338766e-05
-1.1880134216623602e-05   2.409494714590999e-06   -3.440374314338766e-05
-1.1880134216623602e-05   2.409494714590999e-06   -3.440374314338766e-05
-1.0152855916327106e-05   9.295527502192844e-07   -3.639457513192519e-05
-1.0152855916327106e-05   9.295527502192844e-07   -3.639457513192519e-05
-1.0152855916327106e-05   9.295527502192844e-07   -3.639457513192519e-05
-1.0152855916327106e-05   9.295527502192844e-07   -3.639457513192519e-05
-1.1127425033699375e-05   1.3177425228745945e-06   -3.5003207133231875e-05
-1.1127425033699375e-05   1.3177425228745945e-06   -3.5003207133231875e-05
-1.1127425033699375e-05   1.3177425228745945e-06   -3.5003207133231875e-05
-1.1127425033699375e-05   1.3177425228745945e-06   -3.5003207133231875e-05
-1.0152855916327079e-05   2.409494714590999e-06   -3.3515777964764244e-05
-1.0152855916327079e-05   2.409494714590999e-06   -3.3515777964764244e-05
-1.0152855916327079e-05   2.409494714590999e-06   -3.3515777964764244e-05
-1.0152855916327079e-05   2.409494714590999e-06   -3.3515777964764244e-05
-1.1880134216623589e-05   9.295527502192844e-07   -3.728254031054839e-05
-1.1880134216623589e-05   9.295527502192844e-07   -3.728254031054839e-05
-1.1880134216623589e-05   9.295527502192844e-07   -3.728254031054839e-05
-1.1880134216623589e-05   9.295527502192844e-07   -3.728254031054839e-05
-1.1430051272610958e-05   3.5894881483444687e-06   -3.411536143176075e-05
-1.1430051272610958e-05   3.5894881483444687e-06   -3.411536143176075e-05
-1.1430051272610958e-05   3.5894881483444687e-06   -3.411536143176075e-05
-1.1430051272610958e-05   3.5894881483444687e-06   -3.411536143176075e-05
-9.47734126467966e-06   2.0171994191055687e-06   -3.642650487410259e-05
-9.47734126467966e-06   2.0171994191055687e-06   -3.642650487410259e-05
-9.47734126467966e-06   2.0171994191055687e-06   -3.642650487410259e-05
-9.47734126467966e-06   2.0171994191055687e-06   -3.642650487410259e-05
-1.069377153977486e-05   2.228499501486566e-06   -3.452590113170613e-05
-1.069377153977486e-05   2.228499501486566e-06   -3.452590113170613e-05
-1.069377153977486e-05   2.228499501486566e-06   -3.452590113170613e-05
-1.069377153977486e-05   2.228499501486566e-06   -3.452590113170613e-05
-9.477341264679606e-06   3.5894881483444687e-06   -3.317198819421713e-05
-9.477341264679606e-06   3.5894881483444687e-06   -3.317198819421713e-05
-9.477341264679606e-06   3.5894881483444687e-06   -3.317198819421713e-05
-9.477341264679606e-06   3.5894881483444687e-06   -3.317198819421713e-05
-1.1430051272610917e-05   2.0171994191055687e-06   -3.7369878111645884e-05
-1.1430051272610917e-05   2.0171994191055687e-06   -3.7369878111645884e-05
-1.1430051272610917e-05   2.0171994191055687e-06   -3.7369878111645884e-05
-1.1430051272610917e-05   2.0171994191055687e-06   -3.7369878111645884e-05
-1.1006135776397987e-05   4.900640983133281e-06   -3.468036225852378e-05
-1.1006135776397987e-05   4.900640983133281e-06   -3.468036225852378e-05
-1.1006135776397987e-05   4.900640983133281e-06   -3.468036225852378e-05
-1.1006135776397987e-05   4.900640983133281e-06   -3.468036225852378e-05
-8.950381999185025e-06   3.2591527306933578e-06   -3.712172560241462e-05
-8.950381999185025e-06   3.2591527306933578e-06   -3.712172560241462e-05
-8.950381999185025e-06   3.2591527306933578e-06   -3.712172560241462e-05
-8.950381999185025e-06   3.2591527306933578e-06   -3.712172560241462e-05
-1.0312215799642301e-05   3.183856398548783e-06   -3.48068248023658e-05
-1.0312215799642301e-05   3.183856398548783e-06   -3.48068248023658e-05
-1.0312215799642301e-05   3.183856398548783e-06   -3.48068248023658e-05
-1.0312215799642301e-05   3.183856398548783e-06   -3.48068248023658e-05
-1.2312892007423573e-05   6.535145441997642e-07   -4.003504509447037e-05
-1.2312892007423573e-05   6.535145441997642e-07   -4.003504509447037e-05
-1.2312892007423573e-05   6.535145441997642e-07   -4.003504509447037e-05
-1.2312892007423573e-05   6.535145441997642e-07   -4.003504509447037e-05
-1.4023811289147139e-05   9.367109804600451e-07   -4.2716659368920184e-05
-1.4023811289147139e-05   9.367109804600451e-07   -4.2716659368920184e-05
-1.4023811289147139e-05   9.367109804600451e-07   -4.2716659368920184e-05
-1.4023811289147139e-05   9.367109804600451e-07   -4.2716659368920184e-05
-1.3598501268285793e-05   1.9460384877226233e-06   -3.941822637369458e-05
-1.3598501268285793e-05   1.9460384877226233e-06   -3.941822637369458e-05
-1.3598501268285793e-05   1.9460384877226233e-06   -3.941822637369458e-05
-1.3598501268285793e-05   1.9460384877226233e-06   -3.941822637369458e-05
-1.1880134216623602e-05   2.1043422182007773e-06   -4.237715369808493e-05
-1.1880134216623602e-05   2.1043422182007773e-06   -4.237715369808493e-05
-1.1880134216623602e-05   2.1043422182007773e-06   -4.237715369808493e-05
-1.1880134216623602e-05   2.1043422182007773e-06   -4.237715369808493e-05
-1.2875854008744145e-05   1.5920070357445127e-06   -4.041021960174418e-05
-1.2875854008744145e-05   1.5920070357445127e-06   -4.041021960174418e-05
-1.2875854008744145e-05   1.5920070357445127e-06   -4.041021960174418e-05
-1.2875854008744145e-05   1.5920070357445127e-06   -4.041021960174418e-05
-1.1880134216623562e-05   1.9460384877226233e-06   -3.951320861198134e-05
-1.1880134216623562e-05   1.9460384877226233e-06   -3.951320861198134e-05
-1.1880134216623562e-05   1.9460384877226233e-06   -3.951320861198134e-05
-1.1880134216623562e-05   1.9460384877226233e-06   -3.951320861198134e-05
-1.3598501268285817e-05   2.1043422182007773e-06   -4.228217145979822e-05
-1.3598501268285817e-05   2.1043422182007773e-06   -4.228217145979822e-05
-1.3598501268285817e-05   2.1043422182007773e-06   -4.228217145979822e-05
-1.3598501268285817e-05   2.1043422182007773e-06   -4.228217145979822e-05
-1.3151187624612864e-05   3.249886735268853e-06   -3.953263435262967e-05
-1.3151187624612864e-05   3.249886735268853e-06   -3.953263435262967e-05
-1.3151187624612864e-05   3.249886735268853e-06   -3.953263435262967e-05
-1.3151187624612864e-05   3.249886735268853e-06   -3.953263435262967e-05
-1.1430051272610958e-05   3.2976460480696208e-06   -4.2429850526979896e-05
-1.1430051272610958e-05   3.2976460480696208e-06   -4.2429850526979896e-05
-1.1430051272610958e-05   3.2976460480696208e-06   -4.2429850526979896e-05
-1.1430051272610958e-05   3.2976460480696208e-06   -4.2429850526979896e-05
-1.2518917777910833e-05   2.5908213201011367e-06   -4.0190978181366154e-05
-1.2518917777910833e-05   2.5908213201011367e-06   -4.0190978181366154e-05
-1.2518917777910833e-05   2.5908213201011367e-06   -4.0190978181366154e-05
-1.2518917777910833e-05   2.5908213201011367e-06   -4.0190978181366154e-05
-1.1430051272610917e-05   3.249886735268853e-06   -3.9561289940310174e-05
-1.1430051272610917e-05   3.249886735268853e-06   -3.9561289940310174e-05
-1.1430051272610917e-05   3.249886735268853e-06   -3.9561289940310174e-05
-1.1430051272610917e-05   3.249886735268853e-06   -3.9561289940310174e-05
-1.3151187624612864e-05   3.2976460480696208e-06   -4.2401194939299365e-05
-1.3151187624612864e-05   3.2976460480696208e-06   -4.2401194939299365e-05
-1.3151187624612864e-05   3.2976460480696208e-06   -4.2401194939299365e-05
-1.3151187624612864e-05   3.2976460480696208e-06   -4.2401194939299365e-05
-1.272930589377847e-05   4.573410741634618e-06   -4.029994617290125e-05
-1.272930589377847e-05   4.573410741634618e-06   -4.029994617290125e-05
-1.272930589377847e-05   4.573410741634618e-06   -4.029994617290125e-05
-1.272930589377847e-05   4.573410741634618e-06   -4.029994617290125e-05
-1.1006135776397987e-05   4.507462514918457e-06   -4.313232743250554e-05
-1.1006135776397987e-05   4.507462514918457e-06   -4.313232743250554e-05
-1.1006135776397987e-05   4.507462514918457e-06   -4.313232743250554e-05
-1.1006135776397987e-05   4.507462514918457e-06   -4.313232743250554e-05
-1.2190381803237658e-05   3.6036108225230134e-06   -4.061627303900221e-05
-1.2190381803237658e-05   3.6036108225230134e-06   -4.061627303900221e-05
-1.2190381803237658e-05   3.6036108225230134e-06   -4.061627303900221e-05
-1.2190381803237658e-05   3.6036108225230134e-06   -4.061627303900221e-05
-1.4023811289147092e-05   2.7917324859662307e-07   -3.453976054631775e-05
-1.4023811289147092e-05   2.7917324859662307e-07   -3.453976054631775e-05
-1.4023811289147092e-05   2.7917324859662307e-07   -3.453976054631775e-05
-1.4023811289147092e-05   2.7917324859662307e-07   -3.453976054631775e-05
-1.5830240860860637e-05   2.0820134130961933e-06   -3.6468772400474097e-05
-1.5830240860860637e-05   2.0820134130961933e-06   -3.6468772400474097e-05
-1.5830240860860637e-05   2.0820134130961933e-06   -3.6468772400474097e-05
-1.5830240860860637e-05   2.0820134130961933e-06   -3.6468772400474097e-05
-1.5315654752134805e-05   1.5311737428616058e-06   -3.302147943608658e-05
-1.5315654752134805e-05   1.5311737428616058e-06   -3.302147943608658e-05
-1.5315654752134805e-05   1.5311737428616058e-06   -3.302147943608658e-05
-1.5315654752134805e-05   1.5311737428616058e-06   -3.302147943608658e-05
-1.3598501268285793e-05   3.2535719157195803e-06   -3.691684081288291e-05
-1.3598501268285793e-05   3.2535719157195803e-06   -3.691684081288291e-05
-1.3598501268285793e-05   3.2535719157195803e-06   -3.691684081288291e-05
-1.3598501268285793e-05   3.2535719157195803e-06   -3.691684081288291e-05
-1.4578507987281453e-05   1.9170048838113886e-06   -3.448155606207914e-05
-1.4578507987281453e-05   1.9170048838113886e-06   -3.448155606207914e-05
-1.4578507987281453e-05   1.9170048838113886e-06   -3.448155606207914e-05
-1.4578507987281453e-05   1.9170048838113886e-06   -3.448155606207914e-05
-1.3598501268285771e-05   1.5311737428616058e-06   -3.405491833980128e-05
-1.3598501268285771e-05   1.5311737428616058e-06   -3.405491833980128e-05
-1.3598501268285771e-05   1.5311737428616058e-06   -3.405491833980128e-05
-1.3598501268285771e-05   1.5311737428616058e-06   -3.405491833980128e-05
-1.5315654752134805e-05   3.253571915719797e-06   -3.588340190916828e-05
-1.5315654752134805e-05   3.253571915719797e-06   -3.588340190916828e-05
-1.5315654752134805e-05   3.253571915719797e-06   -3.588340190916828e-05
-1.5315654752134805e-05   3.253571915719797e-06   -3.588340190916828e-05
-1.4650717559881065e-05   2.7110180474169358e-06   -3.3164502490691224e-05
-1.4650717559881065e-05   2.7110180474169358e-06   -3.3164502490691224e-05
-1.4650717559881065e-05   2.7110180474169358e-06   -3.3164502490691224e-05
-1.4650717559881065e-05   2.7110180474169358e-06   -3.3164502490691224e-05
-1.3151187624612842e-05   4.334372328518429e-06   -3.663773161813229e-05
-1.3151187624612842e-05   4.334372328518429e-06   -3.663773161813229e-05
-1.3151187624612842e-05   4.334372328518429e-06   -3.663773161813229e-05
-1.3151187624612842e-05   4.334372328518429e-06   -3.663773161813229e-05
-1.4118622893560678e-05   2.846479879055905e-06   -3.4132604033542346e-05
-1.4118622893560678e-05   2.846479879055905e-06   -3.4132604033542346e-05
-1.4118622893560678e-05   2.846479879055905e-06   -3.4132604033542346e-05
-1.4118622893560678e-05   2.846479879055905e-06   -3.4132604033542346e-05
-1.3151187624612807e-05   2.7110180474169358e-06   -3.41385150593519e-05
-1.3151187624612807e-05   2.7110180474169358e-06   -3.41385150593519e-05
-1.3151187624612807e-05   2.7110180474169358e-06   -3.41385150593519e-05
-1.3151187624612807e-05   2.7110180474169358e-06   -3.41385150593519e-05
-1.4650717559881092e-05   4.334372328518212e-06   -3.566371904947156e-05
-1.4650717559881092e-05   4.334372328518212e-06   -3.566371904947156e-05
-1.4650717559881092e-05   4.334372328518212e-06   -3.566371904947156e-05
-1.4650717559881092e-05   4.334372328518212e-06   -3.566371904947156e-05
-1.4128330651241953e-05   4.045136030940248e-06   -3.408435036825826e-05
-1.4128330651241953e-05   4.045136030940248e-06   -3.408435036825826e-05
-1.4128330651241953e-05   4.045136030940248e-06   -3.408435036825826e-05
-1.4128330651241953e-05   4.045136030940248e-06   -3.408435036825826e-05
-1.272930589377847e-05   5.545648194799297e-06   -3.731636559567919e-05
-1.272930589377847e-05   5.545648194799297e-06   -3.731636559567919e-05
-1.272930589377847e-05   5.545648194799297e-06   -3.731636559567919e-05
-1.272930589377847e-05   5.545648194799297e-06   -3.731636559567919e-05
-1.3774111594055317e-05   3.7964155487791185e-06   -3.452548317427179e-05
-1.3774111594055317e-05   3.7964155487791185e-06   -3.452548317427179e-05
-1.3774111594055317e-05   3.7964155487791185e-06   -3.452548317427179e-05
-1.3774111594055317e-05   3.7964155487791185e-06   -3.452548317427179e-05
-1.583024086086057e-05   3.8693824110157087e-07   -1.840837407251063e-05
-1.583024086086057e-05   3.8693824110157087e-07   -1.840837407251063e-05
-1.583024086086057e-05   3.8693824110157087e-07   -1.840837407251063e-05
-1.583024086086057e-05   3.8693824110157087e-07   -1.840837407251063e-05
-1.917084498943497e-05   3.4985650978324595e-06   -2.2109071506096157e-05
-1.917084498943497e-05   3.4985650978324595e-06   -2.2109071506096157e-05
-1.917084498943497e-05   3.4985650978324595e-06   -2.2109071506096157e-05
-1.917084498943497e-05   3.4985650978324595e-06   -2.2109071506096157e-05
-1.734358902666009e-05   1.3764767401616522e-06   -1.5177317493126306e-05
-1.734358902666009e-05   1.3764767401616522e-06   -1.5177317493126306e-05
-1.734358902666009e-05   1.3764767401616522e-06   -1.5177317493126306e-05
-1.734358902666009e-05   1.3764767401616522e-06   -1.5177317493126306e-05
-1.5315654752134778e-05   4.560667762519999e-06   -2.0467722564083333e-05
-1.5315654752134778e-05   4.560667762519999e-06   -2.0467722564083333e-05
-1.5315654752134778e-05   4.560667762519999e-06   -2.0467722564083333e-05
-1.5315654752134778e-05   4.560667762519999e-06   -2.0467722564083333e-05
-1.623050042406947e-05   2.5842143076431658e-06   -1.7757107704599823e-05
-1.623050042406947e-05   2.5842143076431658e-06   -1.7757107704599823e-05
-1.623050042406947e-05   2.5842143076431658e-06   -1.7757107704599823e-05
-1.623050042406947e-05   2.5842143076431658e-06   -1.7757107704599823e-05
-1.5315654752134737e-05   1.3764767401616522e-06   -1.7087832106541054e-05
-1.5315654752134737e-05   1.3764767401616522e-06   -1.7087832106541054e-05
-1.5315654752134737e-05   1.3764767401616522e-06   -1.7087832106541054e-05
-1.5315654752134737e-05   1.3764767401616522e-06   -1.7087832106541054e-05
-1.734358902666006e-05   4.560667762519783e-06   -1.8557207950668612e-05
-1.734358902666006e-05   4.560667762519783e-06   -1.8557207950668612e-05
-1.734358902666006e-05   4.560667762519783e-06   -1.8557207950668612e-05
-1.734358902666006e-05   4.560667762519783e-06   -1.8557207950668612e-05
-1.5857371887557215e-05   1.933012049718831e-06   -1.4928694910685191e-05
-1.5857371887557215e-05   1.933012049718831e-06   -1.4928694910685191e-05
-1.5857371887557215e-05   1.933012049718831e-06   -1.4928694910685191e-05
-1.5857371887557215e-05   1.933012049718831e-06   -1.4928694910685191e-05
-1.4650717559881065e-05   5.0469762095228105e-06   -1.8808163952694317e-05
-1.4650717559881065e-05   5.0469762095228105e-06   -1.8808163952694317e-05
-1.4650717559881065e-05   5.0469762095228105e-06   -1.8808163952694317e-05
-1.4650717559881065e-05   5.0469762095228105e-06   -1.8808163952694317e-05
-1.545039227294983e-05   3.075911372329987e-06   -1.629273386193086e-05
-1.545039227294983e-05   3.075911372329987e-06   -1.629273386193086e-05
-1.545039227294983e-05   3.075911372329987e-06   -1.629273386193086e-05
-1.545039227294983e-05   3.075911372329987e-06   -1.629273386193086e-05
-1.4650717559881038e-05   1.933012049718831e-06   -1.6797073406567536e-05
-1.4650717559881038e-05   1.933012049718831e-06   -1.6797073406567536e-05
-1.4650717559881038e-05   1.933012049718831e-06   -1.6797073406567536e-05
-1.4650717559881038e-05   1.933012049718831e-06   -1.6797073406567536e-05
-1.5857371887557215e-05   5.046976209523027e-06   -1.6939785456812108e-05
-1.5857371887557215e-05   5.046976209523027e-06   -1.6939785456812108e-05
-1.5857371887557215e-05   5.046976209523027e-06   -1.6939785456812108e-05
-1.5857371887557215e-05   5.046976209523027e-06   -1.6939785456812108e-05
-1.4039715163472041e-05   2.920054103753818e-06   -1.5400236946583714e-05
-1.4039715163472041e-05   2.920054103753818e-06   -1.5400236946583714e-05
-1.4039715163472041e-05   2.920054103753818e-06   -1.5400236946583714e-05
-1.4039715163472041e-05   2.920054103753818e-06   -1.5400236946583714e-05
-1.4128330651241926e-05   5.800595294795478e-06   -1.698086918159198e-05
-1.4128330651241926e-05   5.800595294795478e-06   -1.698086918159198e-05
-1.4128330651241926e-05   5.800595294795478e-06   -1.698086918159198e-05
-1.4128330651241926e-05   5.800595294795478e-06   -1.698086918159198e-05
-1.4303060930926728e-05   3.4734650413068262e-06   -1.5293373896690943e-05
-1.4303060930926728e-05   3.4734650413068262e-06   -1.5293373896690943e-05
-1.4303060930926728e-05   3.4734650413068262e-06   -1.5293373896690943e-05
-1.4303060930926728e-05   3.4734650413068262e-06   -1.5293373896690943e-05
9.334845137101146e-06   -9.23542529956186e-07   -9.577850979270212e-06
9.334845137101146e-06   -9.23542529956186e-07   -9.577850979270212e-06
9.334845137101146e-06   -9.23542529956186e-07   -9.577850979270212e-06
9.334845137101146e-06   -9.23542529956186e-07   -9.577850979270212e-06
9.572427685993292e-07   -3.885918613761143e-06   -2.5317947243722982e-05
9.572427685993292e-07   -3.885918613761143e-06   -2.5317947243722982e-05
9.572427685993292e-07   -3.885918613761143e-06   -2.5317947243722982e-05
9.572427685993292e-07   -3.885918613761143e-06   -2.5317947243722982e-05
1.6914920459401334e-06   -2.8163948305459652e-08   -1.058086000945693e-05
1.6914920459401334e-06   -2.8163948305459652e-08   -1.058086000945693e-05
1.6914920459401334e-06   -2.8163948305459652e-08   -1.058086000945693e-05
1.6914920459401334e-06   -2.8163948305459652e-08   -1.058086000945693e-05
1.1385474375433886e-05   -3.193315016624407e-06   -2.483840658428838e-05
1.1385474375433886e-05   -3.193315016624407e-06   -2.483840658428838e-05
1.1385474375433886e-05   -3.193315016624407e-06   -2.483840658428838e-05
1.1385474375433886e-05   -3.193315016624407e-06   -2.483840658428838e-05
5.624611156538503e-06   -1.6212567782248125e-06   -1.6180202829169338e-05
5.624611156538503e-06   -1.6212567782248125e-06   -1.6180202829169338e-05
5.624611156538503e-06   -1.6212567782248125e-06   -1.6180202829169338e-05
5.624611156538503e-06   -1.6212567782248125e-06   -1.6180202829169338e-05
1.1385474375433886e-05   -2.8163948305459652e-08   -8.681769368465713e-06
1.1385474375433886e-05   -2.8163948305459652e-08   -8.681769368465713e-06
1.1385474375433886e-05   -2.8163948305459652e-08   -8.681769368465713e-06
1.1385474375433886e-05   -2.8163948305459652e-08   -8.681769368465713e-06
1.6914920459401334e-06   -3.193315016624624e-06   -2.673749722528003e-05
1.6914920459401334e-06   -3.193315016624624e-06   -2.673749722528003e-05
1.6914920459401334e-06   -3.193315016624624e-06   -2.673749722528003e-05
1.6914920459401334e-06   -3.193315016624624e-06   -2.673749722528003e-05
2.5570215312304757e-06   4.783077856662481e-07   -1.0661725520670802e-05
2.5570215312304757e-06   4.783077856662481e-07   -1.0661725520670802e-05
2.5570215312304757e-06   4.783077856662481e-07   -1.0661725520670802e-05
2.5570215312304757e-06   4.783077856662481e-07   -1.0661725520670802e-05
1.3118881401460287e-05   -2.7316147503614677e-06   -2.6338871782770746e-05
1.3118881401460287e-05   -2.7316147503614677e-06   -2.6338871782770746e-05
1.3118881401460287e-05   -2.7316147503614677e-06   -2.6338871782770746e-05
1.3118881401460287e-05   -2.7316147503614677e-06   -2.6338871782770746e-05
6.925441501176281e-06   -1.297651396614096e-06   -1.6876849961213207e-05
6.925441501176281e-06   -1.297651396614096e-06   -1.6876849961213207e-05
6.925441501176281e-06   -1.297651396614096e-06   -1.6876849961213207e-05
6.925441501176281e-06   -1.297651396614096e-06   -1.6876849961213207e-05
1.3118881401460341e-05   4.783077856662481e-07   -8.735771999054368e-06
1.3118881401460341e-05   4.783077856662481e-07   -8.735771999054368e-06
1.3118881401460341e-05   4.783077856662481e-07   -8.735771999054368e-06
1.3118881401460341e-05   4.783077856662481e-07   -8.735771999054368e-06
2.5570215312304486e-06   -2.7316147503614677e-06   -2.8264825304387614e-05
2.5570215312304486e-06   -2.7316147503614677e-06   -2.8264825304387614e-05
2.5570215312304486e-06   -2.7316147503614677e-06   -2.8264825304387614e-05
2.5570215312304486e-06   -2.7316147503614677e-06   -2.8264825304387614e-05
3.269591310316953e-06   1.4884435131001707e-06   -1.168198307782524e-05
3.269591310316953e-06   1.4884435131001707e-06   -1.168198307782524e-05
3.269591310316953e-06   1.4884435131001707e-06   -1.168198307782524e-05
3.269591310316953e-06   1.4884435131001707e-06   -1.168198307782524e-05
1.5201130966773727e-05   -1.5682001386016237e-06   -2.973389631423203e-05
1.5201130966773727e-05   -1.5682001386016237e-06   -2.973389631423203e-05
1.5201130966773727e-05   -1.5682001386016237e-06   -2.973389631423203e-05
1.5201130966773727e-05   -1.5682001386016237e-06   -2.973389631423203e-05
7.960482292918342e-06   -8.224834080090837e-07   -1.811357856282942e-05
7.960482292918342e-06   -8.224834080090837e-07   -1.811357856282942e-05
7.960482292918342e-06   -8.224834080090837e-07   -1.811357856282942e-05
7.960482292918342e-06   -8.224834080090837e-07   -1.811357856282942e-05
9.572427685993292e-07   -2.0016697793029392e-07   -2.755211527272184e-05
9.572427685993292e-07   -2.0016697793029392e-07   -2.755211527272184e-05
9.572427685993292e-07   -2.0016697793029392e-07   -2.755211527272184e-05
9.572427685993292e-07   -2.0016697793029392e-07   -2.755211527272184e-05
-8.820292969326953e-06   -1.5372647864848616e-06   -4.465026685439831e-05
-8.820292969326953e-06   -1.5372647864848616e-06   -4.465026685439831e-05
-8.820292969326953e-06   -1.5372647864848616e-06   -4.465026685439831e-05
-8.820292969326953e-06   -1.5372647864848616e-06   -4.465026685439831e-05
-8.176180826481838e-06   9.295527502190676e-07   -2.7708052252257195e-05
-8.176180826481838e-06   9.295527502190676e-07   -2.7708052252257195e-05
-8.176180826481838e-06   9.295527502190676e-07   -2.7708052252257195e-05
-8.176180826481838e-06   9.295527502190676e-07   -2.7708052252257195e-05
1.6914920459401334e-06   -5.877386000455176e-07   -4.324379889613484e-05
1.6914920459401334e-06   -5.877386000455176e-07   -4.324379889613484e-05
1.6914920459401334e-06   -5.877386000455176e-07   -4.324379889613484e-05
1.6914920459401334e-06   -5.877386000455176e-07   -4.324379889613484e-05
-3.504020100765276e-06   -5.8168286179308484e-08   -3.490235417327893e-05
-3.504020100765276e-06   -5.8168286179308484e-08   -3.490235417327893e-05
-3.504020100765276e-06   -5.8168286179308484e-08   -3.490235417327893e-05
-3.504020100765276e-06   -5.8168286179308484e-08   -3.490235417327893e-05
1.6914920459401063e-06   9.295527502192844e-07   -2.679767744209814e-05
1.6914920459401063e-06   9.295527502192844e-07   -2.679767744209814e-05
1.6914920459401063e-06   9.295527502192844e-07   -2.679767744209814e-05
1.6914920459401063e-06   9.295527502192844e-07   -2.679767744209814e-05
-8.176180826481838e-06   -5.877386000455176e-07   -4.415417370629384e-05
-8.176180826481838e-06   -5.877386000455176e-07   -4.415417370629384e-05
-8.176180826481838e-06   -5.877386000455176e-07   -4.415417370629384e-05
-8.176180826481838e-06   -5.877386000455176e-07   -4.415417370629384e-05
-7.528396965774894e-06   2.0171994191055687e-06   -2.774984133691342e-05
-7.528396965774894e-06   2.0171994191055687e-06   -2.774984133691342e-05
-7.528396965774894e-06   2.0171994191055687e-06   -2.774984133691342e-05
-7.528396965774894e-06   2.0171994191055687e-06   -2.774984133691342e-05
2.5570215312304757e-06   3.940762629225415e-07   -4.358499827154604e-05
2.5570215312304757e-06   3.940762629225415e-07   -4.358499827154604e-05
2.5570215312304757e-06   3.940762629225415e-07   -4.358499827154604e-05
2.5570215312304757e-06   3.940762629225415e-07   -4.358499827154604e-05
-2.9334862590406086e-06   7.216667254356796e-07   -3.463070623193541e-05
-2.9334862590406086e-06   7.216667254356796e-07   -3.463070623193541e-05
-2.9334862590406086e-06   7.216667254356796e-07   -3.463070623193541e-05
-2.9334862590406086e-06   7.216667254356796e-07   -3.463070623193541e-05
2.5570215312304757e-06   2.0171994191055687e-06   -2.6775967443203605e-05
2.5570215312304757e-06   2.0171994191055687e-06   -2.6775967443203605e-05
2.5570215312304757e-06   2.0171994191055687e-06   -2.6775967443203605e-05
2.5570215312304757e-06   2.0171994191055687e-06   -2.6775967443203605e-05
-7.528396965774894e-06   3.9407626292275837e-07   -4.4558872165255804e-05
-7.528396965774894e-06   3.9407626292275837e-07   -4.4558872165255804e-05
-7.528396965774894e-06   3.9407626292275837e-07   -4.4558872165255804e-05
-7.528396965774894e-06   3.9407626292275837e-07   -4.4558872165255804e-05
-6.909439453408895e-06   3.2591527306935746e-06   -2.8445138485206148e-05
-6.909439453408895e-06   3.2591527306935746e-06   -2.8445138485206148e-05
-6.909439453408895e-06   3.2591527306935746e-06   -2.8445138485206148e-05
-6.909439453408895e-06   3.2591527306935746e-06   -2.8445138485206148e-05
3.269591310316926e-06   1.5567697046906057e-06   -4.438875994248104e-05
3.269591310316926e-06   1.5567697046906057e-06   -4.438875994248104e-05
3.269591310316926e-06   1.5567697046906057e-06   -4.438875994248104e-05
3.269591310316926e-06   1.5567697046906057e-06   -4.438875994248104e-05
-2.298208124833554e-06   1.5860867725193267e-06   -3.512668445792812e-05
-2.298208124833554e-06   1.5860867725193267e-06   -3.512668445792812e-05
-2.298208124833554e-06   1.5860867725193267e-06   -3.512668445792812e-05
-2.298208124833554e-06   1.5860867725193267e-06   -3.512668445792812e-05
-8.82029296932698e-06   9.367109804602619e-07   -3.3351220065275396e-05
-8.82029296932698e-06   9.367109804602619e-07   -3.3351220065275396e-05
-8.82029296932698e-06   9.367109804602619e-07   -3.3351220065275396e-05
-8.82029296932698e-06   9.367109804602619e-07   -3.3351220065275396e-05
-1.8513012086353156e-05   1.1808060545240567e-06   -4.9359294882547105e-05
-1.8513012086353156e-05   1.1808060545240567e-06   -4.9359294882547105e-05
-1.8513012086353156e-05   1.1808060545240567e-06   -4.9359294882547105e-05
-1.8513012086353156e-05   1.1808060545240567e-06   -4.9359294882547105e-05
-1.786431418236041e-05   2.1043422182007773e-06   -3.275403538934604e-05
-1.786431418236041e-05   2.1043422182007773e-06   -3.275403538934604e-05
-1.786431418236041e-05   2.1043422182007773e-06   -3.275403538934604e-05
-1.786431418236041e-05   2.1043422182007773e-06   -3.275403538934604e-05
-8.176180826481838e-06   2.1853926356135093e-06   -4.894955456625821e-05
-8.176180826481838e-06   2.1853926356135093e-06   -4.894955456625821e-05
-8.176180826481838e-06   2.1853926356135093e-06   -4.894955456625821e-05
-8.176180826481838e-06   2.1853926356135093e-06   -4.894955456625821e-05
-1.3266184831702503e-05   1.8067395399904741e-06   -4.023902270018317e-05
-1.3266184831702503e-05   1.8067395399904741e-06   -4.023902270018317e-05
-1.3266184831702503e-05   1.8067395399904741e-06   -4.023902270018317e-05
-1.3266184831702503e-05   1.8067395399904741e-06   -4.023902270018317e-05
-8.176180826481838e-06   2.1043422182007773e-06   -3.2802665639794005e-05
-8.176180826481838e-06   2.1043422182007773e-06   -3.2802665639794005e-05
-8.176180826481838e-06   2.1043422182007773e-06   -3.2802665639794005e-05
-8.176180826481838e-06   2.1043422182007773e-06   -3.2802665639794005e-05
-1.786431418236041e-05   2.1853926356135093e-06   -4.890092431581057e-05
-1.786431418236041e-05   2.1853926356135093e-06   -4.890092431581057e-05
-1.786431418236041e-05   2.1853926356135093e-06   -4.890092431581057e-05
-1.786431418236041e-05   2.1853926356135093e-06   -4.890092431581057e-05
-1.720520546891041e-05   3.2976460480696208e-06   -3.283900909513892e-05
-1.720520546891041e-05   3.2976460480696208e-06   -3.283900909513892e-05
-1.720520546891041e-05   3.2976460480696208e-06   -3.283900909513892e-05
-1.720520546891041e-05   3.2976460480696208e-06   -3.283900909513892e-05
-7.528396965774921e-06   3.248987143250788e-06   -4.8937827924139764e-05
-7.528396965774921e-06   3.248987143250788e-06   -4.8937827924139764e-05
-7.528396965774921e-06   3.248987143250788e-06   -4.8937827924139764e-05
-7.528396965774921e-06   3.248987143250788e-06   -4.8937827924139764e-05
-1.2695334655158568e-05   2.6836009966316535e-06   -3.998703342052948e-05
-1.2695334655158568e-05   2.6836009966316535e-06   -3.998703342052948e-05
-1.2695334655158568e-05   2.6836009966316535e-06   -3.998703342052948e-05
-1.2695334655158568e-05   2.6836009966316535e-06   -3.998703342052948e-05
-7.528396965774921e-06   3.2976460480696208e-06   -3.280981375224741e-05
-7.528396965774921e-06   3.2976460480696208e-06   -3.280981375224741e-05
-7.528396965774921e-06   3.2976460480696208e-06   -3.280981375224741e-05
-7.528396965774921e-06   3.2976460480696208e-06   -3.280981375224741e-05
-1.7205205468910378e-05   3.248987143250571e-06   -4.8967023267031335e-05
-1.7205205468910378e-05   3.248987143250571e-06   -4.8967023267031335e-05
-1.7205205468910378e-05   3.248987143250571e-06   -4.8967023267031335e-05
-1.7205205468910378e-05   3.248987143250571e-06   -4.8967023267031335e-05
-1.6576703779033927e-05   4.507462514918457e-06   -3.357674660027423e-05
-1.6576703779033927e-05   4.507462514918457e-06   -3.357674660027423e-05
-1.6576703779033927e-05   4.507462514918457e-06   -3.357674660027423e-05
-1.6576703779033927e-05   4.507462514918457e-06   -3.357674660027423e-05
-6.909439453408922e-06   4.330963787516897e-06   -4.958295457320832e-05
-6.909439453408922e-06   4.330963787516897e-06   -4.958295457320832e-05
-6.909439453408922e-06   4.330963787516897e-06   -4.958295457320832e-05
-6.909439453408922e-06   4.330963787516897e-06   -4.958295457320832e-05
-1.2164270475136656e-05   3.573777193504853e-06   -4.0370590913922037e-05
-1.2164270475136656e-05   3.573777193504853e-06   -4.0370590913922037e-05
-1.2164270475136656e-05   3.573777193504853e-06   -4.0370590913922037e-05
-1.2164270475136656e-05   3.573777193504853e-06   -4.0370590913922037e-05
-1.851301208635319e-05   2.0820134130959764e-06   -2.803858015109034e-05
-1.851301208635319e-05   2.0820134130959764e-06   -2.803858015109034e-05
-1.851301208635319e-05   2.0820134130959764e-06   -2.803858015109034e-05
-1.851301208635319e-05   2.0820134130959764e-06   -2.803858015109034e-05
-2.8090101842368167e-05   3.818858088819885e-06   -4.2958289605681075e-05
-2.8090101842368167e-05   3.818858088819885e-06   -4.2958289605681075e-05
-2.8090101842368167e-05   3.818858088819885e-06   -4.2958289605681075e-05
-2.8090101842368167e-05   3.818858088819885e-06   -4.2958289605681075e-05
-2.7348919866388982e-05   3.2535719157195803e-06   -2.6406155364570036e-05
-2.7348919866388982e-05   3.2535719157195803e-06   -2.6406155364570036e-05
-2.7348919866388982e-05   3.2535719157195803e-06   -2.6406155364570036e-05
-2.7348919866388982e-05   3.2535719157195803e-06   -2.6406155364570036e-05
-1.786431418236041e-05   4.891154212154688e-06   -4.3196380882478725e-05
-1.786431418236041e-05   4.891154212154688e-06   -4.3196380882478725e-05
-1.786431418236041e-05   4.891154212154688e-06   -4.3196380882478725e-05
-1.786431418236041e-05   4.891154212154688e-06   -4.3196380882478725e-05
-2.2795102899079293e-05   3.650749216253281e-06   -3.423415669040627e-05
-2.2795102899079293e-05   3.650749216253281e-06   -3.423415669040627e-05
-2.2795102899079293e-05   3.650749216253281e-06   -3.423415669040627e-05
-2.2795102899079293e-05   3.650749216253281e-06   -3.423415669040627e-05
-1.7864314182360436e-05   3.2535719157195803e-06   -2.7388704742431014e-05
-1.7864314182360436e-05   3.2535719157195803e-06   -2.7388704742431014e-05
-1.7864314182360436e-05   3.2535719157195803e-06   -2.7388704742431014e-05
-1.7864314182360436e-05   3.2535719157195803e-06   -2.7388704742431014e-05
-2.7348919866389023e-05   4.891154212154905e-06   -4.221383150461791e-05
-2.7348919866389023e-05   4.891154212154905e-06   -4.221383150461791e-05
-2.7348919866389023e-05   4.891154212154905e-06   -4.221383150461791e-05
-2.7348919866389023e-05   4.891154212154905e-06   -4.221383150461791e-05
-2.6461552202753876e-05   4.334372328518212e-06   -2.6161940765977946e-05
-2.6461552202753876e-05   4.334372328518212e-06   -2.6161940765977946e-05
-2.6461552202753876e-05   4.334372328518212e-06   -2.6161940765977946e-05
-2.6461552202753876e-05   4.334372328518212e-06   -2.6161940765977946e-05
-1.720520546891041e-05   5.857047341841339e-06   -4.250279033037743e-05
-1.720520546891041e-05   5.857047341841339e-06   -4.250279033037743e-05
-1.720520546891041e-05   5.857047341841339e-06   -4.250279033037743e-05
-1.720520546891041e-05   5.857047341841339e-06   -4.250279033037743e-05
-2.204813489774402e-05   4.497391283570223e-06   -3.361544764735947e-05
-2.204813489774402e-05   4.497391283570223e-06   -3.361544764735947e-05
-2.204813489774402e-05   4.497391283570223e-06   -3.361544764735947e-05
-2.204813489774402e-05   4.497391283570223e-06   -3.361544764735947e-05
-1.7205205468910392e-05   4.334372328518212e-06   -2.7075545773971475e-05
-1.7205205468910392e-05   4.334372328518212e-06   -2.7075545773971475e-05
-1.7205205468910392e-05   4.334372328518212e-06   -2.7075545773971475e-05
-1.7205205468910392e-05   4.334372328518212e-06   -2.7075545773971475e-05
-2.6461552202753876e-05   5.857047341841339e-06   -4.158918532238382e-05
-2.6461552202753876e-05   5.857047341841339e-06   -4.158918532238382e-05
-2.6461552202753876e-05   5.857047341841339e-06   -4.158918532238382e-05
-2.6461552202753876e-05   5.857047341841339e-06   -4.158918532238382e-05
-2.5722248653292606e-05   5.545648194799297e-06   -2.6885943561569302e-05
-2.5722248653292606e-05   5.545648194799297e-06   -2.6885943561569302e-05
-2.5722248653292606e-05   5.545648194799297e-06   -2.6885943561569302e-05
-2.5722248653292606e-05   5.545648194799297e-06   -2.6885943561569302e-05
-1.6576703779033927e-05   6.93776863788082e-06   -4.296379061784912e-05
-1.6576703779033927e-05   6.93776863788082e-06   -4.296379061784912e-05
-1.6576703779033927e-05   6.93776863788082e-06   -4.296379061784912e-05
-1.6576703779033927e-05   6.93776863788082e-06   -4.296379061784912e-05
-2.154782692832702e-05   5.331622847619963e-06   -3.371489789487077e-05
-2.154782692832702e-05   5.331622847619963e-06   -3.371489789487077e-05
-2.154782692832702e-05   5.331622847619963e-06   -3.371489789487077e-05
-2.154782692832702e-05   5.331622847619963e-06   -3.371489789487077e-05
-2.8090101842368167e-05   3.4985650978324595e-06   -1.450374856531685e-05
-2.8090101842368167e-05   3.4985650978324595e-06   -1.450374856531685e-05
-2.8090101842368167e-05   3.4985650978324595e-06   -1.450374856531685e-05
-2.8090101842368167e-05   3.4985650978324595e-06   -1.450374856531685e-05
-3.9004790755551596e-05   6.565499300351975e-06   -3.085473623244423e-05
-3.9004790755551596e-05   6.565499300351975e-06   -3.085473623244423e-05
-3.9004790755551596e-05   6.565499300351975e-06   -3.085473623244423e-05
-3.9004790755551596e-05   6.565499300351975e-06   -3.085473623244423e-05
-3.696824711746767e-05   4.560667762519783e-06   -9.11963054558507e-06
-3.696824711746767e-05   4.560667762519783e-06   -9.11963054558507e-06
-3.696824711746767e-05   4.560667762519783e-06   -9.11963054558507e-06
-3.696824711746767e-05   4.560667762519783e-06   -9.11963054558507e-06
-2.7348919866388982e-05   7.678743552353264e-06   -2.70226881046162e-05
-2.7348919866388982e-05   7.678743552353264e-06   -2.70226881046162e-05
-2.7348919866388982e-05   7.678743552353264e-06   -2.70226881046162e-05
-2.7348919866388982e-05   7.678743552353264e-06   -2.70226881046162e-05
-3.151642503320249e-05   5.70318853907641e-06   -1.8891513151960966e-05
-3.151642503320249e-05   5.70318853907641e-06   -1.8891513151960966e-05
-3.151642503320249e-05   5.70318853907641e-06   -1.8891513151960966e-05
-3.151642503320249e-05   5.70318853907641e-06   -1.8891513151960966e-05
-2.7348919866389002e-05   4.560667762519783e-06   -1.0990476019485007e-05
-2.7348919866389002e-05   4.560667762519783e-06   -1.0990476019485007e-05
-2.7348919866389002e-05   4.560667762519783e-06   -1.0990476019485007e-05
-2.7348919866389002e-05   4.560667762519783e-06   -1.0990476019485007e-05
-3.6968247117467564e-05   7.678743552353264e-06   -2.5151842630716237e-05
-3.6968247117467564e-05   7.678743552353264e-06   -2.5151842630716237e-05
-3.6968247117467564e-05   7.678743552353264e-06   -2.5151842630716237e-05
-3.6968247117467564e-05   7.678743552353264e-06   -2.5151842630716237e-05
-3.5285024011127666e-05   5.0469762095228105e-06   -7.4879977275769125e-06
-3.5285024011127666e-05   5.0469762095228105e-06   -7.4879977275769125e-06
-3.5285024011127666e-05   5.0469762095228105e-06   -7.4879977275769125e-06
-3.5285024011127666e-05   5.0469762095228105e-06   -7.4879977275769125e-06
-2.646155220275383e-05   8.077622778895942e-06   -2.401217201649038e-05
-2.646155220275383e-05   8.077622778895942e-06   -2.401217201649038e-05
-2.646155220275383e-05   8.077622778895942e-06   -2.401217201649038e-05
-2.646155220275383e-05   8.077622778895942e-06   -2.401217201649038e-05
-3.077021091843756e-05   6.203773283942069e-06   -1.570676446004506e-05
-3.077021091843756e-05   6.203773283942069e-06   -1.570676446004506e-05
-3.077021091843756e-05   6.203773283942069e-06   -1.570676446004506e-05
-3.077021091843756e-05   6.203773283942069e-06   -1.570676446004506e-05
-2.6461552202753876e-05   5.046976209523027e-06   -9.306385669200835e-06
-2.6461552202753876e-05   5.046976209523027e-06   -9.306385669200835e-06
-2.6461552202753876e-05   5.046976209523027e-06   -9.306385669200835e-06
-2.6461552202753876e-05   5.046976209523027e-06   -9.306385669200835e-06
-3.5285024011127584e-05   8.077622778895942e-06   -2.219378407486666e-05
-3.5285024011127584e-05   8.077622778895942e-06   -2.219378407486666e-05
-3.5285024011127584e-05   8.077622778895942e-06   -2.219378407486666e-05
-3.5285024011127584e-05   8.077622778895942e-06   -2.219378407486666e-05
-3.32945153474078e-05   5.800595294795478e-06   -5.780975566912669e-06
-3.32945153474078e-05   5.800595294795478e-06   -5.780975566912669e-06
-3.32945153474078e-05   5.800595294795478e-06   -5.780975566912669e-06
-3.32945153474078e-05   5.800595294795478e-06   -5.780975566912669e-06
-2.5722248653292606e-05   8.583560092936815e-06   -2.0071198935989486e-05
-2.5722248653292606e-05   8.583560092936815e-06   -2.0071198935989486e-05
-2.5722248653292606e-05   8.583560092936815e-06   -2.0071198935989486e-05
-2.5722248653292606e-05   8.583560092936815e-06   -2.0071198935989486e-05
-2.918824343660793e-05   6.445543230529458e-06   -1.3011730846353056e-05
-2.918824343660793e-05   6.445543230529458e-06   -1.3011730846353056e-05
-2.918824343660793e-05   6.445543230529458e-06   -1.3011730846353056e-05
-2.918824343660793e-05   6.445543230529458e-06   -1.3011730846353056e-05
2.9622150051186844e-05   -3.885918613761143e-06   -2.3000791814871066e-07
2.9622150051186844e-05   -3.885918613761143e-06   -2.3000791814871066e-07
2.9622150051186844e-05   -3.885918613761143e-06   -2.3000791814871066e-07
2.9622150051186844e-05   -3.885918613761143e-06   -2.3000791814871066e-07
1.2625553511137852e-05   -7.0105420199445545e-06   -3.0432442861940095e-05
1.2625553511137852e-05   -7.0105420199445545e-06   -3.0432442861940095e-05
1.2625553511137852e-05   -7.0105420199445545e-06   -3.0432442861940095e-05
1.2625553511137852e-05   -7.0105420199445545e-06   -3.0432442861940095e-05
1.3521144656124002e-05   -3.193315016624407e-06   -3.349071111900803e-06
1.3521144656124002e-05   -3.193315016624407e-06   -3.349071111900803e-06
1.3521144656124002e-05   -3.193315016624407e-06   -3.349071111900803e-06
1.3521144656124002e-05   -3.193315016624407e-06   -3.349071111900803e-06
3.186452590199984e-05   -6.519734932960812e-06   -3.192552123855907e-05
3.186452590199984e-05   -6.519734932960812e-06   -3.192552123855907e-05
3.186452590199984e-05   -6.519734932960812e-06   -3.192552123855907e-05
3.186452590199984e-05   -6.519734932960812e-06   -3.192552123855907e-05
2.1024899938177263e-05   -4.620093322547057e-06   -1.4999262931769425e-05
2.1024899938177263e-05   -4.620093322547057e-06   -1.4999262931769425e-05
2.1024899938177263e-05   -4.620093322547057e-06   -1.4999262931769425e-05
2.1024899938177263e-05   -4.620093322547057e-06   -1.4999262931769425e-05
3.186452590199989e-05   -3.193315016624407e-06   -1.3532191620992205e-06
3.186452590199989e-05   -3.193315016624407e-06   -1.3532191620992205e-06
3.186452590199989e-05   -3.193315016624407e-06   -1.3532191620992205e-06
3.186452590199989e-05   -3.193315016624407e-06   -1.3532191620992205e-06
1.3521144656123947e-05   -6.519734932960378e-06   -3.392137318836055e-05
1.3521144656123947e-05   -6.519734932960378e-06   -3.392137318836055e-05
1.3521144656123947e-05   -6.519734932960378e-06   -3.392137318836055e-05
1.3521144656123947e-05   -6.519734932960378e-06   -3.392137318836055e-05
1.4513213728755466e-05   -2.7316147503614677e-06   -4.716315888337501e-06
1.4513213728755466e-05   -2.7316147503614677e-06   -4.716315888337501e-06
1.4513213728755466e-05   -2.7316147503614677e-06   -4.716315888337501e-06
1.4513213728755466e-05   -2.7316147503614677e-06   -4.716315888337501e-06
3.374846495250814e-05   -6.098088041419595e-06   -3.475518395329024e-05
3.374846495250814e-05   -6.098088041419595e-06   -3.475518395329024e-05
3.374846495250814e-05   -6.098088041419595e-06   -3.475518395329024e-05
3.374846495250814e-05   -6.098088041419595e-06   -3.475518395329024e-05
2.270912459285371e-05   -4.4324198705692625e-06   -1.735568425637648e-05
2.270912459285371e-05   -4.4324198705692625e-06   -1.735568425637648e-05
2.270912459285371e-05   -4.4324198705692625e-06   -1.735568425637648e-05
2.270912459285371e-05   -4.4324198705692625e-06   -1.735568425637648e-05
3.374846495250819e-05   -2.7316147503614677e-06   -2.6964319137024514e-06
3.374846495250819e-05   -2.7316147503614677e-06   -2.6964319137024514e-06
3.374846495250819e-05   -2.7316147503614677e-06   -2.6964319137024514e-06
3.374846495250819e-05   -2.7316147503614677e-06   -2.6964319137024514e-06
1.4513213728755439e-05   -6.098088041420029e-06   -3.6775067927925396e-05
1.4513213728755439e-05   -6.098088041420029e-06   -3.6775067927925396e-05
1.4513213728755439e-05   -6.098088041420029e-06   -3.6775067927925396e-05
1.4513213728755439e-05   -6.098088041420029e-06   -3.6775067927925396e-05
1.533343291947327e-05   -1.5682001386016237e-06   -7.872407955148743e-06
1.533343291947327e-05   -1.5682001386016237e-06   -7.872407955148743e-06
1.533343291947327e-05   -1.5682001386016237e-06   -7.872407955148743e-06
1.533343291947327e-05   -1.5682001386016237e-06   -7.872407955148743e-06
3.593589795675389e-05   -4.76449013202436e-06   -4.029207568789653e-05
3.593589795675389e-05   -4.76449013202436e-06   -4.029207568789653e-05
3.593589795675389e-05   -4.76449013202436e-06   -4.029207568789653e-05
3.593589795675389e-05   -4.76449013202436e-06   -4.029207568789653e-05
2.362235497990696e-05   -3.911570934344178e-06   -2.028125557842689e-05
2.362235497990696e-05   -3.911570934344178e-06   -2.028125557842689e-05
2.362235497990696e-05   -3.911570934344178e-06   -2.028125557842689e-05
2.362235497990696e-05   -3.911570934344178e-06   -2.028125557842689e-05
1.262555351113788e-05   -1.5372647864848616e-06   -2.0634842887400995e-05
1.262555351113788e-05   -1.5372647864848616e-06   -2.0634842887400995e-05
1.262555351113788e-05   -1.5372647864848616e-06   -2.0634842887400995e-05
1.262555351113788e-05   -1.5372647864848616e-06   -2.0634842887400995e-05
-5.36742138584613e-06   -3.2839135782366906e-06   -5.167112365742554e-05
-5.36742138584613e-06   -3.2839135782366906e-06   -5.167112365742554e-05
-5.36742138584613e-06   -3.2839135782366906e-06   -5.167112365742554e-05
-5.36742138584613e-06   -3.2839135782366906e-06   -5.167112365742554e-05
-4.534022889618174e-06   -5.877386000455176e-07   -2.106419121614242e-05
-4.534022889618174e-06   -5.877386000455176e-07   -2.106419121614242e-05
-4.534022889618174e-06   -5.877386000455176e-07   -2.106419121614242e-05
-4.534022889618174e-06   -5.877386000455176e-07   -2.106419121614242e-05
1.3521144656123947e-05   -2.6024359890230823e-06   -4.994731869232611e-05
1.3521144656123947e-05   -2.6024359890230823e-06   -4.994731869232611e-05
1.3521144656123947e-05   -2.6024359890230823e-06   -4.994731869232611e-05
1.3521144656123947e-05   -2.6024359890230823e-06   -4.994731869232611e-05
4.106145671687987e-06   -1.5880151920167652e-06   -3.4864306196470045e-05
4.106145671687987e-06   -1.5880151920167652e-06   -3.4864306196470045e-05
4.106145671687987e-06   -1.5880151920167652e-06   -3.4864306196470045e-05
4.106145671687987e-06   -1.5880151920167652e-06   -3.4864306196470045e-05
1.3521144656124002e-05   -5.877386000455176e-07   -1.9855372782755665e-05
1.3521144656124002e-05   -5.877386000455176e-07   -1.9855372782755665e-05
1.3521144656124002e-05   -5.877386000455176e-07   -1.9855372782755665e-05
1.3521144656124002e-05   -5.877386000455176e-07   -1.9855372782755665e-05
-4.5340228896181465e-06   -2.6024359890230823e-06   -5.115613712571281e-05
-4.5340228896181465e-06   -2.6024359890230823e-06   -5.115613712571281e-05
-4.5340228896181465e-06   -2.6024359890230823e-06   -5.115613712571281e-05
-4.5340228896181465e-06   -2.6024359890230823e-06   -5.115613712571281e-05
-3.7382949619311383e-06   3.940762629225415e-07   -2.133457546147732e-05
-3.7382949619311383e-06   3.940762629225415e-07   -2.133457546147732e-05
-3.7382949619311383e-06   3.940762629225415e-07   -2.133457546147732e-05
-3.7382949619311383e-06   3.940762629225415e-07   -2.133457546147732e-05
1.4513213728755439e-05   -1.7694014137130225e-06   -5.045567000664015e-05
1.4513213728755439e-05   -1.7694014137130225e-06   -5.045567000664015e-05
1.4513213728755439e-05   -1.7694014137130225e-06   -5.045567000664015e-05
1.4513213728755439e-05   -1.7694014137130225e-06   -5.045567000664015e-05
4.767518235681504e-06   -9.853150357876095e-07   -3.468329601160475e-05
4.767518235681504e-06   -9.853150357876095e-07   -3.468329601160475e-05
4.767518235681504e-06   -9.853150357876095e-07   -3.468329601160475e-05
4.767518235681504e-06   -9.853150357876095e-07   -3.468329601160475e-05
1.4513213728755466e-05   3.940762629225415e-07   -2.00364888554962e-05
1.4513213728755466e-05   3.940762629225415e-07   -2.00364888554962e-05
1.4513213728755466e-05   3.940762629225415e-07   -2.00364888554962e-05
1.4513213728755466e-05   3.940762629225415e-07   -2.00364888554962e-05
-3.7382949619311383e-06   -1.7694014137130225e-06   -5.1753756612621924e-05
-3.7382949619311383e-06   -1.7694014137130225e-06   -5.1753756612621924e-05
-3.7382949619311383e-06   -1.7694014137130225e-06   -5.1753756612621924e-05
-3.7382949619311383e-06   -1.7694014137130225e-06   -5.1753756612621924e-05
-2.9908220692881e-06   1.5567697046906057e-06   -2.2060128571126146e-05
-2.9908220692881e-06   1.5567697046906057e-06   -2.2060128571126146e-05
-2.9908220692881e-06   1.5567697046906057e-06   -2.2060128571126146e-05
-2.9908220692881e-06   1.5567697046906057e-06   -2.2060128571126146e-05
1.5333432919473243e-05   -7.213022598915632e-07   -5.123371037364541e-05
1.5333432919473243e-05   -7.213022598915632e-07   -5.123371037364541e-05
1.5333432919473243e-05   -7.213022598915632e-07   -5.123371037364541e-05
1.5333432919473243e-05   -7.213022598915632e-07   -5.123371037364541e-05
5.592390532629086e-06   -2.420398428179711e-07   -3.528619717915049e-05
5.592390532629086e-06   -2.420398428179711e-07   -3.528619717915049e-05
5.592390532629086e-06   -2.420398428179711e-07   -3.528619717915049e-05
5.592390532629086e-06   -2.420398428179711e-07   -3.528619717915049e-05
-5.36742138584613e-06   1.1808060545240567e-06   -2.6538317235039665e-05
-5.36742138584613e-06   1.1808060545240567e-06   -2.6538317235039665e-05
-5.36742138584613e-06   1.1808060545240567e-06   -2.6538317235039665e-05
-5.36742138584613e-06   1.1808060545240567e-06   -2.6538317235039665e-05
-2.30434778993822e-05   5.96086508986883e-07   -5.634924315158873e-05
-2.30434778993822e-05   5.96086508986883e-07   -5.634924315158873e-05
-2.30434778993822e-05   5.96086508986883e-07   -5.634924315158873e-05
-2.30434778993822e-05   5.96086508986883e-07   -5.634924315158873e-05
-2.214643420111245e-05   2.1853926356135093e-06   -2.63539394788181e-05
-2.214643420111245e-05   2.1853926356135093e-06   -2.63539394788181e-05
-2.214643420111245e-05   2.1853926356135093e-06   -2.63539394788181e-05
-2.214643420111245e-05   2.1853926356135093e-06   -2.63539394788181e-05
-4.5340228896181465e-06   1.3614469644282132e-06   -5.5213590928597425e-05
-4.5340228896181465e-06   1.3614469644282132e-06   -5.5213590928597425e-05
-4.5340228896181465e-06   1.3614469644282132e-06   -5.5213590928597425e-05
-4.5340228896181465e-06   1.3614469644282132e-06   -5.5213590928597425e-05
-1.3678516168764269e-05   1.6189374066003653e-06   -4.012726306199064e-05
-1.3678516168764269e-05   1.6189374066003653e-06   -4.012726306199064e-05
-1.3678516168764269e-05   1.6189374066003653e-06   -4.012726306199064e-05
-1.3678516168764269e-05   1.6189374066003653e-06   -4.012726306199064e-05
-4.534022889618174e-06   2.1853926356135093e-06   -2.585957207610701e-05
-4.534022889618174e-06   2.1853926356135093e-06   -2.585957207610701e-05
-4.534022889618174e-06   2.1853926356135093e-06   -2.585957207610701e-05
-4.534022889618174e-06   2.1853926356135093e-06   -2.585957207610701e-05
-2.214643420111245e-05   1.3614469644282132e-06   -5.5707958331308515e-05
-2.214643420111245e-05   1.3614469644282132e-06   -5.5707958331308515e-05
-2.214643420111245e-05   1.3614469644282132e-06   -5.5707958331308515e-05
-2.214643420111245e-05   1.3614469644282132e-06   -5.5707958331308515e-05
-2.1281238322482525e-05   3.248987143250788e-06   -2.6314236853532385e-05
-2.1281238322482525e-05   3.248987143250788e-06   -2.6314236853532385e-05
-2.1281238322482525e-05   3.248987143250788e-06   -2.6314236853532385e-05
-2.1281238322482525e-05   3.248987143250788e-06   -2.6314236853532385e-05
-3.7382949619311112e-06   2.2478110879662477e-06   -5.4951770154613744e-05
-3.7382949619311112e-06   2.2478110879662477e-06   -5.4951770154613744e-05
-3.7382949619311112e-06   2.2478110879662477e-06   -5.4951770154613744e-05
-3.7382949619311112e-06   2.2478110879662477e-06   -5.4951770154613744e-05
-1.2906609687141239e-05   2.335466689052431e-06   -3.972383897324881e-05
-1.2906609687141239e-05   2.335466689052431e-06   -3.972383897324881e-05
-1.2906609687141239e-05   2.335466689052431e-06   -3.972383897324881e-05
-1.2906609687141239e-05   2.335466689052431e-06   -3.972383897324881e-05
-3.7382949619311112e-06   3.248987143250788e-06   -2.5713531220361444e-05
-3.7382949619311112e-06   3.248987143250788e-06   -2.5713531220361444e-05
-3.7382949619311112e-06   3.248987143250788e-06   -2.5713531220361444e-05
-3.7382949619311112e-06   3.248987143250788e-06   -2.5713531220361444e-05
-2.1281238322482525e-05   2.2478110879662477e-06   -5.555247578778477e-05
-2.1281238322482525e-05   2.2478110879662477e-06   -5.555247578778477e-05
-2.1281238322482525e-05   2.2478110879662477e-06   -5.555247578778477e-05
-2.1281238322482525e-05   2.2478110879662477e-06   -5.555247578778477e-05
-2.0481747499052472e-05   4.330963787516897e-06   -2.6933161266774492e-05
-2.0481747499052472e-05   4.330963787516897e-06   -2.6933161266774492e-05
-2.0481747499052472e-05   4.330963787516897e-06   -2.6933161266774492e-05
-2.0481747499052472e-05   4.330963787516897e-06   -2.6933161266774492e-05
-2.9908220692881e-06   3.16385065331215e-06   -5.538443576919247e-05
-2.9908220692881e-06   3.16385065331215e-06   -5.538443576919247e-05
-2.9908220692881e-06   3.16385065331215e-06   -5.538443576919247e-05
-2.9908220692881e-06   3.16385065331215e-06   -5.538443576919247e-05
-1.2216969244468786e-05   3.070694909974598e-06   -3.995163036455611e-05
-1.2216969244468786e-05   3.070694909974598e-06   -3.995163036455611e-05
-1.2216969244468786e-05   3.070694909974598e-06   -3.995163036455611e-05
-1.2216969244468786e-05   3.070694909974598e-06   -3.995163036455611e-05
-2.3043477899382234e-05   3.818858088819885e-06   -2.1530250490930155e-05
-2.3043477899382234e-05   3.818858088819885e-06   -2.1530250490930155e-05
-2.3043477899382234e-05   3.818858088819885e-06   -2.1530250490930155e-05
-2.3043477899382234e-05   3.818858088819885e-06   -2.1530250490930155e-05
-4.039124031502401e-05   4.614886854444923e-06   -4.996557059095785e-05
-4.039124031502401e-05   4.614886854444923e-06   -4.996557059095785e-05
-4.039124031502401e-05   4.614886854444923e-06   -4.996557059095785e-05
-4.039124031502401e-05   4.614886854444923e-06   -4.996557059095785e-05
-3.931007537366457e-05   4.891154212154688e-06   -2.0231956668031363e-05
-3.931007537366457e-05   4.891154212154688e-06   -2.0231956668031363e-05
-3.931007537366457e-05   4.891154212154688e-06   -2.0231956668031363e-05
-3.931007537366457e-05   4.891154212154688e-06   -2.0231956668031363e-05
-2.214643420111249e-05   5.586886507913218e-06   -4.9255464666406686e-05
-2.214643420111249e-05   5.586886507913218e-06   -4.9255464666406686e-05
-2.214643420111249e-05   5.586886507913218e-06   -4.9255464666406686e-05
-2.214643420111249e-05   5.586886507913218e-06   -4.9255464666406686e-05
-3.099467152323846e-05   4.9310701326667206e-06   -3.4114912637715636e-05
-3.099467152323846e-05   4.9310701326667206e-06   -3.4114912637715636e-05
-3.099467152323846e-05   4.9310701326667206e-06   -3.4114912637715636e-05
-3.099467152323846e-05   4.9310701326667206e-06   -3.4114912637715636e-05
-2.214643420111249e-05   4.891154212154688e-06   -2.0649396045486525e-05
-2.214643420111249e-05   4.891154212154688e-06   -2.0649396045486525e-05
-2.214643420111249e-05   4.891154212154688e-06   -2.0649396045486525e-05
-2.214643420111249e-05   4.891154212154688e-06   -2.0649396045486525e-05
-3.9310075373664634e-05   5.586886507913218e-06   -4.8838025288951755e-05
-3.9310075373664634e-05   5.586886507913218e-06   -4.8838025288951755e-05
-3.9310075373664634e-05   5.586886507913218e-06   -4.8838025288951755e-05
-3.9310075373664634e-05   5.586886507913218e-06   -4.8838025288951755e-05
-3.811383352721515e-05   5.857047341841339e-06   -1.950984238681592e-05
-3.811383352721515e-05   5.857047341841339e-06   -1.950984238681592e-05
-3.811383352721515e-05   5.857047341841339e-06   -1.950984238681592e-05
-3.811383352721515e-05   5.857047341841339e-06   -1.950984238681592e-05
-2.128123832248256e-05   6.4239832252791645e-06   -4.7904329258099525e-05
-2.128123832248256e-05   6.4239832252791645e-06   -4.7904329258099525e-05
-2.128123832248256e-05   6.4239832252791645e-06   -4.7904329258099525e-05
-2.128123832248256e-05   6.4239832252791645e-06   -4.7904329258099525e-05
-2.990120609425813e-05   5.6878183539300735e-06   -3.309601738233064e-05
-2.990120609425813e-05   5.6878183539300735e-06   -3.309601738233064e-05
-2.990120609425813e-05   5.6878183539300735e-06   -3.309601738233064e-05
-2.990120609425813e-05   5.6878183539300735e-06   -3.309601738233064e-05
-2.1281238322482546e-05   5.857047341841339e-06   -1.98500039168784e-05
-2.1281238322482546e-05   5.857047341841339e-06   -1.98500039168784e-05
-2.1281238322482546e-05   5.857047341841339e-06   -1.98500039168784e-05
-2.1281238322482546e-05   5.857047341841339e-06   -1.98500039168784e-05
-3.811383352721515e-05   6.4239832252791645e-06   -4.756416772803713e-05
-3.811383352721515e-05   6.4239832252791645e-06   -4.756416772803713e-05
-3.811383352721515e-05   6.4239832252791645e-06   -4.756416772803713e-05
-3.811383352721515e-05   6.4239832252791645e-06   -4.756416772803713e-05
-3.710298038569328e-05   6.93776863788082e-06   -1.9960694444823984e-05
-3.710298038569328e-05   6.93776863788082e-06   -1.9960694444823984e-05
-3.710298038569328e-05   6.93776863788082e-06   -1.9960694444823984e-05
-3.710298038569328e-05   6.93776863788082e-06   -1.9960694444823984e-05
-2.0481747499052513e-05   7.350108021465188e-06   -4.791015288604267e-05
-2.0481747499052513e-05   7.350108021465188e-06   -4.791015288604267e-05
-2.0481747499052513e-05   7.350108021465188e-06   -4.791015288604267e-05
-2.0481747499052513e-05   7.350108021465188e-06   -4.791015288604267e-05
-2.922080829152106e-05   6.384885153886723e-06   -3.276591784471443e-05
-2.922080829152106e-05   6.384885153886723e-06   -3.276591784471443e-05
-2.922080829152106e-05   6.384885153886723e-06   -3.276591784471443e-05
-2.922080829152106e-05   6.384885153886723e-06   -3.276591784471443e-05
-4.039124031502401e-05   6.565499300351758e-06   -1.0789240379829954e-05
-4.039124031502401e-05   6.565499300351758e-06   -1.0789240379829954e-05
-4.039124031502401e-05   6.565499300351758e-06   -1.0789240379829954e-05
-4.039124031502401e-05   6.565499300351758e-06   -1.0789240379829954e-05
-5.8662763905146525e-05   9.071283455053519e-06   -3.973830920387983e-05
-5.8662763905146525e-05   9.071283455053519e-06   -3.973830920387983e-05
-5.8662763905146525e-05   9.071283455053519e-06   -3.973830920387983e-05
-5.8662763905146525e-05   9.071283455053519e-06   -3.973830920387983e-05
-5.618026485703532e-05   7.678743552353264e-06   -3.430411283976073e-06
-5.618026485703532e-05   7.678743552353264e-06   -3.430411283976073e-06
-5.618026485703532e-05   7.678743552353264e-06   -3.430411283976073e-06
-5.618026485703532e-05   7.678743552353264e-06   -3.430411283976073e-06
-3.931007537366457e-05   1.0362746859110018e-05   -3.315779574031471e-05
-3.931007537366457e-05   1.0362746859110018e-05   -3.315779574031471e-05
-3.931007537366457e-05   1.0362746859110018e-05   -3.315779574031471e-05
-3.931007537366457e-05   1.0362746859110018e-05   -3.315779574031471e-05
-4.662532230826175e-05   8.642172679098128e-06   -1.9933373007978753e-05
-4.662532230826175e-05   8.642172679098128e-06   -1.9933373007978753e-05
-4.662532230826175e-05   8.642172679098128e-06   -1.9933373007978753e-05
-4.662532230826175e-05   8.642172679098128e-06   -1.9933373007978753e-05
-3.93100753736646e-05   7.67874355235348e-06   -5.040813268029952e-06
-3.93100753736646e-05   7.67874355235348e-06   -5.040813268029952e-06
-3.93100753736646e-05   7.67874355235348e-06   -5.040813268029952e-06
-3.93100753736646e-05   7.67874355235348e-06   -5.040813268029952e-06
-5.618026485703524e-05   1.0362746859110018e-05   -3.154739375626071e-05
-5.618026485703524e-05   1.0362746859110018e-05   -3.154739375626071e-05
-5.618026485703524e-05   1.0362746859110018e-05   -3.154739375626071e-05
-5.618026485703524e-05   1.0362746859110018e-05   -3.154739375626071e-05
-5.413742188984958e-05   8.077622778895942e-06   -3.579568500593471e-07
-5.413742188984958e-05   8.077622778895942e-06   -3.579568500593471e-07
-5.413742188984958e-05   8.077622778895942e-06   -3.579568500593471e-07
-5.413742188984958e-05   8.077622778895942e-06   -3.579568500593471e-07
-3.811383352721515e-05   1.070240983033462e-05   -2.8638809685313398e-05
-3.811383352721515e-05   1.070240983033462e-05   -2.8638809685313398e-05
-3.811383352721515e-05   1.070240983033462e-05   -2.8638809685313398e-05
-3.811383352721515e-05   1.070240983033462e-05   -2.8638809685313398e-05
-4.577905989008393e-05   9.156428120396954e-06   -1.493584338790226e-05
-4.577905989008393e-05   9.156428120396954e-06   -1.493584338790226e-05
-4.577905989008393e-05   9.156428120396954e-06   -1.493584338790226e-05
-4.577905989008393e-05   9.156428120396954e-06   -1.493584338790226e-05
-3.811383352721515e-05   8.077622778895942e-06   -1.932829080922684e-06
-3.811383352721515e-05   8.077622778895942e-06   -1.932829080922684e-06
-3.811383352721515e-05   8.077622778895942e-06   -1.932829080922684e-06
-3.811383352721515e-05   8.077622778895942e-06   -1.932829080922684e-06
-5.413742188984939e-05   1.0702409830335054e-05   -2.7063937454450135e-05
-5.413742188984939e-05   1.0702409830335054e-05   -2.7063937454450135e-05
-5.413742188984939e-05   1.0702409830335054e-05   -2.7063937454450135e-05
-5.413742188984939e-05   1.0702409830335054e-05   -2.7063937454450135e-05
-5.193373031472596e-05   8.583560092936815e-06   3.54359291617444e-06
-5.193373031472596e-05   8.583560092936815e-06   3.54359291617444e-06
-5.193373031472596e-05   8.583560092936815e-06   3.54359291617444e-06
-5.193373031472596e-05   8.583560092936815e-06   3.54359291617444e-06
-3.710298038569328e-05   1.0995173334582553e-05   -2.2621291577200934e-05
-3.710298038569328e-05   1.0995173334582553e-05   -2.2621291577200934e-05
-3.710298038569328e-05   1.0995173334582553e-05   -2.2621291577200934e-05
-3.710298038569328e-05   1.0995173334582553e-05   -2.2621291577200934e-05
-4.37083890253683e-05   9.240407279045761e-06   -1.0559417544420851e-05
-4.37083890253683e-05   9.240407279045761e-06   -1.0559417544420851e-05
-4.37083890253683e-05   9.240407279045761e-06   -1.0559417544420851e-05
-4.37083890253683e-05   9.240407279045761e-06   -1.0559417544420851e-05
5.027244424807211e-05   -7.0105420199445545e-06   9.958861099434394e-06
5.027244424807211e-05   -7.0105420199445545e-06   9.958861099434394e-06
5.027244424807211e-05   -7.0105420199445545e-06   9.958861099434394e-06
5.027244424807211e-05   -7.0105420199445545e-06   9.958861099434394e-06
2.4228834826251367e-05   -1.0381776875553316e-05   -3.5469895516965265e-05
2.4228834826251367e-05   -1.0381776875553316e-05   -3.5469895516965265e-05
2.4228834826251367e-05   -1.0381776875553316e-05   -3.5469895516965265e-05
2.4228834826251367e-05   -1.0381776875553316e-05   -3.5469895516965265e-05
2.5221429038044398e-05   -6.519734932960812e-06   4.7983693447790216e-06
2.5221429038044398e-05   -6.519734932960812e-06   4.7983693447790216e-06
2.5221429038044398e-05   -6.519734932960812e-06   4.7983693447790216e-06
2.5221429038044398e-05   -6.519734932960812e-06   4.7983693447790216e-06
5.2576078493324775e-05   -1.0139180530881198e-05   -3.8621045721935917e-05
5.2576078493324775e-05   -1.0139180530881198e-05   -3.8621045721935917e-05
5.2576078493324775e-05   -1.0139180530881198e-05   -3.8621045721935917e-05
5.2576078493324775e-05   -1.0139180530881198e-05   -3.8621045721935917e-05
3.652679687466659e-05   -7.676271137577531e-06   -1.3349988660154351e-05
3.652679687466659e-05   -7.676271137577531e-06   -1.3349988660154351e-05
3.652679687466659e-05   -7.676271137577531e-06   -1.3349988660154351e-05
3.652679687466659e-05   -7.676271137577531e-06   -1.3349988660154351e-05
5.257607849332488e-05   -6.519734932960812e-06   6.970036703531513e-06
5.257607849332488e-05   -6.519734932960812e-06   6.970036703531513e-06
5.257607849332488e-05   -6.519734932960812e-06   6.970036703531513e-06
5.257607849332488e-05   -6.519734932960812e-06   6.970036703531513e-06
2.5221429038044344e-05   -1.0139180530881198e-05   -4.0792713080688246e-05
2.5221429038044344e-05   -1.0139180530881198e-05   -4.0792713080688246e-05
2.5221429038044344e-05   -1.0139180530881198e-05   -4.0792713080688246e-05
2.5221429038044344e-05   -1.0139180530881198e-05   -4.0792713080688246e-05
2.6208825109161473e-05   -6.098088041419595e-06   2.2739897963808264e-06
2.6208825109161473e-05   -6.098088041419595e-06   2.2739897963808264e-06
2.6208825109161473e-05   -6.098088041419595e-06   2.2739897963808264e-06
2.6208825109161473e-05   -6.098088041419595e-06   2.2739897963808264e-06
5.4344408651432145e-05   -9.787225813647545e-06   -4.240516677740029e-05
5.4344408651432145e-05   -9.787225813647545e-06   -4.240516677740029e-05
5.4344408651432145e-05   -9.787225813647545e-06   -4.240516677740029e-05
5.4344408651432145e-05   -9.787225813647545e-06   -4.240516677740029e-05
3.8466771589780845e-05   -7.650949989087066e-06   -1.7224203836051048e-05
3.8466771589780845e-05   -7.650949989087066e-06   -1.7224203836051048e-05
3.8466771589780845e-05   -7.650949989087066e-06   -1.7224203836051048e-05
3.8466771589780845e-05   -7.650949989087066e-06   -1.7224203836051048e-05
5.4344408651432145e-05   -6.098088041419595e-06   4.4874724597174665e-06
5.4344408651432145e-05   -6.098088041419595e-06   4.4874724597174665e-06
5.4344408651432145e-05   -6.098088041419595e-06   4.4874724597174665e-06
5.4344408651432145e-05   -6.098088041419595e-06   4.4874724597174665e-06
2.6208825109161473e-05   -9.787225813647112e-06   -4.4618649440736824e-05
2.6208825109161473e-05   -9.787225813647112e-06   -4.4618649440736824e-05
2.6208825109161473e-05   -9.787225813647112e-06   -4.4618649440736824e-05
2.6208825109161473e-05   -9.787225813647112e-06   -4.4618649440736824e-05
2.6879596380713095e-05   -4.76449013202436e-06   -2.811245466019822e-06
2.6879596380713095e-05   -4.76449013202436e-06   -2.811245466019822e-06
2.6879596380713095e-05   -4.76449013202436e-06   -2.811245466019822e-06
2.6879596380713095e-05   -4.76449013202436e-06   -2.811245466019822e-06
5.621426001975623e-05   -8.414259369417861e-06   -4.951248998865532e-05
5.621426001975623e-05   -8.414259369417861e-06   -4.951248998865532e-05
5.621426001975623e-05   -8.414259369417861e-06   -4.951248998865532e-05
5.621426001975623e-05   -8.414259369417861e-06   -4.951248998865532e-05
3.900980165322497e-05   -7.062996072482262e-06   -2.1649150689265206e-05
3.900980165322497e-05   -7.062996072482262e-06   -2.1649150689265206e-05
3.900980165322497e-05   -7.062996072482262e-06   -2.1649150689265206e-05
3.900980165322497e-05   -7.062996072482262e-06   -2.1649150689265206e-05
2.422883482625142e-05   -3.2839135782371243e-06   -1.2254571334364972e-05
2.422883482625142e-05   -3.2839135782371243e-06   -1.2254571334364972e-05
2.422883482625142e-05   -3.2839135782371243e-06   -1.2254571334364972e-05
2.422883482625142e-05   -3.2839135782371243e-06   -1.2254571334364972e-05
-1.4625985591173443e-06   -6.730319769652961e-06   -5.7141470691496115e-05
-1.4625985591173443e-06   -6.730319769652961e-06   -5.7141470691496115e-05
-1.4625985591173443e-06   -6.730319769652961e-06   -5.7141470691496115e-05
-1.4625985591173443e-06   -6.730319769652961e-06   -5.7141470691496115e-05
-4.436230065884932e-07   -2.6024359890230823e-06   -1.351119153100949e-05
-4.436230065884932e-07   -2.6024359890230823e-06   -1.351119153100949e-05
-4.436230065884932e-07   -2.6024359890230823e-06   -1.351119153100949e-05
-4.436230065884932e-07   -2.6024359890230823e-06   -1.351119153100949e-05
2.5221429038044398e-05   -6.408461608728953e-06   -5.4002662900241036e-05
2.5221429038044398e-05   -6.408461608728953e-06   -5.4002662900241036e-05
2.5221429038044398e-05   -6.408461608728953e-06   -5.4002662900241036e-05
2.5221429038044398e-05   -6.408461608728953e-06   -5.4002662900241036e-05
1.1921889946380542e-05   -4.071702826803723e-06   -3.323881968328977e-05
1.1921889946380542e-05   -4.071702826803723e-06   -3.323881968328977e-05
1.1921889946380542e-05   -4.071702826803723e-06   -3.323881968328977e-05
1.1921889946380542e-05   -4.071702826803723e-06   -3.323881968328977e-05
2.522142903804437e-05   -2.6024359890230823e-06   -1.1227576159186271e-05
2.522142903804437e-05   -2.6024359890230823e-06   -1.1227576159186271e-05
2.522142903804437e-05   -2.6024359890230823e-06   -1.1227576159186271e-05
2.522142903804437e-05   -2.6024359890230823e-06   -1.1227576159186271e-05
-4.436230065884932e-07   -6.408461608728953e-06   -5.628627827206447e-05
-4.436230065884932e-07   -6.408461608728953e-06   -5.628627827206447e-05
-4.436230065884932e-07   -6.408461608728953e-06   -5.628627827206447e-05
-4.436230065884932e-07   -6.408461608728953e-06   -5.628627827206447e-05
4.5418979980837667e-07   -1.7694014137130225e-06   -1.383035656663304e-05
4.5418979980837667e-07   -1.7694014137130225e-06   -1.383035656663304e-05
4.5418979980837667e-07   -1.7694014137130225e-06   -1.383035656663304e-05
4.5418979980837667e-07   -1.7694014137130225e-06   -1.383035656663304e-05
2.6208825109161473e-05   -5.808975220877952e-06   -5.4331004464589145e-05
2.6208825109161473e-05   -5.808975220877952e-06   -5.4331004464589145e-05
2.6208825109161473e-05   -5.808975220877952e-06   -5.4331004464589145e-05
2.6208825109161473e-05   -5.808975220877952e-06   -5.4331004464589145e-05
1.2615732235039245e-05   -3.7380213078869705e-06   -3.29184220221793e-05
1.2615732235039245e-05   -3.7380213078869705e-06   -3.29184220221793e-05
1.2615732235039245e-05   -3.7380213078869705e-06   -3.29184220221793e-05
1.2615732235039245e-05   -3.7380213078869705e-06   -3.29184220221793e-05
2.6208825109161473e-05   -1.7694014137130225e-06   -1.1406612282333821e-05
2.6208825109161473e-05   -1.7694014137130225e-06   -1.1406612282333821e-05
2.6208825109161473e-05   -1.7694014137130225e-06   -1.1406612282333821e-05
2.6208825109161473e-05   -1.7694014137130225e-06   -1.1406612282333821e-05
4.541897998084038e-07   -5.808975220877952e-06   -5.67547487488882e-05
4.541897998084038e-07   -5.808975220877952e-06   -5.67547487488882e-05
4.541897998084038e-07   -5.808975220877952e-06   -5.67547487488882e-05
4.541897998084038e-07   -5.808975220877952e-06   -5.67547487488882e-05
1.093510633099089e-06   -7.213022598915632e-07   -1.4375961845854764e-05
1.093510633099089e-06   -7.213022598915632e-07   -1.4375961845854764e-05
1.093510633099089e-06   -7.213022598915632e-07   -1.4375961845854764e-05
1.093510633099089e-06   -7.213022598915632e-07   -1.4375961845854764e-05
2.6879596380713176e-05   -4.95606174345754e-06   -5.4811915735072394e-05
2.6879596380713176e-05   -4.95606174345754e-06   -5.4811915735072394e-05
2.6879596380713176e-05   -4.95606174345754e-06   -5.4811915735072394e-05
2.6879596380713176e-05   -4.95606174345754e-06   -5.4811915735072394e-05
1.3445989424988301e-05   -3.149869678231807e-06   -3.350628604800038e-05
1.3445989424988301e-05   -3.149869678231807e-06   -3.350628604800038e-05
1.3445989424988301e-05   -3.149869678231807e-06   -3.350628604800038e-05
1.3445989424988301e-05   -3.149869678231807e-06   -3.350628604800038e-05
-1.4625985591173443e-06   5.96086508986883e-07   -1.8649702816055493e-05
-1.4625985591173443e-06   5.96086508986883e-07   -1.8649702816055493e-05
-1.4625985591173443e-06   5.96086508986883e-07   -1.8649702816055493e-05
-1.4625985591173443e-06   5.96086508986883e-07   -1.8649702816055493e-05
-2.6774498299742165e-05   -3.538058946120099e-06   -6.331668965682763e-05
-2.6774498299742165e-05   -3.538058946120099e-06   -6.331668965682763e-05
-2.6774498299742165e-05   -3.538058946120099e-06   -6.331668965682763e-05
-2.6774498299742165e-05   -3.538058946120099e-06   -6.331668965682763e-05
-2.555195160152543e-05   1.3614469644282132e-06   -2.0280877508765862e-05
-2.555195160152543e-05   1.3614469644282132e-06   -2.0280877508765862e-05
-2.555195160152543e-05   1.3614469644282132e-06   -2.0280877508765862e-05
-2.555195160152543e-05   1.3614469644282132e-06   -2.0280877508765862e-05
-4.436230065884932e-07   -3.158939993691025e-06   -5.941585965878922e-05
-4.436230065884932e-07   -3.158939993691025e-06   -5.941585965878922e-05
-4.436230065884932e-07   -3.158939993691025e-06   -5.941585965878922e-05
-4.436230065884932e-07   -3.158939993691025e-06   -5.941585965878922e-05
-1.3397040854585462e-05   -6.86751689817338e-07   -3.931014289445167e-05
-1.3397040854585462e-05   -6.86751689817338e-07   -3.931014289445167e-05
-1.3397040854585462e-05   -6.86751689817338e-07   -3.931014289445167e-05
-1.3397040854585462e-05   -6.86751689817338e-07   -3.931014289445167e-05
-4.436230065884932e-07   1.3614469644282132e-06   -1.7568645333894536e-05
-4.436230065884932e-07   1.3614469644282132e-06   -1.7568645333894536e-05
-4.436230065884932e-07   1.3614469644282132e-06   -1.7568645333894536e-05
-4.436230065884932e-07   1.3614469644282132e-06   -1.7568645333894536e-05
-2.555195160152543e-05   -3.158939993691025e-06   -6.212809183366095e-05
-2.555195160152543e-05   -3.158939993691025e-06   -6.212809183366095e-05
-2.555195160152543e-05   -3.158939993691025e-06   -6.212809183366095e-05
-2.555195160152543e-05   -3.158939993691025e-06   -6.212809183366095e-05
-2.4430323527541855e-05   2.247811087965814e-06   -1.9918079370498084e-05
-2.4430323527541855e-05   2.247811087965814e-06   -1.9918079370498084e-05
-2.4430323527541855e-05   2.247811087965814e-06   -1.9918079370498084e-05
-2.4430323527541855e-05   2.247811087965814e-06   -1.9918079370498084e-05
4.541897998084038e-07   -2.5683710151557654e-06   -5.8502558987542414e-05
4.541897998084038e-07   -2.5683710151557654e-06   -5.8502558987542414e-05
4.541897998084038e-07   -2.5683710151557654e-06   -5.8502558987542414e-05
4.541897998084038e-07   -2.5683710151557654e-06   -5.8502558987542414e-05
-1.2401218372684619e-05   -2.525518220299755e-07   -3.846637021592944e-05
-1.2401218372684619e-05   -2.525518220299755e-07   -3.846637021592944e-05
-1.2401218372684619e-05   -2.525518220299755e-07   -3.846637021592944e-05
-1.2401218372684619e-05   -2.525518220299755e-07   -3.846637021592944e-05
4.541897998084038e-07   2.247811087965814e-06   -1.7028370108625266e-05
4.541897998084038e-07   2.247811087965814e-06   -1.7028370108625266e-05
4.541897998084038e-07   2.247811087965814e-06   -1.7028370108625266e-05
4.541897998084038e-07   2.247811087965814e-06   -1.7028370108625266e-05
-2.4430323527541903e-05   -2.5683710151553317e-06   -6.139226824941548e-05
-2.4430323527541903e-05   -2.5683710151553317e-06   -6.139226824941548e-05
-2.4430323527541903e-05   -2.5683710151553317e-06   -6.139226824941548e-05
-2.4430323527541903e-05   -2.5683710151553317e-06   -6.139226824941548e-05
-2.3674028990359352e-05   3.16385065331215e-06   -2.0263189782192964e-05
-2.3674028990359352e-05   3.16385065331215e-06   -2.0263189782192964e-05
-2.3674028990359352e-05   3.16385065331215e-06   -2.0263189782192964e-05
-2.3674028990359352e-05   3.16385065331215e-06   -2.0263189782192964e-05
1.093510633099089e-06   -2.008392212589187e-06   -5.843907676841617e-05
1.093510633099089e-06   -2.008392212589187e-06   -5.843907676841617e-05
1.093510633099089e-06   -2.008392212589187e-06   -5.843907676841617e-05
1.093510633099089e-06   -2.008392212589187e-06   -5.843907676841617e-05
-1.1690858643858947e-05   2.3497849984148098e-07   -3.847781706761179e-05
-1.1690858643858947e-05   2.3497849984148098e-07   -3.847781706761179e-05
-1.1690858643858947e-05   2.3497849984148098e-07   -3.847781706761179e-05
-1.1690858643858947e-05   2.3497849984148098e-07   -3.847781706761179e-05
-2.677449829974211e-05   4.614886854445357e-06   -1.5224134787863693e-05
-2.677449829974211e-05   4.614886854445357e-06   -1.5224134787863693e-05
-2.677449829974211e-05   4.614886854445357e-06   -1.5224134787863693e-05
-2.677449829974211e-05   4.614886854445357e-06   -1.5224134787863693e-05
-5.243879551080171e-05   8.894684213976017e-07   -6.023321453279152e-05
-5.243879551080171e-05   8.894684213976017e-07   -6.023321453279152e-05
-5.243879551080171e-05   8.894684213976017e-07   -6.023321453279152e-05
-5.243879551080171e-05   8.894684213976017e-07   -6.023321453279152e-05
-5.069840472841382e-05   5.586886507912784e-06   -1.6225887970526022e-05
-5.069840472841382e-05   5.586886507912784e-06   -1.6225887970526022e-05
-5.069840472841382e-05   5.586886507912784e-06   -1.6225887970526022e-05
-5.069840472841382e-05   5.586886507912784e-06   -1.6225887970526022e-05
-2.555195160152539e-05   1.5910462968092738e-06   -5.573913905534454e-05
-2.555195160152539e-05   1.5910462968092738e-06   -5.573913905534454e-05
-2.555195160152539e-05   1.5910462968092738e-06   -5.573913905534454e-05
-2.555195160152539e-05   1.5910462968092738e-06   -5.573913905534454e-05
-3.8462285779248185e-05   3.5045208766552698e-06   -3.537000017371419e-05
-3.8462285779248185e-05   3.5045208766552698e-06   -3.537000017371419e-05
-3.8462285779248185e-05   3.5045208766552698e-06   -3.537000017371419e-05
-3.8462285779248185e-05   3.5045208766552698e-06   -3.537000017371419e-05
-2.555195160152539e-05   5.586886507912784e-06   -1.382838384386383e-05
-2.555195160152539e-05   5.586886507912784e-06   -1.382838384386383e-05
-2.555195160152539e-05   5.586886507912784e-06   -1.382838384386383e-05
-2.555195160152539e-05   5.586886507912784e-06   -1.382838384386383e-05
-5.069840472841391e-05   1.5910462968092738e-06   -5.813664318200687e-05
-5.069840472841391e-05   1.5910462968092738e-06   -5.813664318200687e-05
-5.069840472841391e-05   1.5910462968092738e-06   -5.813664318200687e-05
-5.069840472841391e-05   1.5910462968092738e-06   -5.813664318200687e-05
-4.9016156721527716e-05   6.4239832252791645e-06   -1.4782151972146098e-05
-4.9016156721527716e-05   6.4239832252791645e-06   -1.4782151972146098e-05
-4.9016156721527716e-05   6.4239832252791645e-06   -1.4782151972146098e-05
-4.9016156721527716e-05   6.4239832252791645e-06   -1.4782151972146098e-05
-2.4430323527541903e-05   2.23695133972409e-06   -5.324632149745627e-05
-2.4430323527541903e-05   2.23695133972409e-06   -5.324632149745627e-05
-2.4430323527541903e-05   2.23695133972409e-06   -5.324632149745627e-05
-2.4430323527541903e-05   2.23695133972409e-06   -5.324632149745627e-05
-3.6889603407711084e-05   4.1149315546515006e-06   -3.360764315946368e-05
-3.6889603407711084e-05   4.1149315546515006e-06   -3.360764315946368e-05
-3.6889603407711084e-05   4.1149315546515006e-06   -3.360764315946368e-05
-3.6889603407711084e-05   4.1149315546515006e-06   -3.360764315946368e-05
-2.4430323527541842e-05   6.4239832252791645e-06   -1.2269932840812707e-05
-2.4430323527541842e-05   6.4239832252791645e-06   -1.2269932840812707e-05
-2.4430323527541842e-05   6.4239832252791645e-06   -1.2269932840812707e-05
-2.4430323527541842e-05   6.4239832252791645e-06   -1.2269932840812707e-05
-4.90161567215278e-05   2.2369513397236564e-06   -5.5758540628789285e-05
-4.90161567215278e-05   2.2369513397236564e-06   -5.5758540628789285e-05
-4.90161567215278e-05   2.2369513397236564e-06   -5.5758540628789285e-05
-4.90161567215278e-05   2.2369513397236564e-06   -5.5758540628789285e-05
-4.773979567107204e-05   7.350108021465188e-06   -1.4828637484079346e-05
-4.773979567107204e-05   7.350108021465188e-06   -1.4828637484079346e-05
-4.773979567107204e-05   7.350108021465188e-06   -1.4828637484079346e-05
-4.773979567107204e-05   7.350108021465188e-06   -1.4828637484079346e-05
-2.36740289903594e-05   2.7834439122000933e-06   -5.2198250153041555e-05
-2.36740289903594e-05   2.7834439122000933e-06   -5.2198250153041555e-05
-2.36740289903594e-05   2.7834439122000933e-06   -5.2198250153041555e-05
-2.36740289903594e-05   2.7834439122000933e-06   -5.2198250153041555e-05
-3.6008077377694155e-05   4.540952249503134e-06   -3.269600784319812e-05
-3.6008077377694155e-05   4.540952249503134e-06   -3.269600784319812e-05
-3.6008077377694155e-05   4.540952249503134e-06   -3.269600784319812e-05
-3.6008077377694155e-05   4.540952249503134e-06   -3.269600784319812e-05
-5.243879551080171e-05   9.071283455053952e-06   -8.735594953435209e-06
-5.243879551080171e-05   9.071283455053952e-06   -8.735594953435209e-06
-5.243879551080171e-05   9.071283455053952e-06   -8.735594953435209e-06
-5.243879551080171e-05   9.071283455053952e-06   -8.735594953435209e-06
-7.925101169813571e-05   8.562355015039654e-06   -5.372797899633381e-05
-7.925101169813571e-05   8.562355015039654e-06   -5.372797899633381e-05
-7.925101169813571e-05   8.562355015039654e-06   -5.372797899633381e-05
-7.925101169813571e-05   8.562355015039654e-06   -5.372797899633381e-05
-7.581905295166641e-05   1.0362746859110018e-05   -2.5841551940615146e-07
-7.581905295166641e-05   1.0362746859110018e-05   -2.5841551940615146e-07
-7.581905295166641e-05   1.0362746859110018e-05   -2.5841551940615146e-07
-7.581905295166641e-05   1.0362746859110018e-05   -2.5841551940615146e-07
-5.0698404728413735e-05   1.0841485029915252e-05   -4.241340546064351e-05
-5.0698404728413735e-05   1.0841485029915252e-05   -4.241340546064351e-05
-5.0698404728413735e-05   1.0841485029915252e-05   -4.241340546064351e-05
-5.0698404728413735e-05   1.0841485029915252e-05   -4.241340546064351e-05
-6.176782690009024e-05   1.0222727654484245e-05   -2.359311408259117e-05
-6.176782690009024e-05   1.0222727654484245e-05   -2.359311408259117e-05
-6.176782690009024e-05   1.0222727654484245e-05   -2.359311408259117e-05
-6.176782690009024e-05   1.0222727654484245e-05   -2.359311408259117e-05
-5.0698404728413864e-05   1.0362746859110452e-05   -5.456584218888581e-07
-5.0698404728413864e-05   1.0362746859110452e-05   -5.456584218888581e-07
-5.0698404728413864e-05   1.0362746859110452e-05   -5.456584218888581e-07
-5.0698404728413864e-05   1.0362746859110452e-05   -5.456584218888581e-07
-7.581905295166641e-05   1.0841485029915252e-05   -4.212616255816048e-05
-7.581905295166641e-05   1.0841485029915252e-05   -4.212616255816048e-05
-7.581905295166641e-05   1.0841485029915252e-05   -4.212616255816048e-05
-7.581905295166641e-05   1.0841485029915252e-05   -4.212616255816048e-05
-7.297239855630174e-05   1.0702409830335054e-05   4.533919309697085e-06
-7.297239855630174e-05   1.0702409830335054e-05   4.533919309697085e-06
-7.297239855630174e-05   1.0702409830335054e-05   4.533919309697085e-06
-7.297239855630174e-05   1.0702409830335054e-05   4.533919309697085e-06
-4.9016156721527716e-05   1.135359856220151e-05   -3.578386365404592e-05
-4.9016156721527716e-05   1.135359856220151e-05   -3.578386365404592e-05
-4.9016156721527716e-05   1.135359856220151e-05   -3.578386365404592e-05
-4.9016156721527716e-05   1.135359856220151e-05   -3.578386365404592e-05
-6.0467412340316394e-05   1.0965589504262612e-05   -1.6465632187967786e-05
-6.0467412340316394e-05   1.0965589504262612e-05   -1.6465632187967786e-05
-6.0467412340316394e-05   1.0965589504262612e-05   -1.6465632187967786e-05
-6.0467412340316394e-05   1.0965589504262612e-05   -1.6465632187967786e-05
-4.90161567215278e-05   1.070240983033462e-05   4.143206070577124e-06
-4.90161567215278e-05   1.070240983033462e-05   4.143206070577124e-06
-4.90161567215278e-05   1.070240983033462e-05   4.143206070577124e-06
-4.90161567215278e-05   1.070240983033462e-05   4.143206070577124e-06
-7.297239855630163e-05   1.1353598562201077e-05   -3.5393150414926274e-05
-7.297239855630163e-05   1.1353598562201077e-05   -3.5393150414926274e-05
-7.297239855630163e-05   1.1353598562201077e-05   -3.5393150414926274e-05
-7.297239855630163e-05   1.1353598562201077e-05   -3.5393150414926274e-05
-6.999542909632002e-05   1.0995173334582553e-05   1.0955974733738811e-05
-6.999542909632002e-05   1.0995173334582553e-05   1.0955974733738811e-05
-6.999542909632002e-05   1.0995173334582553e-05   1.0955974733738811e-05
-6.999542909632002e-05   1.0995173334582553e-05   1.0955974733738811e-05
-4.773979567107204e-05   1.2233764233128119e-05   -2.68799021808019e-05
-4.773979567107204e-05   1.2233764233128119e-05   -2.68799021808019e-05
-4.773979567107204e-05   1.2233764233128119e-05   -2.68799021808019e-05
-4.773979567107204e-05   1.2233764233128119e-05   -2.68799021808019e-05
-5.759398079652088e-05   1.1215509600639648e-05   -9.845307525561302e-06
-5.759398079652088e-05   1.1215509600639648e-05   -9.845307525561302e-06
-5.759398079652088e-05   1.1215509600639648e-05   -9.845307525561302e-06
-5.759398079652088e-05   1.1215509600639648e-05   -9.845307525561302e-06
6.911485445610947e-05   -1.0381776875553316e-05   2.3572088423315894e-05
6.911485445610947e-05   -1.0381776875553316e-05   2.3572088423315894e-05
6.911485445610947e-05   -1.0381776875553316e-05   2.3572088423315894e-05
6.911485445610947e-05   -1.0381776875553316e-05   2.3572088423315894e-05
3.474334606167116e-05   -1.3130406431337022e-05   -3.536293663421804e-05
3.474334606167116e-05   -1.3130406431337022e-05   -3.536293663421804e-05
3.474334606167116e-05   -1.3130406431337022e-05   -3.536293663421804e-05
3.474334606167116e-05   -1.3130406431337022e-05   -3.536293663421804e-05
3.55929258057922e-05   -1.0139180530881198e-05   1.690674960951521e-05
3.55929258057922e-05   -1.0139180530881198e-05   1.690674960951521e-05
3.55929258057922e-05   -1.0139180530881198e-05   1.690674960951521e-05
3.55929258057922e-05   -1.0139180530881198e-05   1.690674960951521e-05
7.083801876857059e-05   -1.3458870557781291e-05   -3.984325797897544e-05
7.083801876857059e-05   -1.3458870557781291e-05   -3.984325797897544e-05
7.083801876857059e-05   -1.3458870557781291e-05   -3.984325797897544e-05
7.083801876857059e-05   -1.3458870557781291e-05   -3.984325797897544e-05
5.047823034582935e-05   -1.0604761644935918e-05   -7.6227426221139654e-06
5.047823034582935e-05   -1.0604761644935918e-05   -7.6227426221139654e-06
5.047823034582935e-05   -1.0604761644935918e-05   -7.6227426221139654e-06
5.047823034582935e-05   -1.0604761644935918e-05   -7.6227426221139654e-06
7.083801876857059e-05   -1.0139180530881198e-05   1.889856362565531e-05
7.083801876857059e-05   -1.0139180530881198e-05   1.889856362565531e-05
7.083801876857059e-05   -1.0139180530881198e-05   1.889856362565531e-05
7.083801876857059e-05   -1.0139180530881198e-05   1.889856362565531e-05
3.55929258057922e-05   -1.3458870557781291e-05   -4.183507199511565e-05
3.55929258057922e-05   -1.3458870557781291e-05   -4.183507199511565e-05
3.55929258057922e-05   -1.3458870557781291e-05   -4.183507199511565e-05
3.55929258057922e-05   -1.3458870557781291e-05   -4.183507199511565e-05
3.6311046595693665e-05   -9.787225813647112e-06   1.3339384067001742e-05
3.6311046595693665e-05   -9.787225813647112e-06   1.3339384067001742e-05
3.6311046595693665e-05   -9.787225813647112e-06   1.3339384067001742e-05
3.6311046595693665e-05   -9.787225813647112e-06   1.3339384067001742e-05
7.191198311337909e-05   -1.333707708705157e-05   -4.386559936509789e-05
7.191198311337909e-05   -1.333707708705157e-05   -4.386559936509789e-05
7.191198311337909e-05   -1.333707708705157e-05   -4.386559936509789e-05
7.191198311337909e-05   -1.333707708705157e-05   -4.386559936509789e-05
5.22583854271747e-05   -1.0939888207371976e-05   -1.254791654923214e-05
5.22583854271747e-05   -1.0939888207371976e-05   -1.254791654923214e-05
5.22583854271747e-05   -1.0939888207371976e-05   -1.254791654923214e-05
5.22583854271747e-05   -1.0939888207371976e-05   -1.254791654923214e-05
7.191198311337909e-05   -9.787225813647112e-06   1.5469294831044504e-05
7.191198311337909e-05   -9.787225813647112e-06   1.5469294831044504e-05
7.191198311337909e-05   -9.787225813647112e-06   1.5469294831044504e-05
7.191198311337909e-05   -9.787225813647112e-06   1.5469294831044504e-05
3.6311046595693665e-05   -1.333707708705157e-05   -4.59955101291406e-05
3.6311046595693665e-05   -1.333707708705157e-05   -4.59955101291406e-05
3.6311046595693665e-05   -1.333707708705157e-05   -4.59955101291406e-05
3.6311046595693665e-05   -1.333707708705157e-05   -4.59955101291406e-05
3.706142011437611e-05   -8.414259369417428e-06   6.416639332618287e-06
3.706142011437611e-05   -8.414259369417428e-06   6.416639332618287e-06
3.706142011437611e-05   -8.414259369417428e-06   6.416639332618287e-06
3.706142011437611e-05   -8.414259369417428e-06   6.416639332618287e-06
7.296946000697315e-05   -1.2595519040152232e-05   -5.0921338019269634e-05
7.296946000697315e-05   -1.2595519040152232e-05   -5.0921338019269634e-05
7.296946000697315e-05   -1.2595519040152232e-05   -5.0921338019269634e-05
7.296946000697315e-05   -1.2595519040152232e-05   -5.0921338019269634e-05
5.228496070264362e-05   -1.0528675197903764e-05   -1.7687278817402172e-05
5.228496070264362e-05   -1.0528675197903764e-05   -1.7687278817402172e-05
5.228496070264362e-05   -1.0528675197903764e-05   -1.7687278817402172e-05
5.228496070264362e-05   -1.0528675197903764e-05   -1.7687278817402172e-05
3.474334606167116e-05   -6.730319769652961e-06   2.3191792301645395e-06
3.474334606167116e-05   -6.730319769652961e-06   2.3191792301645395e-06
3.474334606167116e-05   -6.730319769652961e-06   2.3191792301645395e-06
3.474334606167116e-05   -6.730319769652961e-06   2.3191792301645395e-06
4.128164898016708e-06   -1.3179457458204879e-05   -5.257560532239054e-05
4.128164898016708e-06   -1.3179457458204879e-05   -5.257560532239054e-05
4.128164898016708e-06   -1.3179457458204879e-05   -5.257560532239054e-05
4.128164898016708e-06   -1.3179457458204879e-05   -5.257560532239054e-05
5.1184155182311245e-06   -6.408461608728953e-06   -3.2531346497600283e-07
5.1184155182311245e-06   -6.408461608728953e-06   -3.2531346497600283e-07
5.1184155182311245e-06   -6.408461608728953e-06   -3.2531346497600283e-07
5.1184155182311245e-06   -6.408461608728953e-06   -3.2531346497600283e-07
3.559292580579225e-05   -1.3111983700292776e-05   -4.7094050689306126e-05
3.559292580579225e-05   -1.3111983700292776e-05   -4.7094050689306126e-05
3.559292580579225e-05   -1.3111983700292776e-05   -4.7094050689306126e-05
3.559292580579225e-05   -1.3111983700292776e-05   -4.7094050689306126e-05
1.9973355496868142e-05   -8.891119898799676e-06   -2.3593951788661912e-05
1.9973355496868142e-05   -8.891119898799676e-06   -2.3593951788661912e-05
1.9973355496868142e-05   -8.891119898799676e-06   -2.3593951788661912e-05
1.9973355496868142e-05   -8.891119898799676e-06   -2.3593951788661912e-05
3.559292580579217e-05   -6.408461608728953e-06   3.6967997899624207e-06
3.559292580579217e-05   -6.408461608728953e-06   3.6967997899624207e-06
3.559292580579217e-05   -6.408461608728953e-06   3.6967997899624207e-06
3.559292580579217e-05   -6.408461608728953e-06   3.6967997899624207e-06
5.1184155182310974e-06   -1.3111983700292776e-05   -5.111616394424439e-05
5.1184155182310974e-06   -1.3111983700292776e-05   -5.111616394424439e-05
5.1184155182310974e-06   -1.3111983700292776e-05   -5.111616394424439e-05
5.1184155182310974e-06   -1.3111983700292776e-05   -5.111616394424439e-05
6.01228861044786e-06   -5.808975220877952e-06   -6.492846829767637e-07
6.01228861044786e-06   -5.808975220877952e-06   -6.492846829767637e-07
6.01228861044786e-06   -5.808975220877952e-06   -6.492846829767637e-07
6.01228861044786e-06   -5.808975220877952e-06   -6.492846829767637e-07
3.6311046595693665e-05   -1.2936164764421575e-05   -4.687090093226029e-05
3.6311046595693665e-05   -1.2936164764421575e-05   -4.687090093226029e-05
3.6311046595693665e-05   -1.2936164764421575e-05   -4.687090093226029e-05
3.6311046595693665e-05   -1.2936164764421575e-05   -4.687090093226029e-05
2.053573839187281e-05   -8.98915320823217e-06   -2.2946927526271534e-05
2.053573839187281e-05   -8.98915320823217e-06   -2.2946927526271534e-05
2.053573839187281e-05   -8.98915320823217e-06   -2.2946927526271534e-05
2.053573839187281e-05   -8.98915320823217e-06   -2.2946927526271534e-05
3.6311046595693665e-05   -5.808975220877952e-06   3.6270290431493664e-06
3.6311046595693665e-05   -5.808975220877952e-06   3.6270290431493664e-06
3.6311046595693665e-05   -5.808975220877952e-06   3.6270290431493664e-06
3.6311046595693665e-05   -5.808975220877952e-06   3.6270290431493664e-06
6.012288610447833e-06   -1.2936164764421575e-05   -5.114721465838664e-05
6.012288610447833e-06   -1.2936164764421575e-05   -5.114721465838664e-05
6.012288610447833e-06   -1.2936164764421575e-05   -5.114721465838664e-05
6.012288610447833e-06   -1.2936164764421575e-05   -5.114721465838664e-05
7.346313496304119e-06   -4.95606174345754e-06   -1.2701596703414489e-06
7.346313496304119e-06   -4.95606174345754e-06   -1.2701596703414489e-06
7.346313496304119e-06   -4.95606174345754e-06   -1.2701596703414489e-06
7.346313496304119e-06   -4.95606174345754e-06   -1.2701596703414489e-06
3.7061420114376084e-05   -1.2584786408422702e-05   -4.621810256814896e-05
3.7061420114376084e-05   -1.2584786408422702e-05   -4.621810256814896e-05
3.7061420114376084e-05   -1.2584786408422702e-05   -4.621810256814896e-05
3.7061420114376084e-05   -1.2584786408422702e-05   -4.621810256814896e-05
2.1607776380726457e-05   -8.849887784320026e-06   -2.2702968853194707e-05
2.1607776380726457e-05   -8.849887784320026e-06   -2.2702968853194707e-05
2.1607776380726457e-05   -8.849887784320026e-06   -2.2702968853194707e-05
2.1607776380726457e-05   -8.849887784320026e-06   -2.2702968853194707e-05
4.128164898016708e-06   -3.538058946120099e-06   -5.245035075233592e-06
4.128164898016708e-06   -3.538058946120099e-06   -5.245035075233592e-06
4.128164898016708e-06   -3.538058946120099e-06   -5.245035075233592e-06
4.128164898016708e-06   -3.538058946120099e-06   -5.245035075233592e-06
-2.6170703398386048e-05   -1.5906275674192668e-05   -6.316407893941565e-05
-2.6170703398386048e-05   -1.5906275674192668e-05   -6.316407893941565e-05
-2.6170703398386048e-05   -1.5906275674192668e-05   -6.316407893941565e-05
-2.6170703398386048e-05   -1.5906275674192668e-05   -6.316407893941565e-05
-2.4628261156823728e-05   -3.158939993691025e-06   -1.1314532139247279e-05
-2.4628261156823728e-05   -3.158939993691025e-06   -1.1314532139247279e-05
-2.4628261156823728e-05   -3.158939993691025e-06   -1.1314532139247279e-05
-2.4628261156823728e-05   -3.158939993691025e-06   -1.1314532139247279e-05
5.1184155182310974e-06   -1.6258335472935353e-05   -5.303268931012526e-05
5.1184155182310974e-06   -1.6258335472935353e-05   -5.303268931012526e-05
5.1184155182310974e-06   -1.6258335472935353e-05   -5.303268931012526e-05
5.1184155182310974e-06   -1.6258335472935353e-05   -5.303268931012526e-05
-1.003802833082367e-05   -8.99535757486027e-06   -3.212973630054537e-05
-1.003802833082367e-05   -8.99535757486027e-06   -3.212973630054537e-05
-1.003802833082367e-05   -8.99535757486027e-06   -3.212973630054537e-05
-1.003802833082367e-05   -8.99535757486027e-06   -3.212973630054537e-05
5.1184155182310974e-06   -3.158939993691025e-06   -3.4548948517005088e-06
5.1184155182310974e-06   -3.158939993691025e-06   -3.4548948517005088e-06
5.1184155182310974e-06   -3.158939993691025e-06   -3.4548948517005088e-06
5.1184155182310974e-06   -3.158939993691025e-06   -3.4548948517005088e-06
-2.4628261156823782e-05   -1.6258335472935353e-05   -6.0892326597671975e-05
-2.4628261156823782e-05   -1.6258335472935353e-05   -6.0892326597671975e-05
-2.4628261156823782e-05   -1.6258335472935353e-05   -6.0892326597671975e-05
-2.4628261156823782e-05   -1.6258335472935353e-05   -6.0892326597671975e-05
-2.3299175840183528e-05   -2.5683710151557654e-06   -1.0565646152728252e-05
-2.3299175840183528e-05   -2.5683710151557654e-06   -1.0565646152728252e-05
-2.3299175840183528e-05   -2.5683710151557654e-06   -1.0565646152728252e-05
-2.3299175840183528e-05   -2.5683710151557654e-06   -1.0565646152728252e-05
6.012288610447833e-06   -1.6182623066984293e-05   -5.1249535672683385e-05
6.012288610447833e-06   -1.6182623066984293e-05   -5.1249535672683385e-05
6.012288610447833e-06   -1.6182623066984293e-05   -5.1249535672683385e-05
6.012288610447833e-06   -1.6182623066984293e-05   -5.1249535672683385e-05
-8.942717632802362e-06   -9.199455277985116e-06   -3.0514425940666025e-05
-8.942717632802362e-06   -9.199455277985116e-06   -3.0514425940666025e-05
-8.942717632802362e-06   -9.199455277985116e-06   -3.0514425940666025e-05
-8.942717632802362e-06   -9.199455277985116e-06   -3.0514425940666025e-05
6.012288610447833e-06   -2.5683710151557654e-06   -2.397094921631005e-06
6.012288610447833e-06   -2.5683710151557654e-06   -2.397094921631005e-06
6.012288610447833e-06   -2.5683710151557654e-06   -2.397094921631005e-06
6.012288610447833e-06   -2.5683710151557654e-06   -2.397094921631005e-06
-2.329917584018361e-05   -1.6182623066984293e-05   -5.9418086903780714e-05
-2.329917584018361e-05   -1.6182623066984293e-05   -5.9418086903780714e-05
-2.329917584018361e-05   -1.6182623066984293e-05   -5.9418086903780714e-05
-2.329917584018361e-05   -1.6182623066984293e-05   -5.9418086903780714e-05
-2.1006060821117303e-05   -2.008392212589187e-06   -1.0520778407703936e-05
-2.1006060821117303e-05   -2.008392212589187e-06   -1.0520778407703936e-05
-2.1006060821117303e-05   -2.008392212589187e-06   -1.0520778407703936e-05
-2.1006060821117303e-05   -2.008392212589187e-06   -1.0520778407703936e-05
7.346313496304119e-06   -1.5615581202852412e-05   -4.9610422209248636e-05
7.346313496304119e-06   -1.5615581202852412e-05   -4.9610422209248636e-05
7.346313496304119e-06   -1.5615581202852412e-05   -4.9610422209248636e-05
7.346313496304119e-06   -1.5615581202852412e-05   -4.9610422209248636e-05
-7.519338301972326e-06   -8.995750639384775e-06   -2.880623421686859e-05
-7.519338301972326e-06   -8.995750639384775e-06   -2.880623421686859e-05
-7.519338301972326e-06   -8.995750639384775e-06   -2.880623421686859e-05
-7.519338301972326e-06   -8.995750639384775e-06   -2.880623421686859e-05
-2.6170703398385994e-05   8.894684213980354e-07   -7.347238928213148e-06
-2.6170703398385994e-05   8.894684213980354e-07   -7.347238928213148e-06
-2.6170703398385994e-05   8.894684213980354e-07   -7.347238928213148e-06
-2.6170703398385994e-05   8.894684213980354e-07   -7.347238928213148e-06
-5.997730778733212e-05   -1.9839782585403393e-05   -7.612913018053722e-05
-5.997730778733212e-05   -1.9839782585403393e-05   -7.612913018053722e-05
-5.997730778733212e-05   -1.9839782585403393e-05   -7.612913018053722e-05
-5.997730778733212e-05   -1.9839782585403393e-05   -7.612913018053722e-05
-5.813578128541903e-05   1.5910462968092738e-06   -1.9170340543740337e-05
-5.813578128541903e-05   1.5910462968092738e-06   -1.9170340543740337e-05
-5.813578128541903e-05   1.5910462968092738e-06   -1.9170340543740337e-05
-5.813578128541903e-05   1.5910462968092738e-06   -1.9170340543740337e-05
-2.4628261156823728e-05   -2.2150222341206505e-05   -6.0771446241923016e-05
-2.4628261156823728e-05   -2.2150222341206505e-05   -6.0771446241923016e-05
-2.4628261156823728e-05   -2.2150222341206505e-05   -6.0771446241923016e-05
-2.4628261156823728e-05   -2.2150222341206505e-05   -6.0771446241923016e-05
-4.1620154564987136e-05   -1.0093126700822658e-05   -3.9685881279214017e-05
-4.1620154564987136e-05   -1.0093126700822658e-05   -3.9685881279214017e-05
-4.1620154564987136e-05   -1.0093126700822658e-05   -3.9685881279214017e-05
-4.1620154564987136e-05   -1.0093126700822658e-05   -3.9685881279214017e-05
-2.4628261156823728e-05   1.5910462968092738e-06   -4.925579360931e-06
-2.4628261156823728e-05   1.5910462968092738e-06   -4.925579360931e-06
-2.4628261156823728e-05   1.5910462968092738e-06   -4.925579360931e-06
-2.4628261156823728e-05   1.5910462968092738e-06   -4.925579360931e-06
-5.813578128541903e-05   -2.2150222341206505e-05   -7.501620742473257e-05
-5.813578128541903e-05   -2.2150222341206505e-05   -7.501620742473257e-05
-5.813578128541903e-05   -2.2150222341206505e-05   -7.501620742473257e-05
-5.813578128541903e-05   -2.2150222341206505e-05   -7.501620742473257e-05
-5.637044998126002e-05   2.23695133972409e-06   -1.7126367552532584e-05
-5.637044998126002e-05   2.23695133972409e-06   -1.7126367552532584e-05
-5.637044998126002e-05   2.23695133972409e-06   -1.7126367552532584e-05
-5.637044998126002e-05   2.23695133972409e-06   -1.7126367552532584e-05
-2.3299175840183568e-05   -2.227416224654874e-05   -5.753848963589646e-05
-2.3299175840183568e-05   -2.227416224654874e-05   -5.753848963589646e-05
-2.3299175840183568e-05   -2.227416224654874e-05   -5.753848963589646e-05
-2.3299175840183568e-05   -2.227416224654874e-05   -5.753848963589646e-05
-3.982459484877511e-05   -1.0127660008808857e-05   -3.728402596422085e-05
-3.982459484877511e-05   -1.0127660008808857e-05   -3.728402596422085e-05
-3.982459484877511e-05   -1.0127660008808857e-05   -3.728402596422085e-05
-3.982459484877511e-05   -1.0127660008808857e-05   -3.728402596422085e-05
-2.329917584018354e-05   2.23695133972409e-06   -2.419699400768886e-06
-2.329917584018354e-05   2.23695133972409e-06   -2.419699400768886e-06
-2.329917584018354e-05   2.23695133972409e-06   -2.419699400768886e-06
-2.329917584018354e-05   2.23695133972409e-06   -2.419699400768886e-06
-5.637044998126012e-05   -2.227416224654874e-05   -7.224515778766019e-05
-5.637044998126012e-05   -2.227416224654874e-05   -7.224515778766019e-05
-5.637044998126012e-05   -2.227416224654874e-05   -7.224515778766019e-05
-5.637044998126012e-05   -2.227416224654874e-05   -7.224515778766019e-05
-5.347730901548024e-05   2.7834439122000933e-06   -1.5044528465389152e-05
-5.347730901548024e-05   2.7834439122000933e-06   -1.5044528465389152e-05
-5.347730901548024e-05   2.7834439122000933e-06   -1.5044528465389152e-05
-5.347730901548024e-05   2.7834439122000933e-06   -1.5044528465389152e-05
-2.1006060821117384e-05   -2.0329760075467763e-05   -5.529535306339329e-05
-2.1006060821117384e-05   -2.0329760075467763e-05   -5.529535306339329e-05
-2.1006060821117384e-05   -2.0329760075467763e-05   -5.529535306339329e-05
-2.1006060821117384e-05   -2.0329760075467763e-05   -5.529535306339329e-05
-3.80512269495825e-05   -8.946647367469654e-06   -3.3716610474082676e-05
-3.80512269495825e-05   -8.946647367469654e-06   -3.3716610474082676e-05
-3.80512269495825e-05   -8.946647367469654e-06   -3.3716610474082676e-05
-3.80512269495825e-05   -8.946647367469654e-06   -3.3716610474082676e-05
-5.997730778733212e-05   8.562355015040088e-06   -1.2974196931828065e-05
-5.997730778733212e-05   8.562355015040088e-06   -1.2974196931828065e-05
-5.997730778733212e-05   8.562355015040088e-06   -1.2974196931828065e-05
-5.997730778733212e-05   8.562355015040088e-06   -1.2974196931828065e-05
-0.00010327728352272264   0.0   -9.02782361665033e-05
-0.00010327728352272264   0.0   -9.02782361665033e-05
-0.00010327728352272264   0.0   -9.02782361665033e-05
-0.00010327728352272264   0.0   -9.02782361665033e-05
-0.0001005823815963283   1.0841485029915252e-05   -9.951993840326238e-06
-0.0001005823815963283   1.0841485029915252e-05   -9.951993840326238e-06
-0.0001005823815963283   1.0841485029915252e-05   -9.951993840326238e-06
-0.0001005823815963283   1.0841485029915252e-05   -9.951993840326238e-06
-5.813578128541892e-05   0.0   -7.419143667389285e-05
-5.813578128541892e-05   0.0   -7.419143667389285e-05
-5.813578128541892e-05   0.0   -7.419143667389285e-05
-5.813578128541892e-05   0.0   -7.419143667389285e-05
-7.707296337864556e-05   3.312418950994229e-06   -4.461691788911165e-05
-7.707296337864556e-05   3.312418950994229e-06   -4.461691788911165e-05
-7.707296337864556e-05   3.312418950994229e-06   -4.461691788911165e-05
-7.707296337864556e-05   3.312418950994229e-06   -4.461691788911165e-05
-5.8135781285418974e-05   1.0841485029915252e-05   -3.447102822377304e-06
-5.8135781285418974e-05   1.0841485029915252e-05   -3.447102822377304e-06
-5.8135781285418974e-05   1.0841485029915252e-05   -3.447102822377304e-06
-5.8135781285418974e-05   1.0841485029915252e-05   -3.447102822377304e-06
-0.00010058238159632812   0.0   -8.069632769184165e-05
-0.00010058238159632812   0.0   -8.069632769184165e-05
-0.00010058238159632812   0.0   -8.069632769184165e-05
-0.00010058238159632812   0.0   -8.069632769184165e-05
-9.830287323205986e-05   1.1353598562201077e-05   -3.96384971511018e-06
-9.830287323205986e-05   1.1353598562201077e-05   -3.96384971511018e-06
-9.830287323205986e-05   1.1353598562201077e-05   -3.96384971511018e-06
-9.830287323205986e-05   1.1353598562201077e-05   -3.96384971511018e-06
-5.637044998126012e-05   0.0   -6.703906266245603e-05
-5.637044998126012e-05   0.0   -6.703906266245603e-05
-5.637044998126012e-05   0.0   -6.703906266245603e-05
-5.637044998126012e-05   0.0   -6.703906266245603e-05
-7.626913476245861e-05   5.24971800688976e-06   -3.702441883125806e-05
-7.626913476245861e-05   5.24971800688976e-06   -3.702441883125806e-05
-7.626913476245861e-05   5.24971800688976e-06   -3.702441883125806e-05
-7.626913476245861e-05   5.24971800688976e-06   -3.702441883125806e-05
-5.637044998126012e-05   1.135359856220151e-05   2.8483094222104665e-06
-5.637044998126012e-05   1.135359856220151e-05   2.8483094222104665e-06
-5.637044998126012e-05   1.135359856220151e-05   2.8483094222104665e-06
-5.637044998126012e-05   1.135359856220151e-05   2.8483094222104665e-06
-9.83028732320597e-05   0.0   -7.385122179977646e-05
-9.83028732320597e-05   0.0   -7.385122179977646e-05
-9.83028732320597e-05   0.0   -7.385122179977646e-05
-9.83028732320597e-05   0.0   -7.385122179977646e-05
-9.375503943391552e-05   1.2233764233128119e-05   5.6735594325327265e-06
-9.375503943391552e-05   1.2233764233128119e-05   5.6735594325327265e-06
-9.375503943391552e-05   1.2233764233128119e-05   5.6735594325327265e-06
-9.375503943391552e-05   1.2233764233128119e-05   5.6735594325327265e-06
-5.3477309015480335e-05   0.0   -5.4115732724982745e-05
-5.3477309015480335e-05   0.0   -5.4115732724982745e-05
-5.3477309015480335e-05   0.0   -5.4115732724982745e-05
-5.3477309015480335e-05   0.0   -5.4115732724982745e-05
-7.230062839042176e-05   6.475511080804991e-06   -2.6628840415229924e-05
-7.230062839042176e-05   6.475511080804991e-06   -2.6628840415229924e-05
-7.230062839042176e-05   6.475511080804991e-06   -2.6628840415229924e-05
-7.230062839042176e-05   6.475511080804991e-06   -2.6628840415229924e-05
7.646463340367745e-05   -1.3130406431337022e-05   4.564401507680836e-05
7.646463340367745e-05   -1.3130406431337022e-05   4.564401507680836e-05
7.646463340367745e-05   -1.3130406431337022e-05   4.564401507680836e-05
7.646463340367745e-05   -1.3130406431337022e-05   4.564401507680836e-05
3.967337125170651e-05   -1.0117396433152823e-05   -1.3866949177566154e-05
3.967337125170651e-05   -1.0117396433152823e-05   -1.3866949177566154e-05
3.967337125170651e-05   -1.0117396433152823e-05   -1.3866949177566154e-05
3.967337125170651e-05   -1.0117396433152823e-05   -1.3866949177566154e-05
3.867510036465798e-05   -1.3458870557781291e-05   4.031285490028818e-05
3.867510036465798e-05   -1.3458870557781291e-05   4.031285490028818e-05
3.867510036465798e-05   -1.3458870557781291e-05   4.031285490028818e-05
3.867510036465798e-05   -1.3458870557781291e-05   4.031285490028818e-05
7.564656239660856e-05   -1.112382133137144e-05   -2.2707278022142104e-05
7.564656239660856e-05   -1.112382133137144e-05   -2.2707278022142104e-05
7.564656239660856e-05   -1.112382133137144e-05   -2.2707278022142104e-05
7.564656239660856e-05   -1.112382133137144e-05   -2.2707278022142104e-05
5.52574148148762e-05   -1.1313794004738469e-05   1.1388618218098764e-05
5.52574148148762e-05   -1.1313794004738469e-05   1.1388618218098764e-05
5.52574148148762e-05   -1.1313794004738469e-05   1.1388618218098764e-05
5.52574148148762e-05   -1.1313794004738469e-05   1.1388618218098764e-05
7.564656239660856e-05   -1.3458870557781291e-05   3.891182536444214e-05
7.564656239660856e-05   -1.3458870557781291e-05   3.891182536444214e-05
7.564656239660856e-05   -1.3458870557781291e-05   3.891182536444214e-05
7.564656239660856e-05   -1.3458870557781291e-05   3.891182536444214e-05
3.867510036465798e-05   -1.112382133137144e-05   -2.1306248486296225e-05
3.867510036465798e-05   -1.112382133137144e-05   -2.1306248486296225e-05
3.867510036465798e-05   -1.112382133137144e-05   -2.1306248486296225e-05
3.867510036465798e-05   -1.112382133137144e-05   -2.1306248486296225e-05
3.777205570218683e-05   -1.333707708705157e-05   3.61945059407147e-05
3.777205570218683e-05   -1.333707708705157e-05   3.61945059407147e-05
3.777205570218683e-05   -1.333707708705157e-05   3.61945059407147e-05
3.777205570218683e-05   -1.333707708705157e-05   3.61945059407147e-05
7.470049839993535e-05   -1.121645473389039e-05   -2.6625271967429842e-05
7.470049839993535e-05   -1.121645473389039e-05   -2.6625271967429842e-05
7.470049839993535e-05   -1.121645473389039e-05   -2.6625271967429842e-05
7.470049839993535e-05   -1.121645473389039e-05   -2.6625271967429842e-05
5.521524001698675e-05   -1.1512214918825772e-05   6.027614781779116e-06
5.521524001698675e-05   -1.1512214918825772e-05   6.027614781779116e-06
5.521524001698675e-05   -1.1512214918825772e-05   6.027614781779116e-06
5.521524001698675e-05   -1.1512214918825772e-05   6.027614781779116e-06
7.470049839993547e-05   -1.333707708705157e-05   3.492213252881751e-05
7.470049839993547e-05   -1.333707708705157e-05   3.492213252881751e-05
7.470049839993547e-05   -1.333707708705157e-05   3.492213252881751e-05
7.470049839993547e-05   -1.333707708705157e-05   3.492213252881751e-05
3.777205570218683e-05   -1.121645473389039e-05   -2.53528985555329e-05
3.777205570218683e-05   -1.121645473389039e-05   -2.53528985555329e-05
3.777205570218683e-05   -1.121645473389039e-05   -2.53528985555329e-05
3.777205570218683e-05   -1.121645473389039e-05   -2.53528985555329e-05
3.6670325140905776e-05   -1.2595519040152232e-05   2.949432161315291e-05
3.6670325140905776e-05   -1.2595519040152232e-05   2.949432161315291e-05
3.6670325140905776e-05   -1.2595519040152232e-05   2.949432161315291e-05
3.6670325140905776e-05   -1.2595519040152232e-05   2.949432161315291e-05
7.321818854353176e-05   -1.0982500509927433e-05   -3.238659517602492e-05
7.321818854353176e-05   -1.0982500509927433e-05   -3.238659517602492e-05
7.321818854353176e-05   -1.0982500509927433e-05   -3.238659517602492e-05
7.321818854353176e-05   -1.0982500509927433e-05   -3.238659517602492e-05
5.333011917173079e-05   -1.0946994385850964e-05   7.388834358637618e-07
5.333011917173079e-05   -1.0946994385850964e-05   7.388834358637618e-07
5.333011917173079e-05   -1.0946994385850964e-05   7.388834358637618e-07
5.333011917173079e-05   -1.0946994385850964e-05   7.388834358637618e-07
3.967337125170651e-05   -1.3179457458204879e-05   3.41086350006774e-05
3.967337125170651e-05   -1.3179457458204879e-05   3.41086350006774e-05
3.967337125170651e-05   -1.3179457458204879e-05   3.41086350006774e-05
3.967337125170651e-05   -1.3179457458204879e-05   3.41086350006774e-05
8.453078254446036e-06   -6.256508088893931e-06   -1.3771417039836571e-05
8.453078254446036e-06   -6.256508088893931e-06   -1.3771417039836571e-05
8.453078254446036e-06   -6.256508088893931e-06   -1.3771417039836571e-05
8.453078254446036e-06   -6.256508088893931e-06   -1.3771417039836571e-05
6.8731749734519466e-06   -1.3111983700292776e-05   3.8939495210901136e-05
6.8731749734519466e-06   -1.3111983700292776e-05   3.8939495210901136e-05
6.8731749734519466e-06   -1.3111983700292776e-05   3.8939495210901136e-05
6.8731749734519466e-06   -1.3111983700292776e-05   3.8939495210901136e-05
3.867510036465798e-05   -6.635952025620291e-06   -1.7949332779246014e-05
3.867510036465798e-05   -6.635952025620291e-06   -1.7949332779246014e-05
3.867510036465798e-05   -6.635952025620291e-06   -1.7949332779246014e-05
3.867510036465798e-05   -6.635952025620291e-06   -1.7949332779246014e-05
2.338608325754292e-05   -9.433365251183996e-06   9.210810334617388e-06
2.338608325754292e-05   -9.433365251183996e-06   9.210810334617388e-06
2.338608325754292e-05   -9.433365251183996e-06   9.210810334617388e-06
2.338608325754292e-05   -9.433365251183996e-06   9.210810334617388e-06
3.867510036465801e-05   -1.3111983700292776e-05   3.505387620609786e-05
3.867510036465801e-05   -1.3111983700292776e-05   3.505387620609786e-05
3.867510036465801e-05   -1.3111983700292776e-05   3.505387620609786e-05
3.867510036465801e-05   -1.3111983700292776e-05   3.505387620609786e-05
6.8731749734519466e-06   -6.635952025620291e-06   -1.4063713774442469e-05
6.8731749734519466e-06   -6.635952025620291e-06   -1.4063713774442469e-05
6.8731749734519466e-06   -6.635952025620291e-06   -1.4063713774442469e-05
6.8731749734519466e-06   -6.635952025620291e-06   -1.4063713774442469e-05
5.7465533138869186e-06   -1.2936164764421575e-05   3.8997997693580996e-05
5.7465533138869186e-06   -1.2936164764421575e-05   3.8997997693580996e-05
5.7465533138869186e-06   -1.2936164764421575e-05   3.8997997693580996e-05
5.7465533138869186e-06   -1.2936164764421575e-05   3.8997997693580996e-05
3.777205570218683e-05   -6.804693837778042e-06   -1.8056722176238262e-05
3.777205570218683e-05   -6.804693837778042e-06   -1.8056722176238262e-05
3.777205570218683e-05   -6.804693837778042e-06   -1.8056722176238262e-05
3.777205570218683e-05   -6.804693837778042e-06   -1.8056722176238262e-05
2.203183417418284e-05   -9.240104478649893e-06   9.638226754958741e-06
2.203183417418284e-05   -9.240104478649893e-06   9.638226754958741e-06
2.203183417418284e-05   -9.240104478649893e-06   9.638226754958741e-06
2.203183417418284e-05   -9.240104478649893e-06   9.638226754958741e-06
3.77720557021869e-05   -1.2936164764421575e-05   3.5319115137595006e-05
3.77720557021869e-05   -1.2936164764421575e-05   3.5319115137595006e-05
3.77720557021869e-05   -1.2936164764421575e-05   3.5319115137595006e-05
3.77720557021869e-05   -1.2936164764421575e-05   3.5319115137595006e-05
5.7465533138869186e-06   -6.804693837778042e-06   -1.437783962025211e-05
5.7465533138869186e-06   -6.804693837778042e-06   -1.437783962025211e-05
5.7465533138869186e-06   -6.804693837778042e-06   -1.437783962025211e-05
5.7465533138869186e-06   -6.804693837778042e-06   -1.437783962025211e-05
4.493285107205625e-06   -1.2584786408422702e-05   4.0266413621656196e-05
4.493285107205625e-06   -1.2584786408422702e-05   4.0266413621656196e-05
4.493285107205625e-06   -1.2584786408422702e-05   4.0266413621656196e-05
4.493285107205625e-06   -1.2584786408422702e-05   4.0266413621656196e-05
3.6670325140905735e-05   -6.651285150185461e-06   -1.6922087189452786e-05
3.6670325140905735e-05   -6.651285150185461e-06   -1.6922087189452786e-05
3.6670325140905735e-05   -6.651285150185461e-06   -1.6922087189452786e-05
3.6670325140905735e-05   -6.651285150185461e-06   -1.6922087189452786e-05
2.120359242301072e-05   -8.83473245613317e-06   1.0165869057274192e-05
2.120359242301072e-05   -8.83473245613317e-06   1.0165869057274192e-05
2.120359242301072e-05   -8.83473245613317e-06   1.0165869057274192e-05
2.120359242301072e-05   -8.83473245613317e-06   1.0165869057274192e-05
8.453078254446063e-06   -1.5906275674192668e-05   3.509486104208296e-05
8.453078254446063e-06   -1.5906275674192668e-05   3.509486104208296e-05
8.453078254446063e-06   -1.5906275674192668e-05   3.509486104208296e-05
8.453078254446063e-06   -1.5906275674192668e-05   3.509486104208296e-05
-2.1537776925586088e-05   -2.631943470703807e-06   -6.925298269210619e-06
-2.1537776925586088e-05   -2.631943470703807e-06   -6.925298269210619e-06
-2.1537776925586088e-05   -2.631943470703807e-06   -6.925298269210619e-06
-2.1537776925586088e-05   -2.631943470703807e-06   -6.925298269210619e-06
-2.3995519175031935e-05   -1.6258335472935353e-05   4.5110437558186414e-05
-2.3995519175031935e-05   -1.6258335472935353e-05   4.5110437558186414e-05
-2.3995519175031935e-05   -1.6258335472935353e-05   4.5110437558186414e-05
-2.3995519175031935e-05   -1.6258335472935353e-05   4.5110437558186414e-05
6.8731749734519195e-06   -2.7792226176583112e-06   -1.4424853735786299e-05
6.8731749734519195e-06   -2.7792226176583112e-06   -1.4424853735786299e-05
6.8731749734519195e-06   -2.7792226176583112e-06   -1.4424853735786299e-05
6.8731749734519195e-06   -2.7792226176583112e-06   -1.4424853735786299e-05
-7.283104851039151e-06   -9.091868502516566e-06   1.2956533502613563e-05
-7.283104851039151e-06   -9.091868502516566e-06   1.2956533502613563e-05
-7.283104851039151e-06   -9.091868502516566e-06   1.2956533502613563e-05
-7.283104851039151e-06   -9.091868502516566e-06   1.2956533502613563e-05
6.8731749734519466e-06   -1.6258335472935353e-05   3.7022969845019885e-05
6.8731749734519466e-06   -1.6258335472935353e-05   3.7022969845019885e-05
6.8731749734519466e-06   -1.6258335472935353e-05   3.7022969845019885e-05
6.8731749734519466e-06   -1.6258335472935353e-05   3.7022969845019885e-05
-2.3995519175031894e-05   -2.7792226176583112e-06   -6.337386022620042e-06
-2.3995519175031894e-05   -2.7792226176583112e-06   -6.337386022620042e-06
-2.3995519175031894e-05   -2.7792226176583112e-06   -6.337386022620042e-06
-2.3995519175031894e-05   -2.7792226176583112e-06   -6.337386022620042e-06
-2.549767084796632e-05   -1.6182623066984293e-05   4.6829485688494816e-05
-2.549767084796632e-05   -1.6182623066984293e-05   4.6829485688494816e-05
-2.549767084796632e-05   -1.6182623066984293e-05   4.6829485688494816e-05
-2.549767084796632e-05   -1.6182623066984293e-05   4.6829485688494816e-05
5.7465533138869186e-06   -2.9596080516336443e-06   -1.3178030257137699e-05
5.7465533138869186e-06   -2.9596080516336443e-06   -1.3178030257137699e-05
5.7465533138869186e-06   -2.9596080516336443e-06   -1.3178030257137699e-05
5.7465533138869186e-06   -2.9596080516336443e-06   -1.3178030257137699e-05
-8.946979296871587e-06   -9.063017845913242e-06   1.4973236637360796e-05
-8.946979296871587e-06   -9.063017845913242e-06   1.4973236637360796e-05
-8.946979296871587e-06   -9.063017845913242e-06   1.4973236637360796e-05
-8.946979296871587e-06   -9.063017845913242e-06   1.4973236637360796e-05
5.7465533138869186e-06   -1.6182623066984293e-05   3.8895676679284166e-05
5.7465533138869186e-06   -1.6182623066984293e-05   3.8895676679284166e-05
5.7465533138869186e-06   -1.6182623066984293e-05   3.8895676679284166e-05
5.7465533138869186e-06   -1.6182623066984293e-05   3.8895676679284166e-05
-2.5497670847966292e-05   -2.9596080516336443e-06   -5.244221247927483e-06
-2.5497670847966292e-05   -2.9596080516336443e-06   -5.244221247927483e-06
-2.5497670847966292e-05   -2.9596080516336443e-06   -5.244221247927483e-06
-2.5497670847966292e-05   -2.9596080516336443e-06   -5.244221247927483e-06
-2.7264454172864765e-05   -1.5615581202852412e-05   4.905536896159489e-05
-2.7264454172864765e-05   -1.5615581202852412e-05   4.905536896159489e-05
-2.7264454172864765e-05   -1.5615581202852412e-05   4.905536896159489e-05
-2.7264454172864765e-05   -1.5615581202852412e-05   4.905536896159489e-05
4.4932851072056385e-06   -2.942180899421446e-06   -1.1478236687248049e-05
4.4932851072056385e-06   -2.942180899421446e-06   -1.1478236687248049e-05
4.4932851072056385e-06   -2.942180899421446e-06   -1.1478236687248049e-05
4.4932851072056385e-06   -2.942180899421446e-06   -1.1478236687248049e-05
-1.0301857559521504e-05   -8.702394316235668e-06   1.6636462474052755e-05
-1.0301857559521504e-05   -8.702394316235668e-06   1.6636462474052755e-05
-1.0301857559521504e-05   -8.702394316235668e-06   1.6636462474052755e-05
-1.0301857559521504e-05   -8.702394316235668e-06   1.6636462474052755e-05
-2.1537776925586115e-05   -1.9839782585403393e-05   4.2531959727135386e-05
-2.1537776925586115e-05   -1.9839782585403393e-05   4.2531959727135386e-05
-2.1537776925586115e-05   -1.9839782585403393e-05   4.2531959727135386e-05
-2.1537776925586115e-05   -1.9839782585403393e-05   4.2531959727135386e-05
-5.569044483099012e-05   2.827269092579767e-06   -7.889224417480332e-07
-5.569044483099012e-05   2.827269092579767e-06   -7.889224417480332e-07
-5.569044483099012e-05   2.827269092579767e-06   -7.889224417480332e-07
-5.569044483099012e-05   2.827269092579767e-06   -7.889224417480332e-07
-5.864375493204163e-05   -2.2150222341206505e-05   6.011636474527785e-05
-5.864375493204163e-05   -2.2150222341206505e-05   6.011636474527785e-05
-5.864375493204163e-05   -2.2150222341206505e-05   6.011636474527785e-05
-5.864375493204163e-05   -2.2150222341206505e-05   6.011636474527785e-05
-2.3995519175031894e-05   2.6581890443643647e-06   -1.2515741681081105e-05
-2.3995519175031894e-05   2.6581890443643647e-06   -1.2515741681081105e-05
-2.3995519175031894e-05   2.6581890443643647e-06   -1.2515741681081105e-05
-2.3995519175031894e-05   2.6581890443643647e-06   -1.2515741681081105e-05
-3.940813602172314e-05   -8.237525801216283e-06   1.9709381970752686e-05
-3.940813602172314e-05   -8.237525801216283e-06   1.9709381970752686e-05
-3.940813602172314e-05   -8.237525801216283e-06   1.9709381970752686e-05
-3.940813602172314e-05   -8.237525801216283e-06   1.9709381970752686e-05
-2.3995519175031935e-05   -2.2150222341206505e-05   4.5231317913935155e-05
-2.3995519175031935e-05   -2.2150222341206505e-05   4.5231317913935155e-05
-2.3995519175031935e-05   -2.2150222341206505e-05   4.5231317913935155e-05
-2.3995519175031935e-05   -2.2150222341206505e-05   4.5231317913935155e-05
-5.864375493204163e-05   2.6581890443643647e-06   2.3693051502615085e-06
-5.864375493204163e-05   2.6581890443643647e-06   2.3693051502615085e-06
-5.864375493204163e-05   2.6581890443643647e-06   2.3693051502615085e-06
-5.864375493204163e-05   2.6581890443643647e-06   2.3693051502615085e-06
-6.044385412439036e-05   -2.227416224654874e-05   6.348160548646175e-05
-6.044385412439036e-05   -2.227416224654874e-05   6.348160548646175e-05
-6.044385412439036e-05   -2.227416224654874e-05   6.348160548646175e-05
-6.044385412439036e-05   -2.227416224654874e-05   6.348160548646175e-05
-2.5497670847966292e-05   2.3467086369228715e-06   -9.534555837661251e-06
-2.5497670847966292e-05   2.3467086369228715e-06   -9.534555837661251e-06
-2.5497670847966292e-05   2.3467086369228715e-06   -9.534555837661251e-06
-2.5497670847966292e-05   2.3467086369228715e-06   -9.534555837661251e-06
-4.132680293568494e-05   -9.483851855733756e-06   2.3945667270797253e-05
-4.132680293568494e-05   -9.483851855733756e-06   2.3945667270797253e-05
-4.132680293568494e-05   -9.483851855733756e-06   2.3945667270797253e-05
-4.132680293568494e-05   -9.483851855733756e-06   2.3945667270797253e-05
-2.549767084796625e-05   -2.227416224654874e-05   4.8709082956378824e-05
-2.549767084796625e-05   -2.227416224654874e-05   4.8709082956378824e-05
-2.549767084796625e-05   -2.227416224654874e-05   4.8709082956378824e-05
-2.549767084796625e-05   -2.227416224654874e-05   4.8709082956378824e-05
-6.044385412439024e-05   2.3467086369228715e-06   5.237966692421591e-06
-6.044385412439024e-05   2.3467086369228715e-06   5.237966692421591e-06
-6.044385412439024e-05   2.3467086369228715e-06   5.237966692421591e-06
-6.044385412439024e-05   2.3467086369228715e-06   5.237966692421591e-06
-6.238335169417445e-05   -2.0329760075467763e-05   6.492904890145995e-05
-6.238335169417445e-05   -2.0329760075467763e-05   6.492904890145995e-05
-6.238335169417445e-05   -2.0329760075467763e-05   6.492904890145995e-05
-6.238335169417445e-05   -2.0329760075467763e-05   6.492904890145995e-05
-2.7264454172864697e-05   1.9940689242850702e-06   -6.9967443672412926e-06
-2.7264454172864697e-05   1.9940689242850702e-06   -6.9967443672412926e-06
-2.7264454172864697e-05   1.9940689242850702e-06   -6.9967443672412926e-06
-2.7264454172864697e-05   1.9940689242850702e-06   -6.9967443672412926e-06
-4.3303482819464106e-05   -9.554846350124258e-06   2.6664319208404203e-05
-4.3303482819464106e-05   -9.554846350124258e-06   2.6664319208404203e-05
-4.3303482819464106e-05   -9.554846350124258e-06   2.6664319208404203e-05
-4.3303482819464106e-05   -9.554846350124258e-06   2.6664319208404203e-05
-5.569044483098996e-05   0.0   4.7120497756982654e-05
-5.569044483098996e-05   0.0   4.7120497756982654e-05
-5.569044483098996e-05   0.0   4.7120497756982654e-05
-5.569044483098996e-05   0.0   4.7120497756982654e-05
-9.808630492296613e-05   1.2860704803446463e-05   -1.5822846180909818e-05
-9.808630492296613e-05   1.2860704803446463e-05   -1.5822846180909818e-05
-9.808630492296613e-05   1.2860704803446463e-05   -1.5822846180909818e-05
-9.808630492296613e-05   1.2860704803446463e-05   -1.5822846180909818e-05
-0.00010215946999455386   0.0   6.838857696419794e-05
-0.00010215946999455386   0.0   6.838857696419794e-05
-0.00010215946999455386   0.0   6.838857696419794e-05
-0.00010215946999455386   0.0   6.838857696419794e-05
-5.864375493204155e-05   1.2412402446801418e-05   -1.1585056274737032e-05
-5.864375493204155e-05   1.2412402446801418e-05   -1.1585056274737032e-05
-5.864375493204155e-05   1.2412402446801418e-05   -1.1585056274737032e-05
-5.864375493204155e-05   1.2412402446801418e-05   -1.1585056274737032e-05
-7.529138838734673e-05   7.630152046497578e-06   1.9030349724286923e-05
-7.529138838734673e-05   7.630152046497578e-06   1.9030349724286923e-05
-7.529138838734673e-05   7.630152046497578e-06   1.9030349724286923e-05
-7.529138838734673e-05   7.630152046497578e-06   1.9030349724286923e-05
-5.8643754932041496e-05   0.0   6.094113549611705e-05
-5.8643754932041496e-05   0.0   6.094113549611705e-05
-5.8643754932041496e-05   0.0   6.094113549611705e-05
-5.8643754932041496e-05   0.0   6.094113549611705e-05
-0.00010215946999455404   1.2412402446801418e-05   -4.1376148066563e-06
-0.00010215946999455404   1.2412402446801418e-05   -4.1376148066563e-06
-0.00010215946999455404   1.2412402446801418e-05   -4.1376148066563e-06
-0.00010215946999455404   1.2412402446801418e-05   -4.1376148066563e-06
-0.00010421087586172652   0.0   7.594410075120912e-05
-0.00010421087586172652   0.0   7.594410075120912e-05
-0.00010421087586172652   0.0   7.594410075120912e-05
-0.00010421087586172652   0.0   7.594410075120912e-05
-6.044385412439024e-05   1.2094000232572896e-05   -4.257335617228585e-06
-6.044385412439024e-05   1.2094000232572896e-05   -4.257335617228585e-06
-6.044385412439024e-05   1.2094000232572896e-05   -4.257335617228585e-06
-6.044385412439024e-05   1.2094000232572896e-05   -4.257335617228585e-06
-7.922003437054855e-05   6.371134861645096e-06   3.047001734892622e-05
-7.922003437054855e-05   6.371134861645096e-06   3.047001734892622e-05
-7.922003437054855e-05   6.371134861645096e-06   3.047001734892622e-05
-7.922003437054855e-05   6.371134861645096e-06   3.047001734892622e-05
-6.044385412439024e-05   0.0   6.868770061166547e-05
-6.044385412439024e-05   0.0   6.868770061166547e-05
-6.044385412439024e-05   0.0   6.868770061166547e-05
-6.044385412439024e-05   0.0   6.868770061166547e-05
-0.0001042108758617269   1.2094000232572896e-05   2.9990645223152822e-06
-0.0001042108758617269   1.2094000232572896e-05   2.9990645223152822e-06
-0.0001042108758617269   1.2094000232572896e-05   2.9990645223152822e-06
-0.0001042108758617269   1.2094000232572896e-05   2.9990645223152822e-06
-0.00010649535716853175   0.0   8.601932040022838e-05
-0.00010649535716853175   0.0   8.601932040022838e-05
-0.00010649535716853175   0.0   8.601932040022838e-05
-0.00010649535716853175   0.0   8.601932040022838e-05
-6.238335169417445e-05   1.0071214612929376e-05   6.456582508541654e-06
-6.238335169417445e-05   1.0071214612929376e-05   6.456582508541654e-06
-6.238335169417445e-05   1.0071214612929376e-05   6.456582508541654e-06
-6.238335169417445e-05   1.0071214612929376e-05   6.456582508541654e-06
-7.98801429131128e-05   4.472286675613092e-06   3.897725796916235e-05
-7.98801429131128e-05   4.472286675613092e-06   3.897725796916235e-05
-7.98801429131128e-05   4.472286675613092e-06   3.897725796916235e-05
-7.98801429131128e-05   4.472286675613092e-06   3.897725796916235e-05
6.725199076968791e-05   -1.0117396433152823e-05   4.7748439558533686e-05
6.725199076968791e-05   -1.0117396433152823e-05   4.7748439558533686e-05
6.725199076968791e-05   -1.0117396433152823e-05   4.7748439558533686e-05
6.725199076968791e-05   -1.0117396433152823e-05   4.7748439558533686e-05
3.401386607786646e-05   -7.63005760561885e-06   -6.156031631314972e-06
3.401386607786646e-05   -7.63005760561885e-06   -6.156031631314972e-06
3.401386607786646e-05   -7.63005760561885e-06   -6.156031631314972e-06
3.401386607786646e-05   -7.63005760561885e-06   -6.156031631314972e-06
3.3116086148373306e-05   -1.1123821331371006e-05   4.167883841694315e-05
3.3116086148373306e-05   -1.1123821331371006e-05   4.167883841694315e-05
3.3116086148373306e-05   -1.1123821331371006e-05   4.167883841694315e-05
3.3116086148373306e-05   -1.1123821331371006e-05   4.167883841694315e-05
6.564905978696922e-05   -8.647924561870288e-06   -1.4028322375750628e-05
6.564905978696922e-05   -8.647924561870288e-06   -1.4028322375750628e-05
6.564905978696922e-05   -8.647924561870288e-06   -1.4028322375750628e-05
6.564905978696922e-05   -8.647924561870288e-06   -1.4028322375750628e-05
4.7781486449749306e-05   -9.004854252250491e-06   1.5965124333844056e-05
4.7781486449749306e-05   -9.004854252250491e-06   1.5965124333844056e-05
4.7781486449749306e-05   -9.004854252250491e-06   1.5965124333844056e-05
4.7781486449749306e-05   -9.004854252250491e-06   1.5965124333844056e-05
6.564905978696911e-05   -1.1123821331371006e-05   4.019330035524241e-05
6.564905978696911e-05   -1.1123821331371006e-05   4.019330035524241e-05
6.564905978696911e-05   -1.1123821331371006e-05   4.019330035524241e-05
6.564905978696911e-05   -1.1123821331371006e-05   4.019330035524241e-05
3.3116086148373374e-05   -8.647924561870288e-06   -1.2542784314050056e-05
3.3116086148373374e-05   -8.647924561870288e-06   -1.2542784314050056e-05
3.3116086148373374e-05   -8.647924561870288e-06   -1.2542784314050056e-05
3.3116086148373374e-05   -8.647924561870288e-06   -1.2542784314050056e-05
3.195923911495979e-05   -1.121645473389039e-05   3.741122188799387e-05
3.195923911495979e-05   -1.121645473389039e-05   3.741122188799387e-05
3.195923911495979e-05   -1.121645473389039e-05   3.741122188799387e-05
3.195923911495979e-05   -1.121645473389039e-05   3.741122188799387e-05
6.402794130416649e-05   -8.79926213252346e-06   -1.74869306548372e-05
6.402794130416649e-05   -8.79926213252346e-06   -1.74869306548372e-05
6.402794130416649e-05   -8.79926213252346e-06   -1.74869306548372e-05
6.402794130416649e-05   -8.79926213252346e-06   -1.74869306548372e-05
4.733159008565452e-05   -9.398094073921268e-06   1.0699620540854569e-05
4.733159008565452e-05   -9.398094073921268e-06   1.0699620540854569e-05
4.733159008565452e-05   -9.398094073921268e-06   1.0699620540854569e-05
4.733159008565452e-05   -9.398094073921268e-06   1.0699620540854569e-05
6.402794130416649e-05   -1.121645473389039e-05   3.596090632717393e-05
6.402794130416649e-05   -1.121645473389039e-05   3.596090632717393e-05
6.402794130416649e-05   -1.121645473389039e-05   3.596090632717393e-05
6.402794130416649e-05   -1.121645473389039e-05   3.596090632717393e-05
3.195923911495979e-05   -8.79926213252346e-06   -1.6036615094017258e-05
3.195923911495979e-05   -8.79926213252346e-06   -1.6036615094017258e-05
3.195923911495979e-05   -8.79926213252346e-06   -1.6036615094017258e-05
3.195923911495979e-05   -8.79926213252346e-06   -1.6036615094017258e-05
3.074551340882055e-05   -1.0982500509927433e-05   3.108103843294874e-05
3.074551340882055e-05   -1.0982500509927433e-05   3.108103843294874e-05
3.074551340882055e-05   -1.0982500509927433e-05   3.108103843294874e-05
3.074551340882055e-05   -1.0982500509927433e-05   3.108103843294874e-05
6.199865789218608e-05   -8.743790107493613e-06   -2.235076194745421e-05
6.199865789218608e-05   -8.743790107493613e-06   -2.235076194745421e-05
6.199865789218608e-05   -8.743790107493613e-06   -2.235076194745421e-05
6.199865789218608e-05   -8.743790107493613e-06   -2.235076194745421e-05
4.522172440536511e-05   -9.152137113960929e-06   5.855802067795133e-06
4.522172440536511e-05   -9.152137113960929e-06   5.855802067795133e-06
4.522172440536511e-05   -9.152137113960929e-06   5.855802067795133e-06
4.522172440536511e-05   -9.152137113960929e-06   5.855802067795133e-06
3.4013866077866516e-05   -6.256508088893931e-06   4.518260537119713e-05
3.4013866077866516e-05   -6.256508088893931e-06   4.518260537119713e-05
3.4013866077866516e-05   -6.256508088893931e-06   4.518260537119713e-05
3.4013866077866516e-05   -6.256508088893931e-06   4.518260537119713e-05
3.7305101505731456e-06   -2.6923844291724085e-06   -3.151180311792472e-06
3.7305101505731456e-06   -2.6923844291724085e-06   -3.151180311792472e-06
3.7305101505731456e-06   -2.6923844291724085e-06   -3.151180311792472e-06
3.7305101505731456e-06   -2.6923844291724085e-06   -3.151180311792472e-06
2.8386846909673503e-06   -6.635952025620291e-06   4.7073693447658794e-05
2.8386846909673503e-06   -6.635952025620291e-06   4.7073693447658794e-05
2.8386846909673503e-06   -6.635952025620291e-06   4.7073693447658794e-05
2.8386846909673503e-06   -6.635952025620291e-06   4.7073693447658794e-05
3.3116086148373374e-05   -3.239386486178497e-06   -5.426581638349787e-06
3.3116086148373374e-05   -3.239386486178497e-06   -5.426581638349787e-06
3.3116086148373374e-05   -3.239386486178497e-06   -5.426581638349787e-06
3.3116086148373374e-05   -3.239386486178497e-06   -5.426581638349787e-06
1.824826933240779e-05   -4.375862071291127e-06   2.0034998405993884e-05
1.824826933240779e-05   -4.375862071291127e-06   2.0034998405993884e-05
1.824826933240779e-05   -4.375862071291127e-06   2.0034998405993884e-05
1.824826933240779e-05   -4.375862071291127e-06   2.0034998405993884e-05
3.3116086148373346e-05   -6.635952025620291e-06   4.5035754123993414e-05
3.3116086148373346e-05   -6.635952025620291e-06   4.5035754123993414e-05
3.3116086148373346e-05   -6.635952025620291e-06   4.5035754123993414e-05
3.3116086148373346e-05   -6.635952025620291e-06   4.5035754123993414e-05
2.8386846909673503e-06   -3.239386486178497e-06   -3.3886423146845153e-06
2.8386846909673503e-06   -3.239386486178497e-06   -3.3886423146845153e-06
2.8386846909673503e-06   -3.239386486178497e-06   -3.3886423146845153e-06
2.8386846909673503e-06   -3.239386486178497e-06   -3.3886423146845153e-06
1.7002242124048415e-06   -6.804693837778042e-06   4.663134613288179e-05
1.7002242124048415e-06   -6.804693837778042e-06   4.663134613288179e-05
1.7002242124048415e-06   -6.804693837778042e-06   4.663134613288179e-05
1.7002242124048415e-06   -6.804693837778042e-06   4.663134613288179e-05
3.195923911495979e-05   -3.5981140617891497e-06   -5.724293236969891e-06
3.195923911495979e-05   -3.5981140617891497e-06   -5.724293236969891e-06
3.195923911495979e-05   -3.5981140617891497e-06   -5.724293236969891e-06
3.195923911495979e-05   -3.5981140617891497e-06   -5.724293236969891e-06
1.711737401675256e-05   -4.5829374697463e-06   1.9603042638150696e-05
1.711737401675256e-05   -4.5829374697463e-06   1.9603042638150696e-05
1.711737401675256e-05   -4.5829374697463e-06   1.9603042638150696e-05
1.711737401675256e-05   -4.5829374697463e-06   1.9603042638150696e-05
3.195923911495975e-05   -6.804693837778042e-06   4.470739826728867e-05
3.195923911495975e-05   -6.804693837778042e-06   4.470739826728867e-05
3.195923911495975e-05   -6.804693837778042e-06   4.470739826728867e-05
3.195923911495975e-05   -6.804693837778042e-06   4.470739826728867e-05
1.7002242124048415e-06   -3.5981140617891497e-06   -3.800345371376447e-06
1.7002242124048415e-06   -3.5981140617891497e-06   -3.800345371376447e-06
1.7002242124048415e-06   -3.5981140617891497e-06   -3.800345371376447e-06
1.7002242124048415e-06   -3.5981140617891497e-06   -3.800345371376447e-06
4.4257989811735253e-07   -6.651285150185461e-06   4.7317396821455965e-05
4.4257989811735253e-07   -6.651285150185461e-06   4.7317396821455965e-05
4.4257989811735253e-07   -6.651285150185461e-06   4.7317396821455965e-05
4.4257989811735253e-07   -6.651285150185461e-06   4.7317396821455965e-05
3.074551340882052e-05   -3.751849283402473e-06   -4.9271538831195194e-06
3.074551340882052e-05   -3.751849283402473e-06   -4.9271538831195194e-06
3.074551340882052e-05   -3.751849283402473e-06   -4.9271538831195194e-06
3.074551340882052e-05   -3.751849283402473e-06   -4.9271538831195194e-06
1.619606270215293e-05   -4.539527353325523e-06   1.979453746994795e-05
1.619606270215293e-05   -4.539527353325523e-06   1.979453746994795e-05
1.619606270215293e-05   -4.539527353325523e-06   1.979453746994795e-05
1.619606270215293e-05   -4.539527353325523e-06   1.979453746994795e-05
3.7305101505731456e-06   -2.631943470703807e-06   4.620259901556259e-05
3.7305101505731456e-06   -2.631943470703807e-06   4.620259901556259e-05
3.7305101505731456e-06   -2.631943470703807e-06   4.620259901556259e-05
3.7305101505731456e-06   -2.631943470703807e-06   4.620259901556259e-05
-2.5607308221600126e-05   2.3925221635510453e-06   3.2091444249356636e-07
-2.5607308221600126e-05   2.3925221635510453e-06   3.2091444249356636e-07
-2.5607308221600126e-05   2.3925221635510453e-06   3.2091444249356636e-07
-2.5607308221600126e-05   2.3925221635510453e-06   3.2091444249356636e-07
-2.66121376144491e-05   -2.7792226176583112e-06   4.9564404597896624e-05
-2.66121376144491e-05   -2.7792226176583112e-06   4.9564404597896624e-05
-2.66121376144491e-05   -2.7792226176583112e-06   4.9564404597896624e-05
-2.66121376144491e-05   -2.7792226176583112e-06   4.9564404597896624e-05
2.8386846909673503e-06   1.973862568311214e-06   -2.372150356045672e-06
2.8386846909673503e-06   1.973862568311214e-06   -2.372150356045672e-06
2.8386846909673503e-06   1.973862568311214e-06   -2.372150356045672e-06
2.8386846909673503e-06   1.973862568311214e-06   -2.372150356045672e-06
-1.1391617606910031e-05   -4.073429509150739e-08   2.255377825845814e-05
-1.1391617606910031e-05   -4.073429509150739e-08   2.255377825845814e-05
-1.1391617606910031e-05   -4.073429509150739e-08   2.255377825845814e-05
-1.1391617606910031e-05   -4.073429509150739e-08   2.255377825845814e-05
2.8386846909673775e-06   -2.7792226176583112e-06   4.671255348631491e-05
2.8386846909673775e-06   -2.7792226176583112e-06   4.671255348631491e-05
2.8386846909673775e-06   -2.7792226176583112e-06   4.671255348631491e-05
2.8386846909673775e-06   -2.7792226176583112e-06   4.671255348631491e-05
-2.66121376144491e-05   1.973862568311214e-06   4.797007555356909e-07
-2.66121376144491e-05   1.973862568311214e-06   4.797007555356909e-07
-2.66121376144491e-05   1.973862568311214e-06   4.797007555356909e-07
-2.66121376144491e-05   1.973862568311214e-06   4.797007555356909e-07
-2.795928655978657e-05   -2.9596080516336443e-06   5.055740340324322e-05
-2.795928655978657e-05   -2.9596080516336443e-06   5.055740340324322e-05
-2.795928655978657e-05   -2.9596080516336443e-06   5.055740340324322e-05
-2.795928655978657e-05   -2.9596080516336443e-06   5.055740340324322e-05
1.7002242124048415e-06   1.5841384604442857e-06   -1.6013624576559577e-06
1.7002242124048415e-06   1.5841384604442857e-06   -1.6013624576559577e-06
1.7002242124048415e-06   1.5841384604442857e-06   -1.6013624576559577e-06
1.7002242124048415e-06   1.5841384604442857e-06   -1.6013624576559577e-06
-1.2382797300708681e-05   -1.5843938637504287e-07   2.2915886772291428e-05
-1.2382797300708681e-05   -1.5843938637504287e-07   2.2915886772291428e-05
-1.2382797300708681e-05   -1.5843938637504287e-07   2.2915886772291428e-05
-1.2382797300708681e-05   -1.5843938637504287e-07   2.2915886772291428e-05
1.7002242124048415e-06   -2.9596080516336443e-06   4.783115549599642e-05
1.7002242124048415e-06   -2.9596080516336443e-06   4.783115549599642e-05
1.7002242124048415e-06   -2.9596080516336443e-06   4.783115549599642e-05
1.7002242124048415e-06   -2.9596080516336443e-06   4.783115549599642e-05
-2.7959286559786514e-05   1.5841384604442857e-06   1.124885449590952e-06
-2.7959286559786514e-05   1.5841384604442857e-06   1.124885449590952e-06
-2.7959286559786514e-05   1.5841384604442857e-06   1.124885449590952e-06
-2.7959286559786514e-05   1.5841384604442857e-06   1.124885449590952e-06
-2.9394577182824074e-05   -2.942180899421446e-06   5.174850965081884e-05
-2.9394577182824074e-05   -2.942180899421446e-06   5.174850965081884e-05
-2.9394577182824074e-05   -2.942180899421446e-06   5.174850965081884e-05
-2.9394577182824074e-05   -2.942180899421446e-06   5.174850965081884e-05
4.42579898117339e-07   1.3034242374123685e-06   -5.274485661837668e-07
4.42579898117339e-07   1.3034242374123685e-06   -5.274485661837668e-07
4.42579898117339e-07   1.3034242374123685e-06   -5.274485661837668e-07
4.42579898117339e-07   1.3034242374123685e-06   -5.274485661837668e-07
-1.364684117435076e-05   -2.429196544490725e-07   2.3882726223047436e-05
-1.364684117435076e-05   -2.429196544490725e-07   2.3882726223047436e-05
-1.364684117435076e-05   -2.429196544490725e-07   2.3882726223047436e-05
-1.364684117435076e-05   -2.429196544490725e-07   2.3882726223047436e-05
-2.5607308221600017e-05   2.827269092579767e-06   4.175342321678806e-05
-2.5607308221600017e-05   2.827269092579767e-06   4.175342321678806e-05
-2.5607308221600017e-05   2.827269092579767e-06   4.175342321678806e-05
-2.5607308221600017e-05   2.827269092579767e-06   4.175342321678806e-05
-5.4348480597318603e-05   7.794469639073494e-06   -3.1682104148467952e-06
-5.4348480597318603e-05   7.794469639073494e-06   -3.1682104148467952e-06
-5.4348480597318603e-05   7.794469639073494e-06   -3.1682104148467952e-06
-5.4348480597318603e-05   7.794469639073494e-06   -3.1682104148467952e-06
-5.581198188205888e-05   2.6581890443643647e-06   4.6215991931661e-05
-5.581198188205888e-05   2.6581890443643647e-06   4.6215991931661e-05
-5.581198188205888e-05   2.6581890443643647e-06   4.6215991931661e-05
-5.581198188205888e-05   2.6581890443643647e-06   4.6215991931661e-05
-2.661213761444902e-05   7.374760698072771e-06   -5.2803581732471685e-06
-2.661213761444902e-05   7.374760698072771e-06   -5.2803581732471685e-06
-2.661213761444902e-05   7.374760698072771e-06   -5.2803581732471685e-06
-2.661213761444902e-05   7.374760698072771e-06   -5.2803581732471685e-06
-4.027479907054155e-05   5.253630827289045e-06   1.8763422176044323e-05
-4.027479907054155e-05   5.253630827289045e-06   1.8763422176044323e-05
-4.027479907054155e-05   5.253630827289045e-06   1.8763422176044323e-05
-4.027479907054155e-05   5.253630827289045e-06   1.8763422176044323e-05
-2.6612137614449047e-05   2.6581890443643647e-06   4.3386048939435696e-05
-2.6612137614449047e-05   2.6581890443643647e-06   4.3386048939435696e-05
-2.6612137614449047e-05   2.6581890443643647e-06   4.3386048939435696e-05
-2.6612137614449047e-05   2.6581890443643647e-06   4.3386048939435696e-05
-5.581198188205877e-05   7.374760698072771e-06   -2.4504151810221357e-06
-5.581198188205877e-05   7.374760698072771e-06   -2.4504151810221357e-06
-5.581198188205877e-05   7.374760698072771e-06   -2.4504151810221357e-06
-5.581198188205877e-05   7.374760698072771e-06   -2.4504151810221357e-06
-5.7605497509610753e-05   2.3467086369228715e-06   4.9050998108056626e-05
-5.7605497509610753e-05   2.3467086369228715e-06   4.9050998108056626e-05
-5.7605497509610753e-05   2.3467086369228715e-06   4.9050998108056626e-05
-5.7605497509610753e-05   2.3467086369228715e-06   4.9050998108056626e-05
-2.7959286559786514e-05   6.986590794501486e-06   -3.1432827695309826e-06
-2.7959286559786514e-05   6.986590794501486e-06   -3.1432827695309826e-06
-2.7959286559786514e-05   6.986590794501486e-06   -3.1432827695309826e-06
-2.7959286559786514e-05   6.986590794501486e-06   -3.1432827695309826e-06
-4.136490760771097e-05   5.156823274719315e-06   2.0297279488879047e-05
-4.136490760771097e-05   5.156823274719315e-06   2.0297279488879047e-05
-4.136490760771097e-05   5.156823274719315e-06   2.0297279488879047e-05
-4.136490760771097e-05   5.156823274719315e-06   2.0297279488879047e-05
-2.7959286559786514e-05   2.3467086369228715e-06   4.626706881350937e-05
-2.7959286559786514e-05   2.3467086369228715e-06   4.626706881350937e-05
-2.7959286559786514e-05   2.3467086369228715e-06   4.626706881350937e-05
-2.7959286559786514e-05   2.3467086369228715e-06   4.626706881350937e-05
-5.7605497509610753e-05   6.98659079450192e-06   -3.5935347498378123e-07
-5.7605497509610753e-05   6.98659079450192e-06   -3.5935347498378123e-07
-5.7605497509610753e-05   6.98659079450192e-06   -3.5935347498378123e-07
-5.7605497509610753e-05   6.98659079450192e-06   -3.5935347498378123e-07
-5.9503200352682716e-05   1.994068924285504e-06   5.130838107034728e-05
-5.9503200352682716e-05   1.994068924285504e-06   5.130838107034728e-05
-5.9503200352682716e-05   1.994068924285504e-06   5.130838107034728e-05
-5.9503200352682716e-05   1.994068924285504e-06   5.130838107034728e-05
-2.939457718282394e-05   6.46476772691966e-06   -1.5550768276643826e-06
-2.939457718282394e-05   6.46476772691966e-06   -1.5550768276643826e-06
-2.939457718282394e-05   6.46476772691966e-06   -1.5550768276643826e-06
-2.939457718282394e-05   6.46476772691966e-06   -1.5550768276643826e-06
-4.318057212707123e-05   4.84183974696099e-06   2.2395338200724185e-05
-4.318057212707123e-05   4.84183974696099e-06   2.2395338200724185e-05
-4.318057212707123e-05   4.84183974696099e-06   2.2395338200724185e-05
-4.318057212707123e-05   4.84183974696099e-06   2.2395338200724185e-05
-5.4348480597318603e-05   1.2860704803446463e-05   2.1983396923454766e-05
-5.4348480597318603e-05   1.2860704803446463e-05   2.1983396923454766e-05
-5.4348480597318603e-05   1.2860704803446463e-05   2.1983396923454766e-05
-5.4348480597318603e-05   1.2860704803446463e-05   2.1983396923454766e-05
-8.187383879926311e-05   1.2676334538369322e-05   -2.4002822238832324e-05
-8.187383879926311e-05   1.2676334538369322e-05   -2.4002822238832324e-05
-8.187383879926311e-05   1.2676334538369322e-05   -2.4002822238832324e-05
-8.187383879926311e-05   1.2676334538369322e-05   -2.4002822238832324e-05
-8.450096985622869e-05   1.2412402446801418e-05   3.256590136234026e-05
-8.450096985622869e-05   1.2412402446801418e-05   3.256590136234026e-05
-8.450096985622869e-05   1.2412402446801418e-05   3.256590136234026e-05
-8.450096985622869e-05   1.2412402446801418e-05   3.256590136234026e-05
-5.581198188205877e-05   1.2919520539598096e-05   -1.5553349450287952e-05
-5.581198188205877e-05   1.2919520539598096e-05   -1.5553349450287952e-05
-5.581198188205877e-05   1.2919520539598096e-05   -1.5553349450287952e-05
-5.581198188205877e-05   1.2919520539598096e-05   -1.5553349450287952e-05
-6.635108368661656e-05   1.2917414157091744e-05   2.0130840534788403e-06
-6.635108368661656e-05   1.2917414157091744e-05   2.0130840534788403e-06
-6.635108368661656e-05   1.2917414157091744e-05   2.0130840534788403e-06
-6.635108368661656e-05   1.2917414157091744e-05   2.0130840534788403e-06
-5.581198188205872e-05   1.2412402446801418e-05   3.22616305066623e-05
-5.581198188205872e-05   1.2412402446801418e-05   3.22616305066623e-05
-5.581198188205872e-05   1.2412402446801418e-05   3.22616305066623e-05
-5.581198188205872e-05   1.2412402446801418e-05   3.22616305066623e-05
-8.450096985622869e-05   1.2919520539598096e-05   -1.5249078594609935e-05
-8.450096985622869e-05   1.2919520539598096e-05   -1.5249078594609935e-05
-8.450096985622869e-05   1.2919520539598096e-05   -1.5249078594609935e-05
-8.450096985622869e-05   1.2919520539598096e-05   -1.5249078594609935e-05
-8.707726732349496e-05   1.2094000232572462e-05   3.9995165126636674e-05
-8.707726732349496e-05   1.2094000232572462e-05   3.9995165126636674e-05
-8.707726732349496e-05   1.2094000232572462e-05   3.9995165126636674e-05
-8.707726732349496e-05   1.2094000232572462e-05   3.9995165126636674e-05
-5.760549750961067e-05   1.2826449112956963e-05   -9.563920558067793e-06
-5.760549750961067e-05   1.2826449112956963e-05   -9.563920558067793e-06
-5.760549750961067e-05   1.2826449112956963e-05   -9.563920558067793e-06
-5.760549750961067e-05   1.2826449112956963e-05   -9.563920558067793e-06
-6.93629969138533e-05   1.2915514387101118e-05   9.978472617851218e-06
-6.93629969138533e-05   1.2915514387101118e-05   9.978472617851218e-06
-6.93629969138533e-05   1.2915514387101118e-05   9.978472617851218e-06
-6.93629969138533e-05   1.2915514387101118e-05   9.978472617851218e-06
-5.760549750961067e-05   1.2094000232572896e-05   3.955569579840645e-05
-5.760549750961067e-05   1.2094000232572896e-05   3.955569579840645e-05
-5.760549750961067e-05   1.2094000232572896e-05   3.955569579840645e-05
-5.760549750961067e-05   1.2094000232572896e-05   3.955569579840645e-05
-8.707726732349496e-05   1.282644911295653e-05   -9.124451229837243e-06
-8.707726732349496e-05   1.282644911295653e-05   -9.124451229837243e-06
-8.707726732349496e-05   1.282644911295653e-05   -9.124451229837243e-06
-8.707726732349496e-05   1.282644911295653e-05   -9.124451229837243e-06
-9.011563306867456e-05   1.0071214612929376e-05   5.2409261924056885e-05
-9.011563306867456e-05   1.0071214612929376e-05   5.2409261924056885e-05
-9.011563306867456e-05   1.0071214612929376e-05   5.2409261924056885e-05
-9.011563306867456e-05   1.0071214612929376e-05   5.2409261924056885e-05
-5.950320035268253e-05   1.1807633575893536e-05   3.466893529582068e-07
-5.950320035268253e-05   1.1807633575893536e-05   3.466893529582068e-07
-5.950320035268253e-05   1.1807633575893536e-05   3.466893529582068e-07
-5.950320035268253e-05   1.1807633575893536e-05   3.466893529582068e-07
-7.044359442430496e-05   1.230232679180071e-05   1.8283863542785362e-05
-7.044359442430496e-05   1.230232679180071e-05   1.8283863542785362e-05
-7.044359442430496e-05   1.230232679180071e-05   1.8283863542785362e-05
-7.044359442430496e-05   1.230232679180071e-05   1.8283863542785362e-05
5.453969728497478e-05   -7.630057605618416e-06   4.208842606184273e-05
5.453969728497478e-05   -7.630057605618416e-06   4.208842606184273e-05
5.453969728497478e-05   -7.630057605618416e-06   4.208842606184273e-05
5.453969728497478e-05   -7.630057605618416e-06   4.208842606184273e-05
2.700276739065085e-05   -5.593705539797076e-06   -2.584645855871091e-06
2.700276739065085e-05   -5.593705539797076e-06   -2.584645855871091e-06
2.700276739065085e-05   -5.593705539797076e-06   -2.584645855871091e-06
2.700276739065085e-05   -5.593705539797076e-06   -2.584645855871091e-06
2.596860942384178e-05   -8.647924561869854e-06   3.660039065241875e-05
2.596860942384178e-05   -8.647924561869854e-06   3.660039065241875e-05
2.596860942384178e-05   -8.647924561869854e-06   3.660039065241875e-05
2.596860942384178e-05   -8.647924561869854e-06   3.660039065241875e-05
5.263773808420613e-05   -6.490404331576955e-06   -9.142669253030491e-06
5.263773808420613e-05   -6.490404331576955e-06   -9.142669253030491e-06
5.263773808420613e-05   -6.490404331576955e-06   -9.142669253030491e-06
5.263773808420613e-05   -6.490404331576955e-06   -9.142669253030491e-06
3.820417687173971e-05   -7.017974806406823e-06   1.5229808385978016e-05
3.820417687173971e-05   -7.017974806406823e-06   1.5229808385978016e-05
3.820417687173971e-05   -7.017974806406823e-06   1.5229808385978016e-05
3.820417687173971e-05   -7.017974806406823e-06   1.5229808385978016e-05
5.263773808420604e-05   -8.647924561869854e-06   3.530587851424314e-05
5.263773808420604e-05   -8.647924561869854e-06   3.530587851424314e-05
5.263773808420604e-05   -8.647924561869854e-06   3.530587851424314e-05
5.263773808420604e-05   -8.647924561869854e-06   3.530587851424314e-05
2.596860942384186e-05   -6.490404331576955e-06   -7.84815711485495e-06
2.596860942384186e-05   -6.490404331576955e-06   -7.84815711485495e-06
2.596860942384186e-05   -6.490404331576955e-06   -7.84815711485495e-06
2.596860942384186e-05   -6.490404331576955e-06   -7.84815711485495e-06
2.4819483292451476e-05   -8.79926213252346e-06   3.280088186007426e-05
2.4819483292451476e-05   -8.79926213252346e-06   3.280088186007426e-05
2.4819483292451476e-05   -8.79926213252346e-06   3.280088186007426e-05
2.4819483292451476e-05   -8.79926213252346e-06   3.280088186007426e-05
5.0915497371671256e-05   -6.670585767177672e-06   -1.1969680757832894e-05
5.0915497371671256e-05   -6.670585767177672e-06   -1.1969680757832894e-05
5.0915497371671256e-05   -6.670585767177672e-06   -1.1969680757832894e-05
5.0915497371671256e-05   -6.670585767177672e-06   -1.1969680757832894e-05
3.748818704771342e-05   -7.365469335073038e-06   1.0826099922833809e-05
3.748818704771342e-05   -7.365469335073038e-06   1.0826099922833809e-05
3.748818704771342e-05   -7.365469335073038e-06   1.0826099922833809e-05
3.748818704771342e-05   -7.365469335073038e-06   1.0826099922833809e-05
5.091549737167108e-05   -8.799262132523893e-06   3.1523676040866614e-05
5.091549737167108e-05   -8.799262132523893e-06   3.1523676040866614e-05
5.091549737167108e-05   -8.799262132523893e-06   3.1523676040866614e-05
5.091549737167108e-05   -8.799262132523893e-06   3.1523676040866614e-05
2.481948329245151e-05   -6.670585767177672e-06   -1.06924749386254e-05
2.481948329245151e-05   -6.670585767177672e-06   -1.06924749386254e-05
2.481948329245151e-05   -6.670585767177672e-06   -1.06924749386254e-05
2.481948329245151e-05   -6.670585767177672e-06   -1.06924749386254e-05
2.3714272992904104e-05   -8.743790107493613e-06   2.750280343871898e-05
2.3714272992904104e-05   -8.743790107493613e-06   2.750280343871898e-05
2.3714272992904104e-05   -8.743790107493613e-06   2.750280343871898e-05
2.3714272992904104e-05   -8.743790107493613e-06   2.750280343871898e-05
4.896495729940525e-05   -6.743614587079172e-06   -1.5781775717697816e-05
4.896495729940525e-05   -6.743614587079172e-06   -1.5781775717697816e-05
4.896495729940525e-05   -6.743614587079172e-06   -1.5781775717697816e-05
4.896495729940525e-05   -6.743614587079172e-06   -1.5781775717697816e-05
3.5557661084079784e-05   -7.2410752378860785e-06   6.8621943649959435e-06
3.5557661084079784e-05   -7.2410752378860785e-06   6.8621943649959435e-06
3.5557661084079784e-05   -7.2410752378860785e-06   6.8621943649959435e-06
3.5557661084079784e-05   -7.2410752378860785e-06   6.8621943649959435e-06
2.700276739065085e-05   -2.692384429172842e-06   4.4176614425025336e-05
2.700276739065085e-05   -2.692384429172842e-06   4.4176614425025336e-05
2.700276739065085e-05   -2.692384429172842e-06   4.4176614425025336e-05
2.700276739065085e-05   -2.692384429172842e-06   4.4176614425025336e-05
1.1552241681127002e-06   -1.0698245899824765e-06   2.0709116243093108e-06
1.1552241681127002e-06   -1.0698245899824765e-06   2.0709116243093108e-06
1.1552241681127002e-06   -1.0698245899824765e-06   2.0709116243093108e-06
1.1552241681127002e-06   -1.0698245899824765e-06   2.0709116243093108e-06
1.6248443079184302e-07   -3.239386486178497e-06   4.463679757808086e-05
1.6248443079184302e-07   -3.239386486178497e-06   4.463679757808086e-05
1.6248443079184302e-07   -3.239386486178497e-06   4.463679757808086e-05
1.6248443079184302e-07   -3.239386486178497e-06   4.463679757808086e-05
2.596860942384186e-05   -1.7057127362418364e-06   7.063850063687759e-07
2.596860942384186e-05   -1.7057127362418364e-06   7.063850063687759e-07
2.596860942384186e-05   -1.7057127362418364e-06   7.063850063687759e-07
2.596860942384186e-05   -1.7057127362418364e-06   7.063850063687759e-07
1.3407597093655883e-05   -2.0962083382806973e-06   2.187570291790203e-05
1.3407597093655883e-05   -2.0962083382806973e-06   2.187570291790203e-05
1.3407597093655883e-05   -2.0962083382806973e-06   2.187570291790203e-05
1.3407597093655883e-05   -2.0962083382806973e-06   2.187570291790203e-05
2.5968609423841848e-05   -3.239386486178497e-06   4.371659332811869e-05
2.5968609423841848e-05   -3.239386486178497e-06   4.371659332811869e-05
2.5968609423841848e-05   -3.239386486178497e-06   4.371659332811869e-05
2.5968609423841848e-05   -3.239386486178497e-06   4.371659332811869e-05
1.6248443079184302e-07   -1.7057127362418364e-06   1.626589256331027e-06
1.6248443079184302e-07   -1.7057127362418364e-06   1.626589256331027e-06
1.6248443079184302e-07   -1.7057127362418364e-06   1.626589256331027e-06
1.6248443079184302e-07   -1.7057127362418364e-06   1.626589256331027e-06
-8.694037356557147e-07   -3.5981140617895833e-06   4.39651878889238e-05
-8.694037356557147e-07   -3.5981140617895833e-06   4.39651878889238e-05
-8.694037356557147e-07   -3.5981140617895833e-06   4.39651878889238e-05
-8.694037356557147e-07   -3.5981140617895833e-06   4.39651878889238e-05
2.481948329245151e-05   -2.178140442119121e-06   2.983920036098462e-07
2.481948329245151e-05   -2.178140442119121e-06   2.983920036098462e-07
2.481948329245151e-05   -2.178140442119121e-06   2.983920036098462e-07
2.481948329245151e-05   -2.178140442119121e-06   2.983920036098462e-07
1.2268014957882025e-05   -2.4293995671709895e-06   2.136826136959081e-05
1.2268014957882025e-05   -2.4293995671709895e-06   2.136826136959081e-05
1.2268014957882025e-05   -2.4293995671709895e-06   2.136826136959081e-05
1.2268014957882025e-05   -2.4293995671709895e-06   2.136826136959081e-05
2.4819483292451476e-05   -3.5981140617895833e-06   4.3113203717121736e-05
2.4819483292451476e-05   -3.5981140617895833e-06   4.3113203717121736e-05
2.4819483292451476e-05   -3.5981140617895833e-06   4.3113203717121736e-05
2.4819483292451476e-05   -3.5981140617895833e-06   4.3113203717121736e-05
-8.694037356557147e-07   -2.178140442119121e-06   1.1503761754118932e-06
-8.694037356557147e-07   -2.178140442119121e-06   1.1503761754118932e-06
-8.694037356557147e-07   -2.178140442119121e-06   1.1503761754118932e-06
-8.694037356557147e-07   -2.178140442119121e-06   1.1503761754118932e-06
-1.943670964669233e-06   -3.751849283402473e-06   4.430376230416867e-05
-1.943670964669233e-06   -3.751849283402473e-06   4.430376230416867e-05
-1.943670964669233e-06   -3.751849283402473e-06   4.430376230416867e-05
-1.943670964669233e-06   -3.751849283402473e-06   4.430376230416867e-05
2.371427299290417e-05   -2.550887545777359e-06   8.199453323047795e-07
2.371427299290417e-05   -2.550887545777359e-06   8.199453323047795e-07
2.371427299290417e-05   -2.550887545777359e-06   8.199453323047795e-07
2.371427299290417e-05   -2.550887545777359e-06   8.199453323047795e-07
1.1411100055431327e-05   -2.6083881043336907e-06   2.1359733896560802e-05
1.1411100055431327e-05   -2.6083881043336907e-06   2.1359733896560802e-05
1.1411100055431327e-05   -2.6083881043336907e-06   2.1359733896560802e-05
1.1411100055431327e-05   -2.6083881043336907e-06   2.1359733896560802e-05
1.1552241681127002e-06   2.3925221635510453e-06   4.560756570227238e-05
1.1552241681127002e-06   2.3925221635510453e-06   4.560756570227238e-05
1.1552241681127002e-06   2.3925221635510453e-06   4.560756570227238e-05
1.1552241681127002e-06   2.3925221635510453e-06   4.560756570227238e-05
-2.3937209656559608e-05   3.4732712552204732e-06   4.435292116153214e-06
-2.3937209656559608e-05   3.4732712552204732e-06   4.435292116153214e-06
-2.3937209656559608e-05   3.4732712552204732e-06   4.435292116153214e-06
-2.3937209656559608e-05   3.4732712552204732e-06   4.435292116153214e-06
-2.4974456331287924e-05   1.973862568311214e-06   4.623541173807001e-05
-2.4974456331287924e-05   1.973862568311214e-06   4.623541173807001e-05
-2.4974456331287924e-05   1.973862568311214e-06   4.623541173807001e-05
-2.4974456331287924e-05   1.973862568311214e-06   4.623541173807001e-05
1.6248443079184302e-07   2.944066237228326e-06   3.7583882665868235e-06
1.6248443079184302e-07   2.944066237228326e-06   3.7583882665868235e-06
1.6248443079184302e-07   2.944066237228326e-06   3.7583882665868235e-06
1.6248443079184302e-07   2.944066237228326e-06   3.7583882665868235e-06
-1.1916921923181282e-05   2.726691400189475e-06   2.4021157092098708e-05
-1.1916921923181282e-05   2.726691400189475e-06   2.4021157092098708e-05
-1.1916921923181282e-05   2.726691400189475e-06   2.4021157092098708e-05
-1.1916921923181282e-05   2.726691400189475e-06   2.4021157092098708e-05
1.6248443079184302e-07   1.973862568311214e-06   4.565328953671957e-05
1.6248443079184302e-07   1.973862568311214e-06   4.565328953671957e-05
1.6248443079184302e-07   1.973862568311214e-06   4.565328953671957e-05
1.6248443079184302e-07   1.973862568311214e-06   4.565328953671957e-05
-2.4974456331287924e-05   2.944066237228326e-06   4.340510467937047e-06
-2.4974456331287924e-05   2.944066237228326e-06   4.340510467937047e-06
-2.4974456331287924e-05   2.944066237228326e-06   4.340510467937047e-06
-2.4974456331287924e-05   2.944066237228326e-06   4.340510467937047e-06
-2.6069777361384367e-05   1.5841384604447194e-06   4.6671811076484486e-05
-2.6069777361384367e-05   1.5841384604447194e-06   4.6671811076484486e-05
-2.6069777361384367e-05   1.5841384604447194e-06   4.6671811076484486e-05
-2.6069777361384367e-05   1.5841384604447194e-06   4.6671811076484486e-05
-8.694037356557147e-07   2.430205583511466e-06   4.163548093096469e-06
-8.694037356557147e-07   2.430205583511466e-06   4.163548093096469e-06
-8.694037356557147e-07   2.430205583511466e-06   4.163548093096469e-06
-8.694037356557147e-07   2.430205583511466e-06   4.163548093096469e-06
-1.288048706498284e-05   2.4245479077556267e-06   2.418541491409508e-05
-1.288048706498284e-05   2.4245479077556267e-06   2.418541491409508e-05
-1.288048706498284e-05   2.4245479077556267e-06   2.418541491409508e-05
-1.288048706498284e-05   2.4245479077556267e-06   2.418541491409508e-05
-8.694037356557147e-07   1.5841384604447194e-06   4.6164170802644395e-05
-8.694037356557147e-07   1.5841384604447194e-06   4.6164170802644395e-05
-8.694037356557147e-07   1.5841384604447194e-06   4.6164170802644395e-05
-8.694037356557147e-07   1.5841384604447194e-06   4.6164170802644395e-05
-2.606977736138442e-05   2.430205583511466e-06   4.6711883669367776e-06
-2.606977736138442e-05   2.430205583511466e-06   4.6711883669367776e-06
-2.606977736138442e-05   2.430205583511466e-06   4.6711883669367776e-06
-2.606977736138442e-05   2.430205583511466e-06   4.6711883669367776e-06
-2.7200065457522958e-05   1.3034242374123685e-06   4.7365433985757655e-05
-2.7200065457522958e-05   1.3034242374123685e-06   4.7365433985757655e-05
-2.7200065457522958e-05   1.3034242374123685e-06   4.7365433985757655e-05
-2.7200065457522958e-05   1.3034242374123685e-06   4.7365433985757655e-05
-1.943670964669233e-06   1.972804045284604e-06   4.8698152796116e-06
-1.943670964669233e-06   1.972804045284604e-06   4.8698152796116e-06
-1.943670964669233e-06   1.972804045284604e-06   4.8698152796116e-06
-1.943670964669233e-06   1.972804045284604e-06   4.8698152796116e-06
-1.3923222440105528e-05   2.1350780112913345e-06   2.473837002573559e-05
-1.3923222440105528e-05   2.1350780112913345e-06   2.473837002573559e-05
-1.3923222440105528e-05   2.1350780112913345e-06   2.473837002573559e-05
-1.3923222440105528e-05   2.1350780112913345e-06   2.473837002573559e-05
-2.393720965655969e-05   7.79446963907306e-06   3.978656997203744e-05
-2.393720965655969e-05   7.79446963907306e-06   3.978656997203744e-05
-2.393720965655969e-05   7.79446963907306e-06   3.978656997203744e-05
-2.393720965655969e-05   7.79446963907306e-06   3.978656997203744e-05
-4.8238652482020055e-05   7.893106341944501e-06   -6.566527153402477e-07
-4.8238652482020055e-05   7.893106341944501e-06   -6.566527153402477e-07
-4.8238652482020055e-05   7.893106341944501e-06   -6.566527153402477e-07
-4.8238652482020055e-05   7.893106341944501e-06   -6.566527153402477e-07
-4.944283468123761e-05   7.374760698072771e-06   4.0483108924819914e-05
-4.944283468123761e-05   7.374760698072771e-06   4.0483108924819914e-05
-4.944283468123761e-05   7.374760698072771e-06   4.0483108924819914e-05
-4.944283468123761e-05   7.374760698072771e-06   4.0483108924819914e-05
-2.497445633128795e-05   7.387687557294277e-06   -3.0527777396228365e-07
-2.497445633128795e-05   7.387687557294277e-06   -3.0527777396228365e-07
-2.497445633128795e-05   7.387687557294277e-06   -3.0527777396228365e-07
-2.497445633128795e-05   7.387687557294277e-06   -3.0527777396228365e-07
-3.6484512133556264e-05   7.594203086607083e-06   1.875423924556363e-05
-3.6484512133556264e-05   7.594203086607083e-06   1.875423924556363e-05
-3.6484512133556264e-05   7.594203086607083e-06   1.875423924556363e-05
-3.6484512133556264e-05   7.594203086607083e-06   1.875423924556363e-05
-2.497445633128795e-05   7.374760698072771e-06   4.0475352809287097e-05
-2.497445633128795e-05   7.374760698072771e-06   4.0475352809287097e-05
-2.497445633128795e-05   7.374760698072771e-06   4.0475352809287097e-05
-2.497445633128795e-05   7.374760698072771e-06   4.0475352809287097e-05
-4.944283468123753e-05   7.387687557294277e-06   -2.97521658429575e-07
-4.944283468123753e-05   7.387687557294277e-06   -2.97521658429575e-07
-4.944283468123753e-05   7.387687557294277e-06   -2.97521658429575e-07
-4.944283468123753e-05   7.387687557294277e-06   -2.97521658429575e-07
-5.077748029737306e-05   6.98659079450192e-06   4.2364772476313414e-05
-5.077748029737306e-05   6.98659079450192e-06   4.2364772476313414e-05
-5.077748029737306e-05   6.98659079450192e-06   4.2364772476313414e-05
-5.077748029737306e-05   6.98659079450192e-06   4.2364772476313414e-05
-2.606977736138442e-05   6.921806826085987e-06   1.2241379640484705e-06
-2.606977736138442e-05   6.921806826085987e-06   1.2241379640484705e-06
-2.606977736138442e-05   6.921806826085987e-06   1.2241379640484705e-06
-2.606977736138442e-05   6.921806826085987e-06   1.2241379640484705e-06
-3.735524170111875e-05   7.3087293209987e-06   1.9801091699991305e-05
-3.735524170111875e-05   7.3087293209987e-06   1.9801091699991305e-05
-3.735524170111875e-05   7.3087293209987e-06   1.9801091699991305e-05
-3.735524170111875e-05   7.3087293209987e-06   1.9801091699991305e-05
-2.6069777361384394e-05   6.98659079450192e-06   4.240364285736293e-05
-2.6069777361384394e-05   6.98659079450192e-06   4.240364285736293e-05
-2.6069777361384394e-05   6.98659079450192e-06   4.240364285736293e-05
-2.6069777361384394e-05   6.98659079450192e-06   4.240364285736293e-05
-5.077748029737298e-05   6.921806826085987e-06   1.1852675829990625e-06
-5.077748029737298e-05   6.921806826085987e-06   1.1852675829990625e-06
-5.077748029737298e-05   6.921806826085987e-06   1.1852675829990625e-06
-5.077748029737298e-05   6.921806826085987e-06   1.1852675829990625e-06
-5.204947430371932e-05   6.464767726919226e-06   4.3723328779670875e-05
-5.204947430371932e-05   6.464767726919226e-06   4.3723328779670875e-05
-5.204947430371932e-05   6.464767726919226e-06   4.3723328779670875e-05
-5.204947430371932e-05   6.464767726919226e-06   4.3723328779670875e-05
-2.720006545752304e-05   6.352911289409218e-06   2.3747612318497733e-06
-2.720006545752304e-05   6.352911289409218e-06   2.3747612318497733e-06
-2.720006545752304e-05   6.352911289409218e-06   2.3747612318497733e-06
-2.720006545752304e-05   6.352911289409218e-06   2.3747612318497733e-06
-3.874016061340566e-05   6.938014142785203e-06   2.1257191446297078e-05
-3.874016061340566e-05   6.938014142785203e-06   2.1257191446297078e-05
-3.874016061340566e-05   6.938014142785203e-06   2.1257191446297078e-05
-3.874016061340566e-05   6.938014142785203e-06   2.1257191446297078e-05
-4.823865248202e-05   1.2676334538369322e-05   1.9121762328820928e-05
-4.823865248202e-05   1.2676334538369322e-05   1.9121762328820928e-05
-4.823865248202e-05   1.2676334538369322e-05   1.9121762328820928e-05
-4.823865248202e-05   1.2676334538369322e-05   1.9121762328820928e-05
-7.132865632783996e-05   1.136338765971934e-05   -2.014934554140258e-05
-7.132865632783996e-05   1.136338765971934e-05   -2.014934554140258e-05
-7.132865632783996e-05   1.136338765971934e-05   -2.014934554140258e-05
-7.132865632783996e-05   1.136338765971934e-05   -2.014934554140258e-05
-7.322495478497026e-05   1.2919520539598096e-05   2.651864747520833e-05
-7.322495478497026e-05   1.2919520539598096e-05   2.651864747520833e-05
-7.322495478497026e-05   1.2919520539598096e-05   2.651864747520833e-05
-7.322495478497026e-05   1.2919520539598096e-05   2.651864747520833e-05
-4.944283468123761e-05   1.1483641905688825e-05   -1.2256692184000749e-05
-4.944283468123761e-05   1.1483641905688825e-05   -1.2256692184000749e-05
-4.944283468123761e-05   1.1483641905688825e-05   -1.2256692184000749e-05
-4.944283468123761e-05   1.1483641905688825e-05   -1.2256692184000749e-05
-5.8239976979450745e-05   1.2040257788627738e-05   2.071242116591181e-06
-5.8239976979450745e-05   1.2040257788627738e-05   2.071242116591181e-06
-5.8239976979450745e-05   1.2040257788627738e-05   2.071242116591181e-06
-5.8239976979450745e-05   1.2040257788627738e-05   2.071242116591181e-06
-4.94428346812375e-05   1.2919520539598096e-05   2.7380174655553717e-05
-4.94428346812375e-05   1.2919520539598096e-05   2.7380174655553717e-05
-4.94428346812375e-05   1.2919520539598096e-05   2.7380174655553717e-05
-4.94428346812375e-05   1.2919520539598096e-05   2.7380174655553717e-05
-7.322495478497048e-05   1.1483641905688825e-05   -1.3118219364346355e-05
-7.322495478497048e-05   1.1483641905688825e-05   -1.3118219364346355e-05
-7.322495478497048e-05   1.1483641905688825e-05   -1.3118219364346355e-05
-7.322495478497048e-05   1.1483641905688825e-05   -1.3118219364346355e-05
-7.50766385589119e-05   1.282644911295653e-05   3.227864039105871e-05
-7.50766385589119e-05   1.282644911295653e-05   3.227864039105871e-05
-7.50766385589119e-05   1.282644911295653e-05   3.227864039105871e-05
-7.50766385589119e-05   1.282644911295653e-05   3.227864039105871e-05
-5.077748029737306e-05   1.1357174109338525e-05   -7.33839170933572e-06
-5.077748029737306e-05   1.1357174109338525e-05   -7.33839170933572e-06
-5.077748029737306e-05   1.1357174109338525e-05   -7.33839170933572e-06
-5.077748029737306e-05   1.1357174109338525e-05   -7.33839170933572e-06
-6.056949985100829e-05   1.2259937469569562e-05   8.43998286391911e-06
-6.056949985100829e-05   1.2259937469569562e-05   8.43998286391911e-06
-6.056949985100829e-05   1.2259937469569562e-05   8.43998286391911e-06
-6.056949985100829e-05   1.2259937469569562e-05   8.43998286391911e-06
-5.077748029737306e-05   1.282644911295653e-05   3.316020539322951e-05
-5.077748029737306e-05   1.282644911295653e-05   3.316020539322951e-05
-5.077748029737306e-05   1.282644911295653e-05   3.316020539322951e-05
-5.077748029737306e-05   1.282644911295653e-05   3.316020539322951e-05
-7.507663855891217e-05   1.1357174109338525e-05   -8.219956711506414e-06
-7.507663855891217e-05   1.1357174109338525e-05   -8.219956711506414e-06
-7.507663855891217e-05   1.1357174109338525e-05   -8.219956711506414e-06
-7.507663855891217e-05   1.1357174109338525e-05   -8.219956711506414e-06
-7.723922847593478e-05   1.1807633575893102e-05   4.2146846104096575e-05
-7.723922847593478e-05   1.1807633575893102e-05   4.2146846104096575e-05
-7.723922847593478e-05   1.1807633575893102e-05   4.2146846104096575e-05
-7.723922847593478e-05   1.1807633575893102e-05   4.2146846104096575e-05
-5.204947430371932e-05   1.048125095153311e-05   9.597520583535016e-07
-5.204947430371932e-05   1.048125095153311e-05   9.597520583535016e-07
-5.204947430371932e-05   1.048125095153311e-05   9.597520583535016e-07
-5.204947430371932e-05   1.048125095153311e-05   9.597520583535016e-07
-6.116171497287004e-05   1.1898576898526983e-05   1.529642427207595e-05
-6.116171497287004e-05   1.1898576898526983e-05   1.529642427207595e-05
-6.116171497287004e-05   1.1898576898526983e-05   1.529642427207595e-05
-6.116171497287004e-05   1.1898576898526983e-05   1.529642427207595e-05
4.139770900944672e-05   -5.593705539797076e-06   3.513646719389193e-05
4.139770900944672e-05   -5.593705539797076e-06   3.513646719389193e-05
4.139770900944672e-05   -5.593705539797076e-06   3.513646719389193e-05
4.139770900944672e-05   -5.593705539797076e-06   3.513646719389193e-05
1.9489556705881625e-05   -3.6960361233535216e-06   -2.3851832885038796e-07
1.9489556705881625e-05   -3.6960361233535216e-06   -2.3851832885038796e-07
1.9489556705881625e-05   -3.6960361233535216e-06   -2.3851832885038796e-07
1.9489556705881625e-05   -3.6960361233535216e-06   -2.3851832885038796e-07
1.8565970713761077e-05   -6.490404331576955e-06   3.087369546753778e-05
1.8565970713761077e-05   -6.490404331576955e-06   3.087369546753778e-05
1.8565970713761077e-05   -6.490404331576955e-06   3.087369546753778e-05
1.8565970713761077e-05   -6.490404331576955e-06   3.087369546753778e-05
3.961081788834722e-05   -4.486289501648075e-06   -5.4035187213963645e-06
3.961081788834722e-05   -4.486289501648075e-06   -5.4035187213963645e-06
3.961081788834722e-05   -4.486289501648075e-06   -5.4035187213963645e-06
3.961081788834722e-05   -4.486289501648075e-06   -5.4035187213963645e-06
2.8365763995915204e-05   -5.1052650807360475e-06   1.3709623113442992e-05
2.8365763995915204e-05   -5.1052650807360475e-06   1.3709623113442992e-05
2.8365763995915204e-05   -5.1052650807360475e-06   1.3709623113442992e-05
2.8365763995915204e-05   -5.1052650807360475e-06   1.3709623113442992e-05
3.961081788834722e-05   -6.490404331577389e-06   2.9671226569580583e-05
3.961081788834722e-05   -6.490404331577389e-06   2.9671226569580583e-05
3.961081788834722e-05   -6.490404331577389e-06   2.9671226569580583e-05
3.961081788834722e-05   -6.490404331577389e-06   2.9671226569580583e-05
1.856597071376111e-05   -4.486289501648075e-06   -4.201049823439112e-06
1.856597071376111e-05   -4.486289501648075e-06   -4.201049823439112e-06
1.856597071376111e-05   -4.486289501648075e-06   -4.201049823439112e-06
1.856597071376111e-05   -4.486289501648075e-06   -4.201049823439112e-06
1.7546621475617297e-05   -6.670585767177238e-06   2.7877229945418112e-05
1.7546621475617297e-05   -6.670585767177238e-06   2.7877229945418112e-05
1.7546621475617297e-05   -6.670585767177238e-06   2.7877229945418112e-05
1.7546621475617297e-05   -6.670585767177238e-06   2.7877229945418112e-05
3.80448787342745e-05   -4.697452104296396e-06   -7.470412350072688e-06
3.80448787342745e-05   -4.697452104296396e-06   -7.470412350072688e-06
3.80448787342745e-05   -4.697452104296396e-06   -7.470412350072688e-06
3.80448787342745e-05   -4.697452104296396e-06   -7.470412350072688e-06
2.7624853331939153e-05   -5.425863486058571e-06   1.0333343482877514e-05
2.7624853331939153e-05   -5.425863486058571e-06   1.0333343482877514e-05
2.7624853331939153e-05   -5.425863486058571e-06   1.0333343482877514e-05
2.7624853331939153e-05   -5.425863486058571e-06   1.0333343482877514e-05
3.804487873427443e-05   -6.670585767177672e-06   2.6693349747689303e-05
3.804487873427443e-05   -6.670585767177672e-06   2.6693349747689303e-05
3.804487873427443e-05   -6.670585767177672e-06   2.6693349747689303e-05
3.804487873427443e-05   -6.670585767177672e-06   2.6693349747689303e-05
1.754662147561733e-05   -4.697452104296396e-06   -6.2865321523437705e-06
1.754662147561733e-05   -4.697452104296396e-06   -6.2865321523437705e-06
1.754662147561733e-05   -4.697452104296396e-06   -6.2865321523437705e-06
1.754662147561733e-05   -4.697452104296396e-06   -6.2865321523437705e-06
1.6605426088433465e-05   -6.743614587079172e-06   2.3819424231304176e-05
1.6605426088433465e-05   -6.743614587079172e-06   2.3819424231304176e-05
1.6605426088433465e-05   -6.743614587079172e-06   2.3819424231304176e-05
1.6605426088433465e-05   -6.743614587079172e-06   2.3819424231304176e-05
3.629538231775393e-05   -4.895014894200009e-06   -1.0106329299957461e-05
3.629538231775393e-05   -4.895014894200009e-06   -1.0106329299957461e-05
3.629538231775393e-05   -4.895014894200009e-06   -1.0106329299957461e-05
3.629538231775393e-05   -4.895014894200009e-06   -1.0106329299957461e-05
2.5990593199505413e-05   -5.394929185646973e-06   7.3682678053255514e-06
2.5990593199505413e-05   -5.394929185646973e-06   7.3682678053255514e-06
2.5990593199505413e-05   -5.394929185646973e-06   7.3682678053255514e-06
2.5990593199505413e-05   -5.394929185646973e-06   7.3682678053255514e-06
1.948955670588155e-05   -1.0698245899824765e-06   3.995709042042394e-05
1.948955670588155e-05   -1.0698245899824765e-06   3.995709042042394e-05
1.948955670588155e-05   -1.0698245899824765e-06   3.995709042042394e-05
1.948955670588155e-05   -1.0698245899824765e-06   3.995709042042394e-05
-1.2472289831659891e-06   -1.854581296173441e-08   6.026548204890458e-06
-1.2472289831659891e-06   -1.854581296173441e-08   6.026548204890458e-06
-1.2472289831659891e-06   -1.854581296173441e-08   6.026548204890458e-06
-1.2472289831659891e-06   -1.854581296173441e-08   6.026548204890458e-06
-2.1154923852892958e-06   -1.7057127362418364e-06   4.002805517251294e-05
-2.1154923852892958e-06   -1.7057127362418364e-06   4.002805517251294e-05
-2.1154923852892958e-06   -1.7057127362418364e-06   4.002805517251294e-05
-2.1154923852892958e-06   -1.7057127362418364e-06   4.002805517251294e-05
1.856597071376111e-05   -7.060167633225582e-07   4.959132423677605e-06
1.856597071376111e-05   -7.060167633225582e-07   4.959132423677605e-06
1.856597071376111e-05   -7.060167633225582e-07   4.959132423677605e-06
1.856597071376111e-05   -7.060167633225582e-07   4.959132423677605e-06
8.53271245797477e-06   -8.999655299228929e-07   2.1797598776615037e-05
8.53271245797477e-06   -8.999655299228929e-07   2.1797598776615037e-05
8.53271245797477e-06   -8.999655299228929e-07   2.1797598776615037e-05
8.53271245797477e-06   -8.999655299228929e-07   2.1797598776615037e-05
1.8565970713761057e-05   -1.7057127362418364e-06   3.942823758876159e-05
1.8565970713761057e-05   -1.7057127362418364e-06   3.942823758876159e-05
1.8565970713761057e-05   -1.7057127362418364e-06   3.942823758876159e-05
1.8565970713761057e-05   -1.7057127362418364e-06   3.942823758876159e-05
-2.1154923852892958e-06   -7.060167633225582e-07   5.558950007429186e-06
-2.1154923852892958e-06   -7.060167633225582e-07   5.558950007429186e-06
-2.1154923852892958e-06   -7.060167633225582e-07   5.558950007429186e-06
-2.1154923852892958e-06   -7.060167633225582e-07   5.558950007429186e-06
-3.002214184408893e-06   -2.178140442119121e-06   3.942617273563695e-05
-3.002214184408893e-06   -2.178140442119121e-06   3.942617273563695e-05
-3.002214184408893e-06   -2.178140442119121e-06   3.942617273563695e-05
-3.002214184408893e-06   -2.178140442119121e-06   3.942617273563695e-05
1.754662147561733e-05   -1.2480140288125344e-06   4.620037454276137e-06
1.754662147561733e-05   -1.2480140288125344e-06   4.620037454276137e-06
1.754662147561733e-05   -1.2480140288125344e-06   4.620037454276137e-06
1.754662147561733e-05   -1.2480140288125344e-06   4.620037454276137e-06
7.558909360936471e-06   -1.3242892341731004e-06   2.1311989435295184e-05
7.558909360936471e-06   -1.3242892341731004e-06   2.1311989435295184e-05
7.558909360936471e-06   -1.3242892341731004e-06   2.1311989435295184e-05
7.558909360936471e-06   -1.3242892341731004e-06   2.1311989435295184e-05
1.7546621475617297e-05   -2.1781404421186874e-06   3.886809688765313e-05
1.7546621475617297e-05   -2.1781404421186874e-06   3.886809688765313e-05
1.7546621475617297e-05   -2.1781404421186874e-06   3.886809688765313e-05
1.7546621475617297e-05   -2.1781404421186874e-06   3.886809688765313e-05
-3.002214184408893e-06   -1.2480140288125344e-06   5.178113302259932e-06
-3.002214184408893e-06   -1.2480140288125344e-06   5.178113302259932e-06
-3.002214184408893e-06   -1.2480140288125344e-06   5.178113302259932e-06
-3.002214184408893e-06   -1.2480140288125344e-06   5.178113302259932e-06
-3.893737464040638e-06   -2.550887545777359e-06   3.9701509905963e-05
-3.893737464040638e-06   -2.550887545777359e-06   3.9701509905963e-05
-3.893737464040638e-06   -2.550887545777359e-06   3.9701509905963e-05
-3.893737464040638e-06   -2.550887545777359e-06   3.9701509905963e-05
1.6605426088433485e-05   -1.7501043176023148e-06   5.055767381601133e-06
1.6605426088433485e-05   -1.7501043176023148e-06   5.055767381601133e-06
1.6605426088433485e-05   -1.7501043176023148e-06   5.055767381601133e-06
1.6605426088433485e-05   -1.7501043176023148e-06   5.055767381601133e-06
6.815107432595445e-06   -1.6385182198194737e-06   2.1306013482662485e-05
6.815107432595445e-06   -1.6385182198194737e-06   2.1306013482662485e-05
6.815107432595445e-06   -1.6385182198194737e-06   2.1306013482662485e-05
6.815107432595445e-06   -1.6385182198194737e-06   2.1306013482662485e-05
-1.2472289831660162e-06   3.4732712552204732e-06   4.230378872347915e-05
-1.2472289831660162e-06   3.4732712552204732e-06   4.230378872347915e-05
-1.2472289831660162e-06   3.4732712552204732e-06   4.230378872347915e-05
-1.2472289831660162e-06   3.4732712552204732e-06   4.230378872347915e-05
-2.1548963766082895e-05   3.5748160279510527e-06   8.528490948922843e-06
-2.1548963766082895e-05   3.5748160279510527e-06   8.528490948922843e-06
-2.1548963766082895e-05   3.5748160279510527e-06   8.528490948922843e-06
-2.1548963766082895e-05   3.5748160279510527e-06   8.528490948922843e-06
-2.2421866087232105e-05   2.944066237228326e-06   4.2175794827604756e-05
-2.2421866087232105e-05   2.944066237228326e-06   4.2175794827604756e-05
-2.2421866087232105e-05   2.944066237228326e-06   4.2175794827604756e-05
-2.2421866087232105e-05   2.944066237228326e-06   4.2175794827604756e-05
-2.1154923852892958e-06   2.9706339786214793e-06   8.315898012864297e-06
-2.1154923852892958e-06   2.9706339786214793e-06   8.315898012864297e-06
-2.1154923852892958e-06   2.9706339786214793e-06   8.315898012864297e-06
-2.1154923852892958e-06   2.9706339786214793e-06   8.315898012864297e-06
-1.1864106845496433e-05   3.184116361599435e-06   2.4435499350089116e-05
-1.1864106845496433e-05   3.184116361599435e-06   2.4435499350089116e-05
-1.1864106845496433e-05   3.184116361599435e-06   2.4435499350089116e-05
-1.1864106845496433e-05   3.184116361599435e-06   2.4435499350089116e-05
-2.1154923852892958e-06   2.944066237228326e-06   4.215985418276917e-05
-2.1154923852892958e-06   2.944066237228326e-06   4.215985418276917e-05
-2.1154923852892958e-06   2.944066237228326e-06   4.215985418276917e-05
-2.1154923852892958e-06   2.944066237228326e-06   4.215985418276917e-05
-2.2421866087232105e-05   2.9706339786214793e-06   8.331838657700237e-06
-2.2421866087232105e-05   2.9706339786214793e-06   8.331838657700237e-06
-2.2421866087232105e-05   2.9706339786214793e-06   8.331838657700237e-06
-2.2421866087232105e-05   2.9706339786214793e-06   8.331838657700237e-06
-2.33165855443778e-05   2.430205583511466e-06   4.240684275779523e-05
-2.33165855443778e-05   2.430205583511466e-06   4.240684275779523e-05
-2.33165855443778e-05   2.430205583511466e-06   4.240684275779523e-05
-2.33165855443778e-05   2.430205583511466e-06   4.240684275779523e-05
-3.00221418440892e-06   2.376035757633947e-06   8.582059053373608e-06
-3.00221418440892e-06   2.376035757633947e-06   8.582059053373608e-06
-3.00221418440892e-06   2.376035757633947e-06   8.582059053373608e-06
-3.00221418440892e-06   2.376035757633947e-06   8.582059053373608e-06
-1.267459599634457e-05   2.7778403659793095e-06   2.4461612641593416e-05
-1.267459599634457e-05   2.7778403659793095e-06   2.4461612641593416e-05
-1.267459599634457e-05   2.7778403659793095e-06   2.4461612641593416e-05
-1.267459599634457e-05   2.7778403659793095e-06   2.4461612641593416e-05
-3.00221418440892e-06   2.4302055835110324e-06   4.243934465332174e-05
-3.00221418440892e-06   2.4302055835110324e-06   4.243934465332174e-05
-3.00221418440892e-06   2.4302055835110324e-06   4.243934465332174e-05
-3.00221418440892e-06   2.4302055835110324e-06   4.243934465332174e-05
-2.33165855443778e-05   2.376035757633947e-06   8.549557157847259e-06
-2.33165855443778e-05   2.376035757633947e-06   8.549557157847259e-06
-2.33165855443778e-05   2.376035757633947e-06   8.549557157847259e-06
-2.33165855443778e-05   2.376035757633947e-06   8.549557157847259e-06
-2.4210966378940236e-05   1.972804045284604e-06   4.293420215805278e-05
-2.4210966378940236e-05   1.972804045284604e-06   4.293420215805278e-05
-2.4210966378940236e-05   1.972804045284604e-06   4.293420215805278e-05
-2.4210966378940236e-05   1.972804045284604e-06   4.293420215805278e-05
-3.893737464040638e-06   1.8118029575476743e-06   9.168754619195572e-06
-3.893737464040638e-06   1.8118029575476743e-06   9.168754619195572e-06
-3.893737464040638e-06   1.8118029575476743e-06   9.168754619195572e-06
-3.893737464040638e-06   1.8118029575476743e-06   9.168754619195572e-06
-1.352308855875332e-05   2.3819368380048264e-06   2.4875592782109906e-05
-1.352308855875332e-05   2.3819368380048264e-06   2.4875592782109906e-05
-1.352308855875332e-05   2.3819368380048264e-06   2.4875592782109906e-05
-1.352308855875332e-05   2.3819368380048264e-06   2.4875592782109906e-05
-2.1548963766082868e-05   7.893106341944501e-06   3.721358873390117e-05
-2.1548963766082868e-05   7.893106341944501e-06   3.721358873390117e-05
-2.1548963766082868e-05   7.893106341944501e-06   3.721358873390117e-05
-2.1548963766082868e-05   7.893106341944501e-06   3.721358873390117e-05
-4.140128213842985e-05   7.032656431222445e-06   3.6101215002228883e-06
-4.140128213842985e-05   7.032656431222445e-06   3.6101215002228883e-06
-4.140128213842985e-05   7.032656431222445e-06   3.6101215002228883e-06
-4.140128213842985e-05   7.032656431222445e-06   3.6101215002228883e-06
-4.234051301468545e-05   7.387687557294277e-06   3.696975009822678e-05
-4.234051301468545e-05   7.387687557294277e-06   3.696975009822678e-05
-4.234051301468545e-05   7.387687557294277e-06   3.696975009822678e-05
-4.234051301468545e-05   7.387687557294277e-06   3.696975009822678e-05
-2.242186608723216e-05   6.4539267448297626e-06   4.33226170661673e-06
-2.242186608723216e-05   6.4539267448297626e-06   4.33226170661673e-06
-2.242186608723216e-05   6.4539267448297626e-06   4.33226170661673e-06
-2.242186608723216e-05   6.4539267448297626e-06   4.33226170661673e-06
-3.182269611728641e-05   7.098191772397094e-06   1.9613752740166833e-05
-3.182269611728641e-05   7.098191772397094e-06   1.9613752740166833e-05
-3.182269611728641e-05   7.098191772397094e-06   1.9613752740166833e-05
-3.182269611728641e-05   7.098191772397094e-06   1.9613752740166833e-05
-2.2421866087232105e-05   7.387687557294277e-06   3.7530006585705534e-05
-2.2421866087232105e-05   7.387687557294277e-06   3.7530006585705534e-05
-2.2421866087232105e-05   7.387687557294277e-06   3.7530006585705534e-05
-2.2421866087232105e-05   7.387687557294277e-06   3.7530006585705534e-05
-4.234051301468545e-05   6.4539267448297626e-06   3.772005219137924e-06
-4.234051301468545e-05   6.4539267448297626e-06   3.772005219137924e-06
-4.234051301468545e-05   6.4539267448297626e-06   3.772005219137924e-06
-4.234051301468545e-05   6.4539267448297626e-06   3.772005219137924e-06
-4.337451456716459e-05   6.921806826085987e-06   3.835558707616319e-05
-4.337451456716459e-05   6.921806826085987e-06   3.835558707616319e-05
-4.337451456716459e-05   6.921806826085987e-06   3.835558707616319e-05
-4.337451456716459e-05   6.921806826085987e-06   3.835558707616319e-05
-2.3316585544377855e-05   5.914798028179655e-06   5.529910650262386e-06
-2.3316585544377855e-05   5.914798028179655e-06   5.529910650262386e-06
-2.3316585544377855e-05   5.914798028179655e-06   5.529910650262386e-06
-2.3316585544377855e-05   5.914798028179655e-06   5.529910650262386e-06
-3.2497126007006056e-05   6.728663377649369e-06   2.0342492211628297e-05
-3.2497126007006056e-05   6.728663377649369e-06   2.0342492211628297e-05
-3.2497126007006056e-05   6.728663377649369e-06   2.0342492211628297e-05
-3.2497126007006056e-05   6.728663377649369e-06   2.0342492211628297e-05
-2.3316585544377828e-05   6.921806826085987e-06   3.895979235490703e-05
-2.3316585544377828e-05   6.921806826085987e-06   3.895979235490703e-05
-2.3316585544377828e-05   6.921806826085987e-06   3.895979235490703e-05
-2.3316585544377828e-05   6.921806826085987e-06   3.895979235490703e-05
-4.337451456716459e-05   5.914798028179655e-06   4.9257053715184894e-06
-4.337451456716459e-05   5.914798028179655e-06   4.9257053715184894e-06
-4.337451456716459e-05   5.914798028179655e-06   4.9257053715184894e-06
-4.337451456716459e-05   5.914798028179655e-06   4.9257053715184894e-06
-4.432002480869512e-05   6.352911289409218e-06   3.93980178862378e-05
-4.432002480869512e-05   6.352911289409218e-06   3.93980178862378e-05
-4.432002480869512e-05   6.352911289409218e-06   3.93980178862378e-05
-4.432002480869512e-05   6.352911289409218e-06   3.93980178862378e-05
-2.4210966378940263e-05   5.287074057192757e-06   6.522422842642969e-06
-2.4210966378940263e-05   5.287074057192757e-06   6.522422842642969e-06
-2.4210966378940263e-05   5.287074057192757e-06   6.522422842642969e-06
-2.4210966378940263e-05   5.287074057192757e-06   6.522422842642969e-06
-3.356969291249399e-05   6.3119573781851394e-06   2.1505370405972446e-05
-3.356969291249399e-05   6.3119573781851394e-06   2.1505370405972446e-05
-3.356969291249399e-05   6.3119573781851394e-06   2.1505370405972446e-05
-3.356969291249399e-05   6.3119573781851394e-06   2.1505370405972446e-05
-4.140128213842985e-05   1.136338765971934e-05   1.7992394088595836e-05
-4.140128213842985e-05   1.136338765971934e-05   1.7992394088595836e-05
-4.140128213842985e-05   1.136338765971934e-05   1.7992394088595836e-05
-4.140128213842985e-05   1.136338765971934e-05   1.7992394088595836e-05
-6.025062968545246e-05   9.690686282891325e-06   -1.4426805982538848e-05
-6.025062968545246e-05   9.690686282891325e-06   -1.4426805982538848e-05
-6.025062968545246e-05   9.690686282891325e-06   -1.4426805982538848e-05
-6.025062968545246e-05   9.690686282891325e-06   -1.4426805982538848e-05
-6.193846453773178e-05   1.1483641905688825e-05   2.3905470882759497e-05
-6.193846453773178e-05   1.1483641905688825e-05   2.3905470882759497e-05
-6.193846453773178e-05   1.1483641905688825e-05   2.3905470882759497e-05
-6.193846453773178e-05   1.1483641905688825e-05   2.3905470882759497e-05
-4.234051301468545e-05   9.641794089195778e-06   -7.652672965755523e-06
-4.234051301468545e-05   9.641794089195778e-06   -7.652672965755523e-06
-4.234051301468545e-05   9.641794089195778e-06   -7.652672965755523e-06
-4.234051301468545e-05   9.641794089195778e-06   -7.652672965755523e-06
-4.952410481299285e-05   1.0390610652596076e-05   3.870690093383373e-06
-4.952410481299285e-05   1.0390610652596076e-05   3.870690093383373e-06
-4.952410481299285e-05   1.0390610652596076e-05   3.870690093383373e-06
-4.952410481299285e-05   1.0390610652596076e-05   3.870690093383373e-06
-4.23405130146854e-05   1.1483641905689259e-05   2.50105795726555e-05
-4.23405130146854e-05   1.1483641905689259e-05   2.50105795726555e-05
-4.23405130146854e-05   1.1483641905689259e-05   2.50105795726555e-05
-4.23405130146854e-05   1.1483641905689259e-05   2.50105795726555e-05
-6.193846453773184e-05   9.641794089195778e-06   -8.757781655651417e-06
-6.193846453773184e-05   9.641794089195778e-06   -8.757781655651417e-06
-6.193846453773184e-05   9.641794089195778e-06   -8.757781655651417e-06
-6.193846453773184e-05   9.641794089195778e-06   -8.757781655651417e-06
-6.344979712761341e-05   1.1357174109338525e-05   2.8684723636513733e-05
-6.344979712761341e-05   1.1357174109338525e-05   2.8684723636513733e-05
-6.344979712761341e-05   1.1357174109338525e-05   2.8684723636513733e-05
-6.344979712761341e-05   1.1357174109338525e-05   2.8684723636513733e-05
-4.337451456716459e-05   9.445167197147906e-06   -3.626876483586619e-06
-4.337451456716459e-05   9.445167197147906e-06   -3.626876483586619e-06
-4.337451456716459e-05   9.445167197147906e-06   -3.626876483586619e-06
-4.337451456716459e-05   9.445167197147906e-06   -3.626876483586619e-06
-5.146343738098602e-05   1.0505201143609644e-05   9.21864117157359e-06
-5.146343738098602e-05   1.0505201143609644e-05   9.21864117157359e-06
-5.146343738098602e-05   1.0505201143609644e-05   9.21864117157359e-06
-5.146343738098602e-05   1.0505201143609644e-05   9.21864117157359e-06
-4.337451456716459e-05   1.135717410933896e-05   2.9831927783828408e-05
-4.337451456716459e-05   1.135717410933896e-05   2.9831927783828408e-05
-4.337451456716459e-05   1.135717410933896e-05   2.9831927783828408e-05
-4.337451456716459e-05   1.135717410933896e-05   2.9831927783828408e-05
-6.344979712761357e-05   9.445167197147906e-06   -4.774080630901402e-06
-6.344979712761357e-05   9.445167197147906e-06   -4.774080630901402e-06
-6.344979712761357e-05   9.445167197147906e-06   -4.774080630901402e-06
-6.344979712761357e-05   9.445167197147906e-06   -4.774080630901402e-06
-6.518651443696423e-05   1.048125095153311e-05   3.690826809839417e-05
-6.518651443696423e-05   1.048125095153311e-05   3.690826809839417e-05
-6.518651443696423e-05   1.048125095153311e-05   3.690826809839417e-05
-6.518651443696423e-05   1.048125095153311e-05   3.690826809839417e-05
-4.432002480869512e-05   8.578160156777568e-06   3.2726398614651552e-06
-4.432002480869512e-05   8.578160156777568e-06   3.2726398614651552e-06
-4.432002480869512e-05   8.578160156777568e-06   3.2726398614651552e-06
-4.432002480869512e-05   8.578160156777568e-06   3.2726398614651552e-06
-5.187917304361886e-05   1.014576985244875e-05   1.4930654435603603e-05
-5.187917304361886e-05   1.014576985244875e-05   1.4930654435603603e-05
-5.187917304361886e-05   1.014576985244875e-05   1.4930654435603603e-05
-5.187917304361886e-05   1.014576985244875e-05   1.4930654435603603e-05
2.851601582463284e-05   -3.6960361233535216e-06   2.8599720180975865e-05
2.851601582463284e-05   -3.6960361233535216e-06   2.8599720180975865e-05
2.851601582463284e-05   -3.6960361233535216e-06   2.8599720180975865e-05
2.851601582463284e-05   -3.6960361233535216e-06   2.8599720180975865e-05
1.1832043225575298e-05   -1.8160226701289823e-06   1.9211072544813353e-06
1.1832043225575298e-05   -1.8160226701289823e-06   1.9211072544813353e-06
1.1832043225575298e-05   -1.8160226701289823e-06   1.9211072544813353e-06
1.1832043225575298e-05   -1.8160226701289823e-06   1.9211072544813353e-06
1.1089302335988254e-05   -4.486289501648075e-06   2.5714378133212057e-05
1.1089302335988254e-05   -4.486289501648075e-06   2.5714378133212057e-05
1.1089302335988254e-05   -4.486289501648075e-06   2.5714378133212057e-05
1.1089302335988254e-05   -4.486289501648075e-06   2.5714378133212057e-05
2.693512871099868e-05   -2.522726759842872e-06   -1.8734701368883233e-06
2.693512871099868e-05   -2.522726759842872e-06   -1.8734701368883233e-06
2.693512871099868e-05   -2.522726759842872e-06   -1.8734701368883233e-06
2.693512871099868e-05   -2.522726759842872e-06   -1.8734701368883233e-06
1.8618235779111347e-05   -3.205549793416137e-06   1.2397711903068542e-05
1.8618235779111347e-05   -3.205549793416137e-06   1.2397711903068542e-05
1.8618235779111347e-05   -3.205549793416137e-06   1.2397711903068542e-05
1.8618235779111347e-05   -3.205549793416137e-06   1.2397711903068542e-05
2.6935128710998726e-05   -4.486289501648075e-06   2.453624048812911e-05
2.6935128710998726e-05   -4.486289501648075e-06   2.453624048812911e-05
2.6935128710998726e-05   -4.486289501648075e-06   2.453624048812911e-05
2.6935128710998726e-05   -4.486289501648075e-06   2.453624048812911e-05
1.1089302335988217e-05   -2.522726759842872e-06   -6.953324918051312e-07
1.1089302335988217e-05   -2.522726759842872e-06   -6.953324918051312e-07
1.1089302335988217e-05   -2.522726759842872e-06   -6.953324918051312e-07
1.1089302335988217e-05   -2.522726759842872e-06   -6.953324918051312e-07
1.0255171914442211e-05   -4.697452104296396e-06   2.3571584395644515e-05
1.0255171914442211e-05   -4.697452104296396e-06   2.3571584395644515e-05
1.0255171914442211e-05   -4.697452104296396e-06   2.3571584395644515e-05
1.0255171914442211e-05   -4.697452104296396e-06   2.3571584395644515e-05
2.5578123015492586e-05   -2.766102218647792e-06   -3.1254773708282862e-06
2.5578123015492586e-05   -2.766102218647792e-06   -3.1254773708282862e-06
2.5578123015492586e-05   -2.766102218647792e-06   -3.1254773708282862e-06
2.5578123015492586e-05   -2.766102218647792e-06   -3.1254773708282862e-06
1.7914578920641868e-05   -3.5052747909345826e-06   1.0090599663962075e-05
1.7914578920641868e-05   -3.5052747909345826e-06   1.0090599663962075e-05
1.7914578920641868e-05   -3.5052747909345826e-06   1.0090599663962075e-05
1.7914578920641868e-05   -3.5052747909345826e-06   1.0090599663962075e-05
2.5578123015492627e-05   -4.697452104296396e-06   2.2412774464255396e-05
2.5578123015492627e-05   -4.697452104296396e-06   2.2412774464255396e-05
2.5578123015492627e-05   -4.697452104296396e-06   2.2412774464255396e-05
2.5578123015492627e-05   -4.697452104296396e-06   2.2412774464255396e-05
1.0255171914442194e-05   -2.766102218647792e-06   -1.9666674394393843e-06
1.0255171914442194e-05   -2.766102218647792e-06   -1.9666674394393843e-06
1.0255171914442194e-05   -2.766102218647792e-06   -1.9666674394393843e-06
1.0255171914442194e-05   -2.766102218647792e-06   -1.9666674394393843e-06
9.507492425710717e-06   -4.895014894200009e-06   2.0789832610793686e-05
9.507492425710717e-06   -4.895014894200009e-06   2.0789832610793686e-05
9.507492425710717e-06   -4.895014894200009e-06   2.0789832610793686e-05
9.507492425710717e-06   -4.895014894200009e-06   2.0789832610793686e-05
2.40391243505432e-05   -3.0881253134348082e-06   -4.513687679052526e-06
2.40391243505432e-05   -3.0881253134348082e-06   -4.513687679052526e-06
2.40391243505432e-05   -3.0881253134348082e-06   -4.513687679052526e-06
2.40391243505432e-05   -3.0881253134348082e-06   -4.513687679052526e-06
1.66123990234215e-05   -3.564216440521276e-06   8.149842542401996e-06
1.66123990234215e-05   -3.564216440521276e-06   8.149842542401996e-06
1.66123990234215e-05   -3.564216440521276e-06   8.149842542401996e-06
1.66123990234215e-05   -3.564216440521276e-06   8.149842542401996e-06
1.1832043225575335e-05   -1.854581296173441e-08   3.536202752043899e-05
1.1832043225575335e-05   -1.854581296173441e-08   3.536202752043899e-05
1.1832043225575335e-05   -1.854581296173441e-08   3.536202752043899e-05
1.1832043225575335e-05   -1.854581296173441e-08   3.536202752043899e-05
-3.824699613338354e-06   9.356405988704755e-07   9.839967969349191e-06
-3.824699613338354e-06   9.356405988704755e-07   9.839967969349191e-06
-3.824699613338354e-06   9.356405988704755e-07   9.839967969349191e-06
-3.824699613338354e-06   9.356405988704755e-07   9.839967969349191e-06
-4.507141798585355e-06   -7.060167633225582e-07   3.543019202098649e-05
-4.507141798585355e-06   -7.060167633225582e-07   3.543019202098649e-05
-4.507141798585355e-06   -7.060167633225582e-07   3.543019202098649e-05
-4.507141798585355e-06   -7.060167633225582e-07   3.543019202098649e-05
1.1089302335988217e-05   2.2003597110694696e-07   8.880486822706221e-06
1.1089302335988217e-05   2.2003597110694696e-07   8.880486822706221e-06
1.1089302335988217e-05   2.2003597110694696e-07   8.880486822706221e-06
1.1089302335988217e-05   2.2003597110694696e-07   8.880486822706221e-06
3.535792306172221e-06   4.6351371544997924e-08   2.1573880965470812e-05
3.535792306172221e-06   4.6351371544997924e-08   2.1573880965470812e-05
3.535792306172221e-06   4.6351371544997924e-08   2.1573880965470812e-05
3.535792306172221e-06   4.6351371544997924e-08   2.1573880965470812e-05
1.1089302335988244e-05   -7.060167633225582e-07   3.487456038032879e-05
1.1089302335988244e-05   -7.060167633225582e-07   3.487456038032879e-05
1.1089302335988244e-05   -7.060167633225582e-07   3.487456038032879e-05
1.1089302335988244e-05   -7.060167633225582e-07   3.487456038032879e-05
-4.507141798585382e-06   2.2003597110694696e-07   9.436118463363938e-06
-4.507141798585382e-06   2.2003597110694696e-07   9.436118463363938e-06
-4.507141798585382e-06   2.2003597110694696e-07   9.436118463363938e-06
-4.507141798585382e-06   2.2003597110694696e-07   9.436118463363938e-06
-5.2048711512453515e-06   -1.2480140288125344e-06   3.5007582501176944e-05
-5.2048711512453515e-06   -1.2480140288125344e-06   3.5007582501176944e-05
-5.2048711512453515e-06   -1.2480140288125344e-06   3.5007582501176944e-05
-5.2048711512453515e-06   -1.2480140288125344e-06   3.5007582501176944e-05
1.0255171914442194e-05   -3.6563319729190913e-07   8.711415559452028e-06
1.0255171914442194e-05   -3.6563319729190913e-07   8.711415559452028e-06
1.0255171914442194e-05   -3.6563319729190913e-07   8.711415559452028e-06
1.0255171914442194e-05   -3.6563319729190913e-07   8.711415559452028e-06
2.7855604081439113e-06   -4.310103391719656e-07   2.1199994355078485e-05
2.7855604081439113e-06   -4.310103391719656e-07   2.1199994355078485e-05
2.7855604081439113e-06   -4.310103391719656e-07   2.1199994355078485e-05
2.7855604081439113e-06   -4.310103391719656e-07   2.1199994355078485e-05
1.0255171914442228e-05   -1.2480140288125344e-06   3.447815400226461e-05
1.0255171914442228e-05   -1.2480140288125344e-06   3.447815400226461e-05
1.0255171914442228e-05   -1.2480140288125344e-06   3.447815400226461e-05
1.0255171914442228e-05   -1.2480140288125344e-06   3.447815400226461e-05
-5.2048711512453515e-06   -3.6563319729190913e-07   9.24084405836442e-06
-5.2048711512453515e-06   -3.6563319729190913e-07   9.24084405836442e-06
-5.2048711512453515e-06   -3.6563319729190913e-07   9.24084405836442e-06
-5.2048711512453515e-06   -3.6563319729190913e-07   9.24084405836442e-06
-5.8967246194777286e-06   -1.7501043176023148e-06   3.532707569432335e-05
-5.8967246194777286e-06   -1.7501043176023148e-06   3.532707569432335e-05
-5.8967246194777286e-06   -1.7501043176023148e-06   3.532707569432335e-05
-5.8967246194777286e-06   -1.7501043176023148e-06   3.532707569432335e-05
9.507492425710677e-06   -9.429272881046787e-07   9.169074401310802e-06
9.507492425710677e-06   -9.429272881046787e-07   9.169074401310802e-06
9.507492425710677e-06   -9.429272881046787e-07   9.169074401310802e-06
9.507492425710677e-06   -9.429272881046787e-07   9.169074401310802e-06
2.19272512806538e-06   -8.291285425560905e-07   2.1292073983390498e-05
2.19272512806538e-06   -8.291285425560905e-07   2.1292073983390498e-05
2.19272512806538e-06   -8.291285425560905e-07   2.1292073983390498e-05
2.19272512806538e-06   -8.291285425560905e-07   2.1292073983390498e-05
-3.824699613338327e-06   3.5748160279510527e-06   3.8375555247932265e-05
-3.824699613338327e-06   3.5748160279510527e-06   3.8375555247932265e-05
-3.824699613338327e-06   3.5748160279510527e-06   3.8375555247932265e-05
-3.824699613338327e-06   3.5748160279510527e-06   3.8375555247932265e-05
-1.9223806994511785e-05   3.5175409925248396e-06   1.2676011258053827e-05
-1.9223806994511785e-05   3.5175409925248396e-06   1.2676011258053827e-05
-1.9223806994511785e-05   3.5175409925248396e-06   1.2676011258053827e-05
-1.9223806994511785e-05   3.5175409925248396e-06   1.2676011258053827e-05
-1.98970515303696e-05   2.9706339786214793e-06   3.812504833377163e-05
-1.98970515303696e-05   2.9706339786214793e-06   3.812504833377163e-05
-1.98970515303696e-05   2.9706339786214793e-06   3.812504833377163e-05
-1.98970515303696e-05   2.9706339786214793e-06   3.812504833377163e-05
-4.507141798585355e-06   2.867147824205064e-06   1.253729047344794e-05
-4.507141798585355e-06   2.867147824205064e-06   1.253729047344794e-05
-4.507141798585355e-06   2.867147824205064e-06   1.253729047344794e-05
-4.507141798585355e-06   2.867147824205064e-06   1.253729047344794e-05
-1.1892754341664315e-05   3.152521379849206e-06   2.467542057852702e-05
-1.1892754341664315e-05   3.152521379849206e-06   2.467542057852702e-05
-1.1892754341664315e-05   3.152521379849206e-06   2.467542057852702e-05
-1.1892754341664315e-05   3.152521379849206e-06   2.467542057852702e-05
-4.507141798585355e-06   2.9706339786214793e-06   3.818714002642152e-05
-4.507141798585355e-06   2.9706339786214793e-06   3.818714002642152e-05
-4.507141798585355e-06   2.9706339786214793e-06   3.818714002642152e-05
-4.507141798585355e-06   2.9706339786214793e-06   3.818714002642152e-05
-1.98970515303696e-05   2.867147824205064e-06   1.2475198780798101e-05
-1.98970515303696e-05   2.867147824205064e-06   1.2475198780798101e-05
-1.98970515303696e-05   2.867147824205064e-06   1.2475198780798101e-05
-1.98970515303696e-05   2.867147824205064e-06   1.2475198780798101e-05
-2.0586506459634196e-05   2.376035757633947e-06   3.8320433560674015e-05
-2.0586506459634196e-05   2.376035757633947e-06   3.8320433560674015e-05
-2.0586506459634196e-05   2.376035757633947e-06   3.8320433560674015e-05
-2.0586506459634196e-05   2.376035757633947e-06   3.8320433560674015e-05
-5.2048711512453515e-06   2.2242112716064355e-06   1.2775469404976042e-05
-5.2048711512453515e-06   2.2242112716064355e-06   1.2775469404976042e-05
-5.2048711512453515e-06   2.2242112716064355e-06   1.2775469404976042e-05
-5.2048711512453515e-06   2.2242112716064355e-06   1.2775469404976042e-05
-1.2509379989633832e-05   2.680401314794677e-06   2.467593677637765e-05
-1.2509379989633832e-05   2.680401314794677e-06   2.467593677637765e-05
-1.2509379989633832e-05   2.680401314794677e-06   2.467593677637765e-05
-1.2509379989633832e-05   2.680401314794677e-06   2.467593677637765e-05
-5.2048711512453515e-06   2.376035757633947e-06   3.8411528252290566e-05
-5.2048711512453515e-06   2.376035757633947e-06   3.8411528252290566e-05
-5.2048711512453515e-06   2.376035757633947e-06   3.8411528252290566e-05
-5.2048711512453515e-06   2.376035757633947e-06   3.8411528252290566e-05
-2.0586506459634196e-05   2.2242112716064355e-06   1.2684374713359302e-05
-2.0586506459634196e-05   2.2242112716064355e-06   1.2684374713359302e-05
-2.0586506459634196e-05   2.2242112716064355e-06   1.2684374713359302e-05
-2.0586506459634196e-05   2.2242112716064355e-06   1.2684374713359302e-05
-2.1267953492597647e-05   1.8118029575476743e-06   3.883564166464316e-05
-2.1267953492597647e-05   1.8118029575476743e-06   3.883564166464316e-05
-2.1267953492597647e-05   1.8118029575476743e-06   3.883564166464316e-05
-2.1267953492597647e-05   1.8118029575476743e-06   3.883564166464316e-05
-5.8967246194777286e-06   1.6052174069314425e-06   1.3340878206479845e-05
-5.8967246194777286e-06   1.6052174069314425e-06   1.3340878206479845e-05
-5.8967246194777286e-06   1.6052174069314425e-06   1.3340878206479845e-05
-5.8967246194777286e-06   1.6052174069314425e-06   1.3340878206479845e-05
-1.3154339376465546e-05   2.2193667971737163e-06   2.5068413167314053e-05
-1.3154339376465546e-05   2.2193667971737163e-06   2.5068413167314053e-05
-1.3154339376465546e-05   2.2193667971737163e-06   2.5068413167314053e-05
-1.3154339376465546e-05   2.2193667971737163e-06   2.5068413167314053e-05
-1.9223806994511785e-05   7.032656431222445e-06   3.393909072440973e-05
-1.9223806994511785e-05   7.032656431222445e-06   3.393909072440973e-05
-1.9223806994511785e-05   7.032656431222445e-06   3.393909072440973e-05
-1.9223806994511785e-05   7.032656431222445e-06   3.393909072440973e-05
-3.436313728804246e-05   6.029208863806085e-06   8.10480502807544e-06
-3.436313728804246e-05   6.029208863806085e-06   8.10480502807544e-06
-3.436313728804246e-05   6.029208863806085e-06   8.10480502807544e-06
-3.436313728804246e-05   6.029208863806085e-06   8.10480502807544e-06
-3.508525667753114e-05   6.4539267448297626e-06   3.348936101862953e-05
-3.508525667753114e-05   6.4539267448297626e-06   3.348936101862953e-05
-3.508525667753114e-05   6.4539267448297626e-06   3.348936101862953e-05
-3.508525667753114e-05   6.4539267448297626e-06   3.348936101862953e-05
-1.9897051530369547e-05   5.393742804731807e-06   8.811796137419235e-06
-1.9897051530369547e-05   5.393742804731807e-06   8.811796137419235e-06
-1.9897051530369547e-05   5.393742804731807e-06   8.811796137419235e-06
-1.9897051530369547e-05   5.393742804731807e-06   8.811796137419235e-06
-2.706565384047689e-05   6.121633512253281e-06   2.0322732229752553e-05
-2.706565384047689e-05   6.121633512253281e-06   2.0322732229752553e-05
-2.706565384047689e-05   6.121633512253281e-06   2.0322732229752553e-05
-2.706565384047689e-05   6.121633512253281e-06   2.0322732229752553e-05
-1.98970515303696e-05   6.4539267448297626e-06   3.412547138268839e-05
-1.98970515303696e-05   6.4539267448297626e-06   3.412547138268839e-05
-1.98970515303696e-05   6.4539267448297626e-06   3.412547138268839e-05
-1.98970515303696e-05   6.4539267448297626e-06   3.412547138268839e-05
-3.508525667753114e-05   5.393742804732024e-06   8.175685773360538e-06
-3.508525667753114e-05   5.393742804732024e-06   8.175685773360538e-06
-3.508525667753114e-05   5.393742804732024e-06   8.175685773360538e-06
-3.508525667753114e-05   5.393742804732024e-06   8.175685773360538e-06
-3.589800299739988e-05   5.914798028179655e-06   3.463542667311945e-05
-3.589800299739988e-05   5.914798028179655e-06   3.463542667311945e-05
-3.589800299739988e-05   5.914798028179655e-06   3.463542667311945e-05
-3.589800299739988e-05   5.914798028179655e-06   3.463542667311945e-05
-2.0586506459634114e-05   4.805864061563272e-06   9.781626156813242e-06
-2.0586506459634114e-05   4.805864061563272e-06   9.781626156813242e-06
-2.0586506459634114e-05   4.805864061563272e-06   9.781626156813242e-06
-2.0586506459634114e-05   4.805864061563272e-06   9.781626156813242e-06
-2.7566103991359198e-05   5.68870492707158e-06   2.0884584190383878e-05
-2.7566103991359198e-05   5.68870492707158e-06   2.0884584190383878e-05
-2.7566103991359198e-05   5.68870492707158e-06   2.0884584190383878e-05
-2.7566103991359198e-05   5.68870492707158e-06   2.0884584190383878e-05
-2.058650645963417e-05   5.914798028179655e-06   3.530078705308898e-05
-2.058650645963417e-05   5.914798028179655e-06   3.530078705308898e-05
-2.058650645963417e-05   5.914798028179655e-06   3.530078705308898e-05
-2.058650645963417e-05   5.914798028179655e-06   3.530078705308898e-05
-3.589800299739983e-05   4.805864061563272e-06   9.116265776843335e-06
-3.589800299739983e-05   4.805864061563272e-06   9.116265776843335e-06
-3.589800299739983e-05   4.805864061563272e-06   9.116265776843335e-06
-3.589800299739983e-05   4.805864061563272e-06   9.116265776843335e-06
-3.662069327098501e-05   5.287074057192757e-06   3.560294993725974e-05
-3.662069327098501e-05   5.287074057192757e-06   3.560294993725974e-05
-3.662069327098501e-05   5.287074057192757e-06   3.560294993725974e-05
-3.662069327098501e-05   5.287074057192757e-06   3.560294993725974e-05
-2.1267953492597565e-05   4.148806384737672e-06   1.0698010910087407e-05
-2.1267953492597565e-05   4.148806384737672e-06   1.0698010910087407e-05
-2.1267953492597565e-05   4.148806384737672e-06   1.0698010910087407e-05
-2.1267953492597565e-05   4.148806384737672e-06   1.0698010910087407e-05
-2.8380552304751164e-05   5.233161889055217e-06   2.1901728961086595e-05
-2.8380552304751164e-05   5.233161889055217e-06   2.1901728961086595e-05
-2.8380552304751164e-05   5.233161889055217e-06   2.1901728961086595e-05
-2.8380552304751164e-05   5.233161889055217e-06   2.1901728961086595e-05
-3.436313728804246e-05   9.690686282891325e-06   1.630371552729503e-05
-3.436313728804246e-05   9.690686282891325e-06   1.630371552729503e-05
-3.436313728804246e-05   9.690686282891325e-06   1.630371552729503e-05
-3.436313728804246e-05   9.690686282891325e-06   1.630371552729503e-05
-4.855527238485283e-05   7.906763269429013e-06   -8.420196775466558e-06
-4.855527238485283e-05   7.906763269429013e-06   -8.420196775466558e-06
-4.855527238485283e-05   7.906763269429013e-06   -8.420196775466558e-06
-4.855527238485283e-05   7.906763269429013e-06   -8.420196775466558e-06
-5.006487937473086e-05   9.641794089195778e-06   2.0901153350990145e-05
-5.006487937473086e-05   9.641794089195778e-06   2.0901153350990145e-05
-5.006487937473086e-05   9.641794089195778e-06   2.0901153350990145e-05
-5.006487937473086e-05   9.641794089195778e-06   2.0901153350990145e-05
-3.508525667753103e-05   7.702578284619465e-06   -2.9013549949300768e-06
-3.508525667753103e-05   7.702578284619465e-06   -2.9013549949300768e-06
-3.508525667753103e-05   7.702578284619465e-06   -2.9013549949300768e-06
-3.508525667753103e-05   7.702578284619465e-06   -2.9013549949300768e-06
-4.044254179431066e-05   8.576697991690644e-06   5.502981708794012e-06
-4.044254179431066e-05   8.576697991690644e-06   5.502981708794012e-06
-4.044254179431066e-05   8.576697991690644e-06   5.502981708794012e-06
-4.044254179431066e-05   8.576697991690644e-06   5.502981708794012e-06
-3.508525667753114e-05   9.641794089195778e-06   2.2064682833736193e-05
-3.508525667753114e-05   9.641794089195778e-06   2.2064682833736193e-05
-3.508525667753114e-05   9.641794089195778e-06   2.2064682833736193e-05
-3.508525667753114e-05   9.641794089195778e-06   2.2064682833736193e-05
-5.0064879374730966e-05   7.702578284619248e-06   -4.0648844776757995e-06
-5.0064879374730966e-05   7.702578284619248e-06   -4.0648844776757995e-06
-5.0064879374730966e-05   7.702578284619248e-06   -4.0648844776757995e-06
-5.0064879374730966e-05   7.702578284619248e-06   -4.0648844776757995e-06
-5.138214823613901e-05   9.445167197147473e-06   2.4887774765205246e-05
-5.138214823613901e-05   9.445167197147473e-06   2.4887774765205246e-05
-5.138214823613901e-05   9.445167197147473e-06   2.4887774765205246e-05
-5.138214823613901e-05   9.445167197147473e-06   2.4887774765205246e-05
-3.5898002997399774e-05   7.453383775799264e-06   2.7593608678219174e-07
-3.5898002997399774e-05   7.453383775799264e-06   2.7593608678219174e-07
-3.5898002997399774e-05   7.453383775799264e-06   2.7593608678219174e-07
-3.5898002997399774e-05   7.453383775799264e-06   2.7593608678219174e-07
-4.204065028537291e-05   8.58202344311337e-06   9.836497766350536e-06
-4.204065028537291e-05   8.58202344311337e-06   9.836497766350536e-06
-4.204065028537291e-05   8.58202344311337e-06   9.836497766350536e-06
-4.204065028537291e-05   8.58202344311337e-06   9.836497766350536e-06
-3.589800299739988e-05   9.445167197147906e-06   2.6082844818014128e-05
-3.589800299739988e-05   9.445167197147906e-06   2.6082844818014128e-05
-3.589800299739988e-05   9.445167197147906e-06   2.6082844818014128e-05
-3.589800299739988e-05   9.445167197147906e-06   2.6082844818014128e-05
-5.138214823613901e-05   7.453383775799264e-06   -9.191339660267984e-07
-5.138214823613901e-05   7.453383775799264e-06   -9.191339660267984e-07
-5.138214823613901e-05   7.453383775799264e-06   -9.191339660267984e-07
-5.138214823613901e-05   7.453383775799264e-06   -9.191339660267984e-07
-5.291031979533402e-05   8.578160156777568e-06   3.1816243062640377e-05
-5.291031979533402e-05   8.578160156777568e-06   3.1816243062640377e-05
-5.291031979533402e-05   8.578160156777568e-06   3.1816243062640377e-05
-5.291031979533402e-05   8.578160156777568e-06   3.1816243062640377e-05
-3.66206932709849e-05   6.617449768825043e-06   5.843291754830207e-06
-3.66206932709849e-05   6.617449768825043e-06   5.843291754830207e-06
-3.66206932709849e-05   6.617449768825043e-06   5.843291754830207e-06
-3.66206932709849e-05   6.617449768825043e-06   5.843291754830207e-06
-4.2398423471831545e-05   8.218001312663677e-06   1.4512511163271053e-05
-4.2398423471831545e-05   8.218001312663677e-06   1.4512511163271053e-05
-4.2398423471831545e-05   8.218001312663677e-06   1.4512511163271053e-05
-4.2398423471831545e-05   8.218001312663677e-06   1.4512511163271053e-05
1.5827533726124355e-05   -1.8160226701289823e-06   2.249787265222198e-05
1.5827533726124355e-05   -1.8160226701289823e-06   2.249787265222198e-05
1.5827533726124355e-05   -1.8160226701289823e-06   2.249787265222198e-05
1.5827533726124355e-05   -1.8160226701289823e-06   2.249787265222198e-05
4.135216406074752e-06   4.4204545816958415e-08   4.12681344837346e-06
4.135216406074752e-06   4.4204545816958415e-08   4.12681344837346e-06
4.135216406074752e-06   4.4204545816958415e-08   4.12681344837346e-06
4.135216406074752e-06   4.4204545816958415e-08   4.12681344837346e-06
3.57980245375075e-06   -2.522726759843089e-06   2.097734312484325e-05
3.57980245375075e-06   -2.522726759843089e-06   2.097734312484325e-05
3.57980245375075e-06   -2.522726759843089e-06   2.097734312484325e-05
3.57980245375075e-06   -2.522726759843089e-06   2.097734312484325e-05
1.4454761729989856e-05   -5.889673715770913e-07   1.6921553648187445e-06
1.4454761729989856e-05   -5.889673715770913e-07   1.6921553648187445e-06
1.4454761729989856e-05   -5.889673715770913e-07   1.6921553648187445e-06
1.4454761729989856e-05   -5.889673715770913e-07   1.6921553648187445e-06
8.938317900761889e-06   -1.310509906756168e-06   1.1319153934640457e-05
8.938317900761889e-06   -1.310509906756168e-06   1.1319153934640457e-05
8.938317900761889e-06   -1.310509906756168e-06   1.1319153934640457e-05
8.938317900761889e-06   -1.310509906756168e-06   1.1319153934640457e-05
1.4454761729989883e-05   -2.522726759843089e-06   1.9817087491883845e-05
1.4454761729989883e-05   -2.522726759843089e-06   1.9817087491883845e-05
1.4454761729989883e-05   -2.522726759843089e-06   1.9817087491883845e-05
1.4454761729989883e-05   -2.522726759843089e-06   1.9817087491883845e-05
3.5798024537507434e-06   -5.889673715770913e-07   2.852410997778365e-06
3.5798024537507434e-06   -5.889673715770913e-07   2.852410997778365e-06
3.5798024537507434e-06   -5.889673715770913e-07   2.852410997778365e-06
3.5798024537507434e-06   -5.889673715770913e-07   2.852410997778365e-06
2.9326200990006156e-06   -2.766102218647792e-06   1.9689018938855618e-05
2.9326200990006156e-06   -2.766102218647792e-06   1.9689018938855618e-05
2.9326200990006156e-06   -2.766102218647792e-06   1.9689018938855618e-05
2.9326200990006156e-06   -2.766102218647792e-06   1.9689018938855618e-05
1.3292577719514203e-05   -8.62109375358508e-07   1.28002719869283e-06
1.3292577719514203e-05   -8.62109375358508e-07   1.28002719869283e-06
1.3292577719514203e-05   -8.62109375358508e-07   1.28002719869283e-06
1.3292577719514203e-05   -8.62109375358508e-07   1.28002719869283e-06
8.274557159396686e-06   -1.5868778526063974e-06   1.0078255885237377e-05
8.274557159396686e-06   -1.5868778526063974e-06   1.0078255885237377e-05
8.274557159396686e-06   -1.5868778526063974e-06   1.0078255885237377e-05
8.274557159396686e-06   -1.5868778526063974e-06   1.0078255885237377e-05
1.329257771951423e-05   -2.766102218647575e-06   1.8546623232882113e-05
1.329257771951423e-05   -2.766102218647575e-06   1.8546623232882113e-05
1.329257771951423e-05   -2.766102218647575e-06   1.8546623232882113e-05
1.329257771951423e-05   -2.766102218647575e-06   1.8546623232882113e-05
2.9326200990006055e-06   -8.62109375358508e-07   2.4224229046663354e-06
2.9326200990006055e-06   -8.62109375358508e-07   2.4224229046663354e-06
2.9326200990006055e-06   -8.62109375358508e-07   2.4224229046663354e-06
2.9326200990006055e-06   -8.62109375358508e-07   2.4224229046663354e-06
2.371948339968838e-06   -3.0881253134348082e-06   1.8201006435859465e-05
2.371948339968838e-06   -3.0881253134348082e-06   1.8201006435859465e-05
2.371948339968838e-06   -3.0881253134348082e-06   1.8201006435859465e-05
2.371948339968838e-06   -3.0881253134348082e-06   1.8201006435859465e-05
1.1931842974261932e-05   -1.3173594742817499e-06   1.2053892085461424e-06
1.1931842974261932e-05   -1.3173594742817499e-06   1.2053892085461424e-06
1.1931842974261932e-05   -1.3173594742817499e-06   1.2053892085461424e-06
1.1931842974261932e-05   -1.3173594742817499e-06   1.2053892085461424e-06
7.297513920670305e-06   -1.729713571695015e-06   9.17668342298038e-06
7.297513920670305e-06   -1.729713571695015e-06   9.17668342298038e-06
7.297513920670305e-06   -1.729713571695015e-06   9.17668342298038e-06
7.297513920670305e-06   -1.729713571695015e-06   9.17668342298038e-06
4.135216406074755e-06   9.356405988704755e-07   3.096035784955773e-05
4.135216406074755e-06   9.356405988704755e-07   3.096035784955773e-05
4.135216406074755e-06   9.356405988704755e-07   3.096035784955773e-05
4.135216406074755e-06   9.356405988704755e-07   3.096035784955773e-05
-6.517574098440681e-06   1.777656208871211e-06   1.3710916374699107e-05
-6.517574098440681e-06   1.777656208871211e-06   1.3710916374699107e-05
-6.517574098440681e-06   1.777656208871211e-06   1.3710916374699107e-05
-6.517574098440681e-06   1.777656208871211e-06   1.3710916374699107e-05
-7.0054288489605255e-06   2.2003597110694696e-07   3.105832703997652e-05
-7.0054288489605255e-06   2.2003597110694696e-07   3.105832703997652e-05
-7.0054288489605255e-06   2.2003597110694696e-07   3.105832703997652e-05
-7.0054288489605255e-06   2.2003597110694696e-07   3.105832703997652e-05
3.5798024537507434e-06   1.0619769721430597e-06   1.2911110268169675e-05
3.5798024537507434e-06   1.0619769721430597e-06   1.2911110268169675e-05
3.5798024537507434e-06   1.0619769721430597e-06   1.2911110268169675e-05
3.5798024537507434e-06   1.0619769721430597e-06   1.2911110268169675e-05
-1.5316152765956173e-06   9.27559985763448e-07   2.1510790010575433e-05
-1.5316152765956173e-06   9.27559985763448e-07   2.1510790010575433e-05
-1.5316152765956173e-06   9.27559985763448e-07   2.1510790010575433e-05
-1.5316152765956173e-06   9.27559985763448e-07   2.1510790010575433e-05
3.579802453750747e-06   2.2003597110694696e-07   3.055316243935472e-05
3.579802453750747e-06   2.2003597110694696e-07   3.055316243935472e-05
3.579802453750747e-06   2.2003597110694696e-07   3.055316243935472e-05
3.579802453750747e-06   2.2003597110694696e-07   3.055316243935472e-05
-7.0054288489605255e-06   1.0619769721430597e-06   1.3416274868791392e-05
-7.0054288489605255e-06   1.0619769721430597e-06   1.3416274868791392e-05
-7.0054288489605255e-06   1.0619769721430597e-06   1.3416274868791392e-05
-7.0054288489605255e-06   1.0619769721430597e-06   1.3416274868791392e-05
-7.507503080012078e-06   -3.6563319729190913e-07   3.0859662988823615e-05
-7.507503080012078e-06   -3.6563319729190913e-07   3.0859662988823615e-05
-7.507503080012078e-06   -3.6563319729190913e-07   3.0859662988823615e-05
-7.507503080012078e-06   -3.6563319729190913e-07   3.0859662988823615e-05
2.9326200990006055e-06   4.5530188783581005e-07   1.2966896639392695e-05
2.9326200990006055e-06   4.5530188783581005e-07   1.2966896639392695e-05
2.9326200990006055e-06   4.5530188783581005e-07   1.2966896639392695e-05
2.9326200990006055e-06   4.5530188783581005e-07   1.2966896639392695e-05
-2.052304962915181e-06   4.2832587197763963e-07   2.129129068543438e-05
-2.052304962915181e-06   4.2832587197763963e-07   2.129129068543438e-05
-2.052304962915181e-06   4.2832587197763963e-07   2.129129068543438e-05
-2.052304962915181e-06   4.2832587197763963e-07   2.129129068543438e-05
2.9326200990006156e-06   -3.6563319729190913e-07   3.03671019377472e-05
2.9326200990006156e-06   -3.6563319729190913e-07   3.03671019377472e-05
2.9326200990006156e-06   -3.6563319729190913e-07   3.03671019377472e-05
2.9326200990006156e-06   -3.6563319729190913e-07   3.03671019377472e-05
-7.507503080012078e-06   4.5530188783581005e-07   1.3459457690469462e-05
-7.507503080012078e-06   4.5530188783581005e-07   1.3459457690469462e-05
-7.507503080012078e-06   4.5530188783581005e-07   1.3459457690469462e-05
-7.507503080012078e-06   4.5530188783581005e-07   1.3459457690469462e-05
-8.002056545118667e-06   -9.429272881046787e-07   3.12664860305698e-05
-8.002056545118667e-06   -9.429272881046787e-07   3.12664860305698e-05
-8.002056545118667e-06   -9.429272881046787e-07   3.12664860305698e-05
-8.002056545118667e-06   -9.429272881046787e-07   3.12664860305698e-05
2.3719483399688314e-06   -1.6484185009525698e-07   1.3509626625951739e-05
2.3719483399688314e-06   -1.6484185009525698e-07   1.3509626625951739e-05
2.3719483399688314e-06   -1.6484185009525698e-07   1.3509626625951739e-05
2.3719483399688314e-06   -1.6484185009525698e-07   1.3509626625951739e-05
-2.493303732226339e-06   -1.9833750991831572e-08   2.1531375220148607e-05
-2.493303732226339e-06   -1.9833750991831572e-08   2.1531375220148607e-05
-2.493303732226339e-06   -1.9833750991831572e-08   2.1531375220148607e-05
-2.493303732226339e-06   -1.9833750991831572e-08   2.1531375220148607e-05
-6.517574098440681e-06   3.5175409925248396e-06   3.433597552551879e-05
-6.517574098440681e-06   3.5175409925248396e-06   3.433597552551879e-05
-6.517574098440681e-06   3.5175409925248396e-06   3.433597552551879e-05
-6.517574098440681e-06   3.5175409925248396e-06   3.433597552551879e-05
-1.6990410869579744e-05   3.315448726991157e-06   1.6759992214300393e-05
-1.6990410869579744e-05   3.315448726991157e-06   1.6759992214300393e-05
-1.6990410869579744e-05   3.315448726991157e-06   1.6759992214300393e-05
-1.6990410869579744e-05   3.315448726991157e-06   1.6759992214300393e-05
-1.7458444636923886e-05   2.867147824205064e-06   3.403251124624047e-05
-1.7458444636923886e-05   2.867147824205064e-06   3.403251124624047e-05
-1.7458444636923886e-05   2.867147824205064e-06   3.403251124624047e-05
-1.7458444636923886e-05   2.867147824205064e-06   3.403251124624047e-05
-7.0054288489604984e-06   2.6555014845052426e-06   1.673780607012196e-05
-7.0054288489604984e-06   2.6555014845052426e-06   1.673780607012196e-05
-7.0054288489604984e-06   2.6555014845052426e-06   1.673780607012196e-05
-7.0054288489604984e-06   2.6555014845052426e-06   1.673780607012196e-05
-1.2015289312798002e-05   3.0152351342893017e-06   2.4871733319981385e-05
-1.2015289312798002e-05   3.0152351342893017e-06   2.4871733319981385e-05
-1.2015289312798002e-05   3.0152351342893017e-06   2.4871733319981385e-05
-1.2015289312798002e-05   3.0152351342893017e-06   2.4871733319981385e-05
-7.0054288489605255e-06   2.867147824205064e-06   3.415949905006058e-05
-7.0054288489605255e-06   2.867147824205064e-06   3.415949905006058e-05
-7.0054288489605255e-06   2.867147824205064e-06   3.415949905006058e-05
-7.0054288489605255e-06   2.867147824205064e-06   3.415949905006058e-05
-1.7458444636923832e-05   2.6555014845050257e-06   1.6610818266301957e-05
-1.7458444636923832e-05   2.6555014845050257e-06   1.6610818266301957e-05
-1.7458444636923832e-05   2.6555014845050257e-06   1.6610818266301957e-05
-1.7458444636923832e-05   2.6555014845050257e-06   1.6610818266301957e-05
-1.7941846429665368e-05   2.2242112716064355e-06   3.425911909742704e-05
-1.7941846429665368e-05   2.2242112716064355e-06   3.425911909742704e-05
-1.7941846429665368e-05   2.2242112716064355e-06   3.425911909742704e-05
-1.7941846429665368e-05   2.2242112716064355e-06   3.425911909742704e-05
-7.507503080012051e-06   1.998929208259616e-06   1.7003716086013158e-05
-7.507503080012051e-06   1.998929208259616e-06   1.7003716086013158e-05
-7.507503080012051e-06   1.998929208259616e-06   1.7003716086013158e-05
-7.507503080012051e-06   1.998929208259616e-06   1.7003716086013158e-05
-1.243205628813929e-05   2.5131925007844044e-06   2.4902746790710258e-05
-1.243205628813929e-05   2.5131925007844044e-06   2.4902746790710258e-05
-1.243205628813929e-05   2.5131925007844044e-06   2.4902746790710258e-05
-1.243205628813929e-05   2.5131925007844044e-06   2.4902746790710258e-05
-7.507503080012078e-06   2.2242112716064355e-06   3.4394288335435046e-05
-7.507503080012078e-06   2.2242112716064355e-06   3.4394288335435046e-05
-7.507503080012078e-06   2.2242112716064355e-06   3.4394288335435046e-05
-7.507503080012078e-06   2.2242112716064355e-06   3.4394288335435046e-05
-1.794184642966534e-05   1.9989292082593993e-06   1.686854684800499e-05
-1.794184642966534e-05   1.9989292082593993e-06   1.686854684800499e-05
-1.794184642966534e-05   1.9989292082593993e-06   1.686854684800499e-05
-1.794184642966534e-05   1.9989292082593993e-06   1.686854684800499e-05
-1.8417713657163133e-05   1.6052174069316593e-06   3.481297532817993e-05
-1.8417713657163133e-05   1.6052174069316593e-06   3.481297532817993e-05
-1.8417713657163133e-05   1.6052174069316593e-06   3.481297532817993e-05
-1.8417713657163133e-05   1.6052174069316593e-06   3.481297532817993e-05
-8.002056545118667e-06   1.370203590497646e-06   1.75945550979663e-05
-8.002056545118667e-06   1.370203590497646e-06   1.75945550979663e-05
-8.002056545118667e-06   1.370203590497646e-06   1.75945550979663e-05
-8.002056545118667e-06   1.370203590497646e-06   1.75945550979663e-05
-1.2875332205497189e-05   2.021186380194752e-06   2.532609152477945e-05
-1.2875332205497189e-05   2.021186380194752e-06   2.532609152477945e-05
-1.2875332205497189e-05   2.021186380194752e-06   2.532609152477945e-05
-1.2875332205497189e-05   2.021186380194752e-06   2.532609152477945e-05
-1.6990410869579744e-05   6.029208863806085e-06   3.024558247667012e-05
-1.6990410869579744e-05   6.029208863806085e-06   3.024558247667012e-05
-1.6990410869579744e-05   6.029208863806085e-06   3.024558247667012e-05
-1.6990410869579744e-05   6.029208863806085e-06   3.024558247667012e-05
-2.7271891763960463e-05   4.923798490444548e-06   1.2446534762018571e-05
-2.7271891763960463e-05   4.923798490444548e-06   1.2446534762018571e-05
-2.7271891763960463e-05   4.923798490444548e-06   1.2446534762018571e-05
-2.7271891763960463e-05   4.923798490444548e-06   1.2446534762018571e-05
-2.778197054559224e-05   5.393742804732024e-06   2.968776891471535e-05
-2.778197054559224e-05   5.393742804732024e-06   2.968776891471535e-05
-2.778197054559224e-05   5.393742804732024e-06   2.968776891471535e-05
-2.778197054559224e-05   5.393742804732024e-06   2.968776891471535e-05
-1.7458444636923805e-05   4.25817665782144e-06   1.3163232088414468e-05
-1.7458444636923805e-05   4.25817665782144e-06   1.3163232088414468e-05
-1.7458444636923805e-05   4.25817665782144e-06   1.3163232088414468e-05
-1.7458444636923805e-05   4.25817665782144e-06   1.3163232088414468e-05
-2.2321750138856825e-05   5.067629619505062e-06   2.0783069481294057e-05
-2.2321750138856825e-05   5.067629619505062e-06   2.0783069481294057e-05
-2.2321750138856825e-05   5.067629619505062e-06   2.0783069481294057e-05
-2.2321750138856825e-05   5.067629619505062e-06   2.0783069481294057e-05
-1.7458444636923886e-05   5.393742804731807e-06   3.0369108602861655e-05
-1.7458444636923886e-05   5.393742804731807e-06   3.0369108602861655e-05
-1.7458444636923886e-05   5.393742804731807e-06   3.0369108602861655e-05
-1.7458444636923886e-05   5.393742804731807e-06   3.0369108602861655e-05
-2.7781970545592187e-05   4.258176657821657e-06   1.2481892400268324e-05
-2.7781970545592187e-05   4.258176657821657e-06   1.2481892400268324e-05
-2.7781970545592187e-05   4.258176657821657e-06   1.2481892400268324e-05
-2.7781970545592187e-05   4.258176657821657e-06   1.2481892400268324e-05
-2.8386130550955607e-05   4.805864061563272e-06   3.066473731053675e-05
-2.8386130550955607e-05   4.805864061563272e-06   3.066473731053675e-05
-2.8386130550955607e-05   4.805864061563272e-06   3.066473731053675e-05
-2.8386130550955607e-05   4.805864061563272e-06   3.066473731053675e-05
-1.7941846429665314e-05   3.6531420109899362e-06   1.3949230338730428e-05
-1.7941846429665314e-05   3.6531420109899362e-06   1.3949230338730428e-05
-1.7941846429665314e-05   3.6531420109899362e-06   1.3949230338730428e-05
-1.7941846429665314e-05   3.6531420109899362e-06   1.3949230338730428e-05
-2.2652510016716237e-05   4.5967785305895455e-06   2.1234154405388886e-05
-2.2652510016716237e-05   4.5967785305895455e-06   2.1234154405388886e-05
-2.2652510016716237e-05   4.5967785305895455e-06   2.1234154405388886e-05
-2.2652510016716237e-05   4.5967785305895455e-06   2.1234154405388886e-05
-1.7941846429665368e-05   4.805864061563272e-06   3.135637054088049e-05
-1.7941846429665368e-05   4.805864061563272e-06   3.135637054088049e-05
-1.7941846429665368e-05   4.805864061563272e-06   3.135637054088049e-05
-1.7941846429665368e-05   4.805864061563272e-06   3.135637054088049e-05
-2.83861305509555e-05   3.6531420109899362e-06   1.3257597108386416e-05
-2.83861305509555e-05   3.6531420109899362e-06   1.3257597108386416e-05
-2.83861305509555e-05   3.6531420109899362e-06   1.3257597108386416e-05
-2.83861305509555e-05   3.6531420109899362e-06   1.3257597108386416e-05
-2.8904679543591434e-05   4.148806384737455e-06   3.160879514383058e-05
-2.8904679543591434e-05   4.148806384737455e-06   3.160879514383058e-05
-2.8904679543591434e-05   4.148806384737455e-06   3.160879514383058e-05
-2.8904679543591434e-05   4.148806384737455e-06   3.160879514383058e-05
-1.841771365716308e-05   3.006699354193539e-06   1.48157828847767e-05
-1.841771365716308e-05   3.006699354193539e-06   1.48157828847767e-05
-1.841771365716308e-05   3.006699354193539e-06   1.48157828847767e-05
-1.841771365716308e-05   3.006699354193539e-06   1.48157828847767e-05
-2.3220837046380815e-05   4.125394780477628e-06   2.2149771277703496e-05
-2.3220837046380815e-05   4.125394780477628e-06   2.2149771277703496e-05
-2.3220837046380815e-05   4.125394780477628e-06   2.2149771277703496e-05
-2.3220837046380815e-05   4.125394780477628e-06   2.2149771277703496e-05
-2.7271891763960517e-05   7.906763269429013e-06   1.41276882571885e-05
-2.7271891763960517e-05   7.906763269429013e-06   1.41276882571885e-05
-2.7271891763960517e-05   7.906763269429013e-06   1.41276882571885e-05
-2.7271891763960517e-05   7.906763269429013e-06   1.41276882571885e-05
-3.654006182189401e-05   6.055674257974576e-06   -2.4299152462398804e-06
-3.654006182189401e-05   6.055674257974576e-06   -2.4299152462398804e-06
-3.654006182189401e-05   6.055674257974576e-06   -2.4299152462398804e-06
-3.654006182189401e-05   6.055674257974576e-06   -2.4299152462398804e-06
-3.7847509931141345e-05   7.702578284619248e-06   1.7417723526603254e-05
-3.7847509931141345e-05   7.702578284619248e-06   1.7417723526603254e-05
-3.7847509931141345e-05   7.702578284619248e-06   1.7417723526603254e-05
-3.7847509931141345e-05   7.702578284619248e-06   1.7417723526603254e-05
-2.7781970545592133e-05   5.71423725158381e-06   1.8348291705098507e-06
-2.7781970545592133e-05   5.71423725158381e-06   1.8348291705098507e-06
-2.7781970545592133e-05   5.71423725158381e-06   1.8348291705098507e-06
-2.7781970545592133e-05   5.71423725158381e-06   1.8348291705098507e-06
-3.118197811066955e-05   6.719359232423405e-06   6.898435257136513e-06
-3.118197811066955e-05   6.719359232423405e-06   6.898435257136513e-06
-3.118197811066955e-05   6.719359232423405e-06   6.898435257136513e-06
-3.118197811066955e-05   6.719359232423405e-06   6.898435257136513e-06
-2.7781970545592187e-05   7.702578284619465e-06   1.8610728146424733e-05
-2.7781970545592187e-05   7.702578284619465e-06   1.8610728146424733e-05
-2.7781970545592187e-05   7.702578284619465e-06   1.8610728146424733e-05
-2.7781970545592187e-05   7.702578284619465e-06   1.8610728146424733e-05
-3.7847509931141345e-05   5.71423725158381e-06   6.418245506883708e-07
-3.7847509931141345e-05   5.71423725158381e-06   6.418245506883708e-07
-3.7847509931141345e-05   5.71423725158381e-06   6.418245506883708e-07
-3.7847509931141345e-05   5.71423725158381e-06   6.418245506883708e-07
-3.8973382463159594e-05   7.453383775799264e-06   2.060991604689805e-05
-3.8973382463159594e-05   7.453383775799264e-06   2.060991604689805e-05
-3.8973382463159594e-05   7.453383775799264e-06   2.060991604689805e-05
-3.8973382463159594e-05   7.453383775799264e-06   2.060991604689805e-05
-2.83861305509555e-05   5.42923115317011e-06   4.1789877668022436e-06
-2.83861305509555e-05   5.42923115317011e-06   4.1789877668022436e-06
-2.83861305509555e-05   5.42923115317011e-06   4.1789877668022436e-06
-2.83861305509555e-05   5.42923115317011e-06   4.1789877668022436e-06
-3.2436885603683404e-05   6.63066288979176e-06   1.0209387146043044e-05
-3.2436885603683404e-05   6.63066288979176e-06   1.0209387146043044e-05
-3.2436885603683404e-05   6.63066288979176e-06   1.0209387146043044e-05
-3.2436885603683404e-05   6.63066288979176e-06   1.0209387146043044e-05
-2.8386130550955553e-05   7.453383775799264e-06   2.18244076204755e-05
-2.8386130550955553e-05   7.453383775799264e-06   2.18244076204755e-05
-2.8386130550955553e-05   7.453383775799264e-06   2.18244076204755e-05
-2.8386130550955553e-05   7.453383775799264e-06   2.18244076204755e-05
-3.8973382463159594e-05   5.42923115317011e-06   2.9644961932248485e-06
-3.8973382463159594e-05   5.42923115317011e-06   2.9644961932248485e-06
-3.8973382463159594e-05   5.42923115317011e-06   2.9644961932248485e-06
-3.8973382463159594e-05   5.42923115317011e-06   2.9644961932248485e-06
-4.032106937146561e-05   6.61744976882526e-06   2.6259258803896547e-05
-4.032106937146561e-05   6.61744976882526e-06   2.6259258803896547e-05
-4.032106937146561e-05   6.61744976882526e-06   2.6259258803896547e-05
-4.032106937146561e-05   6.61744976882526e-06   2.6259258803896547e-05
-2.8904679543591326e-05   4.654486788575581e-06   8.409720212256282e-06
-2.8904679543591326e-05   4.654486788575581e-06   8.409720212256282e-06
-2.8904679543591326e-05   4.654486788575581e-06   8.409720212256282e-06
-2.8904679543591326e-05   4.654486788575581e-06   8.409720212256282e-06
-3.2750602679480144e-05   6.278355864801355e-06   1.3845270659669116e-05
-3.2750602679480144e-05   6.278355864801355e-06   1.3845270659669116e-05
-3.2750602679480144e-05   6.278355864801355e-06   1.3845270659669116e-05
-3.2750602679480144e-05   6.278355864801355e-06   1.3845270659669116e-05
3.1480159320169813e-06   4.4204545816741575e-08   1.6781568495851306e-05
3.1480159320169813e-06   4.4204545816741575e-08   1.6781568495851306e-05
3.1480159320169813e-06   4.4204545816741575e-08   1.6781568495851306e-05
3.1480159320169813e-06   4.4204545816741575e-08   1.6781568495851306e-05
-3.5354704579389963e-06   1.8296069284160117e-06   6.713665942151021e-06
-3.5354704579389963e-06   1.8296069284160117e-06   6.713665942151021e-06
-3.5354704579389963e-06   1.8296069284160117e-06   6.713665942151021e-06
-3.5354704579389963e-06   1.8296069284160117e-06   6.713665942151021e-06
-3.9284654561134616e-06   -5.889673715770913e-07   1.6555433298904806e-05
-3.9284654561134616e-06   -5.889673715770913e-07   1.6555433298904806e-05
-3.9284654561134616e-06   -5.889673715770913e-07   1.6555433298904806e-05
-3.9284654561134616e-06   -5.889673715770913e-07   1.6555433298904806e-05
1.9516767593044486e-06   1.2389627891879786e-06   5.6584381767493255e-06
1.9516767593044486e-06   1.2389627891879786e-06   5.6584381767493255e-06
1.9516767593044486e-06   1.2389627891879786e-06   5.6584381767493255e-06
1.9516767593044486e-06   1.2389627891879786e-06   5.6584381767493255e-06
-7.468959293186703e-07   5.299258320819872e-07   1.0581481498717863e-05
-7.468959293186703e-07   5.299258320819872e-07   1.0581481498717863e-05
-7.468959293186703e-07   5.299258320819872e-07   1.0581481498717863e-05
-7.468959293186703e-07   5.299258320819872e-07   1.0581481498717863e-05
1.9516767593044486e-06   -5.889673715770913e-07   1.5458675202445807e-05
1.9516767593044486e-06   -5.889673715770913e-07   1.5458675202445807e-05
1.9516767593044486e-06   -5.889673715770913e-07   1.5458675202445807e-05
1.9516767593044486e-06   -5.889673715770913e-07   1.5458675202445807e-05
-3.9284654561134616e-06   1.2389627891879786e-06   6.7551962732081885e-06
-3.9284654561134616e-06   1.2389627891879786e-06   6.7551962732081885e-06
-3.9284654561134616e-06   1.2389627891879786e-06   6.7551962732081885e-06
-3.9284654561134616e-06   1.2389627891879786e-06   6.7551962732081885e-06
-4.413878429352956e-06   -8.62109375358508e-07   1.6124425871585674e-05
-4.413878429352956e-06   -8.62109375358508e-07   1.6124425871585674e-05
-4.413878429352956e-06   -8.62109375358508e-07   1.6124425871585674e-05
-4.413878429352956e-06   -8.62109375358508e-07   1.6124425871585674e-05
9.13720542713436e-07   9.136206553571422e-07   6.17965623304548e-06
9.13720542713436e-07   9.136206553571422e-07   6.17965623304548e-06
9.13720542713436e-07   9.136206553571422e-07   6.17965623304548e-06
9.13720542713436e-07   9.136206553571422e-07   6.17965623304548e-06
-1.3927337622600549e-06   2.7823420424826634e-07   1.0404978612000074e-05
-1.3927337622600549e-06   2.7823420424826634e-07   1.0404978612000074e-05
-1.3927337622600549e-06   2.7823420424826634e-07   1.0404978612000074e-05
-1.3927337622600549e-06   2.7823420424826634e-07   1.0404978612000074e-05
9.13720542713436e-07   -8.621093753587248e-07   1.5058987853156023e-05
9.13720542713436e-07   -8.621093753587248e-07   1.5058987853156023e-05
9.13720542713436e-07   -8.621093753587248e-07   1.5058987853156023e-05
9.13720542713436e-07   -8.621093753587248e-07   1.5058987853156023e-05
-4.413878429352949e-06   9.136206553571422e-07   7.2450942514749135e-06
-4.413878429352949e-06   9.136206553571422e-07   7.2450942514749135e-06
-4.413878429352949e-06   9.136206553571422e-07   7.2450942514749135e-06
-4.413878429352949e-06   9.136206553571422e-07   7.2450942514749135e-06
-4.819463241074649e-06   -1.3173594742817499e-06   1.597425863302795e-05
-4.819463241074649e-06   -1.3173594742817499e-06   1.597425863302795e-05
-4.819463241074649e-06   -1.3173594742817499e-06   1.597425863302795e-05
-4.819463241074649e-06   -1.3173594742817499e-06   1.597425863302795e-05
-3.8833680710885173e-07   2.2337632555311827e-07   7.664606429850888e-06
-3.8833680710885173e-07   2.2337632555311827e-07   7.664606429850888e-06
-3.8833680710885173e-07   2.2337632555311827e-07   7.664606429850888e-06
-3.8833680710885173e-07   2.2337632555311827e-07   7.664606429850888e-06
-2.087588965141594e-06   4.7206824964687866e-08   1.0602395060258342e-05
-2.087588965141594e-06   4.7206824964687866e-08   1.0602395060258342e-05
-2.087588965141594e-06   4.7206824964687866e-08   1.0602395060258342e-05
-2.087588965141594e-06   4.7206824964687866e-08   1.0602395060258342e-05
-3.5354704579389963e-06   1.777656208871211e-06   2.6931703485736248e-05
-3.5354704579389963e-06   1.777656208871211e-06   2.6931703485736248e-05
-3.5354704579389963e-06   1.777656208871211e-06   2.6931703485736248e-05
-3.5354704579389963e-06   1.777656208871211e-06   2.6931703485736248e-05
-9.130057487985606e-06   2.1295042133685597e-06   1.7818500571690284e-05
-9.130057487985606e-06   2.1295042133685597e-06   1.7818500571690284e-05
-9.130057487985606e-06   2.1295042133685597e-06   1.7818500571690284e-05
-9.130057487985606e-06   2.1295042133685597e-06   1.7818500571690284e-05
-9.426306867361885e-06   1.0619769721430597e-06   2.6858820732778227e-05
-9.426306867361885e-06   1.0619769721430597e-06   2.6858820732778227e-05
-9.426306867361885e-06   1.0619769721430597e-06   2.6858820732778227e-05
-9.426306867361885e-06   1.0619769721430597e-06   2.6858820732778227e-05
-3.9284654561134616e-06   1.469790577946677e-06   1.7451063550548524e-05
-3.9284654561134616e-06   1.469790577946677e-06   1.7451063550548524e-05
-3.9284654561134616e-06   1.469790577946677e-06   1.7451063550548524e-05
-3.9284654561134616e-06   1.469790577946677e-06   1.7451063550548524e-05
-6.543618116901079e-06   1.5333294470715794e-06   2.1771527997053054e-05
-6.543618116901079e-06   1.5333294470715794e-06   2.1771527997053054e-05
-6.543618116901079e-06   1.5333294470715794e-06   2.1771527997053054e-05
-6.543618116901079e-06   1.5333294470715794e-06   2.1771527997053054e-05
-3.928465456113468e-06   1.0619769721430597e-06   2.661413256929582e-05
-3.928465456113468e-06   1.0619769721430597e-06   2.661413256929582e-05
-3.928465456113468e-06   1.0619769721430597e-06   2.661413256929582e-05
-3.928465456113468e-06   1.0619769721430597e-06   2.661413256929582e-05
-9.426306867361858e-06   1.469790577946677e-06   1.769575171403073e-05
-9.426306867361858e-06   1.469790577946677e-06   1.769575171403073e-05
-9.426306867361858e-06   1.469790577946677e-06   1.769575171403073e-05
-9.426306867361858e-06   1.469790577946677e-06   1.769575171403073e-05
-9.73185271133689e-06   4.5530188783581005e-07   2.6912082479546985e-05
-9.73185271133689e-06   4.5530188783581005e-07   2.6912082479546985e-05
-9.73185271133689e-06   4.5530188783581005e-07   2.6912082479546985e-05
-9.73185271133689e-06   4.5530188783581005e-07   2.6912082479546985e-05
-4.413878429352949e-06   8.606066765610813e-07   1.780560913633863e-05
-4.413878429352949e-06   8.606066765610813e-07   1.780560913633863e-05
-4.413878429352949e-06   8.606066765610813e-07   1.780560913633863e-05
-4.413878429352949e-06   8.606066765610813e-07   1.780560913633863e-05
-6.846059671660386e-06   1.0510993216853847e-06   2.174494895311002e-05
-6.846059671660386e-06   1.0510993216853847e-06   2.174494895311002e-05
-6.846059671660386e-06   1.0510993216853847e-06   2.174494895311002e-05
-6.846059671660386e-06   1.0510993216853847e-06   2.174494895311002e-05
-4.413878429352956e-06   4.553018878360269e-07   2.6668899606311735e-05
-4.413878429352956e-06   4.553018878360269e-07   2.6668899606311735e-05
-4.413878429352956e-06   4.553018878360269e-07   2.6668899606311735e-05
-4.413878429352956e-06   4.553018878360269e-07   2.6668899606311735e-05
-9.73185271133689e-06   8.606066765610813e-07   1.804879200957381e-05
-9.73185271133689e-06   8.606066765610813e-07   1.804879200957381e-05
-9.73185271133689e-06   8.606066765610813e-07   1.804879200957381e-05
-9.73185271133689e-06   8.606066765610813e-07   1.804879200957381e-05
-1.0031527264676255e-05   -1.6484185009504014e-07   2.7435186059416162e-05
-1.0031527264676255e-05   -1.6484185009504014e-07   2.7435186059416162e-05
-1.0031527264676255e-05   -1.6484185009504014e-07   2.7435186059416162e-05
-1.0031527264676255e-05   -1.6484185009504014e-07   2.7435186059416162e-05
-4.819463241074646e-06   2.004073373620876e-07   1.852926317427271e-05
-4.819463241074646e-06   2.004073373620876e-07   1.852926317427271e-05
-4.819463241074646e-06   2.004073373620876e-07   1.852926317427271e-05
-4.819463241074646e-06   2.004073373620876e-07   1.852926317427271e-05
-7.148229209219321e-06   5.769308470261574e-07   2.2184625682048615e-05
-7.148229209219321e-06   5.769308470261574e-07   2.2184625682048615e-05
-7.148229209219321e-06   5.769308470261574e-07   2.2184625682048615e-05
-7.148229209219321e-06   5.769308470261574e-07   2.2184625682048615e-05
-9.13005748798558e-06   3.3154487269913737e-06   3.0313143487355914e-05
-9.13005748798558e-06   3.3154487269913737e-06   3.0313143487355914e-05
-9.13005748798558e-06   3.3154487269913737e-06   3.0313143487355914e-05
-9.13005748798558e-06   3.3154487269913737e-06   3.0313143487355914e-05
-1.4706627827753074e-05   2.5523292352090405e-06   2.0560987892674274e-05
-1.4706627827753074e-05   2.5523292352090405e-06   2.0560987892674274e-05
-1.4706627827753074e-05   2.5523292352090405e-06   2.0560987892674274e-05
-1.4706627827753074e-05   2.5523292352090405e-06   2.0560987892674274e-05
-1.4957271722572895e-05   2.6555014845052426e-06   2.975153712186365e-05
-1.4957271722572895e-05   2.6555014845052426e-06   2.975153712186365e-05
-1.4957271722572895e-05   2.6555014845052426e-06   2.975153712186365e-05
-1.4957271722572895e-05   2.6555014845052426e-06   2.975153712186365e-05
-9.426306867361858e-06   1.940810130763443e-06   2.096207717542357e-05
-9.426306867361858e-06   1.940810130763443e-06   2.096207717542357e-05
-9.426306867361858e-06   1.940810130763443e-06   2.096207717542357e-05
-9.426306867361858e-06   1.940810130763443e-06   2.096207717542357e-05
-1.2061034058807117e-05   2.5657182831930695e-06   2.4978344269708e-05
-1.2061034058807117e-05   2.5657182831930695e-06   2.4978344269708e-05
-1.2061034058807117e-05   2.5657182831930695e-06   2.4978344269708e-05
-1.2061034058807117e-05   2.5657182831930695e-06   2.4978344269708e-05
-9.426306867361858e-06   2.6555014845052426e-06   3.0180351934108686e-05
-9.426306867361858e-06   2.6555014845052426e-06   3.0180351934108686e-05
-9.426306867361858e-06   2.6555014845052426e-06   3.0180351934108686e-05
-9.426306867361858e-06   2.6555014845052426e-06   3.0180351934108686e-05
-1.4957271722572895e-05   1.940810130763443e-06   2.0533262363178642e-05
-1.4957271722572895e-05   1.940810130763443e-06   2.0533262363178642e-05
-1.4957271722572895e-05   1.940810130763443e-06   2.0533262363178642e-05
-1.4957271722572895e-05   1.940810130763443e-06   2.0533262363178642e-05
-1.5225886662019363e-05   1.998929208259616e-06   3.004854962738372e-05
-1.5225886662019363e-05   1.998929208259616e-06   3.004854962738372e-05
-1.5225886662019363e-05   1.998929208259616e-06   3.004854962738372e-05
-1.5225886662019363e-05   1.998929208259616e-06   3.004854962738372e-05
-9.73185271133689e-06   1.319277128747744e-06   2.1299617623953134e-05
-9.73185271133689e-06   1.319277128747744e-06   2.1299617623953134e-05
-9.73185271133689e-06   1.319277128747744e-06   2.1299617623953134e-05
-9.73185271133689e-06   1.319277128747744e-06   2.1299617623953134e-05
-1.2275179194361945e-05   2.0759423954206345e-06   2.508449593565797e-05
-1.2275179194361945e-05   2.0759423954206345e-06   2.508449593565797e-05
-1.2275179194361945e-05   2.0759423954206345e-06   2.508449593565797e-05
-1.2275179194361945e-05   2.0759423954206345e-06   2.508449593565797e-05
-9.73185271133689e-06   1.9989292082593993e-06   3.045634087509052e-05
-9.73185271133689e-06   1.9989292082593993e-06   3.045634087509052e-05
-9.73185271133689e-06   1.9989292082593993e-06   3.045634087509052e-05
-9.73185271133689e-06   1.9989292082593993e-06   3.045634087509052e-05
-1.5225886662019363e-05   1.3192771287479609e-06   2.089182637624612e-05
-1.5225886662019363e-05   1.3192771287479609e-06   2.089182637624612e-05
-1.5225886662019363e-05   1.3192771287479609e-06   2.089182637624612e-05
-1.5225886662019363e-05   1.3192771287479609e-06   2.089182637624612e-05
-1.5488953211011613e-05   1.3702035904974291e-06   3.066913045968005e-05
-1.5488953211011613e-05   1.3702035904974291e-06   3.066913045968005e-05
-1.5488953211011613e-05   1.3702035904974291e-06   3.066913045968005e-05
-1.5488953211011613e-05   1.3702035904974291e-06   3.066913045968005e-05
-1.0031527264676255e-05   7.299822422559415e-07   2.1957553358066312e-05
-1.0031527264676255e-05   7.299822422559415e-07   2.1957553358066312e-05
-1.0031527264676255e-05   7.299822422559415e-07   2.1957553358066312e-05
-1.0031527264676255e-05   7.299822422559415e-07   2.1957553358066312e-05
-1.2513783679279423e-05   1.5935041590509156e-06   2.5576534232327837e-05
-1.2513783679279423e-05   1.5935041590509156e-06   2.5576534232327837e-05
-1.2513783679279423e-05   1.5935041590509156e-06   2.5576534232327837e-05
-1.2513783679279423e-05   1.5935041590509156e-06   2.5576534232327837e-05
-1.4706627827753183e-05   4.923798490444548e-06   2.620506056402207e-05
-1.4706627827753183e-05   4.923798490444548e-06   2.620506056402207e-05
-1.4706627827753183e-05   4.923798490444548e-06   2.620506056402207e-05
-1.4706627827753183e-05   4.923798490444548e-06   2.620506056402207e-05
-2.019084770361868e-05   3.4496145231552224e-06   1.6180183723872512e-05
-2.019084770361868e-05   3.4496145231552224e-06   1.6180183723872512e-05
-2.019084770361868e-05   3.4496145231552224e-06   1.6180183723872512e-05
-2.019084770361868e-05   3.4496145231552224e-06   1.6180183723872512e-05
-2.0466220252374624e-05   4.258176657821657e-06   2.543277986904362e-05
-2.0466220252374624e-05   4.258176657821657e-06   2.543277986904362e-05
-2.0466220252374624e-05   4.258176657821657e-06   2.543277986904362e-05
-2.0466220252374624e-05   4.258176657821657e-06   2.543277986904362e-05
-1.4957271722572895e-05   2.8062248662668286e-06   1.7122370060973784e-05
-1.4957271722572895e-05   2.8062248662668286e-06   1.7122370060973784e-05
-1.4957271722572895e-05   2.8062248662668286e-06   1.7122370060973784e-05
-1.4957271722572895e-05   2.8062248662668286e-06   1.7122370060973784e-05
-1.7543005978478527e-05   3.826814601691399e-06   2.081957331289471e-05
-1.7543005978478527e-05   3.826814601691399e-06   2.081957331289471e-05
-1.7543005978478527e-05   3.826814601691399e-06   2.081957331289471e-05
-1.7543005978478527e-05   3.826814601691399e-06   2.081957331289471e-05
-1.4957271722572895e-05   4.25817665782144e-06   2.6303950943976323e-05
-1.4957271722572895e-05   4.25817665782144e-06   2.6303950943976323e-05
-1.4957271722572895e-05   4.25817665782144e-06   2.6303950943976323e-05
-1.4957271722572895e-05   4.25817665782144e-06   2.6303950943976323e-05
-2.0466220252374516e-05   2.8062248662668286e-06   1.625119898604092e-05
-2.0466220252374516e-05   2.8062248662668286e-06   1.625119898604092e-05
-2.0466220252374516e-05   2.8062248662668286e-06   1.625119898604092e-05
-2.0466220252374516e-05   2.8062248662668286e-06   1.625119898604092e-05
-2.0846938600978823e-05   3.653142010990153e-06   2.627771281713833e-05
-2.0846938600978823e-05   3.653142010990153e-06   2.627771281713833e-05
-2.0846938600978823e-05   3.653142010990153e-06   2.627771281713833e-05
-2.0846938600978823e-05   3.653142010990153e-06   2.627771281713833e-05
-1.5225886662019363e-05   2.2339415093716904e-06   1.7760813219843644e-05
-1.5225886662019363e-05   2.2339415093716904e-06   1.7760813219843644e-05
-1.5225886662019363e-05   2.2339415093716904e-06   1.7760813219843644e-05
-1.5225886662019363e-05   2.2339415093716904e-06   1.7760813219843644e-05
-1.769270669086336e-05   3.352131809505887e-06   2.120126575450292e-05
-1.769270669086336e-05   3.352131809505887e-06   2.120126575450292e-05
-1.769270669086336e-05   3.352131809505887e-06   2.120126575450292e-05
-1.769270669086336e-05   3.352131809505887e-06   2.120126575450292e-05
-1.5225886662019363e-05   3.6531420109899362e-06   2.7129233118108995e-05
-1.5225886662019363e-05   3.6531420109899362e-06   2.7129233118108995e-05
-1.5225886662019363e-05   3.6531420109899362e-06   2.7129233118108995e-05
-1.5225886662019363e-05   3.6531420109899362e-06   2.7129233118108995e-05
-2.084693860097877e-05   2.2339415093716904e-06   1.6909292918872626e-05
-2.084693860097877e-05   2.2339415093716904e-06   1.6909292918872626e-05
-2.084693860097877e-05   2.2339415093716904e-06   1.6909292918872626e-05
-2.084693860097877e-05   2.2339415093716904e-06   1.6909292918872626e-05
-2.115218849093177e-05   3.0066993541937558e-06   2.7217981816456648e-05
-2.115218849093177e-05   3.0066993541937558e-06   2.7217981816456648e-05
-2.115218849093177e-05   3.0066993541937558e-06   2.7217981816456648e-05
-2.115218849093177e-05   3.0066993541937558e-06   2.7217981816456648e-05
-1.5488953211011613e-05   1.6510581543700744e-06   1.859264106981724e-05
-1.5488953211011613e-05   1.6510581543700744e-06   1.859264106981724e-05
-1.5488953211011613e-05   1.6510581543700744e-06   1.859264106981724e-05
-1.5488953211011613e-05   1.6510581543700744e-06   1.859264106981724e-05
-1.800795251879708e-05   2.9008638821083343e-06   2.2041089812817436e-05
-1.800795251879708e-05   2.9008638821083343e-06   2.2041089812817436e-05
-1.800795251879708e-05   2.9008638821083343e-06   2.2041089812817436e-05
-1.800795251879708e-05   2.9008638821083343e-06   2.2041089812817436e-05
-2.019084770361868e-05   6.055674257974793e-06   1.1554753582262664e-05
-2.019084770361868e-05   6.055674257974793e-06   1.1554753582262664e-05
-2.019084770361868e-05   6.055674257974793e-06   1.1554753582262664e-05
-2.019084770361868e-05   6.055674257974793e-06   1.1554753582262664e-05
-2.4491644444779462e-05   4.07407929632164e-06   3.197802036669456e-06
-2.4491644444779462e-05   4.07407929632164e-06   3.197802036669456e-06
-2.4491644444779462e-05   4.07407929632164e-06   3.197802036669456e-06
-2.4491644444779462e-05   4.07407929632164e-06   3.197802036669456e-06
-2.5537150508022667e-05   5.71423725158381e-06   1.3544730065450684e-05
-2.5537150508022667e-05   5.71423725158381e-06   1.3544730065450684e-05
-2.5537150508022667e-05   5.71423725158381e-06   1.3544730065450684e-05
-2.5537150508022667e-05   5.71423725158381e-06   1.3544730065450684e-05
-2.046622025237457e-05   3.6459262951933635e-06   6.334166213204642e-06
-2.046622025237457e-05   3.6459262951933635e-06   6.334166213204642e-06
-2.046622025237457e-05   3.6459262951933635e-06   6.334166213204642e-06
-2.046622025237457e-05   3.6459262951933635e-06   6.334166213204642e-06
-2.1884961032747207e-05   4.823719287787255e-06   7.992058384935952e-06
-2.1884961032747207e-05   4.823719287787255e-06   7.992058384935952e-06
-2.1884961032747207e-05   4.823719287787255e-06   7.992058384935952e-06
-2.1884961032747207e-05   4.823719287787255e-06   7.992058384935952e-06
-2.0466220252374516e-05   5.71423725158381e-06   1.4785716639284822e-05
-2.0466220252374516e-05   5.71423725158381e-06   1.4785716639284822e-05
-2.0466220252374516e-05   5.71423725158381e-06   1.4785716639284822e-05
-2.0466220252374516e-05   5.71423725158381e-06   1.4785716639284822e-05
-2.553715050802283e-05   3.6459262951933635e-06   5.0931796393703365e-06
-2.553715050802283e-05   3.6459262951933635e-06   5.0931796393703365e-06
-2.553715050802283e-05   3.6459262951933635e-06   5.0931796393703365e-06
-2.553715050802283e-05   3.6459262951933635e-06   5.0931796393703365e-06
-2.6434888154203216e-05   5.42923115317011e-06   1.5952767955824433e-05
-2.6434888154203216e-05   5.42923115317011e-06   1.5952767955824433e-05
-2.6434888154203216e-05   5.42923115317011e-06   1.5952767955824433e-05
-2.6434888154203216e-05   5.42923115317011e-06   1.5952767955824433e-05
-2.084693860097877e-05   3.352005286954337e-06   7.885854220179953e-06
-2.084693860097877e-05   3.352005286954337e-06   7.885854220179953e-06
-2.084693860097877e-05   3.352005286954337e-06   7.885854220179953e-06
-2.084693860097877e-05   3.352005286954337e-06   7.885854220179953e-06
-2.2770619565923848e-05   4.655569640146578e-06   1.0309850549840315e-05
-2.2770619565923848e-05   4.655569640146578e-06   1.0309850549840315e-05
-2.2770619565923848e-05   4.655569640146578e-06   1.0309850549840315e-05
-2.2770619565923848e-05   4.655569640146578e-06   1.0309850549840315e-05
-2.084693860097877e-05   5.42923115317011e-06   1.719910347555394e-05
-2.084693860097877e-05   5.42923115317011e-06   1.719910347555394e-05
-2.084693860097877e-05   5.42923115317011e-06   1.719910347555394e-05
-2.084693860097877e-05   5.42923115317011e-06   1.719910347555394e-05
-2.6434888154203324e-05   3.35200528695412e-06   6.639518700450427e-06
-2.6434888154203324e-05   3.35200528695412e-06   6.639518700450427e-06
-2.6434888154203324e-05   3.35200528695412e-06   6.639518700450427e-06
-2.6434888154203324e-05   3.35200528695412e-06   6.639518700450427e-06
-2.7578288084135214e-05   4.654486788575581e-06   2.031110037601096e-05
-2.7578288084135214e-05   4.654486788575581e-06   2.031110037601096e-05
-2.7578288084135214e-05   4.654486788575581e-06   2.031110037601096e-05
-2.7578288084135214e-05   4.654486788575581e-06   2.031110037601096e-05
-2.1152188490931715e-05   2.677681811489403e-06   1.0787017373590146e-05
-2.1152188490931715e-05   2.677681811489403e-06   1.0787017373590146e-05
-2.1152188490931715e-05   2.677681811489403e-06   1.0787017373590146e-05
-2.1152188490931715e-05   2.677681811489403e-06   1.0787017373590146e-05
-2.3024185018661675e-05   4.333999932655368e-06   1.2913220713773785e-05
-2.3024185018661675e-05   4.333999932655368e-06   1.2913220713773785e-05
-2.3024185018661675e-05   4.333999932655368e-06   1.2913220713773785e-05
-2.3024185018661675e-05   4.333999932655368e-06   1.2913220713773785e-05
-1.0077063995212604e-05   1.8296069284160117e-06   1.1964905305552036e-05
-1.0077063995212604e-05   1.8296069284160117e-06   1.1964905305552036e-05
-1.0077063995212604e-05   1.8296069284160117e-06   1.1964905305552036e-05
-1.0077063995212604e-05   1.8296069284160117e-06   1.1964905305552036e-05
-1.0998038711993794e-05   3.451692646806357e-06   1.1403198875284187e-05
-1.0998038711993794e-05   3.451692646806357e-06   1.1403198875284187e-05
-1.0998038711993794e-05   3.451692646806357e-06   1.1403198875284187e-05
-1.0998038711993794e-05   3.451692646806357e-06   1.1403198875284187e-05
-1.127977513974591e-05   1.2389627891879786e-06   1.2859005369721208e-05
-1.127977513974591e-05   1.2389627891879786e-06   1.2859005369721208e-05
-1.127977513974591e-05   1.2389627891879786e-06   1.2859005369721208e-05
-1.127977513974591e-05   1.2389627891879786e-06   1.2859005369721208e-05
-1.1264915828841128e-05   2.6974980023717265e-06   1.1959118723636362e-05
-1.1264915828841128e-05   2.6974980023717265e-06   1.1959118723636362e-05
-1.1264915828841128e-05   2.6974980023717265e-06   1.1959118723636362e-05
-1.1264915828841128e-05   2.6974980023717265e-06   1.1959118723636362e-05
-1.0633418647480653e-05   2.1543656900579675e-06   1.1232502808757158e-05
-1.0633418647480653e-05   2.1543656900579675e-06   1.1232502808757158e-05
-1.0633418647480653e-05   2.1543656900579675e-06   1.1232502808757158e-05
-1.0633418647480653e-05   2.1543656900579675e-06   1.1232502808757158e-05
-1.1264915828841142e-05   1.2389627891877617e-06   1.1983884241810764e-05
-1.1264915828841142e-05   1.2389627891877617e-06   1.1983884241810764e-05
-1.1264915828841142e-05   1.2389627891877617e-06   1.1983884241810764e-05
-1.1264915828841142e-05   1.2389627891877617e-06   1.1983884241810764e-05
-1.127977513974591e-05   2.6974980023717265e-06   1.283423985154659e-05
-1.127977513974591e-05   2.6974980023717265e-06   1.283423985154659e-05
-1.127977513974591e-05   2.6974980023717265e-06   1.283423985154659e-05
-1.127977513974591e-05   2.6974980023717265e-06   1.283423985154659e-05
-1.1645483820036302e-05   9.136206553569254e-07   1.3269227291092033e-05
-1.1645483820036302e-05   9.136206553569254e-07   1.3269227291092033e-05
-1.1645483820036302e-05   9.136206553569254e-07   1.3269227291092033e-05
-1.1645483820036302e-05   9.136206553569254e-07   1.3269227291092033e-05
-1.2419954895657952e-05   2.175809427865864e-06   1.3802699153622516e-05
-1.2419954895657952e-05   2.175809427865864e-06   1.3802699153622516e-05
-1.2419954895657952e-05   2.175809427865864e-06   1.3802699153622516e-05
-1.2419954895657952e-05   2.175809427865864e-06   1.3802699153622516e-05
-1.1340561129998776e-05   1.8289701121169911e-06   1.2211813133639559e-05
-1.1340561129998776e-05   1.8289701121169911e-06   1.2211813133639559e-05
-1.1340561129998776e-05   1.8289701121169911e-06   1.2211813133639559e-05
-1.1340561129998776e-05   1.8289701121169911e-06   1.2211813133639559e-05
-1.2419954895657965e-05   9.136206553569254e-07   1.2511914027586355e-05
-1.2419954895657965e-05   9.136206553569254e-07   1.2511914027586355e-05
-1.2419954895657965e-05   9.136206553569254e-07   1.2511914027586355e-05
-1.2419954895657965e-05   9.136206553569254e-07   1.2511914027586355e-05
-1.1645483820036302e-05   2.175809427865864e-06   1.4560012417127815e-05
-1.1645483820036302e-05   2.175809427865864e-06   1.4560012417127815e-05
-1.1645483820036302e-05   2.175809427865864e-06   1.4560012417127815e-05
-1.1645483820036302e-05   2.175809427865864e-06   1.4560012417127815e-05
-1.187784077227146e-05   2.2337632555311827e-07   1.458984193810389e-05
-1.187784077227146e-05   2.2337632555311827e-07   1.458984193810389e-05
-1.187784077227146e-05   2.2337632555311827e-07   1.458984193810389e-05
-1.187784077227146e-05   2.2337632555311827e-07   1.458984193810389e-05
-1.3649591248332524e-05   8.924943011282991e-07   1.7141288612860205e-05
-1.3649591248332524e-05   8.924943011282991e-07   1.7141288612860205e-05
-1.3649591248332524e-05   8.924943011282991e-07   1.7141288612860205e-05
-1.3649591248332524e-05   8.924943011282991e-07   1.7141288612860205e-05
-1.1835379180875393e-05   1.4292199350817054e-06   1.3795566453392641e-05
-1.1835379180875393e-05   1.4292199350817054e-06   1.3795566453392641e-05
-1.1835379180875393e-05   1.4292199350817054e-06   1.3795566453392641e-05
-1.1835379180875393e-05   1.4292199350817054e-06   1.3795566453392641e-05
-1.0998038711993774e-05   2.1295042133685597e-06   2.3831882563427054e-05
-1.0998038711993774e-05   2.1295042133685597e-06   2.3831882563427054e-05
-1.0998038711993774e-05   2.1295042133685597e-06   2.3831882563427054e-05
-1.0998038711993774e-05   2.1295042133685597e-06   2.3831882563427054e-05
-1.1134480652121395e-05   8.932313093694107e-07   2.286271558748159e-05
-1.1134480652121395e-05   8.932313093694107e-07   2.286271558748159e-05
-1.1134480652121395e-05   8.932313093694107e-07   2.286271558748159e-05
-1.1134480652121395e-05   8.932313093694107e-07   2.286271558748159e-05
-1.1220971519883548e-05   1.469790577946677e-06   2.2930214721392358e-05
-1.1220971519883548e-05   1.469790577946677e-06   2.2930214721392358e-05
-1.1220971519883548e-05   1.469790577946677e-06   2.2930214721392358e-05
-1.1220971519883548e-05   1.469790577946677e-06   2.2930214721392358e-05
-1.127977513974591e-05   4.286940351644255e-07   2.3652878680165612e-05
-1.127977513974591e-05   4.286940351644255e-07   2.3652878680165612e-05
-1.127977513974591e-05   4.286940351644255e-07   2.3652878680165612e-05
-1.127977513974591e-05   4.286940351644255e-07   2.3652878680165612e-05
-1.1123861760790225e-05   1.0881370963273466e-06   2.2997357211875094e-05
-1.1123861760790225e-05   1.0881370963273466e-06   2.2997357211875094e-05
-1.1123861760790225e-05   1.0881370963273466e-06   2.2997357211875094e-05
-1.1123861760790225e-05   1.0881370963273466e-06   2.2997357211875094e-05
-1.12797751397459e-05   1.4697905779464601e-06   2.355487264706134e-05
-1.12797751397459e-05   1.4697905779464601e-06   2.355487264706134e-05
-1.12797751397459e-05   1.4697905779464601e-06   2.355487264706134e-05
-1.12797751397459e-05   1.4697905779464601e-06   2.355487264706134e-05
-1.1220971519883548e-05   4.286940351644255e-07   2.302822075449625e-05
-1.1220971519883548e-05   4.286940351644255e-07   2.302822075449625e-05
-1.1220971519883548e-05   4.286940351644255e-07   2.302822075449625e-05
-1.1220971519883548e-05   4.286940351644255e-07   2.302822075449625e-05
-1.1328254047770814e-05   8.606066765610813e-07   2.3247170584504316e-05
-1.1328254047770814e-05   8.606066765610813e-07   2.3247170584504316e-05
-1.1328254047770814e-05   8.606066765610813e-07   2.3247170584504316e-05
-1.1328254047770814e-05   8.606066765610813e-07   2.3247170584504316e-05
-1.1645483820036302e-05   -1.1034597585787755e-07   2.43584584630647e-05
-1.1645483820036302e-05   -1.1034597585787755e-07   2.43584584630647e-05
-1.1645483820036302e-05   -1.1034597585787755e-07   2.43584584630647e-05
-1.1645483820036302e-05   -1.1034597585787755e-07   2.43584584630647e-05
-1.1229981617061317e-05   7.031330842970649e-07   2.3177867355346493e-05
-1.1229981617061317e-05   7.031330842970649e-07   2.3177867355346493e-05
-1.1229981617061317e-05   7.031330842970649e-07   2.3177867355346493e-05
-1.1229981617061317e-05   7.031330842970649e-07   2.3177867355346493e-05
-1.1645483820036302e-05   8.606066765610813e-07   2.38297421759553e-05
-1.1645483820036302e-05   8.606066765610813e-07   2.38297421759553e-05
-1.1645483820036302e-05   8.606066765610813e-07   2.38297421759553e-05
-1.1645483820036302e-05   8.606066765610813e-07   2.38297421759553e-05
-1.132825404777076e-05   -1.1034597585776913e-07   2.3775886871613334e-05
-1.132825404777076e-05   -1.1034597585776913e-07   2.3775886871613334e-05
-1.132825404777076e-05   -1.1034597585776913e-07   2.3775886871613334e-05
-1.132825404777076e-05   -1.1034597585776913e-07   2.3775886871613334e-05
-1.1405959506498482e-05   2.004073373620876e-07   2.3918460102185786e-05
-1.1405959506498482e-05   2.004073373620876e-07   2.3918460102185786e-05
-1.1405959506498482e-05   2.004073373620876e-07   2.3918460102185786e-05
-1.1405959506498482e-05   2.004073373620876e-07   2.3918460102185786e-05
-1.1877840772271454e-05   -8.189211633691934e-07   2.5316525978912822e-05
-1.1877840772271454e-05   -8.189211633691934e-07   2.5316525978912822e-05
-1.1877840772271454e-05   -8.189211633691934e-07   2.5316525978912822e-05
-1.1877840772271454e-05   -8.189211633691934e-07   2.5316525978912822e-05
-1.1398292896280958e-05   2.504698149682124e-07   2.387564493192565e-05
-1.1398292896280958e-05   2.504698149682124e-07   2.387564493192565e-05
-1.1398292896280958e-05   2.504698149682124e-07   2.387564493192565e-05
-1.1398292896280958e-05   2.504698149682124e-07   2.387564493192565e-05
-1.1134480652121422e-05   2.5523292352090405e-06   2.6290477837080878e-05
-1.1134480652121422e-05   2.5523292352090405e-06   2.6290477837080878e-05
-1.1134480652121422e-05   2.5523292352090405e-06   2.6290477837080878e-05
-1.1134480652121422e-05   2.5523292352090405e-06   2.6290477837080878e-05
-1.197998807920392e-05   2.482268081439908e-07   2.3498837335704135e-05
-1.197998807920392e-05   2.482268081439908e-07   2.3498837335704135e-05
-1.197998807920392e-05   2.482268081439908e-07   2.3498837335704135e-05
-1.197998807920392e-05   2.482268081439908e-07   2.3498837335704135e-05
-1.200839434527197e-05   1.940810130763443e-06   2.4945412079008028e-05
-1.200839434527197e-05   1.940810130763443e-06   2.4945412079008028e-05
-1.200839434527197e-05   1.940810130763443e-06   2.4945412079008028e-05
-1.200839434527197e-05   1.940810130763443e-06   2.4945412079008028e-05
-1.1220971519883548e-05   -1.4440337553164352e-07   2.4884168807137838e-05
-1.1220971519883548e-05   -1.4440337553164352e-07   2.4884168807137838e-05
-1.1220971519883548e-05   -1.4440337553164352e-07   2.4884168807137838e-05
-1.1220971519883548e-05   -1.4440337553164352e-07   2.4884168807137838e-05
-1.156600420994632e-05   1.1105890825080554e-06   2.4706227815751985e-05
-1.156600420994632e-05   1.1105890825080554e-06   2.4706227815751985e-05
-1.156600420994632e-05   1.1105890825080554e-06   2.4706227815751985e-05
-1.156600420994632e-05   1.1105890825080554e-06   2.4706227815751985e-05
-1.1220971519883548e-05   1.940810130763443e-06   2.6196540182785036e-05
-1.1220971519883548e-05   1.940810130763443e-06   2.6196540182785036e-05
-1.1220971519883548e-05   1.940810130763443e-06   2.6196540182785036e-05
-1.1220971519883548e-05   1.940810130763443e-06   2.6196540182785036e-05
-1.2008394345271916e-05   -1.4440337553164352e-07   2.363304070336072e-05
-1.2008394345271916e-05   -1.4440337553164352e-07   2.363304070336072e-05
-1.2008394345271916e-05   -1.4440337553164352e-07   2.363304070336072e-05
-1.2008394345271916e-05   -1.4440337553164352e-07   2.363304070336072e-05
-1.2060785640406833e-05   1.319277128747744e-06   2.533767991069074e-05
-1.2060785640406833e-05   1.319277128747744e-06   2.533767991069074e-05
-1.2060785640406833e-05   1.319277128747744e-06   2.533767991069074e-05
-1.2060785640406833e-05   1.319277128747744e-06   2.533767991069074e-05
-1.1328254047770787e-05   -6.145833515742039e-07   2.527711021115686e-05
-1.1328254047770787e-05   -6.145833515742039e-07   2.527711021115686e-05
-1.1328254047770787e-05   -6.145833515742039e-07   2.527711021115686e-05
-1.1328254047770787e-05   -6.145833515742039e-07   2.527711021115686e-05
-1.1571495557552243e-05   7.215961180290394e-07   2.4880805045696683e-05
-1.1571495557552243e-05   7.215961180290394e-07   2.4880805045696683e-05
-1.1571495557552243e-05   7.215961180290394e-07   2.4880805045696683e-05
-1.1571495557552243e-05   7.215961180290394e-07   2.4880805045696683e-05
-1.1328254047770814e-05   1.3192771287479609e-06   2.6497996198883477e-05
-1.1328254047770814e-05   1.3192771287479609e-06   2.6497996198883477e-05
-1.1328254047770814e-05   1.3192771287479609e-06   2.6497996198883477e-05
-1.1328254047770814e-05   1.3192771287479609e-06   2.6497996198883477e-05
-1.2060785640406778e-05   -6.145833515742039e-07   2.4116793922963664e-05
-1.2060785640406778e-05   -6.145833515742039e-07   2.4116793922963664e-05
-1.2060785640406778e-05   -6.145833515742039e-07   2.4116793922963664e-05
-1.2060785640406778e-05   -6.145833515742039e-07   2.4116793922963664e-05
-1.2093933514675033e-05   7.299822422557247e-07   2.6037493568883052e-05
-1.2093933514675033e-05   7.299822422557247e-07   2.6037493568883052e-05
-1.2093933514675033e-05   7.299822422557247e-07   2.6037493568883052e-05
-1.2093933514675033e-05   7.299822422557247e-07   2.6037493568883052e-05
-1.1405959506498455e-05   -1.0868630987811078e-06   2.5980977426544045e-05
-1.1405959506498455e-05   -1.0868630987811078e-06   2.5980977426544045e-05
-1.1405959506498455e-05   -1.0868630987811078e-06   2.5980977426544045e-05
-1.1405959506498455e-05   -1.0868630987811078e-06   2.5980977426544045e-05
-1.1596170497154496e-05   3.2164614919942547e-07   2.545289019551504e-05
-1.1596170497154496e-05   3.2164614919942547e-07   2.545289019551504e-05
-1.1596170497154496e-05   3.2164614919942547e-07   2.545289019551504e-05
-1.1596170497154496e-05   3.2164614919942547e-07   2.545289019551504e-05
-1.197998807920392e-05   3.4496145231552224e-06   2.1411722592413465e-05
-1.197998807920392e-05   3.4496145231552224e-06   2.1411722592413465e-05
-1.197998807920392e-05   3.4496145231552224e-06   2.1411722592413465e-05
-1.197998807920392e-05   3.4496145231552224e-06   2.1411722592413465e-05
-1.320641014007374e-05   1.1323812350704648e-06   1.7977345851446343e-05
-1.320641014007374e-05   1.1323812350704648e-06   1.7977345851446343e-05
-1.320641014007374e-05   1.1323812350704648e-06   1.7977345851446343e-05
-1.320641014007374e-05   1.1323812350704648e-06   1.7977345851446343e-05
-1.3227127071420105e-05   2.8062248662670455e-06   2.0219892997841177e-05
-1.3227127071420105e-05   2.8062248662670455e-06   2.0219892997841177e-05
-1.3227127071420105e-05   2.8062248662670455e-06   2.0219892997841177e-05
-1.3227127071420105e-05   2.8062248662670455e-06   2.0219892997841177e-05
-1.200839434527197e-05   6.151802346634908e-07   1.9503298566556277e-05
-1.200839434527197e-05   6.151802346634908e-07   1.9503298566556277e-05
-1.200839434527197e-05   6.151802346634908e-07   1.9503298566556277e-05
-1.200839434527197e-05   6.151802346634908e-07   1.9503298566556277e-05
-1.2572503840694725e-05   2.048467991963587e-06   1.9583508404547403e-05
-1.2572503840694725e-05   2.048467991963587e-06   1.9583508404547403e-05
-1.2572503840694725e-05   2.048467991963587e-06   1.9583508404547403e-05
-1.2572503840694725e-05   2.048467991963587e-06   1.9583508404547403e-05
-1.200839434527197e-05   2.8062248662670455e-06   2.1534519776803007e-05
-1.200839434527197e-05   2.8062248662670455e-06   2.1534519776803007e-05
-1.200839434527197e-05   2.8062248662670455e-06   2.1534519776803007e-05
-1.200839434527197e-05   2.8062248662670455e-06   2.1534519776803007e-05
-1.3227127071420105e-05   6.151802346634908e-07   1.8188671787594272e-05
-1.3227127071420105e-05   6.151802346634908e-07   1.8188671787594272e-05
-1.3227127071420105e-05   6.151802346634908e-07   1.8188671787594272e-05
-1.3227127071420105e-05   6.151802346634908e-07   1.8188671787594272e-05
-1.3369765340997175e-05   2.2339415093716904e-06   2.0969718964690756e-05
-1.3369765340997175e-05   2.2339415093716904e-06   2.0969718964690756e-05
-1.3369765340997175e-05   2.2339415093716904e-06   2.0969718964690756e-05
-1.3369765340997175e-05   2.2339415093716904e-06   2.0969718964690756e-05
-1.2060785640406833e-05   1.7236186004312114e-07   2.0025033919970686e-05
-1.2060785640406833e-05   1.7236186004312114e-07   2.0025033919970686e-05
-1.2060785640406833e-05   1.7236186004312114e-07   2.0025033919970686e-05
-1.2060785640406833e-05   1.7236186004312114e-07   2.0025033919970686e-05
-1.2535733076800883e-05   1.6234526045758556e-06   1.9945958533906924e-05
-1.2535733076800883e-05   1.6234526045758556e-06   1.9945958533906924e-05
-1.2535733076800883e-05   1.6234526045758556e-06   1.9945958533906924e-05
-1.2535733076800883e-05   1.6234526045758556e-06   1.9945958533906924e-05
-1.2060785640406833e-05   2.2339415093716904e-06   2.2206666754287507e-05
-1.2060785640406833e-05   2.2339415093716904e-06   2.2206666754287507e-05
-1.2060785640406833e-05   2.2339415093716904e-06   2.2206666754287507e-05
-1.2060785640406833e-05   2.2339415093716904e-06   2.2206666754287507e-05
-1.3369765340997175e-05   1.7236186004312114e-07   1.878808613037355e-05
-1.3369765340997175e-05   1.7236186004312114e-07   1.878808613037355e-05
-1.3369765340997175e-05   1.7236186004312114e-07   1.878808613037355e-05
-1.3369765340997175e-05   1.7236186004312114e-07   1.878808613037355e-05
-1.3454534534328242e-05   1.6510581543702912e-06   2.190168278181086e-05
-1.3454534534328242e-05   1.6510581543702912e-06   2.190168278181086e-05
-1.3454534534328242e-05   1.6510581543702912e-06   2.190168278181086e-05
-1.3454534534328242e-05   1.6510581543702912e-06   2.190168278181086e-05
-1.2093933514674979e-05   -2.7399402524348054e-07   2.0789045723489943e-05
-1.2093933514674979e-05   -2.7399402524348054e-07   2.0789045723489943e-05
-1.2093933514674979e-05   -2.7399402524348054e-07   2.0789045723489943e-05
-1.2093933514674979e-05   -2.7399402524348054e-07   2.0789045723489943e-05
-1.2597666700169398e-05   1.2439204459226616e-06   2.0717852349947307e-05
-1.2597666700169398e-05   1.2439204459226616e-06   2.0717852349947307e-05
-1.2597666700169398e-05   1.2439204459226616e-06   2.0717852349947307e-05
-1.2597666700169398e-05   1.2439204459226616e-06   2.0717852349947307e-05
-1.3206410140073795e-05   4.07407929632164e-06   8.227957909351423e-06
-1.3206410140073795e-05   4.07407929632164e-06   8.227957909351423e-06
-1.3206410140073795e-05   4.07407929632164e-06   8.227957909351423e-06
-1.3206410140073795e-05   4.07407929632164e-06   8.227957909351423e-06
-1.3029545845103072e-05   1.8648063990341036e-06   7.1971679959301476e-06
-1.3029545845103072e-05   1.8648063990341036e-06   7.1971679959301476e-06
-1.3029545845103072e-05   1.8648063990341036e-06   7.1971679959301476e-06
-1.3029545845103072e-05   1.8648063990341036e-06   7.1971679959301476e-06
-1.369948613173268e-05   3.6459262951933635e-06   9.014693760298021e-06
-1.369948613173268e-05   3.6459262951933635e-06   9.014693760298021e-06
-1.369948613173268e-05   3.6459262951933635e-06   9.014693760298021e-06
-1.369948613173268e-05   3.6459262951933635e-06   9.014693760298021e-06
-1.322712707142005e-05   1.4989821873489812e-06   9.515595124483744e-06
-1.322712707142005e-05   1.4989821873489812e-06   9.515595124483744e-06
-1.322712707142005e-05   1.4989821873489812e-06   9.515595124483744e-06
-1.322712707142005e-05   1.4989821873489812e-06   9.515595124483744e-06
-1.28589768200734e-05   2.865695683130251e-06   8.081983274770585e-06
-1.28589768200734e-05   2.865695683130251e-06   8.081983274770585e-06
-1.28589768200734e-05   2.865695683130251e-06   8.081983274770585e-06
-1.28589768200734e-05   2.865695683130251e-06   8.081983274770585e-06
-1.322712707142005e-05   3.6459262951933635e-06   1.030286022500452e-05
-1.322712707142005e-05   3.6459262951933635e-06   1.030286022500452e-05
-1.322712707142005e-05   3.6459262951933635e-06   1.030286022500452e-05
-1.322712707142005e-05   3.6459262951933635e-06   1.030286022500452e-05
-1.369948613173268e-05   1.4989821873489812e-06   8.227428659777163e-06
-1.369948613173268e-05   1.4989821873489812e-06   8.227428659777163e-06
-1.369948613173268e-05   1.4989821873489812e-06   8.227428659777163e-06
-1.369948613173268e-05   1.4989821873489812e-06   8.227428659777163e-06
-1.4287854828239099e-05   3.35200528695412e-06   1.069091432992584e-05
-1.4287854828239099e-05   3.35200528695412e-06   1.069091432992584e-05
-1.4287854828239099e-05   3.35200528695412e-06   1.069091432992584e-05
-1.4287854828239099e-05   3.35200528695412e-06   1.069091432992584e-05
-1.336976534099712e-05   1.259728726833633e-06   1.0416131120594705e-05
-1.336976534099712e-05   1.259728726833633e-06   1.0416131120594705e-05
-1.336976534099712e-05   1.259728726833633e-06   1.0416131120594705e-05
-1.336976534099712e-05   1.259728726833633e-06   1.0416131120594705e-05
-1.3336065961252623e-05   2.6517192435718175e-06   9.524771177643783e-06
-1.3336065961252623e-05   2.6517192435718175e-06   9.524771177643783e-06
-1.3336065961252623e-05   2.6517192435718175e-06   9.524771177643783e-06
-1.3336065961252623e-05   2.6517192435718175e-06   9.524771177643783e-06
-1.336976534099712e-05   3.35200528695412e-06   1.1946280265997785e-05
-1.336976534099712e-05   3.35200528695412e-06   1.1946280265997785e-05
-1.336976534099712e-05   3.35200528695412e-06   1.1946280265997785e-05
-1.336976534099712e-05   3.35200528695412e-06   1.1946280265997785e-05
-1.4287854828239099e-05   1.259728726833633e-06   9.160765184522326e-06
-1.4287854828239099e-05   1.259728726833633e-06   9.160765184522326e-06
-1.4287854828239099e-05   1.259728726833633e-06   9.160765184522326e-06
-1.4287854828239099e-05   1.259728726833633e-06   9.160765184522326e-06
-1.516350773946083e-05   2.677681811489403e-06   1.3770294891023247e-05
-1.516350773946083e-05   2.677681811489403e-06   1.3770294891023247e-05
-1.516350773946083e-05   2.677681811489403e-06   1.3770294891023247e-05
-1.516350773946083e-05   2.677681811489403e-06   1.3770294891023247e-05
-1.3454534534328188e-05   7.791002873988422e-07   1.2061155130256573e-05
-1.3454534534328188e-05   7.791002873988422e-07   1.2061155130256573e-05
-1.3454534534328188e-05   7.791002873988422e-07   1.2061155130256573e-05
-1.3454534534328188e-05   7.791002873988422e-07   1.2061155130256573e-05
-1.3497283236323104e-05   2.397763225892545e-06   1.1161205203817246e-05
-1.3497283236323104e-05   2.397763225892545e-06   1.1161205203817246e-05
-1.3497283236323104e-05   2.397763225892545e-06   1.1161205203817246e-05
-1.3497283236323104e-05   2.397763225892545e-06   1.1161205203817246e-05
-2.606918849494348e-05   3.451692646806357e-06   9.999595072096102e-06
-2.606918849494348e-05   3.451692646806357e-06   9.999595072096102e-06
-2.606918849494348e-05   3.451692646806357e-06   9.999595072096102e-06
-2.606918849494348e-05   3.451692646806357e-06   9.999595072096102e-06
-1.7586193046643237e-05   4.7811633300911855e-06   2.493560322923405e-05
-1.7586193046643237e-05   4.7811633300911855e-06   2.493560322923405e-05
-1.7586193046643237e-05   4.7811633300911855e-06   2.493560322923405e-05
-1.7586193046643237e-05   4.7811633300911855e-06   2.493560322923405e-05
-1.757681432459601e-05   2.6974980023717265e-06   1.1372200377506578e-05
-1.757681432459601e-05   2.6974980023717265e-06   1.1372200377506578e-05
-1.757681432459601e-05   2.6974980023717265e-06   1.1372200377506578e-05
-1.757681432459601e-05   2.6974980023717265e-06   1.1372200377506578e-05
-2.870753452180122e-05   1.944177172342695e-06   3.0375393204199608e-05
-2.870753452180122e-05   1.944177172342695e-06   3.0375393204199608e-05
-2.870753452180122e-05   1.944177172342695e-06   3.0375393204199608e-05
-2.870753452180122e-05   1.944177172342695e-06   3.0375393204199608e-05
-2.132494278683298e-05   2.8349369042737337e-06   1.75366178067606e-05
-2.132494278683298e-05   2.8349369042737337e-06   1.75366178067606e-05
-2.132494278683298e-05   2.8349369042737337e-06   1.75366178067606e-05
-2.132494278683298e-05   2.8349369042737337e-06   1.75366178067606e-05
-2.8707534521801273e-05   2.6974980023717265e-06   1.1824192875524052e-05
-2.8707534521801273e-05   2.6974980023717265e-06   1.1824192875524052e-05
-2.8707534521801273e-05   2.6974980023717265e-06   1.1824192875524052e-05
-2.8707534521801273e-05   2.6974980023717265e-06   1.1824192875524052e-05
-1.757681432459601e-05   1.944177172342695e-06   2.992340070618216e-05
-1.757681432459601e-05   1.944177172342695e-06   2.992340070618216e-05
-1.757681432459601e-05   1.944177172342695e-06   2.992340070618216e-05
-1.757681432459601e-05   1.944177172342695e-06   2.992340070618216e-05
-1.7814113698210287e-05   2.175809427865864e-06   1.2726440722879754e-05
-1.7814113698210287e-05   2.175809427865864e-06   1.2726440722879754e-05
-1.7814113698210287e-05   2.175809427865864e-06   1.2726440722879754e-05
-1.7814113698210287e-05   2.175809427865864e-06   1.2726440722879754e-05
-2.8806329071014424e-05   1.3976918656643015e-06   3.15136702148741e-05
-2.8806329071014424e-05   1.3976918656643015e-06   3.15136702148741e-05
-2.8806329071014424e-05   1.3976918656643015e-06   3.15136702148741e-05
-2.8806329071014424e-05   1.3976918656643015e-06   3.15136702148741e-05
-2.2751520222302606e-05   1.7737938998502092e-06   2.1196660913175958e-05
-2.2751520222302606e-05   1.7737938998502092e-06   2.1196660913175958e-05
-2.2751520222302606e-05   1.7737938998502092e-06   2.1196660913175958e-05
-2.2751520222302606e-05   1.7737938998502092e-06   2.1196660913175958e-05
-2.8806329071014465e-05   2.175809427865864e-06   1.3193311260200605e-05
-2.8806329071014465e-05   2.175809427865864e-06   1.3193311260200605e-05
-2.8806329071014465e-05   2.175809427865864e-06   1.3193311260200605e-05
-2.8806329071014465e-05   2.175809427865864e-06   1.3193311260200605e-05
-1.7814113698210253e-05   1.3976918656643015e-06   3.104679967755325e-05
-1.7814113698210253e-05   1.3976918656643015e-06   3.104679967755325e-05
-1.7814113698210253e-05   1.3976918656643015e-06   3.104679967755325e-05
-1.7814113698210253e-05   1.3976918656643015e-06   3.104679967755325e-05
-1.7621517812713964e-05   8.924943011282991e-07   1.5095616019873855e-05
-1.7621517812713964e-05   8.924943011282991e-07   1.5095616019873855e-05
-1.7621517812713964e-05   8.924943011282991e-07   1.5095616019873855e-05
-1.7621517812713964e-05   8.924943011282991e-07   1.5095616019873855e-05
-2.9114225652727975e-05   -9.247742790586947e-07   3.5340490234675944e-05
-2.9114225652727975e-05   -9.247742790586947e-07   3.5340490234675944e-05
-2.9114225652727975e-05   -9.247742790586947e-07   3.5340490234675944e-05
-2.9114225652727975e-05   -9.247742790586947e-07   3.5340490234675944e-05
-2.2401765088555194e-05   8.63410405033127e-07   2.308014515059963e-05
-2.2401765088555194e-05   8.63410405033127e-07   2.308014515059963e-05
-2.2401765088555194e-05   8.63410405033127e-07   2.308014515059963e-05
-2.2401765088555194e-05   8.63410405033127e-07   2.308014515059963e-05
-1.758619304664327e-05   8.932313093694107e-07   2.2998557936663815e-05
-1.758619304664327e-05   8.932313093694107e-07   2.2998557936663815e-05
-1.758619304664327e-05   8.932313093694107e-07   2.2998557936663815e-05
-1.758619304664327e-05   8.932313093694107e-07   2.2998557936663815e-05
-1.0784223132055188e-05   -5.375510332303335e-06   3.0573929475973666e-05
-1.0784223132055188e-05   -5.375510332303335e-06   3.0573929475973666e-05
-1.0784223132055188e-05   -5.375510332303335e-06   3.0573929475973666e-05
-1.0784223132055188e-05   -5.375510332303335e-06   3.0573929475973666e-05
-1.0804553010561552e-05   4.286940351644255e-07   1.9293463888890334e-05
-1.0804553010561552e-05   4.286940351644255e-07   1.9293463888890334e-05
-1.0804553010561552e-05   4.286940351644255e-07   1.9293463888890334e-05
-1.0804553010561552e-05   4.286940351644255e-07   1.9293463888890334e-05
-1.757681432459601e-05   -4.400264826894408e-06   3.3477941396183167e-05
-1.757681432459601e-05   -4.400264826894408e-06   3.3477941396183167e-05
-1.757681432459601e-05   -4.400264826894408e-06   3.3477941396183167e-05
-1.757681432459601e-05   -4.400264826894408e-06   3.3477941396183167e-05
-1.4112106893458962e-05   -2.6579105207202207e-06   2.6658016427250498e-05
-1.4112106893458962e-05   -2.6579105207202207e-06   2.6658016427250498e-05
-1.4112106893458962e-05   -2.6579105207202207e-06   2.6658016427250498e-05
-1.4112106893458962e-05   -2.6579105207202207e-06   2.6658016427250498e-05
-1.757681432459603e-05   4.286940351644255e-07   2.2190839206125384e-05
-1.757681432459603e-05   4.286940351644255e-07   2.2190839206125384e-05
-1.757681432459603e-05   4.286940351644255e-07   2.2190839206125384e-05
-1.757681432459603e-05   4.286940351644255e-07   2.2190839206125384e-05
-1.0804553010561525e-05   -4.400264826894408e-06   3.0580566078947926e-05
-1.0804553010561525e-05   -4.400264826894408e-06   3.0580566078947926e-05
-1.0804553010561525e-05   -4.400264826894408e-06   3.0580566078947926e-05
-1.0804553010561525e-05   -4.400264826894408e-06   3.0580566078947926e-05
-1.0844852978605723e-05   -1.1034597585787755e-07   1.9890793864952617e-05
-1.0844852978605723e-05   -1.1034597585787755e-07   1.9890793864952617e-05
-1.0844852978605723e-05   -1.1034597585787755e-07   1.9890793864952617e-05
-1.0844852978605723e-05   -1.1034597585787755e-07   1.9890793864952617e-05
-1.7814113698210253e-05   -4.500500815631154e-06   3.4140321301490644e-05
-1.7814113698210253e-05   -4.500500815631154e-06   3.4140321301490644e-05
-1.7814113698210253e-05   -4.500500815631154e-06   3.4140321301490644e-05
-1.7814113698210253e-05   -4.500500815631154e-06   3.4140321301490644e-05
-1.4007587598702276e-05   -2.3221027904874077e-06   2.6489072320557647e-05
-1.4007587598702276e-05   -2.3221027904874077e-06   2.6489072320557647e-05
-1.4007587598702276e-05   -2.3221027904874077e-06   2.6489072320557647e-05
-1.4007587598702276e-05   -2.3221027904874077e-06   2.6489072320557647e-05
-1.7814113698210287e-05   -1.1034597585787755e-07   2.2524886768816638e-05
-1.7814113698210287e-05   -1.1034597585787755e-07   2.2524886768816638e-05
-1.7814113698210287e-05   -1.1034597585787755e-07   2.2524886768816638e-05
-1.7814113698210287e-05   -1.1034597585787755e-07   2.2524886768816638e-05
-1.0844852978605723e-05   -4.500500815631154e-06   3.150622839762669e-05
-1.0844852978605723e-05   -4.500500815631154e-06   3.150622839762669e-05
-1.0844852978605723e-05   -4.500500815631154e-06   3.150622839762669e-05
-1.0844852978605723e-05   -4.500500815631154e-06   3.150622839762669e-05
-1.0736426471796829e-05   -8.189211633691934e-07   2.0635168679902858e-05
-1.0736426471796829e-05   -8.189211633691934e-07   2.0635168679902858e-05
-1.0736426471796829e-05   -8.189211633691934e-07   2.0635168679902858e-05
-1.0736426471796829e-05   -8.189211633691934e-07   2.0635168679902858e-05
-1.7621517812713917e-05   -4.542611031166594e-06   3.434453483544294e-05
-1.7621517812713917e-05   -4.542611031166594e-06   3.434453483544294e-05
-1.7621517812713917e-05   -4.542611031166594e-06   3.434453483544294e-05
-1.7621517812713917e-05   -4.542611031166594e-06   3.434453483544294e-05
-1.4070515571263375e-05   -2.608161181875436e-06   2.726552785678411e-05
-1.4070515571263375e-05   -2.608161181875436e-06   2.726552785678411e-05
-1.4070515571263375e-05   -2.608161181875436e-06   2.726552785678411e-05
-1.4070515571263375e-05   -2.608161181875436e-06   2.726552785678411e-05
-1.0784223132055188e-05   2.482268081439908e-07   2.125589615612183e-05
-1.0784223132055188e-05   2.482268081439908e-07   2.125589615612183e-05
-1.0784223132055188e-05   2.482268081439908e-07   2.125589615612183e-05
-1.0784223132055188e-05   2.482268081439908e-07   2.125589615612183e-05
-7.929017542290047e-06   -4.199176875603334e-06   2.334612992881548e-05
-7.929017542290047e-06   -4.199176875603334e-06   2.334612992881548e-05
-7.929017542290047e-06   -4.199176875603334e-06   2.334612992881548e-05
-7.929017542290047e-06   -4.199176875603334e-06   2.334612992881548e-05
-7.856690979083996e-06   -1.4440337553164352e-07   1.8761608624490492e-05
-7.856690979083996e-06   -1.4440337553164352e-07   1.8761608624490492e-05
-7.856690979083996e-06   -1.4440337553164352e-07   1.8761608624490492e-05
-7.856690979083996e-06   -1.4440337553164352e-07   1.8761608624490492e-05
-1.0804553010561525e-05   -4.124075570600657e-06   2.6062515327327992e-05
-1.0804553010561525e-05   -4.124075570600657e-06   2.6062515327327992e-05
-1.0804553010561525e-05   -4.124075570600657e-06   2.6062515327327992e-05
-1.0804553010561525e-05   -4.124075570600657e-06   2.6062515327327992e-05
-9.285981465972178e-06   -2.1224267533791804e-06   2.2330573462679617e-05
-9.285981465972178e-06   -2.1224267533791804e-06   2.2330573462679617e-05
-9.285981465972178e-06   -2.1224267533791804e-06   2.2330573462679617e-05
-9.285981465972178e-06   -2.1224267533791804e-06   2.2330573462679617e-05
-1.0804553010561525e-05   -1.4440337553164352e-07   2.1149411941531868e-05
-1.0804553010561525e-05   -1.4440337553164352e-07   2.1149411941531868e-05
-1.0804553010561525e-05   -1.4440337553164352e-07   2.1149411941531868e-05
-1.0804553010561525e-05   -1.4440337553164352e-07   2.1149411941531868e-05
-7.856690979083996e-06   -4.124075570600657e-06   2.3674712010286556e-05
-7.856690979083996e-06   -4.124075570600657e-06   2.3674712010286556e-05
-7.856690979083996e-06   -4.124075570600657e-06   2.3674712010286556e-05
-7.856690979083996e-06   -4.124075570600657e-06   2.3674712010286556e-05
-7.794151123520314e-06   -6.145833515742039e-07   1.9210613286894875e-05
-7.794151123520314e-06   -6.145833515742039e-07   1.9210613286894875e-05
-7.794151123520314e-06   -6.145833515742039e-07   1.9210613286894875e-05
-7.794151123520314e-06   -6.145833515742039e-07   1.9210613286894875e-05
-1.0844852978605723e-05   -4.250256547576282e-06   2.6476520296305004e-05
-1.0844852978605723e-05   -4.250256547576282e-06   2.6476520296305004e-05
-1.0844852978605723e-05   -4.250256547576282e-06   2.6476520296305004e-05
-1.0844852978605723e-05   -4.250256547576282e-06   2.6476520296305004e-05
-9.202523428071798e-06   -2.264127350665255e-06   2.254762686060139e-05
-9.202523428071798e-06   -2.264127350665255e-06   2.254762686060139e-05
-9.202523428071798e-06   -2.264127350665255e-06   2.254762686060139e-05
-9.202523428071798e-06   -2.264127350665255e-06   2.254762686060139e-05
-1.0844852978605723e-05   -6.145833515742039e-07   2.139201720449609e-05
-1.0844852978605723e-05   -6.145833515742039e-07   2.139201720449609e-05
-1.0844852978605723e-05   -6.145833515742039e-07   2.139201720449609e-05
-1.0844852978605723e-05   -6.145833515742039e-07   2.139201720449609e-05
-7.794151123520314e-06   -4.250256547576282e-06   2.429511637870383e-05
-7.794151123520314e-06   -4.250256547576282e-06   2.429511637870383e-05
-7.794151123520314e-06   -4.250256547576282e-06   2.429511637870383e-05
-7.794151123520314e-06   -4.250256547576282e-06   2.429511637870383e-05
-7.63924524904339e-06   -1.0868630987811078e-06   1.9905678571168514e-05
-7.63924524904339e-06   -1.0868630987811078e-06   1.9905678571168514e-05
-7.63924524904339e-06   -1.0868630987811078e-06   1.9905678571168514e-05
-7.63924524904339e-06   -1.0868630987811078e-06   1.9905678571168514e-05
-1.0736426471796829e-05   -4.429427526788407e-06   2.707318593256179e-05
-1.0736426471796829e-05   -4.429427526788407e-06   2.707318593256179e-05
-1.0736426471796829e-05   -4.429427526788407e-06   2.707318593256179e-05
-1.0736426471796829e-05   -4.429427526788407e-06   2.707318593256179e-05
-9.104847037526436e-06   -2.4704556315565404e-06   2.317850373830541e-05
-9.104847037526436e-06   -2.4704556315565404e-06   2.317850373830541e-05
-9.104847037526436e-06   -2.4704556315565404e-06   2.317850373830541e-05
-9.104847037526436e-06   -2.4704556315565404e-06   2.317850373830541e-05
-7.929017542290047e-06   1.1323812350704648e-06   1.4456302434466561e-05
-7.929017542290047e-06   1.1323812350704648e-06   1.4456302434466561e-05
-7.929017542290047e-06   1.1323812350704648e-06   1.4456302434466561e-05
-7.929017542290047e-06   1.1323812350704648e-06   1.4456302434466561e-05
-6.605031508810611e-06   -1.7225713314605027e-06   1.4949974283680285e-05
-6.605031508810611e-06   -1.7225713314605027e-06   1.4949974283680285e-05
-6.605031508810611e-06   -1.7225713314605027e-06   1.4949974283680285e-05
-6.605031508810611e-06   -1.7225713314605027e-06   1.4949974283680285e-05
-6.46145601983564e-06   6.151802346634908e-07   1.3052621101001193e-05
-6.46145601983564e-06   6.151802346634908e-07   1.3052621101001193e-05
-6.46145601983564e-06   6.151802346634908e-07   1.3052621101001193e-05
-6.46145601983564e-06   6.151802346634908e-07   1.3052621101001193e-05
-7.856690979083996e-06   -2.0168954098109967e-06   1.6957258086433417e-05
-7.856690979083996e-06   -2.0168954098109967e-06   1.6957258086433417e-05
-7.856690979083996e-06   -2.0168954098109967e-06   1.6957258086433417e-05
-7.856690979083996e-06   -2.0168954098109967e-06   1.6957258086433417e-05
-7.1603383790846595e-06   -3.9289371518193023e-07   1.4822269402990748e-05
-7.1603383790846595e-06   -3.9289371518193023e-07   1.4822269402990748e-05
-7.1603383790846595e-06   -3.9289371518193023e-07   1.4822269402990748e-05
-7.1603383790846595e-06   -3.9289371518193023e-07   1.4822269402990748e-05
-7.856690979083996e-06   6.151802346634908e-07   1.4631866487685885e-05
-7.856690979083996e-06   6.151802346634908e-07   1.4631866487685885e-05
-7.856690979083996e-06   6.151802346634908e-07   1.4631866487685885e-05
-7.856690979083996e-06   6.151802346634908e-07   1.4631866487685885e-05
-6.46145601983564e-06   -2.0168954098109967e-06   1.5378012699748697e-05
-6.46145601983564e-06   -2.0168954098109967e-06   1.5378012699748697e-05
-6.46145601983564e-06   -2.0168954098109967e-06   1.5378012699748697e-05
-6.46145601983564e-06   -2.0168954098109967e-06   1.5378012699748697e-05
-6.395799851964198e-06   1.7236186004312114e-07   1.3670211503933423e-05
-6.395799851964198e-06   1.7236186004312114e-07   1.3670211503933423e-05
-6.395799851964198e-06   1.7236186004312114e-07   1.3670211503933423e-05
-6.395799851964198e-06   1.7236186004312114e-07   1.3670211503933423e-05
-7.79415112352026e-06   -2.2420411065706856e-06   1.7449438736495e-05
-7.79415112352026e-06   -2.2420411065706856e-06   1.7449438736495e-05
-7.79415112352026e-06   -2.2420411065706856e-06   1.7449438736495e-05
-7.79415112352026e-06   -2.2420411065706856e-06   1.7449438736495e-05
-7.018022136411566e-06   -7.082283255313137e-07   1.5235602756022881e-05
-7.018022136411566e-06   -7.082283255313137e-07   1.5235602756022881e-05
-7.018022136411566e-06   -7.082283255313137e-07   1.5235602756022881e-05
-7.018022136411566e-06   -7.082283255313137e-07   1.5235602756022881e-05
-7.79415112352026e-06   1.7236186004312114e-07   1.5118853283901544e-05
-7.79415112352026e-06   1.7236186004312114e-07   1.5118853283901544e-05
-7.79415112352026e-06   1.7236186004312114e-07   1.5118853283901544e-05
-7.79415112352026e-06   1.7236186004312114e-07   1.5118853283901544e-05
-6.395799851964252e-06   -2.2420411065706856e-06   1.6000796956526687e-05
-6.395799851964252e-06   -2.2420411065706856e-06   1.6000796956526687e-05
-6.395799851964252e-06   -2.2420411065706856e-06   1.6000796956526687e-05
-6.395799851964252e-06   -2.2420411065706856e-06   1.6000796956526687e-05
-6.288430913217453e-06   -2.739940252433721e-07   1.4445787263870605e-05
-6.288430913217453e-06   -2.739940252433721e-07   1.4445787263870605e-05
-6.288430913217453e-06   -2.739940252433721e-07   1.4445787263870605e-05
-6.288430913217453e-06   -2.739940252433721e-07   1.4445787263870605e-05
-7.63924524904339e-06   -2.5374387066868565e-06   1.8055211299113246e-05
-7.63924524904339e-06   -2.5374387066868565e-06   1.8055211299113246e-05
-7.63924524904339e-06   -2.5374387066868565e-06   1.8055211299113246e-05
-7.63924524904339e-06   -2.5374387066868565e-06   1.8055211299113246e-05
-6.907108290702177e-06   -9.844342316997403e-07   1.5903180350219297e-05
-6.907108290702177e-06   -9.844342316997403e-07   1.5903180350219297e-05
-6.907108290702177e-06   -9.844342316997403e-07   1.5903180350219297e-05
-6.907108290702177e-06   -9.844342316997403e-07   1.5903180350219297e-05
-6.605031508810611e-06   1.8648063990339952e-06   3.2887167774042487e-06
-6.605031508810611e-06   1.8648063990339952e-06   3.2887167774042487e-06
-6.605031508810611e-06   1.8648063990339952e-06   3.2887167774042487e-06
-6.605031508810611e-06   1.8648063990339952e-06   3.2887167774042487e-06
-3.8110477743409556e-06   -1.9358968180436566e-07   6.710318686350741e-06
-3.8110477743409556e-06   -1.9358968180436566e-07   6.710318686350741e-06
-3.8110477743409556e-06   -1.9358968180436566e-07   6.710318686350741e-06
-3.8110477743409556e-06   -1.9358968180436566e-07   6.710318686350741e-06
-4.026172185379417e-06   1.4989821873489812e-06   3.318416644696809e-06
-4.026172185379417e-06   1.4989821873489812e-06   3.318416644696809e-06
-4.026172185379417e-06   1.4989821873489812e-06   3.318416644696809e-06
-4.026172185379417e-06   1.4989821873489812e-06   3.318416644696809e-06
-6.46145601983564e-06   -2.6956413464118917e-07   8.438350828651547e-06
-6.46145601983564e-06   -2.6956413464118917e-07   8.438350828651547e-06
-6.46145601983564e-06   -2.6956413464118917e-07   8.438350828651547e-06
-6.46145601983564e-06   -2.6956413464118917e-07   8.438350828651547e-06
-5.046242208906854e-06   9.584229654129245e-07   5.342868883738048e-06
-5.046242208906854e-06   9.584229654129245e-07   5.342868883738048e-06
-5.046242208906854e-06   9.584229654129245e-07   5.342868883738048e-06
-5.046242208906854e-06   9.584229654129245e-07   5.342868883738048e-06
-6.461456019835586e-06   1.4989821873489812e-06   4.379544437890651e-06
-6.461456019835586e-06   1.4989821873489812e-06   4.379544437890651e-06
-6.461456019835586e-06   1.4989821873489812e-06   4.379544437890651e-06
-6.461456019835586e-06   1.4989821873489812e-06   4.379544437890651e-06
-4.026172185379309e-06   -2.6956413464118917e-07   7.377223035457271e-06
-4.026172185379309e-06   -2.6956413464118917e-07   7.377223035457271e-06
-4.026172185379309e-06   -2.6956413464118917e-07   7.377223035457271e-06
-4.026172185379309e-06   -2.6956413464118917e-07   7.377223035457271e-06
-4.202522553792363e-06   1.259728726833633e-06   4.318901767781007e-06
-4.202522553792363e-06   1.259728726833633e-06   4.318901767781007e-06
-4.202522553792363e-06   1.259728726833633e-06   4.318901767781007e-06
-4.202522553792363e-06   1.259728726833633e-06   4.318901767781007e-06
-6.395799851964198e-06   -3.7252915045582263e-07   8.95371865777437e-06
-6.395799851964198e-06   -3.7252915045582263e-07   8.95371865777437e-06
-6.395799851964198e-06   -3.7252915045582263e-07   8.95371865777437e-06
-6.395799851964198e-06   -3.7252915045582263e-07   8.95371865777437e-06
-5.133429511701751e-06   7.772649677990949e-07   6.159891619716799e-06
-5.133429511701751e-06   7.772649677990949e-07   6.159891619716799e-06
-5.133429511701751e-06   7.772649677990949e-07   6.159891619716799e-06
-5.133429511701751e-06   7.772649677990949e-07   6.159891619716799e-06
-6.395799851964198e-06   1.259728726833633e-06   5.298256494154789e-06
-6.395799851964198e-06   1.259728726833633e-06   5.298256494154789e-06
-6.395799851964198e-06   1.259728726833633e-06   5.298256494154789e-06
-6.395799851964198e-06   1.259728726833633e-06   5.298256494154789e-06
-4.202522553792471e-06   -3.7252915045587684e-07   7.974363931400697e-06
-4.202522553792471e-06   -3.7252915045587684e-07   7.974363931400697e-06
-4.202522553792471e-06   -3.7252915045587684e-07   7.974363931400697e-06
-4.202522553792471e-06   -3.7252915045587684e-07   7.974363931400697e-06
-4.639403091217815e-06   7.791002873988422e-07   6.107217560082567e-06
-4.639403091217815e-06   7.791002873988422e-07   6.107217560082567e-06
-4.639403091217815e-06   7.791002873988422e-07   6.107217560082567e-06
-4.639403091217815e-06   7.791002873988422e-07   6.107217560082567e-06
-6.288430913217453e-06   -4.970837431388531e-07   9.621307681737749e-06
-6.288430913217453e-06   -4.970837431388531e-07   9.621307681737749e-06
-6.288430913217453e-06   -4.970837431388531e-07   9.621307681737749e-06
-6.288430913217453e-06   -4.970837431388531e-07   9.621307681737749e-06
-5.1436900266304945e-06   6.549058260546785e-07   7.0222124625769116e-06
-5.1436900266304945e-06   6.549058260546785e-07   7.0222124625769116e-06
-5.1436900266304945e-06   6.549058260546785e-07   7.0222124625769116e-06
-5.1436900266304945e-06   6.549058260546785e-07   7.0222124625769116e-06
-6.098859511401305e-05   4.78116333009124e-06   2.603582482354195e-05
-6.098859511401305e-05   4.78116333009124e-06   2.603582482354195e-05
-6.098859511401305e-05   4.78116333009124e-06   2.603582482354195e-05
-6.098859511401305e-05   4.78116333009124e-06   2.603582482354195e-05
-1.4349225814241757e-05   -2.9680192924381644e-05   8.309129323714379e-05
-1.4349225814241757e-05   -2.9680192924381644e-05   8.309129323714379e-05
-1.4349225814241757e-05   -2.9680192924381644e-05   8.309129323714379e-05
-1.4349225814241757e-05   -2.9680192924381644e-05   8.309129323714379e-05
-1.6834487238983686e-05   1.944177172342695e-06   1.430190443037323e-05
-1.6834487238983686e-05   1.944177172342695e-06   1.430190443037323e-05
-1.6834487238983686e-05   1.944177172342695e-06   1.430190443037323e-05
-1.6834487238983686e-05   1.944177172342695e-06   1.430190443037323e-05
-5.562328257362975e-05   -2.305047247147651e-05   9.394668644107469e-05
-5.562328257362975e-05   -2.305047247147651e-05   9.394668644107469e-05
-5.562328257362975e-05   -2.305047247147651e-05   9.394668644107469e-05
-5.562328257362975e-05   -2.305047247147651e-05   9.394668644107469e-05
-3.708962017910902e-05   -1.1476488402505135e-05   5.611285867549067e-05
-3.708962017910902e-05   -1.1476488402505135e-05   5.611285867549067e-05
-3.708962017910902e-05   -1.1476488402505135e-05   5.611285867549067e-05
-3.708962017910902e-05   -1.1476488402505135e-05   5.611285867549067e-05
-5.562328257362965e-05   1.944177172342695e-06   2.929869421666468e-05
-5.562328257362965e-05   1.944177172342695e-06   2.929869421666468e-05
-5.562328257362965e-05   1.944177172342695e-06   2.929869421666468e-05
-5.562328257362965e-05   1.944177172342695e-06   2.929869421666468e-05
-1.6834487238983706e-05   -2.305047247147651e-05   7.894989665478318e-05
-1.6834487238983706e-05   -2.305047247147651e-05   7.894989665478318e-05
-1.6834487238983706e-05   -2.305047247147651e-05   7.894989665478318e-05
-1.6834487238983706e-05   -2.305047247147651e-05   7.894989665478318e-05
-1.721122957690649e-05   1.3976918656643015e-06   1.5715402905921077e-05
-1.721122957690649e-05   1.3976918656643015e-06   1.5715402905921077e-05
-1.721122957690649e-05   1.3976918656643015e-06   1.5715402905921077e-05
-1.721122957690649e-05   1.3976918656643015e-06   1.5715402905921077e-05
-5.2481243408358e-05   -1.985344678753848e-05   8.724944248359517e-05
-5.2481243408358e-05   -1.985344678753848e-05   8.724944248359517e-05
-5.2481243408358e-05   -1.985344678753848e-05   8.724944248359517e-05
-5.2481243408358e-05   -1.985344678753848e-05   8.724944248359517e-05
-3.597720459976542e-05   -1.0870840116345722e-05   5.435314713322529e-05
-3.597720459976542e-05   -1.0870840116345722e-05   5.435314713322529e-05
-3.597720459976542e-05   -1.0870840116345722e-05   5.435314713322529e-05
-3.597720459976542e-05   -1.0870840116345722e-05   5.435314713322529e-05
-5.248124340835791e-05   1.3976918656643015e-06   2.8466086097842744e-05
-5.248124340835791e-05   1.3976918656643015e-06   2.8466086097842744e-05
-5.248124340835791e-05   1.3976918656643015e-06   2.8466086097842744e-05
-5.248124340835791e-05   1.3976918656643015e-06   2.8466086097842744e-05
-1.7211229576906512e-05   -1.985344678753848e-05   7.44987592916735e-05
-1.7211229576906512e-05   -1.985344678753848e-05   7.44987592916735e-05
-1.7211229576906512e-05   -1.985344678753848e-05   7.44987592916735e-05
-1.7211229576906512e-05   -1.985344678753848e-05   7.44987592916735e-05
-1.8844991046744125e-05   -9.247742790586947e-07   1.9683011892545984e-05
-1.8844991046744125e-05   -9.247742790586947e-07   1.9683011892545984e-05
-1.8844991046744125e-05   -9.247742790586947e-07   1.9683011892545984e-05
-1.8844991046744125e-05   -9.247742790586947e-07   1.9683011892545984e-05
-4.8454966558803746e-05   -1.5609395097527963e-05   7.784374357039343e-05
-4.8454966558803746e-05   -1.5609395097527963e-05   7.784374357039343e-05
-4.8454966558803746e-05   -1.5609395097527963e-05   7.784374357039343e-05
-4.8454966558803746e-05   -1.5609395097527963e-05   7.784374357039343e-05
-3.4600712640637054e-05   -1.0033893563649943e-05   5.1408019453122184e-05
-3.4600712640637054e-05   -1.0033893563649943e-05   5.1408019453122184e-05
-3.4600712640637054e-05   -1.0033893563649943e-05   5.1408019453122184e-05
-3.4600712640637054e-05   -1.0033893563649943e-05   5.1408019453122184e-05
-1.434922581424173e-05   -5.375510332303335e-06   1.4758582302601452e-05
-1.434922581424173e-05   -5.375510332303335e-06   1.4758582302601452e-05
-1.434922581424173e-05   -5.375510332303335e-06   1.4758582302601452e-05
-1.434922581424173e-05   -5.375510332303335e-06   1.4758582302601452e-05
-5.001780296773133e-06   -9.167081577046647e-06   2.8062715418203198e-05
-5.001780296773133e-06   -9.167081577046647e-06   2.8062715418203198e-05
-5.001780296773133e-06   -9.167081577046647e-06   2.8062715418203198e-05
-5.001780296773133e-06   -9.167081577046647e-06   2.8062715418203198e-05
-5.582892924764797e-06   -4.400264826894408e-06   1.3195764825105834e-05
-5.582892924764797e-06   -4.400264826894408e-06   1.3195764825105834e-05
-5.582892924764797e-06   -4.400264826894408e-06   1.3195764825105834e-05
-5.582892924764797e-06   -4.400264826894408e-06   1.3195764825105834e-05
-1.6834487238983706e-05   -1.2168065319008594e-05   3.660910231073904e-05
-1.6834487238983706e-05   -1.2168065319008594e-05   3.660910231073904e-05
-1.6834487238983706e-05   -1.2168065319008594e-05   3.660910231073904e-05
-1.6834487238983706e-05   -1.2168065319008594e-05   3.660910231073904e-05
-9.897647534636609e-06   -6.380268352141645e-06   2.157502462337362e-05
-9.897647534636609e-06   -6.380268352141645e-06   2.157502462337362e-05
-9.897647534636609e-06   -6.380268352141645e-06   2.157502462337362e-05
-9.897647534636609e-06   -6.380268352141645e-06   2.157502462337362e-05
-1.6834487238983665e-05   -4.400264826894408e-06   1.785644512037414e-05
-1.6834487238983665e-05   -4.400264826894408e-06   1.785644512037414e-05
-1.6834487238983665e-05   -4.400264826894408e-06   1.785644512037414e-05
-1.6834487238983665e-05   -4.400264826894408e-06   1.785644512037414e-05
-5.582892924764824e-06   -1.2168065319008594e-05   3.194842201547054e-05
-5.582892924764824e-06   -1.2168065319008594e-05   3.194842201547054e-05
-5.582892924764824e-06   -1.2168065319008594e-05   3.194842201547054e-05
-5.582892924764824e-06   -1.2168065319008594e-05   3.194842201547054e-05
-6.080407822084611e-06   -4.500500815631154e-06   1.4836764439596318e-05
-6.080407822084611e-06   -4.500500815631154e-06   1.4836764439596318e-05
-6.080407822084611e-06   -4.500500815631154e-06   1.4836764439596318e-05
-6.080407822084611e-06   -4.500500815631154e-06   1.4836764439596318e-05
-1.7211229576906512e-05   -1.112076763273494e-05   3.7360294121228276e-05
-1.7211229576906512e-05   -1.112076763273494e-05   3.7360294121228276e-05
-1.7211229576906512e-05   -1.112076763273494e-05   3.7360294121228276e-05
-1.7211229576906512e-05   -1.112076763273494e-05   3.7360294121228276e-05
-1.1155701774850505e-05   -7.804966043254352e-06   2.5278266830780125e-05
-1.1155701774850505e-05   -7.804966043254352e-06   2.5278266830780125e-05
-1.1155701774850505e-05   -7.804966043254352e-06   2.5278266830780125e-05
-1.1155701774850505e-05   -7.804966043254352e-06   2.5278266830780125e-05
-1.721122957690649e-05   -4.500500815631154e-06   1.8808924529858554e-05
-1.721122957690649e-05   -4.500500815631154e-06   1.8808924529858554e-05
-1.721122957690649e-05   -4.500500815631154e-06   1.8808924529858554e-05
-1.721122957690649e-05   -4.500500815631154e-06   1.8808924529858554e-05
-6.080407822084611e-06   -1.112076763273494e-05   3.338813403096604e-05
-6.080407822084611e-06   -1.112076763273494e-05   3.338813403096604e-05
-6.080407822084611e-06   -1.112076763273494e-05   3.338813403096604e-05
-6.080407822084611e-06   -1.112076763273494e-05   3.338813403096604e-05
-6.8889299656873626e-06   -4.542611031166594e-06   1.622636522633972e-05
-6.8889299656873626e-06   -4.542611031166594e-06   1.622636522633972e-05
-6.8889299656873626e-06   -4.542611031166594e-06   1.622636522633972e-05
-6.8889299656873626e-06   -4.542611031166594e-06   1.622636522633972e-05
-1.884499104674414e-05   -1.0461031722975782e-05   3.970418610985298e-05
-1.884499104674414e-05   -1.0461031722975782e-05   3.970418610985298e-05
-1.884499104674414e-05   -1.0461031722975782e-05   3.970418610985298e-05
-1.884499104674414e-05   -1.0461031722975782e-05   3.970418610985298e-05
-1.1887409946900465e-05   -7.125549299654885e-06   2.6106928156121022e-05
-1.1887409946900465e-05   -7.125549299654885e-06   2.6106928156121022e-05
-1.1887409946900465e-05   -7.125549299654885e-06   2.6106928156121022e-05
-1.1887409946900465e-05   -7.125549299654885e-06   2.6106928156121022e-05
-5.001780296773133e-06   -4.199176875603334e-06   7.924282218845625e-06
-5.001780296773133e-06   -4.199176875603334e-06   7.924282218845625e-06
-5.001780296773133e-06   -4.199176875603334e-06   7.924282218845625e-06
-5.001780296773133e-06   -4.199176875603334e-06   7.924282218845625e-06
-2.788544879916944e-06   -2.5420481605346597e-06   1.2607285142647107e-05
-2.788544879916944e-06   -2.5420481605346597e-06   1.2607285142647107e-05
-2.788544879916944e-06   -2.5420481605346597e-06   1.2607285142647107e-05
-2.788544879916944e-06   -2.5420481605346597e-06   1.2607285142647107e-05
-2.6779958905899666e-06   -4.124075570600657e-06   9.151940467468653e-06
-2.6779958905899666e-06   -4.124075570600657e-06   9.151940467468653e-06
-2.6779958905899666e-06   -4.124075570600657e-06   9.151940467468653e-06
-2.6779958905899666e-06   -4.124075570600657e-06   9.151940467468653e-06
-5.582892924764824e-06   -3.3336982472959576e-06   1.3519209130443788e-05
-5.582892924764824e-06   -3.3336982472959576e-06   1.3519209130443788e-05
-5.582892924764824e-06   -3.3336982472959576e-06   1.3519209130443788e-05
-5.582892924764824e-06   -3.3336982472959576e-06   1.3519209130443788e-05
-3.759084283227928e-06   -3.3630327116207536e-06   1.0497128739810307e-05
-3.759084283227928e-06   -3.3630327116207536e-06   1.0497128739810307e-05
-3.759084283227928e-06   -3.3630327116207536e-06   1.0497128739810307e-05
-3.759084283227928e-06   -3.3630327116207536e-06   1.0497128739810307e-05
-5.582892924764797e-06   -4.124075570600657e-06   8.677714073485819e-06
-5.582892924764797e-06   -4.124075570600657e-06   8.677714073485819e-06
-5.582892924764797e-06   -4.124075570600657e-06   8.677714073485819e-06
-5.582892924764797e-06   -4.124075570600657e-06   8.677714073485819e-06
-2.6779958905899666e-06   -3.3336982472959576e-06   1.3993435524426595e-05
-2.6779958905899666e-06   -3.3336982472959576e-06   1.3993435524426595e-05
-2.6779958905899666e-06   -3.3336982472959576e-06   1.3993435524426595e-05
-2.6779958905899666e-06   -3.3336982472959576e-06   1.3993435524426595e-05
-2.6805063541266187e-06   -4.250256547576228e-06   9.783889768175558e-06
-2.6805063541266187e-06   -4.250256547576228e-06   9.783889768175558e-06
-2.6805063541266187e-06   -4.250256547576228e-06   9.783889768175558e-06
-2.6805063541266187e-06   -4.250256547576228e-06   9.783889768175558e-06
-6.080407822084611e-06   -4.288867497741505e-06   1.547355878487119e-05
-6.080407822084611e-06   -4.288867497741505e-06   1.547355878487119e-05
-6.080407822084611e-06   -4.288867497741505e-06   1.547355878487119e-05
-6.080407822084611e-06   -4.288867497741505e-06   1.547355878487119e-05
-3.983451088672646e-06   -3.677154510105555e-06   1.1611603103269766e-05
-3.983451088672646e-06   -3.677154510105555e-06   1.1611603103269766e-05
-3.983451088672646e-06   -3.677154510105555e-06   1.1611603103269766e-05
-3.983451088672646e-06   -3.677154510105555e-06   1.1611603103269766e-05
-6.080407822084611e-06   -4.250256547576282e-06   9.807056338274699e-06
-6.080407822084611e-06   -4.250256547576282e-06   9.807056338274699e-06
-6.080407822084611e-06   -4.250256547576282e-06   9.807056338274699e-06
-6.080407822084611e-06   -4.250256547576282e-06   9.807056338274699e-06
-2.6805063541266187e-06   -4.288867497741505e-06   1.5450392214772023e-05
-2.6805063541266187e-06   -4.288867497741505e-06   1.5450392214772023e-05
-2.6805063541266187e-06   -4.288867497741505e-06   1.5450392214772023e-05
-2.6805063541266187e-06   -4.288867497741505e-06   1.5450392214772023e-05
-2.7176399650331233e-06   -4.429427526788407e-06   1.0728727171959796e-05
-2.7176399650331233e-06   -4.429427526788407e-06   1.0728727171959796e-05
-2.7176399650331233e-06   -4.429427526788407e-06   1.0728727171959796e-05
-2.7176399650331233e-06   -4.429427526788407e-06   1.0728727171959796e-05
-6.88892996568739e-06   -5.19693264708369e-06   1.8141380245227233e-05
-6.88892996568739e-06   -5.19693264708369e-06   1.8141380245227233e-05
-6.88892996568739e-06   -5.19693264708369e-06   1.8141380245227233e-05
-6.88892996568739e-06   -5.19693264708369e-06   1.8141380245227233e-05
-4.238582133426732e-06   -4.017454565034064e-06   1.3016447008896395e-05
-4.238582133426732e-06   -4.017454565034064e-06   1.3016447008896395e-05
-4.238582133426732e-06   -4.017454565034064e-06   1.3016447008896395e-05
-4.238582133426732e-06   -4.017454565034064e-06   1.3016447008896395e-05
-2.788544879916944e-06   -1.722571331460557e-06   2.2353753426701745e-06
-2.788544879916944e-06   -1.722571331460557e-06   2.2353753426701745e-06
-2.788544879916944e-06   -1.722571331460557e-06   2.2353753426701745e-06
-2.788544879916944e-06   -1.722571331460557e-06   2.2353753426701745e-06
-2.0668766648917255e-06   4.5919593721721965e-07   4.747216062252332e-06
-2.0668766648917255e-06   4.5919593721721965e-07   4.747216062252332e-06
-2.0668766648917255e-06   4.5919593721721965e-07   4.747216062252332e-06
-2.0668766648917255e-06   4.5919593721721965e-07   4.747216062252332e-06
-1.6709559376994437e-06   -2.0168954098109967e-06   3.750884608745694e-06
-1.6709559376994437e-06   -2.0168954098109967e-06   3.750884608745694e-06
-1.6709559376994437e-06   -2.0168954098109967e-06   3.750884608745694e-06
-1.6709559376994437e-06   -2.0168954098109967e-06   3.750884608745694e-06
-2.6779958905899666e-06   1.7710136540604742e-07   4.112886465099585e-06
-2.6779958905899666e-06   1.7710136540604742e-07   4.112886465099585e-06
-2.6779958905899666e-06   1.7710136540604742e-07   4.112886465099585e-06
-2.6779958905899666e-06   1.7710136540604742e-07   4.112886465099585e-06
-2.1592275439455497e-06   -8.027058290803468e-07   3.836156870717271e-06
-2.1592275439455497e-06   -8.027058290803468e-07   3.836156870717271e-06
-2.1592275439455497e-06   -8.027058290803468e-07   3.836156870717271e-06
-2.1592275439455497e-06   -8.027058290803468e-07   3.836156870717271e-06
-2.6779958905899666e-06   -2.0168954098109967e-06   2.434486543615534e-06
-2.6779958905899666e-06   -2.0168954098109967e-06   2.434486543615534e-06
-2.6779958905899666e-06   -2.0168954098109967e-06   2.434486543615534e-06
-2.6779958905899666e-06   -2.0168954098109967e-06   2.434486543615534e-06
-1.6709559376994437e-06   1.7710136540604742e-07   5.4292845302298266e-06
-1.6709559376994437e-06   1.7710136540604742e-07   5.4292845302298266e-06
-1.6709559376994437e-06   1.7710136540604742e-07   5.4292845302298266e-06
-1.6709559376994437e-06   1.7710136540604742e-07   5.4292845302298266e-06
-1.4530992035725497e-06   -2.2420411065706856e-06   4.120364308643726e-06
-1.4530992035725497e-06   -2.2420411065706856e-06   4.120364308643726e-06
-1.4530992035725497e-06   -2.2420411065706856e-06   4.120364308643726e-06
-1.4530992035725497e-06   -2.2420411065706856e-06   4.120364308643726e-06
-2.6805063541266187e-06   -2.717874687756708e-07   4.983890710223476e-06
-2.6805063541266187e-06   -2.717874687756708e-07   4.983890710223476e-06
-2.6805063541266187e-06   -2.717874687756708e-07   4.983890710223476e-06
-2.6805063541266187e-06   -2.717874687756708e-07   4.983890710223476e-06
-1.955766111814874e-06   -1.0295185519627555e-06   4.230628956282921e-06
-1.955766111814874e-06   -1.0295185519627555e-06   4.230628956282921e-06
-1.955766111814874e-06   -1.0295185519627555e-06   4.230628956282921e-06
-1.955766111814874e-06   -1.0295185519627555e-06   4.230628956282921e-06
-2.680506354126673e-06   -2.2420411065706856e-06   2.9382121259666314e-06
-2.680506354126673e-06   -2.2420411065706856e-06   2.9382121259666314e-06
-2.680506354126673e-06   -2.2420411065706856e-06   2.9382121259666314e-06
-2.680506354126673e-06   -2.2420411065706856e-06   2.9382121259666314e-06
-1.4530992035725497e-06   -2.717874687756708e-07   6.1660428929005435e-06
-1.4530992035725497e-06   -2.717874687756708e-07   6.1660428929005435e-06
-1.4530992035725497e-06   -2.717874687756708e-07   6.1660428929005435e-06
-1.4530992035725497e-06   -2.717874687756708e-07   6.1660428929005435e-06
-1.1188457767566666e-06   -2.5374387066868565e-06   4.5212309393985245e-06
-1.1188457767566666e-06   -2.5374387066868565e-06   4.5212309393985245e-06
-1.1188457767566666e-06   -2.5374387066868565e-06   4.5212309393985245e-06
-1.1188457767566666e-06   -2.5374387066868565e-06   4.5212309393985245e-06
-2.7176399650331233e-06   -1.1958724665485222e-06   6.380948175776179e-06
-2.7176399650331233e-06   -1.1958724665485222e-06   6.380948175776179e-06
-2.7176399650331233e-06   -1.1958724665485222e-06   6.380948175776179e-06
-2.7176399650331233e-06   -1.1958724665485222e-06   6.380948175776179e-06
-1.7892618056399717e-06   -1.3772638393287184e-06   4.942486067122825e-06
-1.7892618056399717e-06   -1.3772638393287184e-06   4.942486067122825e-06
-1.7892618056399717e-06   -1.3772638393287184e-06   4.942486067122825e-06
-1.7892618056399717e-06   -1.3772638393287184e-06   4.942486067122825e-06
-2.0668766648917255e-06   -1.9358968180436566e-07   -3.4601822449496246e-06
-2.0668766648917255e-06   -1.9358968180436566e-07   -3.4601822449496246e-06
-2.0668766648917255e-06   -1.9358968180436566e-07   -3.4601822449496246e-06
-2.0668766648917255e-06   -1.9358968180436566e-07   -3.4601822449496246e-06
-3.803452612752105e-07   2.976064703394369e-07   -3.545788809691374e-07
-3.803452612752105e-07   2.976064703394369e-07   -3.545788809691374e-07
-3.803452612752105e-07   2.976064703394369e-07   -3.545788809691374e-07
-3.803452612752105e-07   2.976064703394369e-07   -3.545788809691374e-07
8.59090241989418e-09   -2.6956413464118917e-07   -2.71772479612715e-06
8.59090241989418e-09   -2.6956413464118917e-07   -2.71772479612715e-06
8.59090241989418e-09   -2.6956413464118917e-07   -2.71772479612715e-06
8.59090241989418e-09   -2.6956413464118917e-07   -2.71772479612715e-06
-1.6709559376994437e-06   5.155233090660137e-07   -3.895325288195972e-07
-1.6709559376994437e-06   5.155233090660137e-07   -3.895325288195972e-07
-1.6709559376994437e-06   5.155233090660137e-07   -3.895325288195972e-07
-1.6709559376994437e-06   5.155233090660137e-07   -3.895325288195972e-07
-9.391331930544986e-07   1.3711072084735551e-07   -1.3821895502969753e-06
-9.391331930544986e-07   1.3711072084735551e-07   -1.3821895502969753e-06
-9.391331930544986e-07   1.3711072084735551e-07   -1.3821895502969753e-06
-9.391331930544986e-07   1.3711072084735551e-07   -1.3821895502969753e-06
-1.6709559376993895e-06   -2.695641346412434e-07   -3.188777262351782e-06
-1.6709559376993895e-06   -2.695641346412434e-07   -3.188777262351782e-06
-1.6709559376993895e-06   -2.695641346412434e-07   -3.188777262351782e-06
-1.6709559376993895e-06   -2.695641346412434e-07   -3.188777262351782e-06
8.59090241978576e-09   5.155233090660137e-07   8.151993740473668e-08
8.59090241978576e-09   5.155233090660137e-07   8.151993740473668e-08
8.59090241978576e-09   5.155233090660137e-07   8.151993740473668e-08
8.59090241978576e-09   5.155233090660137e-07   8.151993740473668e-08
2.1295177070638702e-07   -3.7252915045587684e-07   -2.4373855208200106e-06
2.1295177070638702e-07   -3.7252915045587684e-07   -2.4373855208200106e-06
2.1295177070638702e-07   -3.7252915045587684e-07   -2.4373855208200106e-06
2.1295177070638702e-07   -3.7252915045587684e-07   -2.4373855208200106e-06
-1.4530992035725497e-06   4.4301829835853796e-07   -1.4996236631062594e-07
-1.4530992035725497e-06   4.4301829835853796e-07   -1.4996236631062594e-07
-1.4530992035725497e-06   4.4301829835853796e-07   -1.4996236631062594e-07
-1.4530992035725497e-06   4.4301829835853796e-07   -1.4996236631062594e-07
-6.514455765264449e-07   8.967840047820067e-08   -1.2740478059919142e-06
-6.514455765264449e-07   8.967840047820067e-08   -1.2740478059919142e-06
-6.514455765264449e-07   8.967840047820067e-08   -1.2740478059919142e-06
-6.514455765264449e-07   8.967840047820067e-08   -1.2740478059919142e-06
-1.4530992035725497e-06   -3.7252915045587684e-07   -2.9267139901085917e-06
-1.4530992035725497e-06   -3.7252915045587684e-07   -2.9267139901085917e-06
-1.4530992035725497e-06   -3.7252915045587684e-07   -2.9267139901085917e-06
-1.4530992035725497e-06   -3.7252915045587684e-07   -2.9267139901085917e-06
2.1295177070638702e-07   4.4301829835853796e-07   3.3936610297792807e-07
2.1295177070638702e-07   4.4301829835853796e-07   3.3936610297792807e-07
2.1295177070638702e-07   4.4301829835853796e-07   3.3936610297792807e-07
2.1295177070638702e-07   4.4301829835853796e-07   3.3936610297792807e-07
4.676672140124273e-07   -4.970837431389073e-07   -2.026553092069022e-06
4.676672140124273e-07   -4.970837431389073e-07   -2.026553092069022e-06
4.676672140124273e-07   -4.970837431389073e-07   -2.026553092069022e-06
4.676672140124273e-07   -4.970837431389073e-07   -2.026553092069022e-06
-1.1188457767566666e-06   3.8300421859702887e-07   8.958244883774166e-08
-1.1188457767566666e-06   3.8300421859702887e-07   8.958244883774166e-08
-1.1188457767566666e-06   3.8300421859702887e-07   8.958244883774166e-08
-1.1188457767566666e-06   3.8300421859702887e-07   8.958244883774166e-08
-3.909292879055663e-07   3.258678247315856e-08   -9.133612375731215e-07
-3.909292879055663e-07   3.258678247315856e-08   -9.133612375731215e-07
-3.909292879055663e-07   3.258678247315856e-08   -9.133612375731215e-07
-3.909292879055663e-07   3.258678247315856e-08   -9.133612375731215e-07
              </DataArray>   
             <DataArray type="Float64" NumberOfComponents="3" Name="Stress" format="ascii">   
-3.164314113412056   -0.791078528353014   -0.791078528353014
-3.164314113412056   -0.791078528353014   -0.791078528353014
-3.164314113412056   -0.791078528353014   -0.791078528353014
-3.164314113412056   -0.791078528353014   -0.791078528353014
-1.831157483063154   -0.058020382197105425   -0.03671574003645274
-1.831157483063154   -0.058020382197105425   -0.03671574003645274
-1.831157483063154   -0.058020382197105425   -0.03671574003645274
-1.831157483063154   -0.058020382197105425   -0.03671574003645274
-1.9737872631292501   -0.49344681578231253   -0.49344681578231253
-1.9737872631292501   -0.49344681578231253   -0.49344681578231253
-1.9737872631292501   -0.49344681578231253   -0.49344681578231253
-1.9737872631292501   -0.49344681578231253   -0.49344681578231253
-3.0497379718377498   -0.2504531055177711   -0.09578207696290555
-3.0497379718377498   -0.2504531055177711   -0.09578207696290555
-3.0497379718377498   -0.2504531055177711   -0.09578207696290555
-3.0497379718377498   -0.2504531055177711   -0.09578207696290555
-2.3918944722415905   -0.392139238603888   -0.00660502538614724
-2.3918944722415905   -0.392139238603888   -0.00660502538614724
-2.3918944722415905   -0.392139238603888   -0.00660502538614724
-2.3918944722415905   -0.392139238603888   -0.00660502538614724
-3.3116565948240217   -0.8279141487060054   -0.8279141487060054
-3.3116565948240217   -0.8279141487060054   -0.8279141487060054
-3.3116565948240217   -0.8279141487060054   -0.8279141487060054
-3.3116565948240217   -0.8279141487060054   -0.8279141487060054
-1.7739835440865417   0.02189932346236323   -0.009774359813445474
-1.7739835440865417   0.02189932346236323   -0.009774359813445474
-1.7739835440865417   0.02189932346236323   -0.009774359813445474
-1.7739835440865417   0.02189932346236323   -0.009774359813445474
-1.9793992674945058   -0.49484981687362645   -0.49484981687362645
-1.9793992674945058   -0.49484981687362645   -0.49484981687362645
-1.9793992674945058   -0.49484981687362645   -0.49484981687362645
-1.9793992674945058   -0.49484981687362645   -0.49484981687362645
-3.1522850192601233   -0.2528697364301366   -0.14035921707225624
-3.1522850192601233   -0.2528697364301366   -0.14035921707225624
-3.1522850192601233   -0.2528697364301366   -0.14035921707225624
-3.1522850192601233   -0.2528697364301366   -0.14035921707225624
-2.481155567002908   -0.36922160090152767   -0.13168054389634312
-2.481155567002908   -0.36922160090152767   -0.13168054389634312
-2.481155567002908   -0.36922160090152767   -0.13168054389634312
-2.481155567002908   -0.36922160090152767   -0.13168054389634312
-3.4151546983996113   -0.8537886745999028   -0.8537886745999028
-3.4151546983996113   -0.8537886745999028   -0.8537886745999028
-3.4151546983996113   -0.8537886745999028   -0.8537886745999028
-3.4151546983996113   -0.8537886745999028   -0.8537886745999028
-1.7688699787369662   0.05372873091419644   0.009218079126248502
-1.7688699787369662   0.05372873091419644   0.009218079126248502
-1.7688699787369662   0.05372873091419644   0.009218079126248502
-1.7688699787369662   0.05372873091419644   0.009218079126248502
-1.9784102272880522   -0.49460255682201304   -0.49460255682201304
-1.9784102272880522   -0.49460255682201304   -0.49460255682201304
-1.9784102272880522   -0.49460255682201304   -0.49460255682201304
-1.9784102272880522   -0.49460255682201304   -0.49460255682201304
-3.3354683117049717   -0.22182775190812787   -0.08418576448406115
-3.3354683117049717   -0.22182775190812787   -0.08418576448406115
-3.3354683117049717   -0.22182775190812787   -0.08418576448406115
-3.3354683117049717   -0.22182775190812787   -0.08418576448406115
-2.547401420930725   -0.3634899372227549   -0.23799608463364927
-2.547401420930725   -0.3634899372227549   -0.23799608463364927
-2.547401420930725   -0.3634899372227549   -0.23799608463364927
-2.547401420930725   -0.3634899372227549   -0.23799608463364927
-2.0135669540182723   -0.5033917385045681   -0.5033917385045681
-2.0135669540182723   -0.5033917385045681   -0.5033917385045681
-2.0135669540182723   -0.5033917385045681   -0.5033917385045681
-2.0135669540182723   -0.5033917385045681   -0.5033917385045681
-0.8400561150157733   -0.055899398810933365   -0.018166587798456688
-0.8400561150157733   -0.055899398810933365   -0.018166587798456688
-0.8400561150157733   -0.055899398810933365   -0.018166587798456688
-0.8400561150157733   -0.055899398810933365   -0.018166587798456688
-0.8819410450650661   -0.22048526126626652   -0.22048526126626652
-0.8819410450650661   -0.22048526126626652   -0.22048526126626652
-0.8819410450650661   -0.22048526126626652   -0.22048526126626652
-0.8819410450650661   -0.22048526126626652   -0.22048526126626652
-1.833263887614269   -0.21561984123538822   -0.06865691275433158
-1.833263887614269   -0.21561984123538822   -0.06865691275433158
-1.833263887614269   -0.21561984123538822   -0.06865691275433158
-1.833263887614269   -0.21561984123538822   -0.06865691275433158
-1.3520916366048845   -0.25613806267411976   0.010572877587197738
-1.3520916366048845   -0.25613806267411976   0.010572877587197738
-1.3520916366048845   -0.25613806267411976   0.010572877587197738
-1.3520916366048845   -0.25613806267411976   0.010572877587197738
-1.9737872631292483   -0.4934468157823121   -0.4934468157823121
-1.9737872631292483   -0.4934468157823121   -0.4934468157823121
-1.9737872631292483   -0.4934468157823121   -0.4934468157823121
-1.9737872631292483   -0.4934468157823121   -0.4934468157823121
-0.7926083832727984   0.006150999557944459   -0.0004582131291389277
-0.7926083832727984   0.006150999557944459   -0.0004582131291389277
-0.7926083832727984   0.006150999557944459   -0.0004582131291389277
-0.7926083832727984   0.006150999557944459   -0.0004582131291389277
-0.8623051077511303   -0.21557627693778258   -0.21557627693778258
-0.8623051077511303   -0.21557627693778258   -0.21557627693778258
-0.8623051077511303   -0.21557627693778258   -0.21557627693778258
-0.8623051077511303   -0.21557627693778258   -0.21557627693778258
-1.8286976873087137   -0.17591223305661624   -0.06027949976167578
-1.8286976873087137   -0.17591223305661624   -0.06027949976167578
-1.8286976873087137   -0.17591223305661624   -0.06027949976167578
-1.8286976873087137   -0.17591223305661624   -0.06027949976167578
-1.3333136009740794   -0.215644152447378   -0.06971601794217644
-1.3333136009740794   -0.215644152447378   -0.06971601794217644
-1.3333136009740794   -0.215644152447378   -0.06971601794217644
-1.3333136009740794   -0.215644152447378   -0.06971601794217644
-1.9793992674945058   -0.49484981687362645   -0.49484981687362645
-1.9793992674945058   -0.49484981687362645   -0.49484981687362645
-1.9793992674945058   -0.49484981687362645   -0.49484981687362645
-1.9793992674945058   -0.49484981687362645   -0.49484981687362645
-0.7611843435870698   0.05378049085749598   0.020670776087241563
-0.7611843435870698   0.05378049085749598   0.020670776087241563
-0.7611843435870698   0.05378049085749598   0.020670776087241563
-0.7611843435870698   0.05378049085749598   0.020670776087241563
-0.8444325775147621   -0.21110814437869052   -0.21110814437869052
-0.8444325775147621   -0.21110814437869052   -0.21110814437869052
-0.8444325775147621   -0.21110814437869052   -0.21110814437869052
-0.8444325775147621   -0.21110814437869052   -0.21110814437869052
-1.8153126524183543   -0.13575086458557545   -0.03796637470998429
-1.8153126524183543   -0.13575086458557545   -0.03796637470998429
-1.8153126524183543   -0.13575086458557545   -0.03796637470998429
-1.8153126524183543   -0.13575086458557545   -0.03796637470998429
-1.339959660617135   -0.1908456529953292   -0.1553309988194941
-1.339959660617135   -0.1908456529953292   -0.1553309988194941
-1.339959660617135   -0.1908456529953292   -0.1553309988194941
-1.339959660617135   -0.1908456529953292   -0.1553309988194941
-0.9169365752154407   -0.22923414380386017   -0.22923414380386017
-0.9169365752154407   -0.22923414380386017   -0.22923414380386017
-0.9169365752154407   -0.22923414380386017   -0.22923414380386017
-0.9169365752154407   -0.22923414380386017   -0.22923414380386017
0.10889658196215249   0.007137996014966681   0.0008905788196103106
0.10889658196215249   0.007137996014966681   0.0008905788196103106
0.10889658196215249   0.007137996014966681   0.0008905788196103106
0.10889658196215249   0.007137996014966681   0.0008905788196103106
0.14152853705662258   0.035382134264155644   0.035382134264155644
0.14152853705662258   0.035382134264155644   0.035382134264155644
0.14152853705662258   0.035382134264155644   0.035382134264155644
0.14152853705662258   0.035382134264155644   0.035382134264155644
-0.829099146910187   -0.1433047644524878   -0.03345626730564996
-0.829099146910187   -0.1433047644524878   -0.03345626730564996
-0.829099146910187   -0.1433047644524878   -0.03345626730564996
-0.829099146910187   -0.1433047644524878   -0.03345626730564996
-0.3548870021705685   -0.09002875665367818   0.06026183165817228
-0.3548870021705685   -0.09002875665367818   0.06026183165817228
-0.3548870021705685   -0.09002875665367818   0.06026183165817228
-0.3548870021705685   -0.09002875665367818   0.06026183165817228
-0.8819410450650661   -0.22048526126626652   -0.22048526126626652
-0.8819410450650661   -0.22048526126626652   -0.22048526126626652
-0.8819410450650661   -0.22048526126626652   -0.22048526126626652
-0.8819410450650661   -0.22048526126626652   -0.22048526126626652
0.1440452149413348   0.06223741080776733   0.02111024714410382
0.1440452149413348   0.06223741080776733   0.02111024714410382
0.1440452149413348   0.06223741080776733   0.02111024714410382
0.1440452149413348   0.06223741080776733   0.02111024714410382
0.15913608010201832   0.03978402002550458   0.03978402002550458
0.15913608010201832   0.03978402002550458   0.03978402002550458
0.15913608010201832   0.03978402002550458   0.03978402002550458
0.15913608010201832   0.03978402002550458   0.03978402002550458
-0.7998599490162085   -0.09649002834296024   -0.02243673185800227
-0.7998599490162085   -0.09649002834296024   -0.02243673185800227
-0.7998599490162085   -0.09649002834296024   -0.02243673185800227
-0.7998599490162085   -0.09649002834296024   -0.02243673185800227
-0.34050696782336565   -0.055651551101682656   -0.020572116848288545
-0.34050696782336565   -0.055651551101682656   -0.020572116848288545
-0.34050696782336565   -0.055651551101682656   -0.020572116848288545
-0.34050696782336565   -0.055651551101682656   -0.020572116848288545
-0.8623051077511303   -0.21557627693778258   -0.21557627693778258
-0.8623051077511303   -0.21557627693778258   -0.21557627693778258
-0.8623051077511303   -0.21557627693778258   -0.21557627693778258
-0.8623051077511303   -0.21557627693778258   -0.21557627693778258
0.17226882377980132   0.10955785356318898   0.03567390487673398
0.17226882377980132   0.10955785356318898   0.03567390487673398
0.17226882377980132   0.10955785356318898   0.03567390487673398
0.17226882377980132   0.10955785356318898   0.03567390487673398
0.1828422422973489   0.04571056057433723   0.04571056057433723
0.1828422422973489   0.04571056057433723   0.04571056057433723
0.1828422422973489   0.04571056057433723   0.04571056057433723
0.1828422422973489   0.04571056057433723   0.04571056057433723
-0.7680379346929233   -0.04065586195230139   0.0004127873041110189
-0.7680379346929233   -0.04065586195230139   0.0004127873041110189
-0.7680379346929233   -0.04065586195230139   0.0004127873041110189
-0.7680379346929233   -0.04065586195230139   0.0004127873041110189
-0.3303973493074818   -0.022510891032317557   -0.10068440823408664
-0.3303973493074818   -0.022510891032317557   -0.10068440823408664
-0.3303973493074818   -0.022510891032317557   -0.10068440823408664
-0.3303973493074818   -0.022510891032317557   -0.10068440823408664
0.11921207443915251   0.029803018609788127   0.029803018609788127
0.11921207443915251   0.029803018609788127   0.029803018609788127
0.11921207443915251   0.029803018609788127   0.029803018609788127
0.11921207443915251   0.029803018609788127   0.029803018609788127
1.1476365923467569   0.10529172806487089   0.03535481552718376
1.1476365923467569   0.10529172806487089   0.03535481552718376
1.1476365923467569   0.10529172806487089   0.03535481552718376
1.1476365923467569   0.10529172806487089   0.03535481552718376
1.246032579190716   0.311508144797679   0.311508144797679
1.246032579190716   0.311508144797679   0.311508144797679
1.246032579190716   0.311508144797679   0.311508144797679
1.246032579190716   0.311508144797679   0.311508144797679
0.1078297415903721   -0.08081610028767025   -0.01691360851527315
0.1078297415903721   -0.08081610028767025   -0.01691360851527315
0.1078297415903721   -0.08081610028767025   -0.01691360851527315
0.1078297415903721   -0.08081610028767025   -0.01691360851527315
0.6544349404943551   0.08147347210661186   0.1189007596979603
0.6544349404943551   0.08147347210661186   0.1189007596979603
0.6544349404943551   0.08147347210661186   0.1189007596979603
0.6544349404943551   0.08147347210661186   0.1189007596979603
0.1415285370566231   0.035382134264155776   0.035382134264155776
0.1415285370566231   0.035382134264155776   0.035382134264155776
0.1415285370566231   0.035382134264155776   0.035382134264155776
0.1415285370566231   0.035382134264155776   0.035382134264155776
1.1611809986455135   0.14415712516690143   0.054601261702443823
1.1611809986455135   0.14415712516690143   0.054601261702443823
1.1611809986455135   0.14415712516690143   0.054601261702443823
1.1611809986455135   0.14415712516690143   0.054601261702443823
1.2406302823142754   0.31015757057856885   0.31015757057856885
1.2406302823142754   0.31015757057856885   0.31015757057856885
1.2406302823142754   0.31015757057856885   0.31015757057856885
1.2406302823142754   0.31015757057856885   0.31015757057856885
0.1362326070632196   -0.035041307124927354   9.198198194165438e-05
0.1362326070632196   -0.035041307124927354   9.198198194165438e-05
0.1362326070632196   -0.035041307124927354   9.198198194165438e-05
0.1362326070632196   -0.035041307124927354   9.198198194165438e-05
0.6495383147426667   0.10690208595385349   0.03093214417495799
0.6495383147426667   0.10690208595385349   0.03093214417495799
0.6495383147426667   0.10690208595385349   0.03093214417495799
0.6495383147426667   0.10690208595385349   0.03093214417495799
0.15913608010201846   0.039784020025504616   0.039784020025504616
0.15913608010201846   0.039784020025504616   0.039784020025504616
0.15913608010201846   0.039784020025504616   0.039784020025504616
0.15913608010201846   0.039784020025504616   0.039784020025504616
1.1670652466765168   0.1846706808291773   0.06781928213916764
1.1670652466765168   0.1846706808291773   0.06781928213916764
1.1670652466765168   0.1846706808291773   0.06781928213916764
1.1670652466765168   0.1846706808291773   0.06781928213916764
1.2645944095366666   0.31614860238416664   0.31614860238416664
1.2645944095366666   0.31614860238416664   0.31614860238416664
1.2645944095366666   0.31614860238416664   0.31614860238416664
1.2645944095366666   0.31614860238416664   0.31614860238416664
0.1734848214715457   0.025523736097676407   0.019110280921980534
0.1734848214715457   0.025523736097676407   0.019110280921980534
0.1734848214715457   0.025523736097676407   0.019110280921980534
0.1734848214715457   0.025523736097676407   0.019110280921980534
0.6595531380768608   0.14500684143697173   -0.05063475273970693
0.6595531380768608   0.14500684143697173   -0.05063475273970693
0.6595531380768608   0.14500684143697173   -0.05063475273970693
0.6595531380768608   0.14500684143697173   -0.05063475273970693
1.2438969818092733   0.31097424545231833   0.31097424545231833
1.2438969818092733   0.31097424545231833   0.31097424545231833
1.2438969818092733   0.31097424545231833   0.31097424545231833
1.2438969818092733   0.31097424545231833   0.31097424545231833
2.579883825628581   0.19663383265108825   0.06736200700836853
2.579883825628581   0.19663383265108825   0.06736200700836853
2.579883825628581   0.19663383265108825   0.06736200700836853
2.579883825628581   0.19663383265108825   0.06736200700836853
2.636945732681891   0.6592364331704728   0.6592364331704728
2.636945732681891   0.6592364331704728   0.6592364331704728
2.636945732681891   0.6592364331704728   0.6592364331704728
2.636945732681891   0.6592364331704728   0.6592364331704728
1.1075770267314309   -0.06295502457684327   -0.0063064481242246645
1.1075770267314309   -0.06295502457684327   -0.0063064481242246645
1.1075770267314309   -0.06295502457684327   -0.0063064481242246645
1.1075770267314309   -0.06295502457684327   -0.0063064481242246645
1.840006088451987   0.2604026027461048   0.20773173190871108
1.840006088451987   0.2604026027461048   0.20773173190871108
1.840006088451987   0.2604026027461048   0.20773173190871108
1.840006088451987   0.2604026027461048   0.20773173190871108
1.246032579190715   0.31150814479767874   0.31150814479767874
1.246032579190715   0.31150814479767874   0.31150814479767874
1.246032579190715   0.31150814479767874   0.31150814479767874
1.246032579190715   0.31150814479767874   0.31150814479767874
2.4436625335466795   0.22994561712003214   0.12211125354489746
2.4436625335466795   0.22994561712003214   0.12211125354489746
2.4436625335466795   0.22994561712003214   0.12211125354489746
2.4436625335466795   0.22994561712003214   0.12211125354489746
2.5580951842456736   0.6395237960614184   0.6395237960614184
2.5580951842456736   0.6395237960614184   0.6395237960614184
2.5580951842456736   0.6395237960614184   0.6395237960614184
2.5580951842456736   0.6395237960614184   0.6395237960614184
1.1113889997141655   -0.03475225727183806   0.008860985428426324
1.1113889997141655   -0.03475225727183806   0.008860985428426324
1.1113889997141655   -0.03475225727183806   0.008860985428426324
1.1113889997141655   -0.03475225727183806   0.008860985428426324
1.7853602039748429   0.2679010680791102   0.09961248406323134
1.7853602039748429   0.2679010680791102   0.09961248406323134
1.7853602039748429   0.2679010680791102   0.09961248406323134
1.7853602039748429   0.2679010680791102   0.09961248406323134
1.2406302823142754   0.31015757057856885   0.31015757057856885
1.2406302823142754   0.31015757057856885   0.31015757057856885
1.2406302823142754   0.31015757057856885   0.31015757057856885
1.2406302823142754   0.31015757057856885   0.31015757057856885
2.364923228419017   0.23068329498447193   0.08250451800512107
2.364923228419017   0.23068329498447193   0.08250451800512107
2.364923228419017   0.23068329498447193   0.08250451800512107
2.364923228419017   0.23068329498447193   0.08250451800512107
2.4407548313323293   0.6101887078330823   0.6101887078330823
2.4407548313323293   0.6101887078330823   0.6101887078330823
2.4407548313323293   0.6101887078330823   0.6101887078330823
2.4407548313323293   0.6101887078330823   0.6101887078330823
1.1524505590427772   0.03634645321025112   0.035231499088634245
1.1524505590427772   0.03634645321025112   0.035231499088634245
1.1524505590427772   0.03634645321025112   0.035231499088634245
1.1524505590427772   0.03634645321025112   0.035231499088634245
1.7094887555658533   0.29045375263879614   -0.02612648051439903
1.7094887555658533   0.29045375263879614   -0.02612648051439903
1.7094887555658533   0.29045375263879614   -0.02612648051439903
1.7094887555658533   0.29045375263879614   -0.02612648051439903
-2.5014938962811413   -0.1791177551906446   0.02813380821384036
-2.5014938962811413   -0.1791177551906446   0.02813380821384036
-2.5014938962811413   -0.1791177551906446   0.02813380821384036
-2.5014938962811413   -0.1791177551906446   0.02813380821384036
-1.5922125482063154   -0.03670607849667551   -0.010287721384410684
-1.5922125482063154   -0.03670607849667551   -0.010287721384410684
-1.5922125482063154   -0.03670607849667551   -0.010287721384410684
-1.5922125482063154   -0.03670607849667551   -0.010287721384410684
-1.603025917968208   0.06473817763865553   0.0334622849496882
-1.603025917968208   0.06473817763865553   0.0334622849496882
-1.603025917968208   0.06473817763865553   0.0334622849496882
-1.603025917968208   0.06473817763865553   0.0334622849496882
-2.5387501400741463   -0.17316223861014068   -0.03004991698974424
-2.5387501400741463   -0.17316223861014068   -0.03004991698974424
-2.5387501400741463   -0.17316223861014068   -0.03004991698974424
-2.5387501400741463   -0.17316223861014068   -0.03004991698974424
-1.9778492878656286   -0.06753689644469041   -0.00782663713151567
-1.9778492878656286   -0.06753689644469041   -0.00782663713151567
-1.9778492878656286   -0.06753689644469041   -0.00782663713151567
-1.9778492878656286   -0.06753689644469041   -0.00782663713151567
-2.5203078326412562   -0.12300898831081564   0.012008369875380537
-2.5203078326412562   -0.12300898831081564   0.012008369875380537
-2.5203078326412562   -0.12300898831081564   0.012008369875380537
-2.5203078326412562   -0.12300898831081564   0.012008369875380537
-1.6241333498938768   0.011919802846559191   -0.019256499886529693
-1.6241333498938768   0.011919802846559191   -0.019256499886529693
-1.6241333498938768   0.011919802846559191   -0.019256499886529693
-1.6241333498938768   0.011919802846559191   -0.019256499886529693
-1.6049657936931327   0.09228730959610926   0.038106787491984775
-1.6049657936931327   0.09228730959610926   0.038106787491984775
-1.6049657936931327   0.09228730959610926   0.038106787491984775
-1.6049657936931327   0.09228730959610926   0.038106787491984775
-2.5541807577542817   -0.15253642701238218   -0.03967202988162545
-2.5541807577542817   -0.15253642701238218   -0.03967202988162545
-2.5541807577542817   -0.15253642701238218   -0.03967202988162545
-2.5541807577542817   -0.15253642701238218   -0.03967202988162545
-2.0334277279042285   -0.045224489703986404   -0.019277067878086848
-2.0334277279042285   -0.045224489703986404   -0.019277067878086848
-2.0334277279042285   -0.045224489703986404   -0.019277067878086848
-2.0334277279042285   -0.045224489703986404   -0.019277067878086848
-2.5083399184519464   -0.07384143744210075   0.11083717705974823
-2.5083399184519464   -0.07384143744210075   0.11083717705974823
-2.5083399184519464   -0.07384143744210075   0.11083717705974823
-2.5083399184519464   -0.07384143744210075   0.11083717705974823
-1.6317067327545787   0.032692220266715866   -0.03600281848583865
-1.6317067327545787   0.032692220266715866   -0.03600281848583865
-1.6317067327545787   0.032692220266715866   -0.03600281848583865
-1.6317067327545787   0.032692220266715866   -0.03600281848583865
-1.5758052072685258   0.1607907076285338   0.06924342876280312
-1.5758052072685258   0.1607907076285338   0.06924342876280312
-1.5758052072685258   0.1607907076285338   0.06924342876280312
-1.5758052072685258   0.1607907076285338   0.06924342876280312
-2.483653710934215   -0.12310322273320184   -0.06490716154526988
-2.483653710934215   -0.12310322273320184   -0.06490716154526988
-2.483653710934215   -0.12310322273320184   -0.06490716154526988
-2.483653710934215   -0.12310322273320184   -0.06490716154526988
-1.9557077070373063   0.018213560264767115   0.043334366722646164
-1.9557077070373063   0.018213560264767115   0.043334366722646164
-1.9557077070373063   0.018213560264767115   0.043334366722646164
-1.9557077070373063   0.018213560264767115   0.043334366722646164
-1.6317750494869117   -0.21630927450190288   -0.02849703178216418
-1.6317750494869117   -0.21630927450190288   -0.02849703178216418
-1.6317750494869117   -0.21630927450190288   -0.02849703178216418
-1.6317750494869117   -0.21630927450190288   -0.02849703178216418
-0.7517120161777138   -0.016692749010077113   0.007983095904448956
-0.7517120161777138   -0.016692749010077113   0.007983095904448956
-0.7517120161777138   -0.016692749010077113   0.007983095904448956
-0.7517120161777138   -0.016692749010077113   0.007983095904448956
-0.7627454159601215   0.014489918751332653   0.01137341552512687
-0.7627454159601215   0.014489918751332653   0.01137341552512687
-0.7627454159601215   0.014489918751332653   0.01137341552512687
-0.7627454159601215   0.014489918751332653   0.01137341552512687
-1.664133267559855   -0.15833802984508957   -0.04899825552480142
-1.664133267559855   -0.15833802984508957   -0.04899825552480142
-1.664133267559855   -0.15833802984508957   -0.04899825552480142
-1.664133267559855   -0.15833802984508957   -0.04899825552480142
-1.2025567578281393   -0.09763062046159862   -0.02755912940335225
-1.2025567578281393   -0.09763062046159862   -0.02755912940335225
-1.2025567578281393   -0.09763062046159862   -0.02755912940335225
-1.2025567578281393   -0.09763062046159862   -0.02755912940335225
-1.6625714552204949   -0.17304618078365552   -0.0264810428894406
-1.6625714552204949   -0.17304618078365552   -0.0264810428894406
-1.6625714552204949   -0.17304618078365552   -0.0264810428894406
-1.6625714552204949   -0.17304618078365552   -0.0264810428894406
-0.7613410216535655   0.03216427633581345   0.0007210294734318473
-0.7613410216535655   0.03216427633581345   0.0007210294734318473
-0.7613410216535655   0.03216427633581345   0.0007210294734318473
-0.7613410216535655   0.03216427633581345   0.0007210294734318473
-0.7599003698227762   0.05299350866954258   0.01545189138318475
-0.7599003698227762   0.05299350866954258   0.01545189138318475
-0.7599003698227762   0.05299350866954258   0.01545189138318475
-0.7599003698227762   0.05299350866954258   0.01545189138318475
-1.6648527296073248   -0.1160468717369455   -0.05299371074592138
-1.6648527296073248   -0.1160468717369455   -0.05299371074592138
-1.6648527296073248   -0.1160468717369455   -0.05299371074592138
-1.6648527296073248   -0.1160468717369455   -0.05299371074592138
-1.2002543644943358   -0.05433973814186088   -0.013101302309994345
-1.2002543644943358   -0.05433973814186088   -0.013101302309994345
-1.2002543644943358   -0.05433973814186088   -0.013101302309994345
-1.2002543644943358   -0.05433973814186088   -0.013101302309994345
-1.6583469220540954   -0.13090707416391847   -0.0056044705528012564
-1.6583469220540954   -0.13090707416391847   -0.0056044705528012564
-1.6583469220540954   -0.13090707416391847   -0.0056044705528012564
-1.6583469220540954   -0.13090707416391847   -0.0056044705528012564
-0.7608986568707826   0.0733612316017409   -0.009907266789031671
-0.7608986568707826   0.0733612316017409   -0.009907266789031671
-0.7608986568707826   0.0733612316017409   -0.009907266789031671
-0.7608986568707826   0.0733612316017409   -0.009907266789031671
-0.7472022305364517   0.09167366128955695   0.031045832783777177
-0.7472022305364517   0.09167366128955695   0.031045832783777177
-0.7472022305364517   0.09167366128955695   0.031045832783777177
-0.7472022305364517   0.09167366128955695   0.031045832783777177
-1.6470582631988866   -0.06718297886035923   -0.05904816440011525
-1.6470582631988866   -0.06718297886035923   -0.05904816440011525
-1.6470582631988866   -0.06718297886035923   -0.05904816440011525
-1.6470582631988866   -0.06718297886035923   -0.05904816440011525
-1.1952721557859272   -0.01337366609310553   0.006001890750844743
-1.1952721557859272   -0.01337366609310553   0.006001890750844743
-1.1952721557859272   -0.01337366609310553   0.006001890750844743
-1.1952721557859272   -0.01337366609310553   0.006001890750844743
-0.7926875731669023   -0.1800620319875682   -0.03352540606400947
-0.7926875731669023   -0.1800620319875682   -0.03352540606400947
-0.7926875731669023   -0.1800620319875682   -0.03352540606400947
-0.7926875731669023   -0.1800620319875682   -0.03352540606400947
0.08229046270558622   0.018706701291671964   0.030880706559974495
0.08229046270558622   0.018706701291671964   0.030880706559974495
0.08229046270558622   0.018706701291671964   0.030880706559974495
0.08229046270558622   0.018706701291671964   0.030880706559974495
0.07852257605786762   0.04540465550979701   0.0024691095377194043
0.07852257605786762   0.04540465550979701   0.0024691095377194043
0.07852257605786762   0.04540465550979701   0.0024691095377194043
0.07852257605786762   0.04540465550979701   0.0024691095377194043
-0.7960582603333638   -0.11929440372090547   -0.021406483868846714
-0.7960582603333638   -0.11929440372090547   -0.021406483868846714
-0.7960582603333638   -0.11929440372090547   -0.021406483868846714
-0.7960582603333638   -0.11929440372090547   -0.021406483868846714
-0.36043517608176684   -0.0596933876015677   -0.011398934587676584
-0.36043517608176684   -0.0596933876015677   -0.011398934587676584
-0.36043517608176684   -0.0596933876015677   -0.011398934587676584
-0.36043517608176684   -0.0596933876015677   -0.011398934587676584
-0.8015646525714284   -0.13729431823301763   -0.030938530547057724
-0.8015646525714284   -0.13729431823301763   -0.030938530547057724
-0.8015646525714284   -0.13729431823301763   -0.030938530547057724
-0.8015646525714284   -0.13729431823301763   -0.030938530547057724
0.08708990795407698   0.06646550968005516   0.024244914848508048
0.08708990795407698   0.06646550968005516   0.024244914848508048
0.08708990795407698   0.06646550968005516   0.024244914848508048
0.08708990795407698   0.06646550968005516   0.024244914848508048
0.08472554541056096   0.08778560742632666   0.014355952561660917
0.08472554541056096   0.08778560742632666   0.014355952561660917
0.08472554541056096   0.08778560742632666   0.014355952561660917
0.08472554541056096   0.08778560742632666   0.014355952561660917
-0.7934947397336827   -0.07281990007670869   -0.02670654942509599
-0.7934947397336827   -0.07281990007670869   -0.02670654942509599
-0.7934947397336827   -0.07281990007670869   -0.02670654942509599
-0.7934947397336827   -0.07281990007670869   -0.02670654942509599
-0.3548048181187233   -0.014652988244317863   0.004244908261041746
-0.3548048181187233   -0.014652988244317863   0.004244908261041746
-0.3548048181187233   -0.014652988244317863   0.004244908261041746
-0.3548048181187233   -0.014652988244317863   0.004244908261041746
-0.7956213735745135   -0.09432240885351022   -0.015837209852449
-0.7956213735745135   -0.09432240885351022   -0.015837209852449
-0.7956213735745135   -0.09432240885351022   -0.015837209852449
-0.7956213735745135   -0.09432240885351022   -0.015837209852449
0.09014566198707322   0.11258159893880947   0.01666054393173892
0.09014566198707322   0.11258159893880947   0.01666054393173892
0.09014566198707322   0.11258159893880947   0.01666054393173892
0.09014566198707322   0.11258159893880947   0.01666054393173892
0.08669011035928191   0.13493386238887034   0.02363336395776656
0.08669011035928191   0.13493386238887034   0.02363336395776656
0.08669011035928191   0.13493386238887034   0.02363336395776656
0.08669011035928191   0.13493386238887034   0.02363336395776656
-0.7831029669169551   -0.023136510592137005   -0.03364767723704215
-0.7831029669169551   -0.023136510592137005   -0.03364767723704215
-0.7831029669169551   -0.023136510592137005   -0.03364767723704215
-0.7831029669169551   -0.023136510592137005   -0.03364767723704215
-0.34591725615012187   0.03244893497690811   0.021371074223233845
-0.34591725615012187   0.03244893497690811   0.021371074223233845
-0.34591725615012187   0.03244893497690811   0.021371074223233845
-0.34591725615012187   0.03244893497690811   0.021371074223233845
0.03774139840424922   -0.13199154713339564   -0.041166366521642996
0.03774139840424922   -0.13199154713339564   -0.041166366521642996
0.03774139840424922   -0.13199154713339564   -0.041166366521642996
0.03774139840424922   -0.13199154713339564   -0.041166366521642996
0.9441803340468808   0.06517205220885453   0.05667198444981183
0.9441803340468808   0.06517205220885453   0.05667198444981183
0.9441803340468808   0.06517205220885453   0.05667198444981183
0.9441803340468808   0.06517205220885453   0.05667198444981183
0.9430481017320219   0.08779796646038251   -0.00906163491666092
0.9430481017320219   0.08779796646038251   -0.00906163491666092
0.9430481017320219   0.08779796646038251   -0.00906163491666092
0.9430481017320219   0.08779796646038251   -0.00906163491666092
0.054221734340696257   -0.07929672013916873   0.005666276600828361
0.054221734340696257   -0.07929672013916873   0.005666276600828361
0.054221734340696257   -0.07929672013916873   0.005666276600828361
0.054221734340696257   -0.07929672013916873   0.005666276600828361
0.48870090871097244   -0.011309020642401996   0.0010359695819866094
0.48870090871097244   -0.011309020642401996   0.0010359695819866094
0.48870090871097244   -0.011309020642401996   0.0010359695819866094
0.48870090871097244   -0.011309020642401996   0.0010359695819866094
0.04351269091251408   -0.09644326738003085   -0.03073239329921996
0.04351269091251408   -0.09644326738003085   -0.03073239329921996
0.04351269091251408   -0.09644326738003085   -0.03073239329921996
0.04351269091251408   -0.09644326738003085   -0.03073239329921996
0.9592583299621513   0.11044569850319065   0.04934177419117025
0.9592583299621513   0.11044569850319065   0.04934177419117025
0.9592583299621513   0.11044569850319065   0.04934177419117025
0.9592583299621513   0.11044569850319065   0.04934177419117025
0.9505231476758537   0.1297146436419141   0.009581195203514765
0.9505231476758537   0.1297146436419141   0.009581195203514765
0.9505231476758537   0.1297146436419141   0.009581195203514765
0.9505231476758537   0.1297146436419141   0.009581195203514765
0.05618898770021992   -0.03776071452120271   -0.0027805140425149373
0.05618898770021992   -0.03776071452120271   -0.0027805140425149373
0.05618898770021992   -0.03776071452120271   -0.0027805140425149373
0.05618898770021992   -0.03776071452120271   -0.0027805140425149373
0.49525550495459153   0.028757776338801055   0.02026238087045313
0.49525550495459153   0.028757776338801055   0.02026238087045313
0.49525550495459153   0.028757776338801055   0.02026238087045313
0.49525550495459153   0.028757776338801055   0.02026238087045313
0.04838646614611947   -0.0571164158096497   -0.022437420524569936
0.04838646614611947   -0.0571164158096497   -0.022437420524569936
0.04838646614611947   -0.0571164158096497   -0.022437420524569936
0.04838646614611947   -0.0571164158096497   -0.022437420524569936
0.9623065303386937   0.15305120603909916   0.045161546120513
0.9623065303386937   0.15305120603909916   0.045161546120513
0.9623065303386937   0.15305120603909916   0.045161546120513
0.9623065303386937   0.15305120603909916   0.045161546120513
0.9352894128520387   0.1780922854490277   0.020148436298242083
0.9352894128520387   0.1780922854490277   0.020148436298242083
0.9352894128520387   0.1780922854490277   0.020148436298242083
0.9352894128520387   0.1780922854490277   0.020148436298242083
0.05571101472432237   0.013678711233676933   -0.010006963061837756
0.05571101472432237   0.013678711233676933   -0.010006963061837756
0.05571101472432237   0.013678711233676933   -0.010006963061837756
0.05571101472432237   0.013678711233676933   -0.010006963061837756
0.5026099617202636   0.07456322129167188   0.03805991120988547
0.5026099617202636   0.07456322129167188   0.03805991120988547
0.5026099617202636   0.07456322129167188   0.03805991120988547
0.5026099617202636   0.07456322129167188   0.03805991120988547
0.8697777567858742   -0.17407796037366682   -0.07609088927269994
0.8697777567858742   -0.17407796037366682   -0.07609088927269994
0.8697777567858742   -0.17407796037366682   -0.07609088927269994
0.8697777567858742   -0.17407796037366682   -0.07609088927269994
1.7909667876804602   0.11829648141477772   0.05520432934310142
1.7909667876804602   0.11829648141477772   0.05520432934310142
1.7909667876804602   0.11829648141477772   0.05520432934310142
1.7909667876804602   0.11829648141477772   0.05520432934310142
1.8112565630800952   0.05615013532440155   -0.11446018496666684
1.8112565630800952   0.05615013532440155   -0.11446018496666684
1.8112565630800952   0.05615013532440155   -0.11446018496666684
1.8112565630800952   0.05615013532440155   -0.11446018496666684
0.9267591336134549   -0.03571820247540472   0.03300969342627441
0.9267591336134549   -0.03571820247540472   0.03300969342627441
0.9267591336134549   -0.03571820247540472   0.03300969342627441
0.9267591336134549   -0.03571820247540472   0.03300969342627441
1.2825909791339558   -0.022399404101822118   -0.03208210972190577
1.2825909791339558   -0.022399404101822118   -0.03208210972190577
1.2825909791339558   -0.022399404101822118   -0.03208210972190577
1.2825909791339558   -0.022399404101822118   -0.03208210972190577
0.894313288426331   -0.11444502467497084   -0.05049271030976675
0.894313288426331   -0.11444502467497084   -0.05049271030976675
0.894313288426331   -0.11444502467497084   -0.05049271030976675
0.894313288426331   -0.11444502467497084   -0.05049271030976675
1.8601480751845196   0.15132262444127087   0.03482488643858739
1.8601480751845196   0.15132262444127087   0.03482488643858739
1.8601480751845196   0.15132262444127087   0.03482488643858739
1.8601480751845196   0.15132262444127087   0.03482488643858739
1.8312461654124679   0.10226536466765296   -0.02590807057242113
1.8312461654124679   0.10226536466765296   -0.02590807057242113
1.8312461654124679   0.10226536466765296   -0.02590807057242113
1.8312461654124679   0.10226536466765296   -0.02590807057242113
0.9230650510171559   -0.015007185958007874   0.01701254150993109
0.9230650510171559   -0.015007185958007874   0.01701254150993109
0.9230650510171559   -0.015007185958007874   0.01701254150993109
0.9230650510171559   -0.015007185958007874   0.01701254150993109
1.3497651548256298   0.033717232006632236   0.02217825308926613
1.3497651548256298   0.033717232006632236   0.02217825308926613
1.3497651548256298   0.033717232006632236   0.02217825308926613
1.3497651548256298   0.033717232006632236   0.02217825308926613
0.8970349338790978   -0.08752026129350707   -0.04062496884485267
0.8970349338790978   -0.08752026129350707   -0.04062496884485267
0.8970349338790978   -0.08752026129350707   -0.04062496884485267
0.8970349338790978   -0.08752026129350707   -0.04062496884485267
1.855098902855219   0.1726010603078465   0.023019921001139865
1.855098902855219   0.1726010603078465   0.023019921001139865
1.855098902855219   0.1726010603078465   0.023019921001139865
1.855098902855219   0.1726010603078465   0.023019921001139865
1.828223593750135   0.1565211945300893   -0.039667829019532995
1.828223593750135   0.1565211945300893   -0.039667829019532995
1.828223593750135   0.1565211945300893   -0.039667829019532995
1.828223593750135   0.1565211945300893   -0.039667829019532995
0.9040773914051243   0.03272928115558507   0.009451333357096296
0.9040773914051243   0.03272928115558507   0.009451333357096296
0.9040773914051243   0.03272928115558507   0.009451333357096296
0.9040773914051243   0.03272928115558507   0.009451333357096296
1.3152797121140163   0.059102462328684824   0.01643892715980401
1.3152797121140163   0.059102462328684824   0.01643892715980401
1.3152797121140163   0.059102462328684824   0.01643892715980401
1.3152797121140163   0.059102462328684824   0.01643892715980401
-1.9665240816930774   -0.08927634628692299   0.10117247315111351
-1.9665240816930774   -0.08927634628692299   0.10117247315111351
-1.9665240816930774   -0.08927634628692299   0.10117247315111351
-1.9665240816930774   -0.08927634628692299   0.10117247315111351
-1.3059055857840014   -0.04957405895378858   -0.026325477892586754
-1.3059055857840014   -0.04957405895378858   -0.026325477892586754
-1.3059055857840014   -0.04957405895378858   -0.026325477892586754
-1.3059055857840014   -0.04957405895378858   -0.026325477892586754
-1.2588494893114568   0.10580530849908887   0.08488716779371397
-1.2588494893114568   0.10580530849908887   0.08488716779371397
-1.2588494893114568   0.10580530849908887   0.08488716779371397
-1.2588494893114568   0.10580530849908887   0.08488716779371397
-1.9755915474431998   -0.14102939556121058   -0.04125372816802071
-1.9755915474431998   -0.14102939556121058   -0.04125372816802071
-1.9755915474431998   -0.14102939556121058   -0.04125372816802071
-1.9755915474431998   -0.14102939556121058   -0.04125372816802071
-1.5606580147518272   -0.02413174146659841   -0.0028509404114433756
-1.5606580147518272   -0.02413174146659841   -0.0028509404114433756
-1.5606580147518272   -0.02413174146659841   -0.0028509404114433756
-1.5606580147518272   -0.02413174146659841   -0.0028509404114433756
-1.9206306974764087   -0.02085345122641602   0.11337457733114131
-1.9206306974764087   -0.02085345122641602   0.11337457733114131
-1.9206306974764087   -0.02085345122641602   0.11337457733114131
-1.9206306974764087   -0.02085345122641602   0.11337457733114131
-1.3051533820768135   -0.005713678634268804   -0.03511330889971358
-1.3051533820768135   -0.005713678634268804   -0.03511330889971358
-1.3051533820768135   -0.005713678634268804   -0.03511330889971358
-1.3051533820768135   -0.005713678634268804   -0.03511330889971358
-1.2537143116594953   0.1312291016886531   0.07868916752876425
-1.2537143116594953   0.1312291016886531   0.07868916752876425
-1.2537143116594953   0.1312291016886531   0.07868916752876425
-1.2537143116594953   0.1312291016886531   0.07868916752876425
-1.94500064771828   -0.1179837073878191   -0.05648762628668401
-1.94500064771828   -0.1179837073878191   -0.05648762628668401
-1.94500064771828   -0.1179837073878191   -0.05648762628668401
-1.94500064771828   -0.1179837073878191   -0.05648762628668401
-1.5639854586033044   0.005739062663181638   0.01804025460679691
-1.5639854586033044   0.005739062663181638   0.01804025460679691
-1.5639854586033044   0.005739062663181638   0.01804025460679691
-1.5639854586033044   0.005739062663181638   0.01804025460679691
-1.8938186578418073   0.0031317684066752283   0.07830684730118663
-1.8938186578418073   0.0031317684066752283   0.07830684730118663
-1.8938186578418073   0.0031317684066752283   0.07830684730118663
-1.8938186578418073   0.0031317684066752283   0.07830684730118663
-1.3020431377749286   0.012966789655200706   -0.04469265101493648
-1.3020431377749286   0.012966789655200706   -0.04469265101493648
-1.3020431377749286   0.012966789655200706   -0.04469265101493648
-1.3020431377749286   0.012966789655200706   -0.04469265101493648
-1.2549265290486096   0.14811104332643277   0.06243698686729815
-1.2549265290486096   0.14811104332643277   0.06243698686729815
-1.2549265290486096   0.14811104332643277   0.06243698686729815
-1.2549265290486096   0.14811104332643277   0.06243698686729815
-1.9052908045026524   -0.09349822538431213   -0.07203751632701856
-1.9052908045026524   -0.09349822538431213   -0.07203751632701856
-1.9052908045026524   -0.09349822538431213   -0.07203751632701856
-1.9052908045026524   -0.09349822538431213   -0.07203751632701856
-1.5190400239885613   0.03248732555650574   0.037514688878286975
-1.5190400239885613   0.03248732555650574   0.037514688878286975
-1.5190400239885613   0.03248732555650574   0.037514688878286975
-1.5190400239885613   0.03248732555650574   0.037514688878286975
-1.3098204651828171   -0.12417153730006542   0.028697603459610976
-1.3098204651828171   -0.12417153730006542   0.028697603459610976
-1.3098204651828171   -0.12417153730006542   0.028697603459610976
-1.3098204651828171   -0.12417153730006542   0.028697603459610976
-0.661380605058532   -0.023891926464936403   0.0012720231453680064
-0.661380605058532   -0.023891926464936403   0.0012720231453680064
-0.661380605058532   -0.023891926464936403   0.0012720231453680064
-0.661380605058532   -0.023891926464936403   0.0012720231453680064
-0.6426296897893077   0.06498954063625978   0.04613601911139794
-0.6426296897893077   0.06498954063625978   0.04613601911139794
-0.6426296897893077   0.06498954063625978   0.04613601911139794
-0.6426296897893077   0.06498954063625978   0.04613601911139794
-1.3306490984783785   -0.12245516741759555   -0.045850402124224365
-1.3306490984783785   -0.12245516741759555   -0.045850402124224365
-1.3306490984783785   -0.12245516741759555   -0.045850402124224365
-1.3306490984783785   -0.12245516741759555   -0.045850402124224365
-0.9826143182221619   -0.048218509840145585   -0.01989808171717318
-0.9826143182221619   -0.048218509840145585   -0.01989808171717318
-0.9826143182221619   -0.048218509840145585   -0.01989808171717318
-0.9826143182221619   -0.048218509840145585   -0.01989808171717318
-1.3056881816625805   -0.071291298877699   0.027790313414876804
-1.3056881816625805   -0.071291298877699   0.027790313414876804
-1.3056881816625805   -0.071291298877699   0.027790313414876804
-1.3056881816625805   -0.071291298877699   0.027790313414876804
-0.6625313307046647   0.018884947996806317   -0.007267592825928815
-0.6625313307046647   0.018884947996806317   -0.007267592825928815
-0.6625313307046647   0.018884947996806317   -0.007267592825928815
-0.6625313307046647   0.018884947996806317   -0.007267592825928815
-0.6405874626354773   0.10738823021727673   0.03991653205334217
-0.6405874626354773   0.10738823021727673   0.03991653205334217
-0.6405874626354773   0.10738823021727673   0.03991653205334217
-0.6405874626354773   0.10738823021727673   0.03991653205334217
-1.323101183135407   -0.08287996231463676   -0.054136125847505066
-1.323101183135407   -0.08287996231463676   -0.054136125847505066
-1.323101183135407   -0.08287996231463676   -0.054136125847505066
-1.323101183135407   -0.08287996231463676   -0.054136125847505066
-0.9718799325042253   -0.005319845985767124   -6.477518191216197e-05
-0.9718799325042253   -0.005319845985767124   -6.477518191216197e-05
-0.9718799325042253   -0.005319845985767124   -6.477518191216197e-05
-0.9718799325042253   -0.005319845985767124   -6.477518191216197e-05
-1.2976303782406886   -0.028280060043454514   0.018617996354904853
-1.2976303782406886   -0.028280060043454514   0.018617996354904853
-1.2976303782406886   -0.028280060043454514   0.018617996354904853
-1.2976303782406886   -0.028280060043454514   0.018617996354904853
-0.6619385697261444   0.05690802575014936   -0.01635879893285265
-0.6619385697261444   0.05690802575014936   -0.01635879893285265
-0.6619385697261444   0.05690802575014936   -0.01635879893285265
-0.6619385697261444   0.05690802575014936   -0.01635879893285265
-0.6403908640617186   0.15194223222665157   0.029910491897763236
-0.6403908640617186   0.15194223222665157   0.029910491897763236
-0.6403908640617186   0.15194223222665157   0.029910491897763236
-0.6403908640617186   0.15194223222665157   0.029910491897763236
-1.316722833112852   -0.0401762850949392   -0.05825720503254915
-1.316722833112852   -0.0401762850949392   -0.05825720503254915
-1.316722833112852   -0.0401762850949392   -0.05825720503254915
-1.316722833112852   -0.0401762850949392   -0.05825720503254915
-0.9725039816391361   0.03401998348315824   0.01509383693218791
-0.9725039816391361   0.03401998348315824   0.01509383693218791
-0.9725039816391361   0.03401998348315824   0.01509383693218791
-0.9725039816391361   0.03401998348315824   0.01509383693218791
-0.6860249947771945   -0.14191741824954734   -0.003924433663341217
-0.6860249947771945   -0.14191741824954734   -0.003924433663341217
-0.6860249947771945   -0.14191741824954734   -0.003924433663341217
-0.6860249947771945   -0.14191741824954734   -0.003924433663341217
-0.022831135624719466   0.007048155874436147   0.029296867194774624
-0.022831135624719466   0.007048155874436147   0.029296867194774624
-0.022831135624719466   0.007048155874436147   0.029296867194774624
-0.022831135624719466   0.007048155874436147   0.029296867194774624
-0.025333562971608346   0.04193202579005908   0.014000966324213
-0.025333562971608346   0.04193202579005908   0.014000966324213
-0.025333562971608346   0.04193202579005908   0.014000966324213
-0.025333562971608346   0.04193202579005908   0.014000966324213
-0.6864790993621176   -0.09096016474502493   -0.0171613233713668
-0.6864790993621176   -0.09096016474502493   -0.0171613233713668
-0.6864790993621176   -0.09096016474502493   -0.0171613233713668
-0.6864790993621176   -0.09096016474502493   -0.0171613233713668
-0.35625619049736595   -0.044483119562826   -0.01113506443210529
-0.35625619049736595   -0.044483119562826   -0.01113506443210529
-0.35625619049736595   -0.044483119562826   -0.01113506443210529
-0.35625619049736595   -0.044483119562826   -0.01113506443210529
-0.6857400786941217   -0.09486228964547513   -0.009564095130937084
-0.6857400786941217   -0.09486228964547513   -0.009564095130937084
-0.6857400786941217   -0.09486228964547513   -0.009564095130937084
-0.6857400786941217   -0.09486228964547513   -0.009564095130937084
-0.022300907915224648   0.049605826414885104   0.021490440981305835
-0.022300907915224648   0.049605826414885104   0.021490440981305835
-0.022300907915224648   0.049605826414885104   0.021490440981305835
-0.022300907915224648   0.049605826414885104   0.021490440981305835
-0.02219738160145686   0.0881247421198268   0.006719303425355608
-0.02219738160145686   0.0881247421198268   0.006719303425355608
-0.02219738160145686   0.0881247421198268   0.006719303425355608
-0.02219738160145686   0.0881247421198268   0.006719303425355608
-0.684745156935354   -0.048330301297773895   -0.025153407930982686
-0.684745156935354   -0.048330301297773895   -0.025153407930982686
-0.684745156935354   -0.048330301297773895   -0.025153407930982686
-0.684745156935354   -0.048330301297773895   -0.025153407930982686
-0.352788951806262   -0.0017702981521654504   0.004889963892133538
-0.352788951806262   -0.0017702981521654504   0.004889963892133538
-0.352788951806262   -0.0017702981521654504   0.004889963892133538
-0.352788951806262   -0.0017702981521654504   0.004889963892133538
-0.6837147456496075   -0.0493241016123995   -0.019007551187625128
-0.6837147456496075   -0.0493241016123995   -0.019007551187625128
-0.6837147456496075   -0.0493241016123995   -0.019007551187625128
-0.6837147456496075   -0.0493241016123995   -0.019007551187625128
-0.020113430201677034   0.09223290511997867   0.013030897424103207
-0.020113430201677034   0.09223290511997867   0.013030897424103207
-0.020113430201677034   0.09223290511997867   0.013030897424103207
-0.020113430201677034   0.09223290511997867   0.013030897424103207
-0.02152485111441109   0.13569861700053779   -0.0010501550762122766
-0.02152485111441109   0.13569861700053779   -0.0010501550762122766
-0.02152485111441109   0.13569861700053779   -0.0010501550762122766
-0.02152485111441109   0.13569861700053779   -0.0010501550762122766
-0.684401958847616   -0.0049747232482492965   -0.03322802655682671
-0.684401958847616   -0.0049747232482492965   -0.03322802655682671
-0.684401958847616   -0.0049747232482492965   -0.03322802655682671
-0.684401958847616   -0.0049747232482492965   -0.03322802655682671
-0.3500946014990509   0.04098307722029022   0.01958536186201403
-0.3500946014990509   0.04098307722029022   0.01958536186201403
-0.3500946014990509   0.04098307722029022   0.01958536186201403
-0.3500946014990509   0.04098307722029022   0.01958536186201403
-0.06797713852339099   -0.15539236456665959   -0.03399262685748688
-0.06797713852339099   -0.15539236456665959   -0.03399262685748688
-0.06797713852339099   -0.15539236456665959   -0.03399262685748688
-0.06797713852339099   -0.15539236456665959   -0.03399262685748688
0.6133106911953938   0.04326655537360376   0.05569646218964576
0.6133106911953938   0.04326655537360376   0.05569646218964576
0.6133106911953938   0.04326655537360376   0.05569646218964576
0.6133106911953938   0.04326655537360376   0.05569646218964576
0.5932493497830335   0.022985232354361715   -0.02195157637385659
0.5932493497830335   0.022985232354361715   -0.02195157637385659
0.5932493497830335   0.022985232354361715   -0.02195157637385659
0.5932493497830335   0.022985232354361715   -0.02195157637385659
-0.045506049496067465   -0.05690141146136746   0.011971970953344303
-0.045506049496067465   -0.05690141146136746   0.011971970953344303
-0.045506049496067465   -0.05690141146136746   0.011971970953344303
-0.045506049496067465   -0.05690141146136746   0.011971970953344303
0.2694001249510588   -0.03595423567731727   -0.006280555644811215
0.2694001249510588   -0.03595423567731727   -0.006280555644811215
0.2694001249510588   -0.03595423567731727   -0.006280555644811215
0.2694001249510588   -0.03595423567731727   -0.006280555644811215
-0.0677280934954566   -0.11335656093963228   -0.042683099565336544
-0.0677280934954566   -0.11335656093963228   -0.042683099565336544
-0.0677280934954566   -0.11335656093963228   -0.042683099565336544
-0.0677280934954566   -0.11335656093963228   -0.042683099565336544
0.6197610316875284   0.08373001973772981   0.04986204576525007
0.6197610316875284   0.08373001973772981   0.04986204576525007
0.6197610316875284   0.08373001973772981   0.04986204576525007
0.6197610316875284   0.08373001973772981   0.04986204576525007
0.6028427219135591   0.06595837261055451   -0.03083881259707579
0.6028427219135591   0.06595837261055451   -0.03083881259707579
0.6028427219135591   0.06595837261055451   -0.03083881259707579
0.6028427219135591   0.06595837261055451   -0.03083881259707579
-0.04421882902145631   -0.01870740252658086   0.0034442109717666876
-0.04421882902145631   -0.01870740252658086   0.0034442109717666876
-0.04421882902145631   -0.01870740252658086   0.0034442109717666876
-0.04421882902145631   -0.01870740252658086   0.0034442109717666876
0.27176684115865324   0.0026836717231726315   0.009641717305997645
0.27176684115865324   0.0026836717231726315   0.009641717305997645
0.27176684115865324   0.0026836717231726315   0.009641717305997645
0.27176684115865324   0.0026836717231726315   0.009641717305997645
-0.06583113343004249   -0.07189464888191646   -0.05143006471582902
-0.06583113343004249   -0.07189464888191646   -0.05143006471582902
-0.06583113343004249   -0.07189464888191646   -0.05143006471582902
-0.06583113343004249   -0.07189464888191646   -0.05143006471582902
0.6291296616991724   0.12382025434291713   0.04273400459862786
0.6291296616991724   0.12382025434291713   0.04273400459862786
0.6291296616991724   0.12382025434291713   0.04273400459862786
0.6291296616991724   0.12382025434291713   0.04273400459862786
0.6087540269029322   0.11985090325716106   -0.03218901512302694
0.6087540269029322   0.11985090325716106   -0.03218901512302694
0.6087540269029322   0.11985090325716106   -0.03218901512302694
0.6087540269029322   0.11985090325716106   -0.03218901512302694
-0.04428063301761839   0.025932230476142234   -0.005062678067852733
-0.04428063301761839   0.025932230476142234   -0.005062678067852733
-0.04428063301761839   0.025932230476142234   -0.005062678067852733
-0.04428063301761839   0.025932230476142234   -0.005062678067852733
0.28115821620464626   0.045774807793372174   0.02855256320788453
0.28115821620464626   0.045774807793372174   0.02855256320788453
0.28115821620464626   0.045774807793372174   0.02855256320788453
0.28115821620464626   0.045774807793372174   0.02855256320788453
0.5494266988721388   -0.15428649252176027   -0.06617045153125953
0.5494266988721388   -0.15428649252176027   -0.06617045153125953
0.5494266988721388   -0.15428649252176027   -0.06617045153125953
0.5494266988721388   -0.15428649252176027   -0.06617045153125953
1.2078773036458799   0.0897403066163725   0.061918512607481435
1.2078773036458799   0.0897403066163725   0.061918512607481435
1.2078773036458799   0.0897403066163725   0.061918512607481435
1.2078773036458799   0.0897403066163725   0.061918512607481435
1.198458797145003   -0.005595334858059742   -0.08807563201855637
1.198458797145003   -0.005595334858059742   -0.08807563201855637
1.198458797145003   -0.005595334858059742   -0.08807563201855637
1.198458797145003   -0.005595334858059742   -0.08807563201855637
0.5987706913094508   -0.012912322937615073   0.04155268655021341
0.5987706913094508   -0.012912322937615073   0.04155268655021341
0.5987706913094508   -0.012912322937615073   0.04155268655021341
0.5987706913094508   -0.012912322937615073   0.04155268655021341
0.845499011437167   -0.03007599814368314   -0.027724397291248412
0.845499011437167   -0.03007599814368314   -0.027724397291248412
0.845499011437167   -0.03007599814368314   -0.027724397291248412
0.845499011437167   -0.03007599814368314   -0.027724397291248412
0.5499720763784656   -0.13395674568010102   -0.08139596536222524
0.5499720763784656   -0.13395674568010102   -0.08139596536222524
0.5499720763784656   -0.13395674568010102   -0.08139596536222524
0.5499720763784656   -0.13395674568010102   -0.08139596536222524
1.2507637799718823   0.11895545578032304   0.04889849147745725
1.2507637799718823   0.11895545578032304   0.04889849147745725
1.2507637799718823   0.11895545578032304   0.04889849147745725
1.2507637799718823   0.11895545578032304   0.04889849147745725
1.227815959311471   0.0189159115354309   -0.11812287931718995
1.227815959311471   0.0189159115354309   -0.11812287931718995
1.227815959311471   0.0189159115354309   -0.11812287931718995
1.227815959311471   0.0189159115354309   -0.11812287931718995
0.6031667134923718   0.005785283107399425   0.030954234800153087
0.6031667134923718   0.005785283107399425   0.030954234800153087
0.6031667134923718   0.005785283107399425   0.030954234800153087
0.6031667134923718   0.005785283107399425   0.030954234800153087
0.8837351544119805   -0.003581297054991023   -0.008466766265939077
0.8837351544119805   -0.003581297054991023   -0.008466766265939077
0.8837351544119805   -0.003581297054991023   -0.008466766265939077
0.8837351544119805   -0.003581297054991023   -0.008466766265939077
0.5562062594513832   -0.10949500252719005   -0.08856774977020695
0.5562062594513832   -0.10949500252719005   -0.08856774977020695
0.5562062594513832   -0.10949500252719005   -0.08856774977020695
0.5562062594513832   -0.10949500252719005   -0.08856774977020695
1.2825210079681355   0.14194079178569688   0.03237748371587706
1.2825210079681355   0.14194079178569688   0.03237748371587706
1.2825210079681355   0.14194079178569688   0.03237748371587706
1.2825210079681355   0.14194079178569688   0.03237748371587706
1.274432602460645   0.08269098590354299   -0.11109535395863485
1.274432602460645   0.08269098590354299   -0.11109535395863485
1.274432602460645   0.08269098590354299   -0.11109535395863485
1.274432602460645   0.08269098590354299   -0.11109535395863485
0.6051628619605188   0.04710789136646901   0.02259817205560788
0.6051628619605188   0.04710789136646901   0.02259817205560788
0.6051628619605188   0.04710789136646901   0.02259817205560788
0.6051628619605188   0.04710789136646901   0.02259817205560788
0.8902409783826933   0.0267216794734689   0.01283526414211393
0.8902409783826933   0.0267216794734689   0.01283526414211393
0.8902409783826933   0.0267216794734689   0.01283526414211393
0.8902409783826933   0.0267216794734689   0.01283526414211393
-1.40594701240965   -0.045980246989807017   0.09168500855296992
-1.40594701240965   -0.045980246989807017   0.09168500855296992
-1.40594701240965   -0.045980246989807017   0.09168500855296992
-1.40594701240965   -0.045980246989807017   0.09168500855296992
-0.9835159333761694   -0.06565136742407748   -0.03463924308501213
-0.9835159333761694   -0.06565136742407748   -0.03463924308501213
-0.9835159333761694   -0.06565136742407748   -0.03463924308501213
-0.9835159333761694   -0.06565136742407748   -0.03463924308501213
-0.9257496137570843   0.09282691923992453   0.07818591215153929
-0.9257496137570843   0.09282691923992453   0.07818591215153929
-0.9257496137570843   0.09282691923992453   0.07818591215153929
-0.9257496137570843   0.09282691923992453   0.07818591215153929
-1.406058537380024   -0.11572600884385012   -0.05066669157245588
-1.406058537380024   -0.11572600884385012   -0.05066669157245588
-1.406058537380024   -0.11572600884385012   -0.05066669157245588
-1.406058537380024   -0.11572600884385012   -0.05066669157245588
-1.1319530786172736   -0.01805096285807825   -0.002458179233258452
-1.1319530786172736   -0.01805096285807825   -0.002458179233258452
-1.1319530786172736   -0.01805096285807825   -0.002458179233258452
-1.1319530786172736   -0.01805096285807825   -0.002458179233258452
-1.3535197458031893   0.009079968244974257   0.08722128922289284
-1.3535197458031893   0.009079968244974257   0.08722128922289284
-1.3535197458031893   0.009079968244974257   0.08722128922289284
-1.3535197458031893   0.009079968244974257   0.08722128922289284
-0.9740147703600681   -0.02770542287504507   -0.04260752874840197
-0.9740147703600681   -0.02770542287504507   -0.04260752874840197
-0.9740147703600681   -0.02770542287504507   -0.04260752874840197
-0.9740147703600681   -0.02770542287504507   -0.04260752874840197
-0.9170328471372639   0.11212300494659477   0.0660781348043691
-0.9170328471372639   0.11212300494659477   0.0660781348043691
-0.9170328471372639   0.11212300494659477   0.0660781348043691
-0.9170328471372639   0.11212300494659477   0.0660781348043691
-1.3728059115785667   -0.09421802791543718   -0.06405698947315872
-1.3728059115785667   -0.09421802791543718   -0.06405698947315872
-1.3728059115785667   -0.09421802791543718   -0.06405698947315872
-1.3728059115785667   -0.09421802791543718   -0.06405698947315872
-1.1240594171005107   0.007402502721976928   0.011903789139038723
-1.1240594171005107   0.007402502721976928   0.011903789139038723
-1.1240594171005107   0.007402502721976928   0.011903789139038723
-1.1240594171005107   0.007402502721976928   0.011903789139038723
-1.3207137209277344   0.032173658667283556   0.07001227719828336
-1.3207137209277344   0.032173658667283556   0.07001227719828336
-1.3207137209277344   0.032173658667283556   0.07001227719828336
-1.3207137209277344   0.032173658667283556   0.07001227719828336
-0.965260672899673   -0.010404316747701259   -0.05253367231337291
-0.965260672899673   -0.010404316747701259   -0.05253367231337291
-0.965260672899673   -0.010404316747701259   -0.05253367231337291
-0.965260672899673   -0.010404316747701259   -0.05253367231337291
-0.9122054658297999   0.13089859448361324   0.0568612443397714
-0.9122054658297999   0.13089859448361324   0.0568612443397714
-0.9122054658297999   0.13089859448361324   0.0568612443397714
-0.9122054658297999   0.13089859448361324   0.0568612443397714
-1.3282611253513816   -0.06578918807204778   -0.07669804294337573
-1.3282611253513816   -0.06578918807204778   -0.07669804294337573
-1.3282611253513816   -0.06578918807204778   -0.07669804294337573
-1.3282611253513816   -0.06578918807204778   -0.07669804294337573
-1.0818925992082375   0.031244524536714224   0.03206141387960569
-1.0818925992082375   0.031244524536714224   0.03206141387960569
-1.0818925992082375   0.031244524536714224   0.03206141387960569
-1.0818925992082375   0.031244524536714224   0.03206141387960569
-0.9724808344790921   -0.0794911668190536   0.03437605079534212
-0.9724808344790921   -0.0794911668190536   0.03437605079534212
-0.9724808344790921   -0.0794911668190536   0.03437605079534212
-0.9724808344790921   -0.0794911668190536   0.03437605079534212
-0.563745290113993   -0.04254211774258733   -0.0055899954489750485
-0.563745290113993   -0.04254211774258733   -0.0055899954489750485
-0.563745290113993   -0.04254211774258733   -0.0055899954489750485
-0.563745290113993   -0.04254211774258733   -0.0055899954489750485
-0.5351050409772689   0.05425502995665926   0.042156527245939796
-0.5351050409772689   0.05425502995665926   0.042156527245939796
-0.5351050409772689   0.05425502995665926   0.042156527245939796
-0.5351050409772689   0.05425502995665926   0.042156527245939796
-0.9870982607285453   -0.09458747366264089   -0.04114292980320001
-0.9870982607285453   -0.09458747366264089   -0.04114292980320001
-0.9870982607285453   -0.09458747366264089   -0.04114292980320001
-0.9870982607285453   -0.09458747366264089   -0.04114292980320001
-0.7615267294070568   -0.037144913196570595   -0.015532347466459567
-0.7615267294070568   -0.037144913196570595   -0.015532347466459567
-0.7615267294070568   -0.037144913196570595   -0.015532347466459567
-0.7615267294070568   -0.037144913196570595   -0.015532347466459567
-0.961084412276688   -0.03375365166143701   0.028092490454877883
-0.961084412276688   -0.03375365166143701   0.028092490454877883
-0.961084412276688   -0.03375365166143701   0.028092490454877883
-0.961084412276688   -0.03375365166143701   0.028092490454877883
-0.557782369554201   -0.003242272169623056   -0.013732813512439615
-0.557782369554201   -0.003242272169623056   -0.013732813512439615
-0.557782369554201   -0.003242272169623056   -0.013732813512439615
-0.557782369554201   -0.003242272169623056   -0.013732813512439615
-0.5282984197641246   0.09382105779342433   0.03456621132150245
-0.5282984197641246   0.09382105779342433   0.03456621132150245
-0.5282984197641246   0.09382105779342433   0.03456621132150245
-0.5282984197641246   0.09382105779342433   0.03456621132150245
-0.9738165910065769   -0.05724230941075564   -0.04847527018484585
-0.9738165910065769   -0.05724230941075564   -0.04847527018484585
-0.9738165910065769   -0.05724230941075564   -0.04847527018484585
-0.9738165910065769   -0.05724230941075564   -0.04847527018484585
-0.7469048208653826   0.0017520002684611458   0.0011771527097458809
-0.7469048208653826   0.0017520002684611458   0.0011771527097458809
-0.7469048208653826   0.0017520002684611458   0.0011771527097458809
-0.7469048208653826   0.0017520002684611458   0.0011771527097458809
-0.9458339395163525   0.00853320595815199   0.025662471897368616
-0.9458339395163525   0.00853320595815199   0.025662471897368616
-0.9458339395163525   0.00853320595815199   0.025662471897368616
-0.9458339395163525   0.00853320595815199   0.025662471897368616
-0.5521376642354444   0.03218894944342188   -0.02299790268509061
-0.5521376642354444   0.03218894944342188   -0.02299790268509061
-0.5521376642354444   0.03218894944342188   -0.02299790268509061
-0.5521376642354444   0.03218894944342188   -0.02299790268509061
-0.5217221730551912   0.1359748572639214   0.02749784670409279
-0.5217221730551912   0.1359748572639214   0.02749784670409279
-0.5217221730551912   0.1359748572639214   0.02749784670409279
-0.5217221730551912   0.1359748572639214   0.02749784670409279
-0.96387322795801   -0.017003043201798712   -0.0535759286158598
-0.96387322795801   -0.017003043201798712   -0.0535759286158598
-0.96387322795801   -0.017003043201798712   -0.0535759286158598
-0.96387322795801   -0.017003043201798712   -0.0535759286158598
-0.7412429725229466   0.038345589946625847   0.017086372947895702
-0.7412429725229466   0.038345589946625847   0.017086372947895702
-0.7412429725229466   0.038345589946625847   0.017086372947895702
-0.7412429725229466   0.038345589946625847   0.017086372947895702
-0.5756649808033981   -0.10910341660664391   0.0013728499680529058
-0.5756649808033981   -0.10910341660664391   0.0013728499680529058
-0.5756649808033981   -0.10910341660664391   0.0013728499680529058
-0.5756649808033981   -0.10910341660664391   0.0013728499680529058
-0.14832222574900678   -0.01269673842126351   0.02347448110777811
-0.14832222574900678   -0.01269673842126351   0.02347448110777811
-0.14832222574900678   -0.01269673842126351   0.02347448110777811
-0.14832222574900678   -0.01269673842126351   0.02347448110777811
-0.14467440312077864   0.022434120501720126   0.008005406621019586
-0.14467440312077864   0.022434120501720126   0.008005406621019586
-0.14467440312077864   0.022434120501720126   0.008005406621019586
-0.14467440312077864   0.022434120501720126   0.008005406621019586
-0.5693498310222546   -0.0638415941168545   -0.010970798905481569
-0.5693498310222546   -0.0638415941168545   -0.010970798905481569
-0.5693498310222546   -0.0638415941168545   -0.010970798905481569
-0.5693498310222546   -0.0638415941168545   -0.010970798905481569
-0.360115028218677   -0.03905960523833662   -0.011037182254135922
-0.360115028218677   -0.03905960523833662   -0.011037182254135922
-0.360115028218677   -0.03905960523833662   -0.011037182254135922
-0.360115028218677   -0.03905960523833662   -0.011037182254135922
-0.5684221683760653   -0.06495944152651587   -0.005214638264873724
-0.5684221683760653   -0.06495944152651587   -0.005214638264873724
-0.5684221683760653   -0.06495944152651587   -0.005214638264873724
-0.5684221683760653   -0.06495944152651587   -0.005214638264873724
-0.1422571687204739   0.02689686495787552   0.015628834166387856
-0.1422571687204739   0.02689686495787552   0.015628834166387856
-0.1422571687204739   0.02689686495787552   0.015628834166387856
-0.1422571687204739   0.02689686495787552   0.015628834166387856
-0.1364555766422521   0.06677704660169237   0.002093751273262171
-0.1364555766422521   0.06677704660169237   0.002093751273262171
-0.1364555766422521   0.06677704660169237   0.002093751273262171
-0.1364555766422521   0.06677704660169237   0.002093751273262171
-0.5625365109789474   -0.02397333299643599   -0.018829853962751473
-0.5625365109789474   -0.02397333299643599   -0.018829853962751473
-0.5625365109789474   -0.02397333299643599   -0.018829853962751473
-0.5625365109789474   -0.02397333299643599   -0.018829853962751473
-0.35133685365679085   0.0007918737292821332   0.004709563135454519
-0.35133685365679085   0.0007918737292821332   0.004709563135454519
-0.35133685365679085   0.0007918737292821332   0.004709563135454519
-0.35133685365679085   0.0007918737292821332   0.004709563135454519
-0.560446325780723   -0.020758588061889377   -0.011593672906175728
-0.560446325780723   -0.020758588061889377   -0.011593672906175728
-0.560446325780723   -0.020758588061889377   -0.011593672906175728
-0.560446325780723   -0.020758588061889377   -0.011593672906175728
-0.1354574505643879   0.06665061294323468   0.007210815321042268
-0.1354574505643879   0.06665061294323468   0.007210815321042268
-0.1354574505643879   0.06665061294323468   0.007210815321042268
-0.1354574505643879   0.06665061294323468   0.007210815321042268
-0.1290837848313563   0.11176308954292219   -0.00485713661724433
-0.1290837848313563   0.11176308954292219   -0.00485713661724433
-0.1290837848313563   0.11176308954292219   -0.00485713661724433
-0.1290837848313563   0.11176308954292219   -0.00485713661724433
-0.5565547090006024   0.01635760480646886   -0.027047580565512833
-0.5565547090006024   0.01635760480646886   -0.027047580565512833
-0.5565547090006024   0.01635760480646886   -0.027047580565512833
-0.5565547090006024   0.01635760480646886   -0.027047580565512833
-0.34332205063298704   0.04083433969797763   0.019879977230914146
-0.34332205063298704   0.04083433969797763   0.019879977230914146
-0.34332205063298704   0.04083433969797763   0.019879977230914146
-0.34332205063298704   0.04083433969797763   0.019879977230914146
-0.1833312525843918   -0.13337883676530413   -0.0308885547251079
-0.1833312525843918   -0.13337883676530413   -0.0308885547251079
-0.1833312525843918   -0.13337883676530413   -0.0308885547251079
-0.1833312525843918   -0.13337883676530413   -0.0308885547251079
0.2616393426126682   0.020774382251301127   0.05090724535624336
0.2616393426126682   0.020774382251301127   0.05090724535624336
0.2616393426126682   0.020774382251301127   0.05090724535624336
0.2616393426126682   0.020774382251301127   0.05090724535624336
0.24344219993060315   -0.007179442910738347   -0.028366435720180785
0.24344219993060315   -0.007179442910738347   -0.028366435720180785
0.24344219993060315   -0.007179442910738347   -0.028366435720180785
0.24344219993060315   -0.007179442910738347   -0.028366435720180785
-0.15318862321403207   -0.030976768868793712   0.018845195525266242
-0.15318862321403207   -0.030976768868793712   0.018845195525266242
-0.15318862321403207   -0.030976768868793712   0.018845195525266242
-0.15318862321403207   -0.030976768868793712   0.018845195525266242
0.040484952240312164   -0.03664498806961031   -0.00785485451174638
0.040484952240312164   -0.03664498806961031   -0.00785485451174638
0.040484952240312164   -0.03664498806961031   -0.00785485451174638
0.040484952240312164   -0.03664498806961031   -0.00785485451174638
-0.17700399240354306   -0.0931975650764566   -0.03801085421462581
-0.17700399240354306   -0.0931975650764566   -0.03801085421462581
-0.17700399240354306   -0.0931975650764566   -0.03801085421462581
-0.17700399240354306   -0.0931975650764566   -0.03801085421462581
0.2712384525887841   0.05902223676559128   0.044413147894390374
0.2712384525887841   0.05902223676559128   0.044413147894390374
0.2712384525887841   0.05902223676559128   0.044413147894390374
0.2712384525887841   0.05902223676559128   0.044413147894390374
0.2587297807389385   0.03476607870493965   -0.032136992631025554
0.2587297807389385   0.03476607870493965   -0.032136992631025554
0.2587297807389385   0.03476607870493965   -0.032136992631025554
0.2587297807389385   0.03476607870493965   -0.032136992631025554
-0.14725725458071168   0.0046774701499107466   0.010184938032747348
-0.14725725458071168   0.0046774701499107466   0.010184938032747348
-0.14725725458071168   0.0046774701499107466   0.010184938032747348
-0.14725725458071168   0.0046774701499107466   0.010184938032747348
0.04861396650793838   -0.0005146568164076069   0.00816260483602472
0.04861396650793838   -0.0005146568164076069   0.00816260483602472
0.04861396650793838   -0.0005146568164076069   0.00816260483602472
0.04861396650793838   -0.0005146568164076069   0.00816260483602472
-0.17024011704032585   -0.053842402623159   -0.04620950149225447
-0.17024011704032585   -0.053842402623159   -0.04620950149225447
-0.17024011704032585   -0.053842402623159   -0.04620950149225447
-0.17024011704032585   -0.053842402623159   -0.04620950149225447
0.285164893488312   0.0967382017677651   0.03806644805301079
0.285164893488312   0.0967382017677651   0.03806644805301079
0.285164893488312   0.0967382017677651   0.03806644805301079
0.285164893488312   0.0967382017677651   0.03806644805301079
0.2710385292720164   0.08258223332975256   -0.03713182608943588
0.2710385292720164   0.08258223332975256   -0.03713182608943588
0.2710385292720164   0.08258223332975256   -0.03713182608943588
0.2710385292720164   0.08258223332975256   -0.03713182608943588
-0.1409176761409745   0.04578987396708972   0.0019466224104959552
-0.1409176761409745   0.04578987396708972   0.0019466224104959552
-0.1409176761409745   0.04578987396708972   0.0019466224104959552
-0.1409176761409745   0.04578987396708972   0.0019466224104959552
0.061180445053196364   0.038799599855231355   0.02475280240097006
0.061180445053196364   0.038799599855231355   0.02475280240097006
0.061180445053196364   0.038799599855231355   0.02475280240097006
0.061180445053196364   0.038799599855231355   0.02475280240097006
0.20815950683504966   -0.13477538793616842   -0.0609421633443775
0.20815950683504966   -0.13477538793616842   -0.0609421633443775
0.20815950683504966   -0.13477538793616842   -0.0609421633443775
0.20815950683504966   -0.13477538793616842   -0.0609421633443775
0.6261596727279971   0.06171157325154805   0.06590336986282927
0.6261596727279971   0.06171157325154805   0.06590336986282927
0.6261596727279971   0.06171157325154805   0.06590336986282927
0.6261596727279971   0.06171157325154805   0.06590336986282927
0.6199350880317858   -0.03303497840720128   -0.08022498752005253
0.6199350880317858   -0.03303497840720128   -0.08022498752005253
0.6199350880317858   -0.03303497840720128   -0.08022498752005253
0.6199350880317858   -0.03303497840720128   -0.08022498752005253
0.2626144739495209   0.011140080241928356   0.049175411221739365
0.2626144739495209   0.011140080241928356   0.049175411221739365
0.2626144739495209   0.011140080241928356   0.049175411221739365
0.2626144739495209   0.011140080241928356   0.049175411221739365
0.4068462184542371   -0.027849347600193558   -0.021469862550273403
0.4068462184542371   -0.027849347600193558   -0.021469862550273403
0.4068462184542371   -0.027849347600193558   -0.021469862550273403
0.4068462184542371   -0.027849347600193558   -0.021469862550273403
0.21399787211050014   -0.11227577302811266   -0.07049174470332369
0.21399787211050014   -0.11227577302811266   -0.07049174470332369
0.21399787211050014   -0.11227577302811266   -0.07049174470332369
0.21399787211050014   -0.11227577302811266   -0.07049174470332369
0.6726104865627119   0.09443967155474753   0.0556773551726442
0.6726104865627119   0.09443967155474753   0.0556773551726442
0.6726104865627119   0.09443967155474753   0.0556773551726442
0.6726104865627119   0.09443967155474753   0.0556773551726442
0.6537272396415845   -0.009534833512210558   -0.0962068744471094
0.6537272396415845   -0.009534833512210558   -0.0962068744471094
0.6537272396415845   -0.009534833512210558   -0.0962068744471094
0.6537272396415845   -0.009534833512210558   -0.0962068744471094
0.2715427227663166   0.02835353469501683   0.03834026151578199
0.2715427227663166   0.02835353469501683   0.03834026151578199
0.2715427227663166   0.02835353469501683   0.03834026151578199
0.2715427227663166   0.02835353469501683   0.03834026151578199
0.44100173840285267   -0.004158316265918421   -0.0025947182482599224
0.44100173840285267   -0.004158316265918421   -0.0025947182482599224
0.44100173840285267   -0.004158316265918421   -0.0025947182482599224
0.44100173840285267   -0.004158316265918421   -0.0025947182482599224
0.22331138025992553   -0.0927243448027899   -0.08173857151836254
0.22331138025992553   -0.0927243448027899   -0.08173857151836254
0.22331138025992553   -0.0927243448027899   -0.08173857151836254
0.22331138025992553   -0.0927243448027899   -0.08173857151836254
0.7061871564989024   0.11577162033652816   0.04078625599075267
0.7061871564989024   0.11577162033652816   0.04078625599075267
0.7061871564989024   0.11577162033652816   0.04078625599075267
0.7061871564989024   0.11577162033652816   0.04078625599075267
0.7056038936453659   0.04208087894911833   -0.10297792171599254
0.7056038936453659   0.04208087894911833   -0.10297792171599254
0.7056038936453659   0.04208087894911833   -0.10297792171599254
0.7056038936453659   0.04208087894911833   -0.10297792171599254
0.2806803710721641   0.06319809418735424   0.030461522053699036
0.2806803710721641   0.06319809418735424   0.030461522053699036
0.2806803710721641   0.06319809418735424   0.030461522053699036
0.2806803710721641   0.06319809418735424   0.030461522053699036
0.4580041274293997   0.0219609777164865   0.01364105218520259
0.4580041274293997   0.0219609777164865   0.01364105218520259
0.4580041274293997   0.0219609777164865   0.01364105218520259
0.4580041274293997   0.0219609777164865   0.01364105218520259
-0.8431176701585096   -0.014198468161895544   0.08222699000823791
-0.8431176701585096   -0.014198468161895544   0.08222699000823791
-0.8431176701585096   -0.014198468161895544   0.08222699000823791
-0.8431176701585096   -0.014198468161895544   0.08222699000823791
-0.657370003438303   -0.08339113476889946   -0.040702549805160096
-0.657370003438303   -0.08339113476889946   -0.040702549805160096
-0.657370003438303   -0.08339113476889946   -0.040702549805160096
-0.657370003438303   -0.08339113476889946   -0.040702549805160096
-0.5950471917772278   0.07067349409908577   0.07031947753941191
-0.5950471917772278   0.07067349409908577   0.07031947753941191
-0.5950471917772278   0.07067349409908577   0.07031947753941191
-0.5950471917772278   0.07067349409908577   0.07031947753941191
-0.8395427912600258   -0.09144251314597265   -0.05539220432241099
-0.8395427912600258   -0.09144251314597265   -0.05539220432241099
-0.8395427912600258   -0.09144251314597265   -0.05539220432241099
-0.8395427912600258   -0.09144251314597265   -0.05539220432241099
-0.7056729929588763   -0.019436693338166805   -0.010343640307194223
-0.7056729929588763   -0.019436693338166805   -0.010343640307194223
-0.7056729929588763   -0.019436693338166805   -0.010343640307194223
-0.7056729929588763   -0.019436693338166805   -0.010343640307194223
-0.7877045988036404   0.03379113845719131   0.07856510635635229
-0.7877045988036404   0.03379113845719131   0.07856510635635229
-0.7877045988036404   0.03379113845719131   0.07856510635635229
-0.7877045988036404   0.03379113845719131   0.07856510635635229
-0.6432863529613457   -0.0509611262318094   -0.04924170805027486
-0.6432863529613457   -0.0509611262318094   -0.04924170805027486
-0.6432863529613457   -0.0509611262318094   -0.04924170805027486
-0.6432863529613457   -0.0509611262318094   -0.04924170805027486
-0.5802694547672896   0.08899706784425329   0.059482032514016465
-0.5802694547672896   0.08899706784425329   0.059482032514016465
-0.5802694547672896   0.08899706784425329   0.059482032514016465
-0.5802694547672896   0.08899706784425329   0.059482032514016465
-0.8010238928349085   -0.07067923166703473   -0.06921580199756182
-0.8010238928349085   -0.07067923166703473   -0.06921580199756182
-0.8010238928349085   -0.07067923166703473   -0.06921580199756182
-0.8010238928349085   -0.07067923166703473   -0.06921580199756182
-0.6855375830553582   0.004551259690177195   0.00495928856926435
-0.6855375830553582   0.004551259690177195   0.00495928856926435
-0.6855375830553582   0.004551259690177195   0.00495928856926435
-0.6855375830553582   0.004551259690177195   0.00495928856926435
-0.7491424923254832   0.05602370633859777   0.06348826254393233
-0.7491424923254832   0.05602370633859777   0.06348826254393233
-0.7491424923254832   0.05602370633859777   0.06348826254393233
-0.7491424923254832   0.05602370633859777   0.06348826254393233
-0.6287431600538514   -0.0342981749385151   -0.05959125113602064
-0.6287431600538514   -0.0342981749385151   -0.05959125113602064
-0.6287431600538514   -0.0342981749385151   -0.05959125113602064
-0.6287431600538514   -0.0342981749385151   -0.05959125113602064
-0.5682949495195305   0.11180387794316396   0.05130111130083171
-0.5682949495195305   0.11180387794316396   0.05130111130083171
-0.5682949495195305   0.11180387794316396   0.05130111130083171
-0.5682949495195305   0.11180387794316396   0.05130111130083171
-0.7492726065567236   -0.03744082317010275   -0.08010456571648464
-0.7492726065567236   -0.03744082317010275   -0.08010456571648464
-0.7492726065567236   -0.03744082317010275   -0.08010456571648464
-0.7492726065567236   -0.03744082317010275   -0.08010456571648464
-0.6448862182670213   0.028195733515634563   0.02395230769318088
-0.6448862182670213   0.028195733515634563   0.02395230769318088
-0.6448862182670213   0.028195733515634563   0.02395230769318088
-0.6448862182670213   0.028195733515634563   0.02395230769318088
-0.6343571971247004   -0.04779369221345263   0.03876403920740583
-0.6343571971247004   -0.04779369221345263   0.03876403920740583
-0.6343571971247004   -0.04779369221345263   0.03876403920740583
-0.6343571971247004   -0.04779369221345263   0.03876403920740583
-0.4654683892918626   -0.06322956158863904   -0.012052427604376121
-0.4654683892918626   -0.06322956158863904   -0.012052427604376121
-0.4654683892918626   -0.06322956158863904   -0.012052427604376121
-0.4654683892918626   -0.06322956158863904   -0.012052427604376121
-0.4307065002221517   0.03210906418214245   0.035947998914338405
-0.4307065002221517   0.03210906418214245   0.035947998914338405
-0.4307065002221517   0.03210906418214245   0.035947998914338405
-0.4307065002221517   0.03210906418214245   0.035947998914338405
-0.6437068794890295   -0.06751147404914541   -0.034793992871354595
-0.6437068794890295   -0.06751147404914541   -0.034793992871354595
-0.6437068794890295   -0.06751147404914541   -0.034793992871354595
-0.6437068794890295   -0.06751147404914541   -0.034793992871354595
-0.5420523502693553   -0.03372519193627671   -0.014584843403542228
-0.5420523502693553   -0.03372519193627671   -0.014584843403542228
-0.5420523502693553   -0.03372519193627671   -0.014584843403542228
-0.5420523502693553   -0.03372519193627671   -0.014584843403542228
-0.6178294083548279   -0.005907282897634869   0.03298917164812812
-0.6178294083548279   -0.005907282897634869   0.03298917164812812
-0.6178294083548279   -0.005907282897634869   0.03298917164812812
-0.6178294083548279   -0.005907282897634869   0.03298917164812812
-0.45368111355038093   -0.026592269163403348   -0.020223734381262196
-0.45368111355038093   -0.026592269163403348   -0.020223734381262196
-0.45368111355038093   -0.026592269163403348   -0.020223734381262196
-0.45368111355038093   -0.026592269163403348   -0.020223734381262196
-0.41796186383111944   0.06937462341096383   0.02875466674829409
-0.41796186383111944   0.06937462341096383   0.02875466674829409
-0.41796186383111944   0.06937462341096383   0.02875466674829409
-0.41796186383111944   0.06937462341096383   0.02875466674829409
-0.6246307769359098   -0.03167428573833177   -0.04165322474649141
-0.6246307769359098   -0.03167428573833177   -0.04165322474649141
-0.6246307769359098   -0.03167428573833177   -0.04165322474649141
-0.6246307769359098   -0.03167428573833177   -0.04165322474649141
-0.5236316440848504   0.002215214805121643   0.0015125232323861607
-0.5236316440848504   0.002215214805121643   0.0015125232323861607
-0.5236316440848504   0.002215214805121643   0.0015125232323861607
-0.5236316440848504   0.002215214805121643   0.0015125232323861607
-0.5972349196978177   0.03374952835757608   0.029902247348053634
-0.5972349196978177   0.03374952835757608   0.029902247348053634
-0.5972349196978177   0.03374952835757608   0.029902247348053634
-0.5972349196978177   0.03374952835757608   0.029902247348053634
-0.4420064596286962   0.007302070755574444   -0.02939575958420451
-0.4420064596286962   0.007302070755574444   -0.02939575958420451
-0.4420064596286962   0.007302070755574444   -0.02939575958420451
-0.4420064596286962   0.007302070755574444   -0.02939575958420451
-0.40525814252325193   0.10981583537714011   0.021903378844091527
-0.40525814252325193   0.10981583537714011   0.021903378844091527
-0.40525814252325193   0.10981583537714011   0.021903378844091527
-0.40525814252325193   0.10981583537714011   0.021903378844091527
-0.6088773982744992   0.007459341051335999   -0.04726659558217995
-0.6088773982744992   0.007459341051335999   -0.04726659558217995
-0.6088773982744992   0.007459341051335999   -0.04726659558217995
-0.6088773982744992   0.007459341051335999   -0.04726659558217995
-0.5103078739620948   0.037438194476740336   0.01725414378418126
-0.5103078739620948   0.037438194476740336   0.01725414378418126
-0.5103078739620948   0.037438194476740336   0.01725414378418126
-0.5103078739620948   0.037438194476740336   0.01725414378418126
-0.46491879699547495   -0.07934812869527472   0.006814100984190311
-0.46491879699547495   -0.07934812869527472   0.006814100984190311
-0.46491879699547495   -0.07934812869527472   0.006814100984190311
-0.46491879699547495   -0.07934812869527472   0.006814100984190311
-0.2761758950360204   -0.03332315286567186   0.01708782270339448
-0.2761758950360204   -0.03332315286567186   0.01708782270339448
-0.2761758950360204   -0.03332315286567186   0.01708782270339448
-0.2761758950360204   -0.03332315286567186   0.01708782270339448
-0.26668249043910863   -0.0006725115086738676   0.0022072735522756654
-0.26668249043910863   -0.0006725115086738676   0.0022072735522756654
-0.26668249043910863   -0.0006725115086738676   0.0022072735522756654
-0.26668249043910863   -0.0006725115086738676   0.0022072735522756654
-0.4523643332198658   -0.03620533151653407   -0.004026770375555759
-0.4523643332198658   -0.03620533151653407   -0.004026770375555759
-0.4523643332198658   -0.03620533151653407   -0.004026770375555759
-0.4523643332198658   -0.03620533151653407   -0.004026770375555759
-0.36561550321134073   -0.03563947149919217   -0.010618921964119414
-0.36561550321134073   -0.03563947149919217   -0.010618921964119414
-0.36561550321134073   -0.03563947149919217   -0.010618921964119414
-0.36561550321134073   -0.03563947149919217   -0.010618921964119414
-0.4518269457402142   -0.0380432418150977   0.0004980773212620582
-0.4518269457402142   -0.0380432418150977   0.0004980773212620582
-0.4518269457402142   -0.0380432418150977   0.0004980773212620582
-0.4518269457402142   -0.0380432418150977   0.0004980773212620582
-0.26433325857641876   0.004052018132230592   0.009228903224820527
-0.26433325857641876   0.004052018132230592   0.009228903224820527
-0.26433325857641876   0.004052018132230592   0.009228903224820527
-0.26433325857641876   0.004052018132230592   0.009228903224820527
-0.2528414237081869   0.040998101339295344   -0.003667769554870779
-0.2528414237081869   0.040998101339295344   -0.003667769554870779
-0.2528414237081869   0.040998101339295344   -0.003667769554870779
-0.2528414237081869   0.040998101339295344   -0.003667769554870779
-0.439596708522855   0.0017028885363773866   -0.011747821835800854
-0.439596708522855   0.0017028885363773866   -0.011747821835800854
-0.439596708522855   0.0017028885363773866   -0.011747821835800854
-0.439596708522855   0.0017028885363773866   -0.011747821835800854
-0.3510169992455928   0.001828477425711142   0.004990283430223574
-0.3510169992455928   0.001828477425711142   0.004990283430223574
-0.3510169992455928   0.001828477425711142   0.004990283430223574
-0.3510169992455928   0.001828477425711142   0.004990283430223574
-0.4380719742185167   0.0035010773272110135   -0.0059223391049472475
-0.4380719742185167   0.0035010773272110135   -0.0059223391049472475
-0.4380719742185167   0.0035010773272110135   -0.0059223391049472475
-0.4380719742185167   0.0035010773272110135   -0.0059223391049472475
-0.2517557555793627   0.041810314981621306   0.0009483574469264337
-0.2517557555793627   0.041810314981621306   0.0009483574469264337
-0.2517557555793627   0.041810314981621306   0.0009483574469264337
-0.2517557555793627   0.041810314981621306   0.0009483574469264337
-0.2397684627347733   0.08305007107541743   -0.01037149548659904
-0.2397684627347733   0.08305007107541743   -0.01037149548659904
-0.2397684627347733   0.08305007107541743   -0.01037149548659904
-0.2397684627347733   0.08305007107541743   -0.01037149548659904
-0.42762091646981015   0.039903674659988786   -0.019998330171544426
-0.42762091646981015   0.039903674659988786   -0.019998330171544426
-0.42762091646981015   0.039903674659988786   -0.019998330171544426
-0.42762091646981015   0.039903674659988786   -0.019998330171544426
-0.3372071727925742   0.039430877199377296   0.01997145305525373
-0.3372071727925742   0.039430877199377296   0.01997145305525373
-0.3372071727925742   0.039430877199377296   0.01997145305525373
-0.3372071727925742   0.039430877199377296   0.01997145305525373
-0.2993811048374736   -0.10671952678657128   -0.025541852382976817
-0.2993811048374736   -0.10671952678657128   -0.025541852382976817
-0.2993811048374736   -0.10671952678657128   -0.025541852382976817
-0.2993811048374736   -0.10671952678657128   -0.025541852382976817
-0.09215284703330195   -0.0015686004170421923   0.04480683027166883
-0.09215284703330195   -0.0015686004170421923   0.04480683027166883
-0.09215284703330195   -0.0015686004170421923   0.04480683027166883
-0.09215284703330195   -0.0015686004170421923   0.04480683027166883
-0.10483088740508385   -0.03164853774122291   -0.03287138464581262
-0.10483088740508385   -0.03164853774122291   -0.03287138464581262
-0.10483088740508385   -0.03164853774122291   -0.03287138464581262
-0.10483088740508385   -0.03164853774122291   -0.03287138464581262
-0.2626772006068327   -0.00407581746448938   0.025637028669468535
-0.2626772006068327   -0.00407581746448938   0.025637028669468535
-0.2626772006068327   -0.00407581746448938   0.025637028669468535
-0.2626772006068327   -0.00407581746448938   0.025637028669468535
-0.18973212957939684   -0.03443141535161442   -0.007662735135603374
-0.18973212957939684   -0.03443141535161442   -0.007662735135603374
-0.18973212957939684   -0.03443141535161442   -0.007662735135603374
-0.18973212957939684   -0.03443141535161442   -0.007662735135603374
-0.2870458221676237   -0.06797802257030076   -0.032303874028677355
-0.2870458221676237   -0.06797802257030076   -0.032303874028677355
-0.2870458221676237   -0.06797802257030076   -0.032303874028677355
-0.2870458221676237   -0.06797802257030076   -0.032303874028677355
-0.07722754843836656   0.035488384770517266   0.03800838767603565
-0.07722754843836656   0.035488384770517266   0.03800838767603565
-0.07722754843836656   0.035488384770517266   0.03800838767603565
-0.07722754843836656   0.035488384770517266   0.03800838767603565
-0.08459999064562605   0.007770976780475437   -0.03700479274951482
-0.08459999064562605   0.007770976780475437   -0.03700479274951482
-0.08459999064562605   0.007770976780475437   -0.03700479274951482
-0.08459999064562605   0.007770976780475437   -0.03700479274951482
-0.2508952772790916   0.0299624733933843   0.017098590536516703
-0.2508952772790916   0.0299624733933843   0.017098590536516703
-0.2508952772790916   0.0299624733933843   0.017098590536516703
-0.2508952772790916   0.0299624733933843   0.017098590536516703
-0.1742067713844631   0.00046160166767925115   0.008243431237907398
-0.1742067713844631   0.00046160166767925115   0.008243431237907398
-0.1742067713844631   0.00046160166767925115   0.008243431237907398
-0.1742067713844631   0.00046160166767925115   0.008243431237907398
-0.2744905122098635   -0.030824325939384598   -0.04009078478457748
-0.2744905122098635   -0.030824325939384598   -0.04009078478457748
-0.2744905122098635   -0.030824325939384598   -0.04009078478457748
-0.2744905122098635   -0.030824325939384598   -0.04009078478457748
-0.05799369683731968   0.0715688349907782   0.032228818081714246
-0.05799369683731968   0.0715688349907782   0.032228818081714246
-0.05799369683731968   0.0715688349907782   0.032228818081714246
-0.05799369683731968   0.0715688349907782   0.032228818081714246
-0.06748636324847468   0.05179637847282352   -0.041452167953334854
-0.06748636324847468   0.05179637847282352   -0.041452167953334854
-0.06748636324847468   0.05179637847282352   -0.041452167953334854
-0.06748636324847468   0.05179637847282352   -0.041452167953334854
-0.23883386560223843   0.06848407400455508   0.00886748724693804
-0.23883386560223843   0.06848407400455508   0.00886748724693804
-0.23883386560223843   0.06848407400455508   0.00886748724693804
-0.23883386560223843   0.06848407400455508   0.00886748724693804
-0.15813150095307416   0.03684234172284134   0.02415453931477821
-0.15813150095307416   0.03684234172284134   0.02415453931477821
-0.15813150095307416   0.03684234172284134   0.02415453931477821
-0.15813150095307416   0.03684234172284134   0.02415453931477821
-0.13485514080557776   -0.11477225935757195   -0.05550097964918044
-0.13485514080557776   -0.11477225935757195   -0.05550097964918044
-0.13485514080557776   -0.11477225935757195   -0.05550097964918044
-0.13485514080557776   -0.11477225935757195   -0.05550097964918044
0.04699307609873706   0.03400850359989102   0.06829768078484576
0.04699307609873706   0.03400850359989102   0.06829768078484576
0.04699307609873706   0.03400850359989102   0.06829768078484576
0.04699307609873706   0.03400850359989102   0.06829768078484576
0.04736026208304781   -0.05644334349896702   -0.07348749561626437
0.04736026208304781   -0.05644334349896702   -0.07348749561626437
0.04736026208304781   -0.05644334349896702   -0.07348749561626437
0.04736026208304781   -0.05644334349896702   -0.07348749561626437
-0.0736672778339985   0.03540038439454443   0.055897741073846846
-0.0736672778339985   0.03540038439454443   0.055897741073846846
-0.0736672778339985   0.03540038439454443   0.055897741073846846
-0.0736672778339985   0.03540038439454443   0.055897741073846846
-0.0300802689695611   -0.02433949649045462   -0.013006843628893532
-0.0300802689695611   -0.02433949649045462   -0.013006843628893532
-0.0300802689695611   -0.02433949649045462   -0.013006843628893532
-0.0300802689695611   -0.02433949649045462   -0.013006843628893532
-0.12237902735542094   -0.08845485557596008   -0.0638057665627609
-0.12237902735542094   -0.08845485557596008   -0.0638057665627609
-0.12237902735542094   -0.08845485557596008   -0.0638057665627609
-0.12237902735542094   -0.08845485557596008   -0.0638057665627609
0.09953063113373163   0.07087051600079887   0.06005049013738889
0.09953063113373163   0.07087051600079887   0.06005049013738889
0.09953063113373163   0.07087051600079887   0.06005049013738889
0.09953063113373163   0.07087051600079887   0.06005049013738889
0.086079973459141   -0.03386500398060269   -0.08728968255514004
0.086079973459141   -0.03386500398060269   -0.08728968255514004
0.086079973459141   -0.03386500398060269   -0.08728968255514004
0.086079973459141   -0.03386500398060269   -0.08728968255514004
-0.0594312356640623   0.05178332138498861   0.044826637553790766
-0.0594312356640623   0.05178332138498861   0.044826637553790766
-0.0594312356640623   0.05178332138498861   0.044826637553790766
-0.0594312356640623   0.05178332138498861   0.044826637553790766
0.0017731385128004888   -0.001113078354861303   0.004234636647368319
0.0017731385128004888   -0.001113078354861303   0.004234636647368319
0.0017731385128004888   -0.001113078354861303   0.004234636647368319
0.0017731385128004888   -0.001113078354861303   0.004234636647368319
-0.10748615082413338   -0.06987767974878731   -0.07378693711278876
-0.10748615082413338   -0.06987767974878731   -0.07378693711278876
-0.10748615082413338   -0.06987767974878731   -0.07378693711278876
-0.10748615082413338   -0.06987767974878731   -0.07378693711278876
0.137596061947367   0.09125717048133326   0.04516858542405404
0.137596061947367   0.09125717048133326   0.04516858542405404
0.137596061947367   0.09125717048133326   0.04516858542405404
0.137596061947367   0.09125717048133326   0.04516858542405404
0.14032507827990595   0.010340244243843   -0.09347243487158366
0.14032507827990595   0.010340244243843   -0.09347243487158366
0.14032507827990595   0.010340244243843   -0.09347243487158366
0.14032507827990595   0.010340244243843   -0.09347243487158366
-0.04613041661728895   0.08069686378987717   0.036427079885540184
-0.04613041661728895   0.08069686378987717   0.036427079885540184
-0.04613041661728895   0.08069686378987717   0.036427079885540184
-0.04613041661728895   0.08069686378987717   0.036427079885540184
0.030446711945983033   0.023297686456976354   0.021081616287047748
0.030446711945983033   0.023297686456976354   0.021081616287047748
0.030446711945983033   0.023297686456976354   0.021081616287047748
0.030446711945983033   0.023297686456976354   0.021081616287047748
-0.2797735355305817   0.015873644441886756   0.07802487834104972
-0.2797735355305817   0.015873644441886756   0.07802487834104972
-0.2797735355305817   0.015873644441886756   0.07802487834104972
-0.2797735355305817   0.015873644441886756   0.07802487834104972
-0.3320326364214398   -0.10174488964261764   -0.04601054380287873
-0.3320326364214398   -0.10174488964261764   -0.04601054380287873
-0.3320326364214398   -0.10174488964261764   -0.04601054380287873
-0.3320326364214398   -0.10174488964261764   -0.04601054380287873
-0.2650858683115084   0.0473060553573008   0.06389371524543887
-0.2650858683115084   0.0473060553573008   0.06389371524543887
-0.2650858683115084   0.0473060553573008   0.06389371524543887
-0.2650858683115084   0.0473060553573008   0.06389371524543887
-0.2716648233618219   -0.06698577302880696   -0.05927884309699032
-0.2716648233618219   -0.06698577302880696   -0.05927884309699032
-0.2716648233618219   -0.06698577302880696   -0.05927884309699032
-0.2716648233618219   -0.06698577302880696   -0.05927884309699032
-0.2798621576654953   -0.021529942984395187   -0.021316343620601585
-0.2798621576654953   -0.021529942984395187   -0.021316343620601585
-0.2798621576654953   -0.021529942984395187   -0.021316343620601585
-0.2798621576654953   -0.021529942984395187   -0.021316343620601585
-0.22027174768702834   0.05802524073561799   0.07267552151254476
-0.22027174768702834   0.05802524073561799   0.07267552151254476
-0.22027174768702834   0.05802524073561799   0.07267552151254476
-0.22027174768702834   0.05802524073561799   0.07267552151254476
-0.3132621018545846   -0.07448811627540808   -0.055193280837233245
-0.3132621018545846   -0.07448811627540808   -0.055193280837233245
-0.3132621018545846   -0.07448811627540808   -0.055193280837233245
-0.3132621018545846   -0.07448811627540808   -0.055193280837233245
-0.24440514890942105   0.06524273866548908   0.05377530573956975
-0.24440514890942105   0.06524273866548908   0.05377530573956975
-0.24440514890942105   0.06524273866548908   0.05377530573956975
-0.24440514890942105   0.06524273866548908   0.05377530573956975
-0.22740416944125236   -0.046714991237130375   -0.07385133841617364
-0.22740416944125236   -0.046714991237130375   -0.07385133841617364
-0.22740416944125236   -0.046714991237130375   -0.07385133841617364
-0.22740416944125236   -0.046714991237130375   -0.07385133841617364
-0.24720880617816687   0.00139063819584348   -0.004411241250000399
-0.24720880617816687   0.00139063819584348   -0.004411241250000399
-0.24720880617816687   0.00139063819584348   -0.004411241250000399
-0.24720880617816687   0.00139063819584348   -0.004411241250000399
-0.17571021847611668   0.07983945719892444   0.05806396797344218
-0.17571021847611668   0.07983945719892444   0.05806396797344218
-0.17571021847611668   0.07983945719892444   0.05806396797344218
-0.17571021847611668   0.07983945719892444   0.05806396797344218
-0.29306424703904127   -0.05827685693505091   -0.06600058930798738
-0.29306424703904127   -0.05827685693505091   -0.06600058930798738
-0.29306424703904127   -0.05827685693505091   -0.06600058930798738
-0.29306424703904127   -0.05827685693505091   -0.06600058930798738
-0.2254810042113195   0.09262768067324244   0.046446351154837286
-0.2254810042113195   0.09262768067324244   0.046446351154837286
-0.2254810042113195   0.09262768067324244   0.046446351154837286
-0.2254810042113195   0.09262768067324244   0.046446351154837286
-0.16832637438603099   -0.008181976758589608   -0.08319826651059122
-0.16832637438603099   -0.008181976758589608   -0.08319826651059122
-0.16832637438603099   -0.008181976758589608   -0.08319826651059122
-0.16832637438603099   -0.008181976758589608   -0.08319826651059122
-0.20793993640919775   0.025330905418604083   0.013693321252272624
-0.20793993640919775   0.025330905418604083   0.013693321252272624
-0.20793993640919775   0.025330905418604083   0.013693321252272624
-0.20793993640919775   0.025330905418604083   0.013693321252272624
-0.29727831091735274   -0.018314851314895707   0.044331045389830695
-0.29727831091735274   -0.018314851314895707   0.044331045389830695
-0.29727831091735274   -0.018314851314895707   0.044331045389830695
-0.29727831091735274   -0.018314851314895707   0.044331045389830695
-0.3686482361143512   -0.08298980416880075   -0.01797715735251597
-0.3686482361143512   -0.08298980416880075   -0.01797715735251597
-0.3686482361143512   -0.08298980416880075   -0.01797715735251597
-0.3686482361143512   -0.08298980416880075   -0.01797715735251597
-0.32859870286865067   0.008398379425827052   0.029647097883159487
-0.32859870286865067   0.008398379425827052   0.029647097883159487
-0.32859870286865067   0.008398379425827052   0.029647097883159487
-0.32859870286865067   0.008398379425827052   0.029647097883159487
-0.3006255515241916   -0.03926541380480593   -0.027233231655866746
-0.3006255515241916   -0.03926541380480593   -0.027233231655866746
-0.3006255515241916   -0.03926541380480593   -0.027233231655866746
-0.3006255515241916   -0.03926541380480593   -0.027233231655866746
-0.3240122515415741   -0.030513716665704627   -0.015016898773704202
-0.3240122515415741   -0.030513716665704627   -0.015016898773704202
-0.3240122515415741   -0.030513716665704627   -0.015016898773704202
-0.3240122515415741   -0.030513716665704627   -0.015016898773704202
-0.2754185559769288   0.020843546402222482   0.038692785873414876
-0.2754185559769288   0.020843546402222482   0.038692785873414876
-0.2754185559769288   0.020843546402222482   0.038692785873414876
-0.2754185559769288   0.020843546402222482   0.038692785873414876
-0.3512866130204733   -0.049191495385762216   -0.026202578064366523
-0.3512866130204733   -0.049191495385762216   -0.026202578064366523
-0.3512866130204733   -0.049191495385762216   -0.026202578064366523
-0.3512866130204733   -0.049191495385762216   -0.026202578064366523
-0.31013009647219925   0.0440807082053329   0.022621064508121392
-0.31013009647219925   0.0440807082053329   0.022621064508121392
-0.31013009647219925   0.0440807082053329   0.022621064508121392
-0.31013009647219925   0.0440807082053329   0.022621064508121392
-0.27594209022563465   -0.004862505766366321   -0.0338041564096349
-0.27594209022563465   -0.004862505766366321   -0.0338041564096349
-0.27594209022563465   -0.004862505766366321   -0.0338041564096349
-0.27594209022563465   -0.004862505766366321   -0.0338041564096349
-0.30195715384191735   0.0027930715478312745   0.000589832120724585
-0.30195715384191735   0.0027930715478312745   0.000589832120724585
-0.30195715384191735   0.0027930715478312745   0.000589832120724585
-0.30195715384191735   0.0027930715478312745   0.000589832120724585
-0.2495098613058695   0.05864953235128159   0.03484495007153511
-0.2495098613058695   0.05864953235128159   0.03484495007153511
-0.2495098613058695   0.05864953235128159   0.03484495007153511
-0.2495098613058695   0.05864953235128159   0.03484495007153511
-0.33387736193049755   -0.016746366450850425   -0.03528818812719253
-0.33387736193049755   -0.016746366450850425   -0.03528818812719253
-0.33387736193049755   -0.016746366450850425   -0.03528818812719253
-0.33387736193049755   -0.016746366450850425   -0.03528818812719253
-0.29157258663198904   0.08356223194695671   0.01594304725341339
-0.29157258663198904   0.08356223194695671   0.01594304725341339
-0.29157258663198904   0.08356223194695671   0.01594304725341339
-0.29157258663198904   0.08356223194695671   0.01594304725341339
-0.254633774595081   0.03330775278455082   -0.039997572875274987
-0.254633774595081   0.03330775278455082   -0.039997572875274987
-0.254633774595081   0.03330775278455082   -0.039997572875274987
-0.254633774595081   0.03330775278455082   -0.039997572875274987
-0.28110669711955594   0.03717567222111717   0.016469377830488945
-0.28110669711955594   0.03717567222111717   0.016469377830488945
-0.28110669711955594   0.03717567222111717   0.016469377830488945
-0.28110669711955594   0.03717567222111717   0.016469377830488945
-0.3560104864077143   -0.05021939856526399   0.012441185577127766
-0.3560104864077143   -0.05021939856526399   0.012441185577127766
-0.3560104864077143   -0.05021939856526399   0.012441185577127766
-0.3560104864077143   -0.05021939856526399   0.012441185577127766
-0.40516773189699107   -0.05234874837208828   0.010879386301453256
-0.40516773189699107   -0.05234874837208828   0.010879386301453256
-0.40516773189699107   -0.05234874837208828   0.010879386301453256
-0.40516773189699107   -0.05234874837208828   0.010879386301453256
-0.39035828391213023   -0.023766221332931686   -0.003837268765279435
-0.39035828391213023   -0.023766221332931686   -0.003837268765279435
-0.39035828391213023   -0.023766221332931686   -0.003837268765279435
-0.39035828391213023   -0.023766221332931686   -0.003837268765279435
-0.3369244049562765   -0.007123835701668205   0.003540802572525481
-0.3369244049562765   -0.007123835701668205   0.003540802572525481
-0.3369244049562765   -0.007123835701668205   0.003540802572525481
-0.3369244049562765   -0.007123835701668205   0.003540802572525481
-0.3726732388902006   -0.03147284925767641   -0.009960002956030013
-0.3726732388902006   -0.03147284925767641   -0.009960002956030013
-0.3726732388902006   -0.03147284925767641   -0.009960002956030013
-0.3726732388902006   -0.03147284925767641   -0.009960002956030013
-0.3372020449882618   -0.01113480537743089   0.006163572088356127
-0.3372020449882618   -0.01113480537743089   0.006163572088356127
-0.3372020449882618   -0.01113480537743089   0.006163572088356127
-0.3372020449882618   -0.01113480537743089   0.006163572088356127
-0.387706151857993   -0.017380759635017506   0.0030379298074955097
-0.387706151857993   -0.017380759635017506   0.0030379298074955097
-0.387706151857993   -0.017380759635017506   0.0030379298074955097
-0.387706151857993   -0.017380759635017506   0.0030379298074955097
-0.3709604147734473   0.015831588880429875   -0.009740613864946086
-0.3709604147734473   0.015831588880429875   -0.009740613864946086
-0.3709604147734473   0.015831588880429875   -0.009740613864946086
-0.3709604147734473   0.015831588880429875   -0.009740613864946086
-0.31851816035619707   0.028810034789853223   -0.00404858149638819
-0.31851816035619707   0.028810034789853223   -0.00404858149638819
-0.31851816035619707   0.028810034789853223   -0.00404858149638819
-0.31851816035619707   0.028810034789853223   -0.00404858149638819
-0.352410541329785   0.003927472398330634   0.0054466865271273444
-0.352410541329785   0.003927472398330634   0.0054466865271273444
-0.352410541329785   0.003927472398330634   0.0054466865271273444
-0.352410541329785   0.003927472398330634   0.0054466865271273444
-0.3178791364613965   0.028322734891101417   -0.00036616212363916115
-0.3178791364613965   0.028322734891101417   -0.00036616212363916115
-0.3178791364613965   0.028322734891101417   -0.00036616212363916115
-0.3178791364613965   0.028322734891101417   -0.00036616212363916115
-0.3695285929764274   0.018389734471001257   -0.005139650470417749
-0.3695285929764274   0.018389734471001257   -0.005139650470417749
-0.3695285929764274   0.018389734471001257   -0.005139650470417749
-0.3695285929764274   0.018389734471001257   -0.005139650470417749
-0.35238679378360793   0.055668940201550776   -0.016406125149936723
-0.35238679378360793   0.055668940201550776   -0.016406125149936723
-0.35238679378360793   0.055668940201550776   -0.016406125149936723
-0.35238679378360793   0.055668940201550776   -0.016406125149936723
-0.30097133976860657   0.0648910199349396   -0.012379506417657095
-0.30097133976860657   0.0648910199349396   -0.012379506417657095
-0.30097133976860657   0.0648910199349396   -0.012379506417657095
-0.30097133976860657   0.0648910199349396   -0.012379506417657095
-0.333082836469558   0.039392156287964525   0.020132686522374207
-0.333082836469558   0.039392156287964525   0.020132686522374207
-0.333082836469558   0.039392156287964525   0.020132686522374207
-0.333082836469558   0.039392156287964525   0.020132686522374207
-0.416835334086787   -0.07952328207166445   -0.02028409094795736
-0.416835334086787   -0.07952328207166445   -0.02028409094795736
-0.416835334086787   -0.07952328207166445   -0.02028409094795736
-0.416835334086787   -0.07952328207166445   -0.02028409094795736
-0.44477162980266555   -0.022340966508516955   0.03846189930696939
-0.44477162980266555   -0.022340966508516955   0.03846189930696939
-0.44477162980266555   -0.022340966508516955   0.03846189930696939
-0.44477162980266555   -0.022340966508516955   0.03846189930696939
-0.4519024392380386   -0.054598067231039875   -0.03774898153207803
-0.4519024392380386   -0.054598067231039875   -0.03774898153207803
-0.4519024392380386   -0.054598067231039875   -0.03774898153207803
-0.4519024392380386   -0.054598067231039875   -0.03774898153207803
-0.373580993333283   0.023847065922843788   0.03243589687318128
-0.373580993333283   0.023847065922843788   0.03243589687318128
-0.373580993333283   0.023847065922843788   0.03243589687318128
-0.373580993333283   0.023847065922843788   0.03243589687318128
-0.4200243237776624   -0.031005145234389582   -0.006257593453596994
-0.4200243237776624   -0.031005145234389582   -0.006257593453596994
-0.4200243237776624   -0.031005145234389582   -0.006257593453596994
-0.4200243237776624   -0.031005145234389582   -0.006257593453596994
-0.39853693759258546   -0.04172876857969316   -0.026767989920797562
-0.39853693759258546   -0.04172876857969316   -0.026767989920797562
-0.39853693759258546   -0.04172876857969316   -0.026767989920797562
-0.39853693759258546   -0.04172876857969316   -0.026767989920797562
-0.42445661028392023   0.01346765196631751   0.0314144440411564
-0.42445661028392023   0.01346765196631751   0.0314144440411564
-0.42445661028392023   0.01346765196631751   0.0314144440411564
-0.42445661028392023   0.01346765196631751   0.0314144440411564
-0.42649533239639775   -0.017047734324286537   -0.042352392934531344
-0.42649533239639775   -0.017047734324286537   -0.042352392934531344
-0.42649533239639775   -0.017047734324286537   -0.042352392934531344
-0.42649533239639775   -0.017047734324286537   -0.042352392934531344
-0.3561101083619457   0.05625768053273343   0.024084826540255164
-0.3561101083619457   0.05625768053273343   0.024084826540255164
-0.3561101083619457   0.05625768053273343   0.024084826540255164
-0.3561101083619457   0.05625768053273343   0.024084826540255164
-0.3970118439373083   0.003081829783566123   0.009644089968728363
-0.3970118439373083   0.003081829783566123   0.009644089968728363
-0.3970118439373083   0.003081829783566123   0.009644089968728363
-0.3970118439373083   0.003081829783566123   0.009644089968728363
-0.38029310633272106   -0.006209422567352935   -0.03436306021354009
-0.38029310633272106   -0.006209422567352935   -0.03436306021354009
-0.38029310633272106   -0.006209422567352935   -0.03436306021354009
-0.38029310633272106   -0.006209422567352935   -0.03436306021354009
-0.39979598258775595   0.047935720613660984   0.026160901170733768
-0.39979598258775595   0.047935720613660984   0.026160901170733768
-0.39979598258775595   0.047935720613660984   0.026160901170733768
-0.39979598258775595   0.047935720613660984   0.026160901170733768
-0.40425996933165487   0.024330953256475385   -0.04647201276401336
-0.40425996933165487   0.024330953256475385   -0.04647201276401336
-0.40425996933165487   0.024330953256475385   -0.04647201276401336
-0.40425996933165487   0.024330953256475385   -0.04647201276401336
-0.33859096167562097   0.09239337224667143   0.015848603344877574
-0.33859096167562097   0.09239337224667143   0.015848603344877574
-0.33859096167562097   0.09239337224667143   0.015848603344877574
-0.33859096167562097   0.09239337224667143   0.015848603344877574
-0.3774531517524928   0.036918446699352694   0.024852585097010958
-0.3774531517524928   0.036918446699352694   0.024852585097010958
-0.3774531517524928   0.036918446699352694   0.024852585097010958
-0.3774531517524928   0.036918446699352694   0.024852585097010958
-0.47707827596236235   -0.09462313547442185   -0.05078916252561918
-0.47707827596236235   -0.09462313547442185   -0.05078916252561918
-0.47707827596236235   -0.09462313547442185   -0.05078916252561918
-0.47707827596236235   -0.09462313547442185   -0.05078916252561918
-0.5272238758229765   0.007396378735080478   0.0691588081550858
-0.5272238758229765   0.007396378735080478   0.0691588081550858
-0.5272238758229765   0.007396378735080478   0.0691588081550858
-0.5272238758229765   0.007396378735080478   0.0691588081550858
-0.5200673947850631   -0.0785858437841837   -0.06763328286872923
-0.5200673947850631   -0.0785858437841837   -0.06763328286872923
-0.5200673947850631   -0.0785858437841837   -0.06763328286872923
-0.5200673947850631   -0.0785858437841837   -0.06763328286872923
-0.40910577824809313   0.059644161055848785   0.06199209513075703
-0.40910577824809313   0.059644161055848785   0.06199209513075703
-0.40910577824809313   0.059644161055848785   0.06199209513075703
-0.40910577824809313   0.059644161055848785   0.06199209513075703
-0.4640078574624923   -0.02029416837293596   -0.0031293089336954377
-0.4640078574624923   -0.02029416837293596   -0.0031293089336954377
-0.4640078574624923   -0.02029416837293596   -0.0031293089336954377
-0.4640078574624923   -0.02029416837293596   -0.0031293089336954377
-0.4578948904959645   -0.06423878946930793   -0.05807051558344899
-0.4578948904959645   -0.06423878946930793   -0.05807051558344899
-0.4578948904959645   -0.06423878946930793   -0.05807051558344899
-0.4578948904959645   -0.06423878946930793   -0.05807051558344899
-0.46864604402032817   0.047929345257829783   0.06295828191292786
-0.46864604402032817   0.047929345257829783   0.06295828191292786
-0.46864604402032817   0.047929345257829783   0.06295828191292786
-0.46864604402032817   0.047929345257829783   0.06295828191292786
-0.47621666554276415   -0.0566601110220041   -0.08060509460247087
-0.47621666554276415   -0.0566601110220041   -0.08060509460247087
-0.47621666554276415   -0.0566601110220041   -0.08060509460247087
-0.47621666554276415   -0.0566601110220041   -0.08060509460247087
-0.3894498792623236   0.07508739879945116   0.05073973961210168
-0.3894498792623236   0.07508739879945116   0.05073973961210168
-0.3894498792623236   0.07508739879945116   0.05073973961210168
-0.3894498792623236   0.07508739879945116   0.05073973961210168
-0.43429638552701055   0.0026156087741717876   0.012132970213176355
-0.43429638552701055   0.0026156087741717876   0.012132970213176355
-0.43429638552701055   0.0026156087741717876   0.012132970213176355
-0.43429638552701055   0.0026156087741717876   0.012132970213176355
-0.43728977675568553   -0.04619015346262199   -0.06718219559263895
-0.43728977675568553   -0.04619015346262199   -0.06718219559263895
-0.43728977675568553   -0.04619015346262199   -0.06718219559263895
-0.43728977675568553   -0.04619015346262199   -0.06718219559263895
-0.42561849710498967   0.06737571218448608   0.048349924379911646
-0.42561849710498967   0.06737571218448608   0.048349924379911646
-0.42561849710498967   0.06737571218448608   0.048349924379911646
-0.42561849710498967   0.06737571218448608   0.048349924379911646
-0.4186834128973576   -0.018715521011947733   -0.08808184784354632
-0.4186834128973576   -0.018715521011947733   -0.08808184784354632
-0.4186834128973576   -0.018715521011947733   -0.08808184784354632
-0.4186834128973576   -0.018715521011947733   -0.08808184784354632
-0.3718436748089781   0.09814682875173733   0.0417935843541046
-0.3718436748089781   0.09814682875173733   0.0417935843541046
-0.3718436748089781   0.09814682875173733   0.0417935843541046
-0.3718436748089781   0.09814682875173733   0.0417935843541046
-0.39371483984673333   0.02551489766510799   0.029794024827357407
-0.39371483984673333   0.02551489766510799   0.029794024827357407
-0.39371483984673333   0.02551489766510799   0.029794024827357407
-0.39371483984673333   0.02551489766510799   0.029794024827357407
0.288616525584229   0.04668954976946024   0.07551249125187254
0.288616525584229   0.04668954976946024   0.07551249125187254
0.288616525584229   0.04668954976946024   0.07551249125187254
0.288616525584229   0.04668954976946024   0.07551249125187254
-0.007165882981751429   -0.1213837722490859   -0.04989549441647632
-0.007165882981751429   -0.1213837722490859   -0.04989549441647632
-0.007165882981751429   -0.1213837722490859   -0.04989549441647632
-0.007165882981751429   -0.1213837722490859   -0.04989549441647632
0.06428467257591981   0.02372945204496125   0.05834778633410898
0.06428467257591981   0.02372945204496125   0.05834778633410898
0.06428467257591981   0.02372945204496125   0.05834778633410898
0.06428467257591981   0.02372945204496125   0.05834778633410898
0.30119779763158944   -0.042618652197785295   -0.06243698376816231
0.30119779763158944   -0.042618652197785295   -0.06243698376816231
0.30119779763158944   -0.042618652197785295   -0.06243698376816231
0.30119779763158944   -0.042618652197785295   -0.06243698376816231
0.14726207158867816   -0.023619647206156693   -0.03595247350065065
0.14726207158867816   -0.023619647206156693   -0.03595247350065065
0.14726207158867816   -0.023619647206156693   -0.03595247350065065
0.14726207158867816   -0.023619647206156693   -0.03595247350065065
0.3525030981337707   0.08333146099891775   0.06813940554604059
0.3525030981337707   0.08333146099891775   0.06813940554604059
0.3525030981337707   0.08333146099891775   0.06813940554604059
0.3525030981337707   0.08333146099891775   0.06813940554604059
0.016129931996468852   -0.09907010122901667   -0.05962636328916793
0.016129931996468852   -0.09907010122901667   -0.05962636328916793
0.016129931996468852   -0.09907010122901667   -0.05962636328916793
0.016129931996468852   -0.09907010122901667   -0.05962636328916793
0.09037436401622498   0.04135136485000195   0.04870190856201068
0.09037436401622498   0.04135136485000195   0.04870190856201068
0.09037436401622498   0.04135136485000195   0.04870190856201068
0.09037436401622498   0.04135136485000195   0.04870190856201068
0.35109718815613894   -0.022710346090990735   -0.07812543143494496
0.35109718815613894   -0.022710346090990735   -0.07812543143494496
0.35109718815613894   -0.022710346090990735   -0.07812543143494496
0.35109718815613894   -0.022710346090990735   -0.07812543143494496
0.19228513691464985   -0.0016428039249065662   -0.016881483918288046
0.19228513691464985   -0.0016428039249065662   -0.016881483918288046
0.19228513691464985   -0.0016428039249065662   -0.016881483918288046
0.19228513691464985   -0.0016428039249065662   -0.016881483918288046
0.4029713579716662   0.10486449686585553   0.05367057468583727
0.4029713579716662   0.10486449686585553   0.05367057468583727
0.4029713579716662   0.10486449686585553   0.05367057468583727
0.4029713579716662   0.10486449686585553   0.05367057468583727
0.04158435680691951   -0.08313931550062319   -0.07075744713388778
0.04158435680691951   -0.08313931550062319   -0.07075744713388778
0.04158435680691951   -0.08313931550062319   -0.07075744713388778
0.04158435680691951   -0.08313931550062319   -0.07075744713388778
0.11569675534317894   0.07369135312548317   0.042145253180562704
0.11569675534317894   0.07369135312548317   0.042145253180562704
0.11569675534317894   0.07369135312548317   0.042145253180562704
0.11569675534317894   0.07369135312548317   0.042145253180562704
0.4173297172687675   0.021852992033665447   -0.08616443748831051
0.4173297172687675   0.021852992033665447   -0.08616443748831051
0.4173297172687675   0.021852992033665447   -0.08616443748831051
0.4173297172687675   0.021852992033665447   -0.08616443748831051
0.2301088492462944   0.022977241466089256   0.0011587603174372475
0.2301088492462944   0.022977241466089256   0.0011587603174372475
0.2301088492462944   0.022977241466089256   0.0011587603174372475
0.2301088492462944   0.022977241466089256   0.0011587603174372475
0.039844477038874865   0.01254889718321792   0.05122363625435132
0.039844477038874865   0.01254889718321792   0.05122363625435132
0.039844477038874865   0.01254889718321792   0.05122363625435132
0.039844477038874865   0.01254889718321792   0.05122363625435132
-0.2748000057112851   -0.1030419243992591   -0.02288664899740251
-0.2748000057112851   -0.1030419243992591   -0.02288664899740251
-0.2748000057112851   -0.1030419243992591   -0.02288664899740251
-0.2748000057112851   -0.1030419243992591   -0.02288664899740251
-0.22969079889511948   -0.014947248711256429   0.023422841182839247
-0.22969079889511948   -0.014947248711256429   0.023422841182839247
-0.22969079889511948   -0.014947248711256429   0.023422841182839247
-0.22969079889511948   -0.014947248711256429   0.023422841182839247
0.041849537180229476   -0.011902318887598797   -0.018196119711782716
0.041849537180229476   -0.011902318887598797   -0.018196119711782716
0.041849537180229476   -0.011902318887598797   -0.018196119711782716
0.041849537180229476   -0.011902318887598797   -0.018196119711782716
-0.10796138545162556   -0.026696713490973155   -0.017291369508868074
-0.10796138545162556   -0.026696713490973155   -0.017291369508868074
-0.10796138545162556   -0.026696713490973155   -0.017291369508868074
-0.10796138545162556   -0.026696713490973155   -0.017291369508868074
0.06670555700566419   0.04873648861491481   0.04544517191288109
0.06670555700566419   0.04873648861491481   0.04544517191288109
0.06670555700566419   0.04873648861491481   0.04544517191288109
0.06670555700566419   0.04873648861491481   0.04544517191288109
-0.2522549662317094   -0.07329420372491952   -0.031051040486447412
-0.2522549662317094   -0.07329420372491952   -0.031051040486447412
-0.2522549662317094   -0.07329420372491952   -0.031051040486447412
-0.2522549662317094   -0.07329420372491952   -0.031051040486447412
-0.2058985414855972   0.019218439924500397   0.016557023304661227
-0.2058985414855972   0.019218439924500397   0.016557023304661227
-0.2058985414855972   0.019218439924500397   0.016557023304661227
-0.2058985414855972   0.019218439924500397   0.016557023304661227
0.07154690725926094   0.020537448014998832   -0.02462145838780641
0.07154690725926094   0.020537448014998832   -0.02462145838780641
0.07154690725926094   0.020537448014998832   -0.02462145838780641
0.07154690725926094   0.020537448014998832   -0.02462145838780641
-0.0827449698427768   0.003455721374455673   -0.0020922649340935056
-0.0827449698427768   0.003455721374455673   -0.0020922649340935056
-0.0827449698427768   0.003455721374455673   -0.0020922649340935056
-0.0827449698427768   0.003455721374455673   -0.0020922649340935056
0.09744700343966882   0.0847161986287231   0.040700271900508664
0.09744700343966882   0.0847161986287231   0.040700271900508664
0.09744700343966882   0.0847161986287231   0.040700271900508664
0.09744700343966882   0.0847161986287231   0.040700271900508664
-0.22959377800269162   -0.04275545102590532   -0.03994526833040527
-0.22959377800269162   -0.04275545102590532   -0.03994526833040527
-0.22959377800269162   -0.04275545102590532   -0.03994526833040527
-0.22959377800269162   -0.04275545102590532   -0.03994526833040527
-0.18196610174949512   0.05784319725892145   0.010011976650961561
-0.18196610174949512   0.05784319725892145   0.010011976650961561
-0.18196610174949512   0.05784319725892145   0.010011976650961561
-0.18196610174949512   0.05784319725892145   0.010011976650961561
0.09770218432652032   0.0573081414604996   -0.03144439023774306
0.09770218432652032   0.0573081414604996   -0.03144439023774306
0.09770218432652032   0.0573081414604996   -0.03144439023774306
0.09770218432652032   0.0573081414604996   -0.03144439023774306
-0.05487126997648032   0.03673335135275845   0.01410674842878782
-0.05487126997648032   0.03673335135275845   0.01410674842878782
-0.05487126997648032   0.03673335135275845   0.01410674842878782
-0.05487126997648032   0.03673335135275845   0.01410674842878782
-0.24988827574352068   -0.01978559926103819   0.018415675703202652
-0.24988827574352068   -0.01978559926103819   0.018415675703202652
-0.24988827574352068   -0.01978559926103819   0.018415675703202652
-0.24988827574352068   -0.01978559926103819   0.018415675703202652
-0.5375954857023315   -0.07314960787997715   0.004763389587291682
-0.5375954857023315   -0.07314960787997715   0.004763389587291682
-0.5375954857023315   -0.07314960787997715   0.004763389587291682
-0.5375954857023315   -0.07314960787997715   0.004763389587291682
-0.5167513328646798   -0.04582385275144513   -0.010132354767955862
-0.5167513328646798   -0.04582385275144513   -0.010132354767955862
-0.5167513328646798   -0.04582385275144513   -0.010132354767955862
-0.5167513328646798   -0.04582385275144513   -0.010132354767955862
-0.22528203359588206   0.01907840721853321   0.011441011749236556
-0.22528203359588206   0.01907840721853321   0.011441011749236556
-0.22528203359588206   0.01907840721853321   0.011441011749236556
-0.22528203359588206   0.01907840721853321   0.011441011749236556
-0.3829384749944966   -0.0274686752287372   -0.01005854605784151
-0.3829384749944966   -0.0274686752287372   -0.01005854605784151
-0.3829384749944966   -0.0274686752287372   -0.01005854605784151
-0.3829384749944966   -0.0274686752287372   -0.01005854605784151
-0.22558270587938378   0.016866295924381262   0.012149761625880086
-0.22558270587938378   0.016866295924381262   0.012149761625880086
-0.22558270587938378   0.016866295924381262   0.012149761625880086
-0.22558270587938378   0.016866295924381262   0.012149761625880086
-0.514486307271675   -0.04164738814779008   -0.002983691406586976
-0.514486307271675   -0.04164738814779008   -0.002983691406586976
-0.514486307271675   -0.04164738814779008   -0.002983691406586976
-0.514486307271675   -0.04164738814779008   -0.002983691406586976
-0.491736267726164   -0.008210686117384972   -0.015934078662612185
-0.491736267726164   -0.008210686117384972   -0.015934078662612185
-0.491736267726164   -0.008210686117384972   -0.015934078662612185
-0.491736267726164   -0.008210686117384972   -0.015934078662612185
-0.2017248352407904   0.05244180666373258   0.0042021877894668075
-0.2017248352407904   0.05244180666373258   0.0042021877894668075
-0.2017248352407904   0.05244180666373258   0.0042021877894668075
-0.2017248352407904   0.05244180666373258   0.0042021877894668075
-0.3571131263376009   0.005573439450451814   0.005250782566481024
-0.3571131263376009   0.005573439450451814   0.005250782566481024
-0.3571131263376009   0.005573439450451814   0.005250782566481024
-0.3571131263376009   0.005573439450451814   0.005250782566481024
-0.20112627661563182   0.054187904460868644   0.005448883118123658
-0.20112627661563182   0.054187904460868644   0.005448883118123658
-0.20112627661563182   0.054187904460868644   0.005448883118123658
-0.20112627661563182   0.054187904460868644   0.005448883118123658
-0.4907661407876347   -0.008388098350838924   -0.01090603173651582
-0.4907661407876347   -0.008388098350838924   -0.01090603173651582
-0.4907661407876347   -0.008388098350838924   -0.01090603173651582
-0.4907661407876347   -0.008388098350838924   -0.01090603173651582
-0.46773154371771686   0.029503378047993523   -0.022557511903277185
-0.46773154371771686   0.029503378047993523   -0.022557511903277185
-0.46773154371771686   0.029503378047993523   -0.022557511903277185
-0.46773154371771686   0.029503378047993523   -0.022557511903277185
-0.1791826926288466   0.08590348380298735   -0.004131264289857731
-0.1791826926288466   0.08590348380298735   -0.004131264289857731
-0.1791826926288466   0.08590348380298735   -0.004131264289857731
-0.1791826926288466   0.08590348380298735   -0.004131264289857731
-0.3326319914585366   0.038523632726925675   0.019560682212228262
-0.3326319914585366   0.038523632726925675   0.019560682212228262
-0.3326319914585366   0.038523632726925675   0.019560682212228262
-0.3326319914585366   0.038523632726925675   0.019560682212228262
-0.5373248072859155   -0.051625455923905994   -0.015407370286695171
-0.5373248072859155   -0.051625455923905994   -0.015407370286695171
-0.5373248072859155   -0.051625455923905994   -0.015407370286695171
-0.5373248072859155   -0.051625455923905994   -0.015407370286695171
-0.797578036664762   -0.045058398287577045   0.03191762565886303
-0.797578036664762   -0.045058398287577045   0.03191762565886303
-0.797578036664762   -0.045058398287577045   0.03191762565886303
-0.797578036664762   -0.045058398287577045   0.03191762565886303
-0.7977603403031007   -0.0760515757750405   -0.042877964646422365
-0.7977603403031007   -0.0760515757750405   -0.042877964646422365
-0.7977603403031007   -0.0760515757750405   -0.042877964646422365
-0.7977603403031007   -0.0760515757750405   -0.042877964646422365
-0.48803008137096315   0.04861971493301792   0.039030335016164354
-0.48803008137096315   0.04861971493301792   0.039030335016164354
-0.48803008137096315   0.04861971493301792   0.039030335016164354
-0.48803008137096315   0.04861971493301792   0.039030335016164354
-0.6515134151054712   -0.02783206938554461   -0.004227945922091178
-0.6515134151054712   -0.02783206938554461   -0.004227945922091178
-0.6515134151054712   -0.02783206938554461   -0.004227945922091178
-0.6515134151054712   -0.02783206938554461   -0.004227945922091178
-0.5128080467006222   -0.014777899554235085   -0.021461877144873836
-0.5128080467006222   -0.014777899554235085   -0.021461877144873836
-0.5128080467006222   -0.014777899554235085   -0.021461877144873836
-0.5128080467006222   -0.014777899554235085   -0.021461877144873836
-0.7713605567416588   -0.011032143055997895   0.024101520441750415
-0.7713605567416588   -0.011032143055997895   0.024101520441750415
-0.7713605567416588   -0.011032143055997895   0.024101520441750415
-0.7713605567416588   -0.011032143055997895   0.024101520441750415
-0.7664368713194434   -0.040166317790276684   -0.04770840211726709
-0.7664368713194434   -0.040166317790276684   -0.04770840211726709
-0.7664368713194434   -0.040166317790276684   -0.04770840211726709
-0.7664368713194434   -0.040166317790276684   -0.04770840211726709
-0.4648977143414562   0.07898708111210583   0.031060921031435956
-0.4648977143414562   0.07898708111210583   0.031060921031435956
-0.4648977143414562   0.07898708111210583   0.031060921031435956
-0.4648977143414562   0.07898708111210583   0.031060921031435956
-0.6205589648072956   0.005473027635365391   0.011543236358936004
-0.6205589648072956   0.005473027635365391   0.011543236358936004
-0.6205589648072956   0.005473027635365391   0.011543236358936004
-0.6205589648072956   0.005473027635365391   0.011543236358936004
-0.4888551113758121   0.019119931680212504   -0.028858914708452442
-0.4888551113758121   0.019119931680212504   -0.028858914708452442
-0.4888551113758121   0.019119931680212504   -0.028858914708452442
-0.4888551113758121   0.019119931680212504   -0.028858914708452442
-0.7406551073965648   0.02152519853013901   0.019508901176710447
-0.7406551073965648   0.02152519853013901   0.019508901176710447
-0.7406551073965648   0.02152519853013901   0.019508901176710447
-0.7406551073965648   0.02152519853013901   0.019508901176710447
-0.7384121527984306   -0.0010109187975965717   -0.051351660753652675
-0.7384121527984306   -0.0010109187975965717   -0.051351660753652675
-0.7384121527984306   -0.0010109187975965717   -0.051351660753652675
-0.7384121527984306   -0.0010109187975965717   -0.051351660753652675
-0.4420053331231762   0.11254430804239655   0.02303261107502297
-0.4420053331231762   0.11254430804239655   0.02303261107502297
-0.4420053331231762   0.11254430804239655   0.02303261107502297
-0.4420053331231762   0.11254430804239655   0.02303261107502297
-0.5973568881961977   0.03655013568655202   0.025682933690732934
-0.5973568881961977   0.03655013568655202   0.025682933690732934
-0.5973568881961977   0.03655013568655202   0.025682933690732934
-0.5973568881961977   0.03655013568655202   0.025682933690732934
-0.8191404771439478   -0.07417441513754969   -0.04677855988709362
-0.8191404771439478   -0.07417441513754969   -0.04677855988709362
-0.8191404771439478   -0.07417441513754969   -0.04677855988709362
-0.8191404771439478   -0.07417441513754969   -0.04677855988709362
-1.0938528103777172   -0.01915346989265798   0.06906730991462287
-1.0938528103777172   -0.01915346989265798   0.06906730991462287
-1.0938528103777172   -0.01915346989265798   0.06906730991462287
-1.0938528103777172   -0.01915346989265798   0.06906730991462287
-1.0785039912348238   -0.09911374864845296   -0.06239924040399035
-1.0785039912348238   -0.09911374864845296   -0.06239924040399035
-1.0785039912348238   -0.09911374864845296   -0.06239924040399035
-1.0785039912348238   -0.09911374864845296   -0.06239924040399035
-0.7439289926928624   0.08214006959914227   0.06808712803058682
-0.7439289926928624   0.08214006959914227   0.06808712803058682
-0.7439289926928624   0.08214006959914227   0.06808712803058682
-0.7439289926928624   0.08214006959914227   0.06808712803058682
-0.893606925614567   -0.015844372201656215   0.007383886326973864
-0.893606925614567   -0.015844372201656215   0.007383886326973864
-0.893606925614567   -0.015844372201656215   0.007383886326973864
-0.893606925614567   -0.015844372201656215   0.007383886326973864
-0.7925607209697911   -0.040026279388025665   -0.05290516436688643
-0.7925607209697911   -0.040026279388025665   -0.05290516436688643
-0.7925607209697911   -0.040026279388025665   -0.05290516436688643
-0.7925607209697911   -0.040026279388025665   -0.05290516436688643
-1.0284018400103376   0.024523023286270235   0.0644747437837019
-1.0284018400103376   0.024523023286270235   0.0644747437837019
-1.0284018400103376   0.024523023286270235   0.0644747437837019
-1.0284018400103376   0.024523023286270235   0.0644747437837019
-1.028981574906869   -0.07781856970319515   -0.07425840725658449
-1.028981574906869   -0.07781856970319515   -0.07425840725658449
-1.028981574906869   -0.07781856970319515   -0.07425840725658449
-1.028981574906869   -0.07781856970319515   -0.07425840725658449
-0.7184085900854715   0.09614028656510232   0.05612639969720715
-0.7184085900854715   0.09614028656510232   0.05612639969720715
-0.7184085900854715   0.09614028656510232   0.05612639969720715
-0.7184085900854715   0.09614028656510232   0.05612639969720715
-0.8654722735654874   0.00649752054063224   0.020125956590845734
-0.8654722735654874   0.00649752054063224   0.020125956590845734
-0.8654722735654874   0.00649752054063224   0.020125956590845734
-0.8654722735654874   0.00649752054063224   0.020125956590845734
-0.7655792580713012   -0.0225031296817709   -0.06108352398506166
-0.7655792580713012   -0.0225031296817709   -0.06108352398506166
-0.7655792580713012   -0.0225031296817709   -0.06108352398506166
-0.7655792580713012   -0.0225031296817709   -0.06108352398506166
-0.9800110296580935   0.04262472380662796   0.05015102547745737
-0.9800110296580935   0.04262472380662796   0.05015102547745737
-0.9800110296580935   0.04262472380662796   0.05015102547745737
-0.9800110296580935   0.04262472380662796   0.05015102547745737
-0.9679955025332885   -0.046002476554661165   -0.08280111445357757
-0.9679955025332885   -0.046002476554661165   -0.08280111445357757
-0.9679955025332885   -0.046002476554661165   -0.08280111445357757
-0.9679955025332885   -0.046002476554661165   -0.08280111445357757
-0.6959746983257266   0.11307062460618397   0.04675406820608709
-0.6959746983257266   0.11307062460618397   0.04675406820608709
-0.6959746983257266   0.11307062460618397   0.04675406820608709
-0.6959746983257266   0.11307062460618397   0.04675406820608709
-0.8129276659252557   0.027435802974734413   0.03806231367900947
-0.8129276659252557   0.027435802974734413   0.03806231367900947
-0.8129276659252557   0.027435802974734413   0.03806231367900947
-0.8129276659252557   0.027435802974734413   0.03806231367900947
0.8691952989361077   0.07896334625441753   0.07547891618318188
0.8691952989361077   0.07896334625441753   0.07547891618318188
0.8691952989361077   0.07896334625441753   0.07547891618318188
0.8691952989361077   0.07896334625441753   0.07547891618318188
0.3184360990126447   -0.14464848726204876   -0.049686839500734
0.3184360990126447   -0.14464848726204876   -0.049686839500734
0.3184360990126447   -0.14464848726204876   -0.049686839500734
0.3184360990126447   -0.14464848726204876   -0.049686839500734
0.39334366575901575   -0.0008390081899675716   0.05431536814350002
0.39334366575901575   -0.0008390081899675716   0.05431536814350002
0.39334366575901575   -0.0008390081899675716   0.05431536814350002
0.39334366575901575   -0.0008390081899675716   0.05431536814350002
0.8850432185224486   -0.02018559950204002   -0.06342872301869373
0.8850432185224486   -0.02018559950204002   -0.06342872301869373
0.8850432185224486   -0.02018559950204002   -0.06342872301869373
0.8850432185224486   -0.02018559950204002   -0.06342872301869373
0.5785824540897113   -0.026211970309037283   -0.05589910049448909
0.5785824540897113   -0.026211970309037283   -0.05589910049448909
0.5785824540897113   -0.026211970309037283   -0.05589910049448909
0.5785824540897113   -0.026211970309037283   -0.05589910049448909
0.9369140881355396   0.11013333980464986   0.06560668574006329
0.9369140881355396   0.11013333980464986   0.06560668574006329
0.9369140881355396   0.11013333980464986   0.06560668574006329
0.9369140881355396   0.11013333980464986   0.06560668574006329
0.34514132386848106   -0.12748941977409092   -0.06004592972504221
0.34514132386848106   -0.12748941977409092   -0.06004592972504221
0.34514132386848106   -0.12748941977409092   -0.06004592972504221
0.34514132386848106   -0.12748941977409092   -0.06004592972504221
0.4229313242270086   0.01624078592783422   0.044796092588310195
0.4229313242270086   0.01624078592783422   0.044796092588310195
0.4229313242270086   0.01624078592783422   0.044796092588310195
0.4229313242270086   0.01624078592783422   0.044796092588310195
0.9389437718438693   -0.0007707695962598515   -0.07991816196429574
0.9389437718438693   -0.0007707695962598515   -0.07991816196429574
0.9389437718438693   -0.0007707695962598515   -0.07991816196429574
0.9389437718438693   -0.0007707695962598515   -0.07991816196429574
0.6348515483955279   -0.005236541866863786   -0.033846846044296344
0.6348515483955279   -0.005236541866863786   -0.033846846044296344
0.6348515483955279   -0.005236541866863786   -0.033846846044296344
0.6348515483955279   -0.005236541866863786   -0.033846846044296344
0.9913945988444165   0.13107271918507382   0.0504924842571002
0.9913945988444165   0.13107271918507382   0.0504924842571002
0.9913945988444165   0.13107271918507382   0.0504924842571002
0.9913945988444165   0.13107271918507382   0.0504924842571002
0.374386465729157   -0.11169673435081447   -0.0699906796222953
0.374386465729157   -0.11169673435081447   -0.0699906796222953
0.374386465729157   -0.11169673435081447   -0.0699906796222953
0.374386465729157   -0.11169673435081447   -0.0699906796222953
0.4524772464352226   0.053880400148956314   0.038825073921688734
0.4524772464352226   0.053880400148956314   0.038825073921688734
0.4524772464352226   0.053880400148956314   0.038825073921688734
0.4524772464352226   0.053880400148956314   0.038825073921688734
1.0097159404249696   0.04986512133128246   -0.08621498008711023
1.0097159404249696   0.04986512133128246   -0.08621498008711023
1.0097159404249696   0.04986512133128246   -0.08621498008711023
1.0097159404249696   0.04986512133128246   -0.08621498008711023
0.6696150061773213   0.020273253366231883   -0.01476145213646064
0.6696150061773213   0.020273253366231883   -0.01476145213646064
0.6696150061773213   0.020273253366231883   -0.01476145213646064
0.6696150061773213   0.020273253366231883   -0.01476145213646064
0.37820069462027134   0.04419422976800168   0.06029342150734498
0.37820069462027134   0.04419422976800168   0.06029342150734498
0.37820069462027134   0.04419422976800168   0.06029342150734498
0.37820069462027134   0.04419422976800168   0.06029342150734498
-0.18409420245118624   -0.1349581433217303   -0.026022742836973603
-0.18409420245118624   -0.1349581433217303   -0.026022742836973603
-0.18409420245118624   -0.1349581433217303   -0.026022742836973603
-0.18409420245118624   -0.1349581433217303   -0.026022742836973603
-0.13255629346148862   -0.03948975563240016   0.01827252720592857
-0.13255629346148862   -0.03948975563240016   0.01827252720592857
-0.13255629346148862   -0.03948975563240016   0.01827252720592857
-0.13255629346148862   -0.03948975563240016   0.01827252720592857
0.381250076314729   0.001002299433344886   -0.007993886701238403
0.381250076314729   0.001002299433344886   -0.007993886701238403
0.381250076314729   0.001002299433344886   -0.007993886701238403
0.381250076314729   0.001002299433344886   -0.007993886701238403
0.10572564284709836   -0.028561650855272035   -0.023829747453086275
0.10572564284709836   -0.028561650855272035   -0.023829747453086275
0.10572564284709836   -0.028561650855272035   -0.023829747453086275
0.10572564284709836   -0.028561650855272035   -0.023829747453086275
0.4085895120136918   0.07585501522236064   0.05385057600455213
0.4085895120136918   0.07585501522236064   0.05385057600455213
0.4085895120136918   0.07585501522236064   0.05385057600455213
0.4085895120136918   0.07585501522236064   0.05385057600455213
-0.15768836449254595   -0.11213510675351238   -0.03474247682824971
-0.15768836449254595   -0.11213510675351238   -0.03474247682824971
-0.15768836449254595   -0.11213510675351238   -0.03474247682824971
-0.15768836449254595   -0.11213510675351238   -0.03474247682824971
-0.1049899549847274   -0.007534866931928095   0.011553829121547277
-0.1049899549847274   -0.007534866931928095   0.011553829121547277
-0.1049899549847274   -0.007534866931928095   0.011553829121547277
-0.1049899549847274   -0.007534866931928095   0.011553829121547277
0.41367928431753226   0.029680943874317717   -0.014904264905551003
0.41367928431753226   0.029680943874317717   -0.014904264905551003
0.41367928431753226   0.029680943874317717   -0.014904264905551003
0.41367928431753226   0.029680943874317717   -0.014904264905551003
0.13236371092142526   -0.0033072737307213197   -0.009478002011085139
0.13236371092142526   -0.0033072737307213197   -0.009478002011085139
0.13236371092142526   -0.0033072737307213197   -0.009478002011085139
0.13236371092142526   -0.0033072737307213197   -0.009478002011085139
0.44211158248352217   0.109135257247629   0.04780291255108318
0.44211158248352217   0.109135257247629   0.04780291255108318
0.44211158248352217   0.109135257247629   0.04780291255108318
0.44211158248352217   0.109135257247629   0.04780291255108318
-0.13120951827156793   -0.0847764454260907   -0.04230240881849288
-0.13120951827156793   -0.0847764454260907   -0.04230240881849288
-0.13120951827156793   -0.0847764454260907   -0.04230240881849288
-0.13120951827156793   -0.0847764454260907   -0.04230240881849288
-0.07777219392370964   0.02947517874595485   0.0048651744397631615
-0.07777219392370964   0.02947517874595485   0.0048651744397631615
-0.07777219392370964   0.02947517874595485   0.0048651744397631615
-0.07777219392370964   0.02947517874595485   0.0048651744397631615
0.44244531295318784   0.06382114163983446   -0.021275334979359347
0.44244531295318784   0.06382114163983446   -0.021275334979359347
0.44244531295318784   0.06382114163983446   -0.021275334979359347
0.44244531295318784   0.06382114163983446   -0.021275334979359347
0.1652506983541958   0.027655381999902702   0.0072748494040606095
0.1652506983541958   0.027655381999902702   0.0072748494040606095
0.1652506983541958   0.027655381999902702   0.0072748494040606095
0.1652506983541958   0.027655381999902702   0.0072748494040606095
-0.14485932014167888   0.009569710327051346   0.02562381506178158
-0.14485932014167888   0.009569710327051346   0.02562381506178158
-0.14485932014167888   0.009569710327051346   0.02562381506178158
-0.14485932014167888   0.009569710327051346   0.02562381506178158
-0.6766448296956945   -0.1191451023983236   -0.0034269233175674707
-0.6766448296956945   -0.1191451023983236   -0.0034269233175674707
-0.6766448296956945   -0.1191451023983236   -0.0034269233175674707
-0.6766448296956945   -0.1191451023983236   -0.0034269233175674707
-0.6439492587984206   -0.07012367589896659   -0.015902178635724025
-0.6439492587984206   -0.07012367589896659   -0.015902178635724025
-0.6439492587984206   -0.07012367589896659   -0.015902178635724025
-0.6439492587984206   -0.07012367589896659   -0.015902178635724025
-0.12137075435940167   0.017664076365191635   0.017046390718767703
-0.12137075435940167   0.017664076365191635   0.017046390718767703
-0.12137075435940167   0.017664076365191635   0.017046390718767703
-0.12137075435940167   0.017664076365191635   0.017046390718767703
-0.3974048646061417   -0.0366399177871257   -0.014874367363438558
-0.3974048646061417   -0.0366399177871257   -0.014874367363438558
-0.3974048646061417   -0.0366399177871257   -0.014874367363438558
-0.3974048646061417   -0.0366399177871257   -0.014874367363438558
-0.11592944055889903   0.042536775577814816   0.019380260508661526
-0.11592944055889903   0.042536775577814816   0.019380260508661526
-0.11592944055889903   0.042536775577814816   0.019380260508661526
-0.11592944055889903   0.042536775577814816   0.019380260508661526
-0.6479184140146229   -0.09352421652728891   -0.01234741408841378
-0.6479184140146229   -0.09352421652728891   -0.01234741408841378
-0.6479184140146229   -0.09352421652728891   -0.01234741408841378
-0.6479184140146229   -0.09352421652728891   -0.01234741408841378
-0.6135685539649217   -0.035064070064711156   -0.021483477128620553
-0.6135685539649217   -0.035064070064711156   -0.021483477128620553
-0.6135685539649217   -0.035064070064711156   -0.021483477128620553
-0.6135685539649217   -0.035064070064711156   -0.021483477128620553
-0.09453881068894306   0.046633523654469655   0.009641160014067271
-0.09453881068894306   0.046633523654469655   0.009641160014067271
-0.09453881068894306   0.046633523654469655   0.009641160014067271
-0.09453881068894306   0.046633523654469655   0.009641160014067271
-0.36676389853256885   -0.007304930660668077   -0.00022929127169054112
-0.36676389853256885   -0.007304930660668077   -0.00022929127169054112
-0.36676389853256885   -0.007304930660668077   -0.00022929127169054112
-0.36676389853256885   -0.007304930660668077   -0.00022929127169054112
-0.08797335446146975   0.07681004851907003   0.012291916286833404
-0.08797335446146975   0.07681004851907003   0.012291916286833404
-0.08797335446146975   0.07681004851907003   0.012291916286833404
-0.08797335446146975   0.07681004851907003   0.012291916286833404
-0.6187661487680843   -0.06387273350500076   -0.01866278770414358
-0.6187661487680843   -0.06387273350500076   -0.01866278770414358
-0.6187661487680843   -0.06387273350500076   -0.01866278770414358
-0.6187661487680843   -0.06387273350500076   -0.01866278770414358
-0.5852896460041203   -0.00012320482919259135   -0.028157754075483668
-0.5852896460041203   -0.00012320482919259135   -0.028157754075483668
-0.5852896460041203   -0.00012320482919259135   -0.028157754075483668
-0.5852896460041203   -0.00012320482919259135   -0.028157754075483668
-0.06892480578712229   0.07622289258753362   0.002354401281121115
-0.06892480578712229   0.07622289258753362   0.002354401281121115
-0.06892480578712229   0.07622289258753362   0.002354401281121115
-0.06892480578712229   0.07622289258753362   0.002354401281121115
-0.3386148964974636   0.021919183144826243   0.013707482460189158
-0.3386148964974636   0.021919183144826243   0.013707482460189158
-0.3386148964974636   0.021919183144826243   0.013707482460189158
-0.3386148964974636   0.021919183144826243   0.013707482460189158
-0.6593154461090867   -0.02581202238732   -0.010113085395527154
-0.6593154461090867   -0.02581202238732   -0.010113085395527154
-0.6593154461090867   -0.02581202238732   -0.010113085395527154
-0.6593154461090867   -0.02581202238732   -0.010113085395527154
-1.1578938377594212   -0.09649933867944546   0.022390654458237236
-1.1578938377594212   -0.09649933867944546   0.022390654458237236
-1.1578938377594212   -0.09649933867944546   0.022390654458237236
-1.1578938377594212   -0.09649933867944546   0.022390654458237236
-1.1419544320682005   -0.09954210100262942   -0.047854393964835144
-1.1419544320682005   -0.09954210100262942   -0.047854393964835144
-1.1419544320682005   -0.09954210100262942   -0.047854393964835144
-1.1419544320682005   -0.09954210100262942   -0.047854393964835144
-0.6092045556363205   0.04483959108486915   0.04285807019094588
-0.6092045556363205   0.04483959108486915   0.04285807019094588
-0.6092045556363205   0.04483959108486915   0.04285807019094588
-0.6092045556363205   0.04483959108486915   0.04285807019094588
-0.8859199941548959   -0.03867125343646527   -0.005182696799771472
-0.8859199941548959   -0.03867125343646527   -0.005182696799771472
-0.8859199941548959   -0.03867125343646527   -0.005182696799771472
-0.8859199941548959   -0.03867125343646527   -0.005182696799771472
-0.6278648999124028   0.009771560167148113   -0.015375620271744904
-0.6278648999124028   0.009771560167148113   -0.015375620271744904
-0.6278648999124028   0.009771560167148113   -0.015375620271744904
-0.6278648999124028   0.009771560167148113   -0.015375620271744904
-1.1232246413672222   -0.06440462366001123   0.010657082197445725
-1.1232246413672222   -0.06440462366001123   0.010657082197445725
-1.1232246413672222   -0.06440462366001123   0.010657082197445725
-1.1232246413672222   -0.06440462366001123   0.010657082197445725
-1.1022642930848234   -0.06528435258957432   -0.05292966873359775
-1.1022642930848234   -0.06528435258957432   -0.05292966873359775
-1.1022642930848234   -0.06528435258957432   -0.05292966873359775
-1.1022642930848234   -0.06528435258957432   -0.05292966873359775
-0.5809156502249047   0.07246582460980933   0.03425114689694952
-0.5809156502249047   0.07246582460980933   0.03425114689694952
-0.5809156502249047   0.07246582460980933   0.03425114689694952
-0.5809156502249047   0.07246582460980933   0.03425114689694952
-0.8455529761584674   -0.006245149588695625   0.009500931133883873
-0.8455529761584674   -0.006245149588695625   0.009500931133883873
-0.8455529761584674   -0.006245149588695625   0.009500931133883873
-0.8455529761584674   -0.006245149588695625   0.009500931133883873
-0.5984324783999265   0.041578758517045095   -0.022445927885397385
-0.5984324783999265   0.041578758517045095   -0.022445927885397385
-0.5984324783999265   0.041578758517045095   -0.022445927885397385
-0.5984324783999265   0.041578758517045095   -0.022445927885397385
-1.0838271247299016   -0.03347694631691053   0.0074487667683470135
-1.0838271247299016   -0.03347694631691053   0.0074487667683470135
-1.0838271247299016   -0.03347694631691053   0.0074487667683470135
-1.0838271247299016   -0.03347694631691053   0.0074487667683470135
-1.066773234516238   -0.028145570043615398   -0.055648877961975055
-1.066773234516238   -0.028145570043615398   -0.055648877961975055
-1.066773234516238   -0.028145570043615398   -0.055648877961975055
-1.066773234516238   -0.028145570043615398   -0.055648877961975055
-0.5535168808707794   0.10285104515476298   0.02773182160727014
-0.5535168808707794   0.10285104515476298   0.02773182160727014
-0.5535168808707794   0.10285104515476298   0.02773182160727014
-0.5535168808707794   0.10285104515476298   0.02773182160727014
-0.818218355593904   0.021482581493629582   0.022170013787080577
-0.818218355593904   0.021482581493629582   0.022170013787080577
-0.818218355593904   0.021482581493629582   0.022170013787080577
-0.818218355593904   0.021482581493629582   0.022170013787080577
-1.162788850225397   -0.05539240762945161   -0.04319133892163501
-1.162788850225397   -0.05539240762945161   -0.04319133892163501
-1.162788850225397   -0.05539240762945161   -0.04319133892163501
-1.162788850225397   -0.05539240762945161   -0.04319133892163501
-1.657132872422554   -0.05973825551116957   0.0748549859766332
-1.657132872422554   -0.05973825551116957   0.0748549859766332
-1.657132872422554   -0.05973825551116957   0.0748549859766332
-1.657132872422554   -0.05973825551116957   0.0748549859766332
-1.6251747148100286   -0.11916643315528114   -0.05719966362436406
-1.6251747148100286   -0.11916643315528114   -0.05719966362436406
-1.6251747148100286   -0.11916643315528114   -0.05719966362436406
-1.6251747148100286   -0.11916643315528114   -0.05719966362436406
-1.0787126406777794   0.09273808364515476   0.07607437833948562
-1.0787126406777794   0.09273808364515476   0.07607437833948562
-1.0787126406777794   0.09273808364515476   0.07607437833948562
-1.0787126406777794   0.09273808364515476   0.07607437833948562
-1.3197078916005993   -0.016316134815362204   0.015259783431403218
-1.3197078916005993   -0.016316134815362204   0.015259783431403218
-1.3197078916005993   -0.016316134815362204   0.015259783431403218
-1.3197078916005993   -0.016316134815362204   0.015259783431403218
-1.1255588970460957   -0.017405917374169216   -0.048012902482768134
-1.1255588970460957   -0.017405917374169216   -0.048012902482768134
-1.1255588970460957   -0.017405917374169216   -0.048012902482768134
-1.1255588970460957   -0.017405917374169216   -0.048012902482768134
-1.5775612071777498   -0.008255180871990897   0.06995662225372769
-1.5775612071777498   -0.008255180871990897   0.06995662225372769
-1.5775612071777498   -0.008255180871990897   0.06995662225372769
-1.5775612071777498   -0.008255180871990897   0.06995662225372769
-1.565141368377695   -0.0979032316064462   -0.06735841286831201
-1.565141368377695   -0.0979032316064462   -0.06735841286831201
-1.565141368377695   -0.0979032316064462   -0.06735841286831201
-1.565141368377695   -0.0979032316064462   -0.06735841286831201
-1.045395783855387   0.10585395532682848   0.06027456949718071
-1.045395783855387   0.10585395532682848   0.06027456949718071
-1.045395783855387   0.10585395532682848   0.06027456949718071
-1.045395783855387   0.10585395532682848   0.06027456949718071
-1.2886713952112627   0.006890530369244696   0.027489468021317298
-1.2886713952112627   0.006890530369244696   0.027489468021317298
-1.2886713952112627   0.006890530369244696   0.027489468021317298
-1.2886713952112627   0.006890530369244696   0.027489468021317298
-1.0895984299133339   -0.0002499186942137577   -0.05463478677151082
-1.0895984299133339   -0.0002499186942137577   -0.05463478677151082
-1.0895984299133339   -0.0002499186942137577   -0.05463478677151082
-1.0895984299133339   -0.0002499186942137577   -0.05463478677151082
-1.520175157561924   0.008964207172425964   0.05060520243164346
-1.520175157561924   0.008964207172425964   0.05060520243164346
-1.520175157561924   0.008964207172425964   0.05060520243164346
-1.520175157561924   0.008964207172425964   0.05060520243164346
-1.4995431206525323   -0.072343688538485   -0.07674907519045222
-1.4995431206525323   -0.072343688538485   -0.07674907519045222
-1.4995431206525323   -0.072343688538485   -0.07674907519045222
-1.4995431206525323   -0.072343688538485   -0.07674907519045222
-1.0161067759205789   0.11820801598259295   0.051329828990112264
-1.0161067759205789   0.11820801598259295   0.051329828990112264
-1.0161067759205789   0.11820801598259295   0.051329828990112264
-1.0161067759205789   0.11820801598259295   0.051329828990112264
-1.2225183483669197   0.026190764478845274   0.045954540776170824
-1.2225183483669197   0.026190764478845274   0.045954540776170824
-1.2225183483669197   0.026190764478845274   0.045954540776170824
-1.2225183483669197   0.026190764478845274   0.045954540776170824
1.4600116952484878   0.1090879357610949   0.07741967937914107
1.4600116952484878   0.1090879357610949   0.07741967937914107
1.4600116952484878   0.1090879357610949   0.07741967937914107
1.4600116952484878   0.1090879357610949   0.07741967937914107
0.6441502074857959   -0.17208338514843124   -0.03554570533715798
0.6441502074857959   -0.17208338514843124   -0.03554570533715798
0.6441502074857959   -0.17208338514843124   -0.03554570533715798
0.6441502074857959   -0.17208338514843124   -0.03554570533715798
0.7183646962924949   -0.030197754023711304   0.053189026602903554
0.7183646962924949   -0.030197754023711304   0.053189026602903554
0.7183646962924949   -0.030197754023711304   0.053189026602903554
0.7183646962924949   -0.030197754023711304   0.053189026602903554
1.4761861498687283   -0.0028487087854626725   -0.055735648676352154
1.4761861498687283   -0.0028487087854626725   -0.055735648676352154
1.4761861498687283   -0.0028487087854626725   -0.055735648676352154
1.4761861498687283   -0.0028487087854626725   -0.055735648676352154
1.0117252199183082   -0.0307304673704491   -0.07918519080333292
1.0117252199183082   -0.0307304673704491   -0.07918519080333292
1.0117252199183082   -0.0307304673704491   -0.07918519080333292
1.0117252199183082   -0.0307304673704491   -0.07918519080333292
1.527653006785491   0.13397674014892   0.06477318697306383
1.527653006785491   0.13397674014892   0.06477318697306383
1.527653006785491   0.13397674014892   0.06477318697306383
1.527653006785491   0.13397674014892   0.06477318697306383
0.6718389535149424   -0.16208208881888492   -0.04755535248967764
0.6718389535149424   -0.16208208881888492   -0.04755535248967764
0.6718389535149424   -0.16208208881888492   -0.04755535248967764
0.6718389535149424   -0.16208208881888492   -0.04755535248967764
0.7474130000669399   -0.014491701734263729   0.04300794912261421
0.7474130000669399   -0.014491701734263729   0.04300794912261421
0.7474130000669399   -0.014491701734263729   0.04300794912261421
0.7474130000669399   -0.014491701734263729   0.04300794912261421
1.5269099244037558   0.014472211602292895   -0.06965641376116347
1.5269099244037558   0.014472211602292895   -0.06965641376116347
1.5269099244037558   0.014472211602292895   -0.06965641376116347
1.5269099244037558   0.014472211602292895   -0.06965641376116347
1.075396256502694   -0.012213344065607534   -0.05385355337491195
1.075396256502694   -0.012213344065607534   -0.05385355337491195
1.075396256502694   -0.012213344065607534   -0.05385355337491195
1.075396256502694   -0.012213344065607534   -0.05385355337491195
1.57807777092544   0.15264222391901974   0.04801280653053131
1.57807777092544   0.15264222391901974   0.04801280653053131
1.57807777092544   0.15264222391901974   0.04801280653053131
1.57807777092544   0.15264222391901974   0.04801280653053131
0.700571251563949   -0.14833561603228684   -0.05735687909431679
0.700571251563949   -0.14833561603228684   -0.05735687909431679
0.700571251563949   -0.14833561603228684   -0.05735687909431679
0.700571251563949   -0.14833561603228684   -0.05735687909431679
0.773724059350686   0.027451019091960904   0.03770638979056556
0.773724059350686   0.027451019091960904   0.03770638979056556
0.773724059350686   0.027451019091960904   0.03770638979056556
0.773724059350686   0.027451019091960904   0.03770638979056556
1.5893029189666363   0.06514700337194729   -0.07295020133427253
1.5893029189666363   0.06514700337194729   -0.07295020133427253
1.5893029189666363   0.06514700337194729   -0.07295020133427253
1.5893029189666363   0.06514700337194729   -0.07295020133427253
1.0992565552403144   0.01270640887571875   -0.03631056660548048
1.0992565552403144   0.01270640887571875   -0.03631056660548048
1.0992565552403144   0.01270640887571875   -0.03631056660548048
1.0992565552403144   0.01270640887571875   -0.03631056660548048
0.7125902739490826   0.06374795740989432   0.0708232844209422
0.7125902739490826   0.06374795740989432   0.0708232844209422
0.7125902739490826   0.06374795740989432   0.0708232844209422
0.7125902739490826   0.06374795740989432   0.0708232844209422
-0.08785532363340226   -0.2120857488485339   -0.020233173203373138
-0.08785532363340226   -0.2120857488485339   -0.020233173203373138
-0.08785532363340226   -0.2120857488485339   -0.020233173203373138
-0.08785532363340226   -0.2120857488485339   -0.020233173203373138
-0.0239109268104336   -0.074822932979516   0.018040954359619794
-0.0239109268104336   -0.074822932979516   0.018040954359619794
-0.0239109268104336   -0.074822932979516   0.018040954359619794
-0.0239109268104336   -0.074822932979516   0.018040954359619794
0.7065964538263794   -0.039341800593358844   0.0034918608419732128
0.7065964538263794   -0.039341800593358844   0.0034918608419732128
0.7065964538263794   -0.039341800593358844   0.0034918608419732128
0.7065964538263794   -0.039341800593358844   0.0034918608419732128
0.31799958723341554   -0.05918264233418008   -0.03776684891158912
0.31799958723341554   -0.05918264233418008   -0.03776684891158912
0.31799958723341554   -0.05918264233418008   -0.03776684891158912
0.31799958723341554   -0.05918264233418008   -0.03776684891158912
0.743844588353708   0.0876651047987005   0.06272562808656068
0.743844588353708   0.0876651047987005   0.06272562808656068
0.743844588353708   0.0876651047987005   0.06272562808656068
0.743844588353708   0.0876651047987005   0.06272562808656068
-0.05855784233355631   -0.19922861936736883   -0.030787936868140943
-0.05855784233355631   -0.19922861936736883   -0.030787936868140943
-0.05855784233355631   -0.19922861936736883   -0.030787936868140943
-0.05855784233355631   -0.19922861936736883   -0.030787936868140943
0.0057117896531085795   -0.046727903132437756   0.011018994725095349
0.0057117896531085795   -0.046727903132437756   0.011018994725095349
0.0057117896531085795   -0.046727903132437756   0.011018994725095349
0.0057117896531085795   -0.046727903132437756   0.011018994725095349
0.7369272994937066   -0.018159158289723254   -0.005753097188092471
0.7369272994937066   -0.018159158289723254   -0.005753097188092471
0.7369272994937066   -0.018159158289723254   -0.005753097188092471
0.7369272994937066   -0.018159158289723254   -0.005753097188092471
0.34374078953038256   -0.04193523152362737   -0.02448693208251304
0.34374078953038256   -0.04193523152362737   -0.02448693208251304
0.34374078953038256   -0.04193523152362737   -0.02448693208251304
0.34374078953038256   -0.04193523152362737   -0.02448693208251304
0.7761767545697323   0.11635691240527549   0.055978107497037764
0.7761767545697323   0.11635691240527549   0.055978107497037764
0.7761767545697323   0.11635691240527549   0.055978107497037764
0.7761767545697323   0.11635691240527549   0.055978107497037764
-0.031992748139660535   -0.17969905654418045   -0.04453254082701138
-0.031992748139660535   -0.17969905654418045   -0.04453254082701138
-0.031992748139660535   -0.17969905654418045   -0.04453254082701138
-0.031992748139660535   -0.17969905654418045   -0.04453254082701138
0.028963148231367915   -0.013836189161661634   0.003920175734980107
0.028963148231367915   -0.013836189161661634   0.003920175734980107
0.028963148231367915   -0.013836189161661634   0.003920175734980107
0.028963148231367915   -0.013836189161661634   0.003920175734980107
0.7596415990989541   0.0088506616705947   -0.014105554046738703
0.7596415990989541   0.0088506616705947   -0.014105554046738703
0.7596415990989541   0.0088506616705947   -0.014105554046738703
0.7596415990989541   0.0088506616705947   -0.014105554046738703
0.37524374956686435   -0.016141927617409887   -0.010246828184113082
0.37524374956686435   -0.016141927617409887   -0.010246828184113082
0.37524374956686435   -0.016141927617409887   -0.010246828184113082
0.37524374956686435   -0.016141927617409887   -0.010246828184113082
-0.030808106213929133   0.017742549975528897   0.035174615069929666
-0.030808106213929133   0.017742549975528897   0.035174615069929666
-0.030808106213929133   0.017742549975528897   0.035174615069929666
-0.030808106213929133   0.017742549975528897   0.035174615069929666
-0.8142216597917087   -0.266228965035455   -0.016287824509572238
-0.8142216597917087   -0.266228965035455   -0.016287824509572238
-0.8142216597917087   -0.266228965035455   -0.016287824509572238
-0.8142216597917087   -0.266228965035455   -0.016287824509572238
-0.7495058080828122   -0.11479815856907215   -0.01712973022914072
-0.7495058080828122   -0.11479815856907215   -0.01712973022914072
-0.7495058080828122   -0.11479815856907215   -0.01712973022914072
-0.7495058080828122   -0.11479815856907215   -0.01712973022914072
-0.027739190242850032   -0.0917754158553514   0.015852120073373038
-0.027739190242850032   -0.0917754158553514   0.015852120073373038
-0.027739190242850032   -0.0917754158553514   0.015852120073373038
-0.027739190242850032   -0.0917754158553514   0.015852120073373038
-0.40741882794036244   -0.10766784180458086   -0.03374501697338849
-0.40741882794036244   -0.10766784180458086   -0.03374501697338849
-0.40741882794036244   -0.10766784180458086   -0.03374501697338849
-0.40741882794036244   -0.10766784180458086   -0.03374501697338849
0.00209251171346193   0.04466207852993925   0.02857313546964219
0.00209251171346193   0.04466207852993925   0.02857313546964219
0.00209251171346193   0.04466207852993925   0.02857313546964219
0.00209251171346193   0.04466207852993925   0.02857313546964219
-0.7774600171981575   -0.24935816011339618   -0.02234077426154329
-0.7774600171981575   -0.24935816011339618   -0.02234077426154329
-0.7774600171981575   -0.24935816011339618   -0.02234077426154329
-0.7774600171981575   -0.24935816011339618   -0.02234077426154329
-0.7127662381967605   -0.08360689684770461   -0.023333514988925178
-0.7127662381967605   -0.08360689684770461   -0.023333514988925178
-0.7127662381967605   -0.08360689684770461   -0.023333514988925178
-0.7127662381967605   -0.08360689684770461   -0.023333514988925178
-0.00013923858848688062   -0.07142129780805853   0.006457248192735004
-0.00013923858848688062   -0.07142129780805853   0.006457248192735004
-0.00013923858848688062   -0.07142129780805853   0.006457248192735004
-0.00013923858848688062   -0.07142129780805853   0.006457248192735004
-0.3717537034061131   -0.08524765058650773   -0.018748466709184015
-0.3717537034061131   -0.08524765058650773   -0.018748466709184015
-0.3717537034061131   -0.08524765058650773   -0.018748466709184015
-0.3717537034061131   -0.08524765058650773   -0.018748466709184015
0.03220058973577297   0.07450015844815189   0.02223493355782382
0.03220058973577297   0.07450015844815189   0.02223493355782382
0.03220058973577297   0.07450015844815189   0.02223493355782382
0.03220058973577297   0.07450015844815189   0.02223493355782382
-0.7451234900569851   -0.22954577663986847   -0.039180894497877886
-0.7451234900569851   -0.22954577663986847   -0.039180894497877886
-0.7451234900569851   -0.22954577663986847   -0.039180894497877886
-0.7451234900569851   -0.22954577663986847   -0.039180894497877886
-0.6868050331859643   -0.05387837158937801   -0.030271692204595028
-0.6868050331859643   -0.05387837158937801   -0.030271692204595028
-0.6868050331859643   -0.05387837158937801   -0.030271692204595028
-0.6868050331859643   -0.05387837158937801   -0.030271692204595028
0.01798714560008325   -0.0551660631773986   -0.00962996340570625
0.01798714560008325   -0.0551660631773986   -0.00962996340570625
0.01798714560008325   -0.0551660631773986   -0.00962996340570625
0.01798714560008325   -0.0551660631773986   -0.00962996340570625
-0.34559301811519966   -0.0643420254762646   -0.00936656699369283
-0.34559301811519966   -0.0643420254762646   -0.00936656699369283
-0.34559301811519966   -0.0643420254762646   -0.00936656699369283
-0.34559301811519966   -0.0643420254762646   -0.00936656699369283
-0.7623724573468799   -0.022106124127291987   -0.0011646531935982085
-0.7623724573468799   -0.022106124127291987   -0.0011646531935982085
-0.7623724573468799   -0.022106124127291987   -0.0011646531935982085
-0.7623724573468799   -0.022106124127291987   -0.0011646531935982085
-1.5438862431761502   -0.28622801877511633   -0.013113632327191996
-1.5438862431761502   -0.28622801877511633   -0.013113632327191996
-1.5438862431761502   -0.28622801877511633   -0.013113632327191996
-1.5438862431761502   -0.28622801877511633   -0.013113632327191996
-1.4743558992601395   -0.14696111427010375   -0.05099411296003809
-1.4743558992601395   -0.14696111427010375   -0.05099411296003809
-1.4743558992601395   -0.14696111427010375   -0.05099411296003809
-1.4743558992601395   -0.14696111427010375   -0.05099411296003809
-0.7354588918436422   -0.09533652474124973   0.03364321713888135
-0.7354588918436422   -0.09533652474124973   0.03364321713888135
-0.7354588918436422   -0.09533652474124973   0.03364321713888135
-0.7354588918436422   -0.09533652474124973   0.03364321713888135
-1.119121314177482   -0.12940412387575895   -0.02378900924803327
-1.119121314177482   -0.12940412387575895   -0.02378900924803327
-1.119121314177482   -0.12940412387575895   -0.02378900924803327
-1.119121314177482   -0.12940412387575895   -0.02378900924803327
-0.7217863669718816   0.012571231775702019   -0.0059019150192673245
-0.7217863669718816   0.012571231775702019   -0.0059019150192673245
-0.7217863669718816   0.012571231775702019   -0.0059019150192673245
-0.7217863669718816   0.012571231775702019   -0.0059019150192673245
-1.4886320522979757   -0.25547249895312885   -0.013863493466180744
-1.4886320522979757   -0.25547249895312885   -0.013863493466180744
-1.4886320522979757   -0.25547249895312885   -0.013863493466180744
-1.4886320522979757   -0.25547249895312885   -0.013863493466180744
-1.4218464667774013   -0.11438316636520587   -0.05906299142562985
-1.4218464667774013   -0.11438316636520587   -0.05906299142562985
-1.4218464667774013   -0.11438316636520587   -0.05906299142562985
-1.4218464667774013   -0.11438316636520587   -0.05906299142562985
-0.6997733442229956   -0.07087011193663927   0.028894169968840474
-0.6997733442229956   -0.07087011193663927   0.028894169968840474
-0.6997733442229956   -0.07087011193663927   0.028894169968840474
-0.6997733442229956   -0.07087011193663927   0.028894169968840474
-1.0651724986368258   -0.09814888244110834   -0.00783472855190305
-1.0651724986368258   -0.09814888244110834   -0.00783472855190305
-1.0651724986368258   -0.09814888244110834   -0.00783472855190305
-1.0651724986368258   -0.09814888244110834   -0.00783472855190305
-0.6849580303588507   0.04268937056184466   -0.010588743208927782
-0.6849580303588507   0.04268937056184466   -0.010588743208927782
-0.6849580303588507   0.04268937056184466   -0.010588743208927782
-0.6849580303588507   0.04268937056184466   -0.010588743208927782
-1.4391996360509898   -0.23048050427314293   -0.029731499885622154
-1.4391996360509898   -0.23048050427314293   -0.029731499885622154
-1.4391996360509898   -0.23048050427314293   -0.029731499885622154
-1.4391996360509898   -0.23048050427314293   -0.029731499885622154
-1.3792297866611614   -0.08002622457882497   -0.06094162127028782
-1.3792297866611614   -0.08002622457882497   -0.06094162127028782
-1.3792297866611614   -0.08002622457882497   -0.06094162127028782
-1.3792297866611614   -0.08002622457882497   -0.06094162127028782
-0.679271016708869   -0.05531561409017435   0.008835632681684157
-0.679271016708869   -0.05531561409017435   0.008835632681684157
-0.679271016708869   -0.05531561409017435   0.008835632681684157
-0.679271016708869   -0.05531561409017435   0.008835632681684157
-1.0353733340464852   -0.0790920520050824   -0.0026316692836203665
-1.0353733340464852   -0.0790920520050824   -0.0026316692836203665
-1.0353733340464852   -0.0790920520050824   -0.0026316692836203665
-1.0353733340464852   -0.0790920520050824   -0.0026316692836203665
-1.5016902889718635   -0.051077593360434104   -0.037284286720441345
-1.5016902889718635   -0.051077593360434104   -0.037284286720441345
-1.5016902889718635   -0.051077593360434104   -0.037284286720441345
-1.5016902889718635   -0.051077593360434104   -0.037284286720441345
-2.264334210011952   -0.19340231169290006   0.0857494169193407
-2.264334210011952   -0.19340231169290006   0.0857494169193407
-2.264334210011952   -0.19340231169290006   0.0857494169193407
-2.264334210011952   -0.19340231169290006   0.0857494169193407
-2.1864505129034573   -0.15399640069931297   -0.04986017115717538
-2.1864505129034573   -0.15399640069931297   -0.04986017115717538
-2.1864505129034573   -0.15399640069931297   -0.04986017115717538
-2.1864505129034573   -0.15399640069931297   -0.04986017115717538
-1.4109267135685482   0.04038901989871069   0.07880168132909308
-1.4109267135685482   0.04038901989871069   0.07880168132909308
-1.4109267135685482   0.04038901989871069   0.07880168132909308
-1.4109267135685482   0.04038901989871069   0.07880168132909308
-1.7585066145763038   -0.06072936966425552   0.008343803145505299
-1.7585066145763038   -0.06072936966425552   0.008343803145505299
-1.7585066145763038   -0.06072936966425552   0.008343803145505299
-1.7585066145763038   -0.06072936966425552   0.008343803145505299
-1.4437807622057568   -0.003755270599974936   -0.041324271358247025
-1.4437807622057568   -0.003755270599974936   -0.041324271358247025
-1.4437807622057568   -0.003755270599974936   -0.041324271358247025
-1.4437807622057568   -0.003755270599974936   -0.041324271358247025
-2.1482971760055896   -0.10455282193995513   0.09146293457280551
-2.1482971760055896   -0.10455282193995513   0.09146293457280551
-2.1482971760055896   -0.10455282193995513   0.09146293457280551
-2.1482971760055896   -0.10455282193995513   0.09146293457280551
-2.102910394030888   -0.12957949624603732   -0.05937807819170848
-2.102910394030888   -0.12957949624603732   -0.05937807819170848
-2.102910394030888   -0.12957949624603732   -0.05937807819170848
-2.102910394030888   -0.12957949624603732   -0.05937807819170848
-1.3589901902173875   0.06472987189056001   0.0761053531186739
-1.3589901902173875   0.06472987189056001   0.0761053531186739
-1.3589901902173875   0.06472987189056001   0.0761053531186739
-1.3589901902173875   0.06472987189056001   0.0761053531186739
-1.7091264375251067   -0.024498144023785084   0.03500480255302148
-1.7091264375251067   -0.024498144023785084   0.03500480255302148
-1.7091264375251067   -0.024498144023785084   0.03500480255302148
-1.7091264375251067   -0.024498144023785084   0.03500480255302148
-1.3930114338057669   0.015351427375655147   -0.044622420308306016
-1.3930114338057669   0.015351427375655147   -0.044622420308306016
-1.3930114338057669   0.015351427375655147   -0.044622420308306016
-1.3930114338057669   0.015351427375655147   -0.044622420308306016
-2.0678216622948815   -0.07913356358352591   0.06561964782579927
-2.0678216622948815   -0.07913356358352591   0.06561964782579927
-2.0678216622948815   -0.07913356358352591   0.06561964782579927
-2.0678216622948815   -0.07913356358352591   0.06561964782579927
-2.0165199377292216   -0.10649156373376889   -0.0717549077830543
-2.0165199377292216   -0.10649156373376889   -0.0717549077830543
-2.0165199377292216   -0.10649156373376889   -0.0717549077830543
-2.0165199377292216   -0.10649156373376889   -0.0717549077830543
-1.3204791149968402   0.09389733941054695   0.058888173061946145
-1.3204791149968402   0.09389733941054695   0.058888173061946145
-1.3204791149968402   0.09389733941054695   0.058888173061946145
-1.3204791149968402   0.09389733941054695   0.058888173061946145
-1.616274585260979   0.006482563272056763   0.061692793130752765
-1.616274585260979   0.006482563272056763   0.061692793130752765
-1.616274585260979   0.006482563272056763   0.061692793130752765
-1.616274585260979   0.006482563272056763   0.061692793130752765
1.9943316949890078   0.11953613941729374   0.07237042998825505
1.9943316949890078   0.11953613941729374   0.07237042998825505
1.9943316949890078   0.11953613941729374   0.07237042998825505
1.9943316949890078   0.11953613941729374   0.07237042998825505
0.9508568837608561   -0.17816577919925353   0.016266730277065114
0.9508568837608561   -0.17816577919925353   0.016266730277065114
0.9508568837608561   -0.17816577919925353   0.016266730277065114
0.9508568837608561   -0.17816577919925353   0.016266730277065114
1.0033948117741969   -0.07512069599901755   0.055695753350404956
1.0033948117741969   -0.07512069599901755   0.055695753350404956
1.0033948117741969   -0.07512069599901755   0.055695753350404956
1.0033948117741969   -0.07512069599901755   0.055695753350404956
2.0048841201483443   0.016882480201879158   -0.016041535212895808
2.0048841201483443   0.016882480201879158   -0.016041535212895808
2.0048841201483443   0.016882480201879158   -0.016041535212895808
2.0048841201483443   0.016882480201879158   -0.016041535212895808
1.4022252875907055   -0.03831527352484204   -0.09322788245648352
1.4022252875907055   -0.03831527352484204   -0.09322788245648352
1.4022252875907055   -0.03831527352484204   -0.09322788245648352
1.4022252875907055   -0.03831527352484204   -0.09322788245648352
2.042775576282189   0.1330632928034508   0.05723493285475474
2.042775576282189   0.1330632928034508   0.05723493285475474
2.042775576282189   0.1330632928034508   0.05723493285475474
2.042775576282189   0.1330632928034508   0.05723493285475474
0.9746002485165852   -0.1822046157243563   0.018806856787685927
0.9746002485165852   -0.1822046157243563   0.018806856787685927
0.9746002485165852   -0.1822046157243563   0.018806856787685927
0.9746002485165852   -0.1822046157243563   0.018806856787685927
1.023312571854839   -0.06383835246544767   0.04238811844898914
1.023312571854839   -0.06383835246544767   0.04238811844898914
1.023312571854839   -0.06383835246544767   0.04238811844898914
1.023312571854839   -0.06383835246544767   0.04238811844898914
2.040062319819905   0.0296053167597487   -0.00483932820336444
2.040062319819905   0.0296053167597487   -0.00483932820336444
2.040062319819905   0.0296053167597487   -0.00483932820336444
2.040062319819905   0.0296053167597487   -0.00483932820336444
1.4601152544430869   -0.030310698771639055   -0.06367456695814747
1.4601152544430869   -0.030310698771639055   -0.06367456695814747
1.4601152544430869   -0.030310698771639055   -0.06367456695814747
1.4601152544430869   -0.030310698771639055   -0.06367456695814747
2.0721160589184193   0.14537638172271833   0.039658302326238334
2.0721160589184193   0.14537638172271833   0.039658302326238334
2.0721160589184193   0.14537638172271833   0.039658302326238334
2.0721160589184193   0.14537638172271833   0.039658302326238334
0.9975870174799066   -0.17328123270483506   0.023203226813715117
0.9975870174799066   -0.17328123270483506   0.023203226813715117
0.9975870174799066   -0.17328123270483506   0.023203226813715117
0.9975870174799066   -0.17328123270483506   0.023203226813715117
1.052618114053393   -0.019849993772738134   0.03874961785548249
1.052618114053393   -0.019849993772738134   0.03874961785548249
1.052618114053393   -0.019849993772738134   0.03874961785548249
1.052618114053393   -0.019849993772738134   0.03874961785548249
2.0766376896823058   0.05873026715426588   -0.0007204097294357947
2.0766376896823058   0.05873026715426588   -0.0007204097294357947
2.0766376896823058   0.05873026715426588   -0.0007204097294357947
2.0766376896823058   0.05873026715426588   -0.0007204097294357947
1.46734758273572   -0.014007330585522448   -0.04757669515994957
1.46734758273572   -0.014007330585522448   -0.04757669515994957
1.46734758273572   -0.014007330585522448   -0.04757669515994957
1.46734758273572   -0.014007330585522448   -0.04757669515994957
1.0034776819153792   0.025390396059985415   0.07581454579044203
1.0034776819153792   0.025390396059985415   0.07581454579044203
1.0034776819153792   0.025390396059985415   0.07581454579044203
1.0034776819153792   0.025390396059985415   0.07581454579044203
0.05311963575294455   -0.35505179148128124   0.03651463717663979
0.05311963575294455   -0.35505179148128124   0.03651463717663979
0.05311963575294455   -0.35505179148128124   0.03651463717663979
0.05311963575294455   -0.35505179148128124   0.03651463717663979
0.12161117067493   -0.15023101490254517   0.034031072447491054
0.12161117067493   -0.15023101490254517   0.034031072447491054
0.12161117067493   -0.15023101490254517   0.034031072447491054
0.12161117067493   -0.15023101490254517   0.034031072447491054
0.9777162699617064   -0.17090784589013225   0.02309019417906019
0.9777162699617064   -0.17090784589013225   0.02309019417906019
0.9777162699617064   -0.17090784589013225   0.02309019417906019
0.9777162699617064   -0.17090784589013225   0.02309019417906019
0.521464062811264   -0.15925648193656872   -0.05965300681395343
0.521464062811264   -0.15925648193656872   -0.05965300681395343
0.521464062811264   -0.15925648193656872   -0.05965300681395343
0.521464062811264   -0.15925648193656872   -0.05965300681395343
1.0272925034054876   0.03675978354636439   0.06330373196148127
1.0272925034054876   0.03675978354636439   0.06330373196148127
1.0272925034054876   0.03675978354636439   0.06330373196148127
1.0272925034054876   0.03675978354636439   0.06330373196148127
0.08512276538443525   -0.34481081618575277   0.04616884727822876
0.08512276538443525   -0.34481081618575277   0.04616884727822876
0.08512276538443525   -0.34481081618575277   0.04616884727822876
0.08512276538443525   -0.34481081618575277   0.04616884727822876
0.14915734095108216   -0.12962746440435158   0.024675330781390198
0.14915734095108216   -0.12962746440435158   0.024675330781390198
0.14915734095108216   -0.12962746440435158   0.024675330781390198
0.14915734095108216   -0.12962746440435158   0.024675330781390198
1.0012902061190645   -0.1601231951236532   0.028561132428322422
1.0012902061190645   -0.1601231951236532   0.028561132428322422
1.0012902061190645   -0.1601231951236532   0.028561132428322422
1.0012902061190645   -0.1601231951236532   0.028561132428322422
0.5449211438483503   -0.15137421638745885   -0.02982704682079239
0.5449211438483503   -0.15137421638745885   -0.02982704682079239
0.5449211438483503   -0.15137421638745885   -0.02982704682079239
0.5449211438483503   -0.15137421638745885   -0.02982704682079239
1.0495034638002858   0.056172949292805   0.05333127641796967
1.0495034638002858   0.056172949292805   0.05333127641796967
1.0495034638002858   0.056172949292805   0.05333127641796967
1.0495034638002858   0.056172949292805   0.05333127641796967
0.11353624208460145   -0.3333314500060688   0.050273822050707545
0.11353624208460145   -0.3333314500060688   0.050273822050707545
0.11353624208460145   -0.3333314500060688   0.050273822050707545
0.11353624208460145   -0.3333314500060688   0.050273822050707545
0.19143110015320408   -0.09869991591784169   0.0163520569568293
0.19143110015320408   -0.09869991591784169   0.0163520569568293
0.19143110015320408   -0.09869991591784169   0.0163520569568293
0.19143110015320408   -0.09869991591784169   0.0163520569568293
1.027095936513253   -0.1437271006494183   0.03501583703146774
1.027095936513253   -0.1437271006494183   0.03501583703146774
1.027095936513253   -0.1437271006494183   0.03501583703146774
1.027095936513253   -0.1437271006494183   0.03501583703146774
0.5860216432098726   -0.13227160334914023   0.004879461525709963
0.5860216432098726   -0.13227160334914023   0.004879461525709963
0.5860216432098726   -0.13227160334914023   0.004879461525709963
0.5860216432098726   -0.13227160334914023   0.004879461525709963
0.1130378443259183   -0.06775726799830808   0.048811156558535365
0.1130378443259183   -0.06775726799830808   0.048811156558535365
0.1130378443259183   -0.06775726799830808   0.048811156558535365
0.1130378443259183   -0.06775726799830808   0.048811156558535365
-0.8520567152292972   -0.6099872947337366   0.052858249458877016
-0.8520567152292972   -0.6099872947337366   0.052858249458877016
-0.8520567152292972   -0.6099872947337366   0.052858249458877016
-0.8520567152292972   -0.6099872947337366   0.052858249458877016
-0.7437541289772339   -0.23743597154668772   0.0035642803510753975
-0.7437541289772339   -0.23743597154668772   0.0035642803510753975
-0.7437541289772339   -0.23743597154668772   0.0035642803510753975
-0.7437541289772339   -0.23743597154668772   0.0035642803510753975
0.06005411419499937   -0.4440809300133427   0.020095705158639232
0.06005411419499937   -0.4440809300133427   0.020095705158639232
0.06005411419499937   -0.4440809300133427   0.020095705158639232
0.06005411419499937   -0.4440809300133427   0.020095705158639232
-0.36684334273773833   -0.3422536907429347   -0.07158201413420728
-0.36684334273773833   -0.3422536907429347   -0.07158201413420728
-0.36684334273773833   -0.3422536907429347   -0.07158201413420728
-0.36684334273773833   -0.3422536907429347   -0.07158201413420728
0.14188221953176341   -0.053325414624399964   0.03848071645351678
0.14188221953176341   -0.053325414624399964   0.03848071645351678
0.14188221953176341   -0.053325414624399964   0.03848071645351678
0.14188221953176341   -0.053325414624399964   0.03848071645351678
-0.8066479535184106   -0.6092572061400416   0.060916392238554384
-0.8066479535184106   -0.6092572061400416   0.060916392238554384
-0.8066479535184106   -0.6092572061400416   0.060916392238554384
-0.8066479535184106   -0.6092572061400416   0.060916392238554384
-0.7019802065658101   -0.21307872610890527   1.1074665824385016e-05
-0.7019802065658101   -0.21307872610890527   1.1074665824385016e-05
-0.7019802065658101   -0.21307872610890527   1.1074665824385016e-05
-0.7019802065658101   -0.21307872610890527   1.1074665824385016e-05
0.0890914709293141   -0.4343385294634602   0.029057045731662262
0.0890914709293141   -0.4343385294634602   0.029057045731662262
0.0890914709293141   -0.4343385294634602   0.029057045731662262
0.0890914709293141   -0.4343385294634602   0.029057045731662262
-0.3245392006683941   -0.3305939301339541   -0.02670752816648246
-0.3245392006683941   -0.3305939301339541   -0.02670752816648246
-0.3245392006683941   -0.3305939301339541   -0.02670752816648246
-0.3245392006683941   -0.3305939301339541   -0.02670752816648246
0.16825333085654007   -0.034107225313944826   0.024635041218276633
0.16825333085654007   -0.034107225313944826   0.024635041218276633
0.16825333085654007   -0.034107225313944826   0.024635041218276633
0.16825333085654007   -0.034107225313944826   0.024635041218276633
-0.7640460749628323   -0.5962140387282151   0.07281704530003427
-0.7640460749628323   -0.5962140387282151   0.07281704530003427
-0.7640460749628323   -0.5962140387282151   0.07281704530003427
-0.7640460749628323   -0.5962140387282151   0.07281704530003427
-0.6330473960347944   -0.18501904468367303   -0.007860329302200653
-0.6330473960347944   -0.18501904468367303   -0.007860329302200653
-0.6330473960347944   -0.18501904468367303   -0.007860329302200653
-0.6330473960347944   -0.18501904468367303   -0.007860329302200653
0.13442072315997336   -0.40709729349513485   0.0396975495679687
0.13442072315997336   -0.40709729349513485   0.0396975495679687
0.13442072315997336   -0.40709729349513485   0.0396975495679687
0.13442072315997336   -0.40709729349513485   0.0396975495679687
-0.26963248781374977   -0.3044512121043934   0.020275142764728596
-0.26963248781374977   -0.3044512121043934   0.020275142764728596
-0.26963248781374977   -0.3044512121043934   0.020275142764728596
-0.26963248781374977   -0.3044512121043934   0.020275142764728596
-0.7604303799766307   -0.12226132789339064   0.023263958881855458
-0.7604303799766307   -0.12226132789339064   0.023263958881855458
-0.7604303799766307   -0.12226132789339064   0.023263958881855458
-0.7604303799766307   -0.12226132789339064   0.023263958881855458
-1.896260346615972   -0.9496837106038197   -0.044828970568546345
-1.896260346615972   -0.9496837106038197   -0.044828970568546345
-1.896260346615972   -0.9496837106038197   -0.044828970568546345
-1.896260346615972   -0.9496837106038197   -0.044828970568546345
-1.7175096142351862   -0.3089519304209687   -0.052383088868169704
-1.7175096142351862   -0.3089519304209687   -0.052383088868169704
-1.7175096142351862   -0.3089519304209687   -0.052383088868169704
-1.7175096142351862   -0.3089519304209687   -0.052383088868169704
-0.8526398343769741   -0.7941994189753347   0.015899200781021222
-0.8526398343769741   -0.7941994189753347   0.015899200781021222
-0.8526398343769741   -0.7941994189753347   0.015899200781021222
-0.8526398343769741   -0.7941994189753347   0.015899200781021222
-1.3052305591533868   -0.5617181520235078   -0.07518277279774607
-1.3052305591533868   -0.5617181520235078   -0.07518277279774607
-1.3052305591533868   -0.5617181520235078   -0.07518277279774607
-1.3052305591533868   -0.5617181520235078   -0.07518277279774607
-0.7110749143199934   -0.09273624687181506   0.022260628962405764
-0.7110749143199934   -0.09273624687181506   0.022260628962405764
-0.7110749143199934   -0.09273624687181506   0.022260628962405764
-0.7110749143199934   -0.09273624687181506   0.022260628962405764
-1.8547897339347776   -1.006130302167099   -0.04160531561999678
-1.8547897339347776   -1.006130302167099   -0.04160531561999678
-1.8547897339347776   -1.006130302167099   -0.04160531561999678
-1.8547897339347776   -1.006130302167099   -0.04160531561999678
-1.66190883282789   -0.27975095167468117   -0.0533745401164748
-1.66190883282789   -0.27975095167468117   -0.0533745401164748
-1.66190883282789   -0.27975095167468117   -0.0533745401164748
-1.66190883282789   -0.27975095167468117   -0.0533745401164748
-0.8121466868099628   -0.7879734495600748   0.02407339689623575
-0.8121466868099628   -0.7879734495600748   0.02407339689623575
-0.8121466868099628   -0.7879734495600748   0.02407339689623575
-0.8121466868099628   -0.7879734495600748   0.02407339689623575
-1.2468992514026942   -0.54654653809349   -0.05276954781830237
-1.2468992514026942   -0.54654653809349   -0.05276954781830237
-1.2468992514026942   -0.54654653809349   -0.05276954781830237
-1.2468992514026942   -0.54654653809349   -0.05276954781830237
-0.6717800064869701   -0.0695530071608151   0.00748635611193579
-0.6717800064869701   -0.0695530071608151   0.00748635611193579
-0.6717800064869701   -0.0695530071608151   0.00748635611193579
-0.6717800064869701   -0.0695530071608151   0.00748635611193579
-1.8022023785268615   -0.998098259449918   -0.03649496083608189
-1.8022023785268615   -0.998098259449918   -0.03649496083608189
-1.8022023785268615   -0.998098259449918   -0.03649496083608189
-1.8022023785268615   -0.998098259449918   -0.03649496083608189
-1.575182052682749   -0.2483659628049543   -0.06050507491833588
-1.575182052682749   -0.2483659628049543   -0.06050507491833588
-1.575182052682749   -0.2483659628049543   -0.06050507491833588
-1.575182052682749   -0.2483659628049543   -0.06050507491833588
-0.7245414519577729   -0.708592026039536   0.05824237243878158
-0.7245414519577729   -0.708592026039536   0.05824237243878158
-0.7245414519577729   -0.708592026039536   0.05824237243878158
-0.7245414519577729   -0.708592026039536   0.05824237243878158
-1.1818160441077652   -0.4954330422962704   -0.029398564876630978
-1.1818160441077652   -0.4954330422962704   -0.029398564876630978
-1.1818160441077652   -0.4954330422962704   -0.029398564876630978
-1.1818160441077652   -0.4954330422962704   -0.029398564876630978
-1.7206131595936944   -0.10421944517108328   -0.012057300889894235
-1.7206131595936944   -0.10421944517108328   -0.012057300889894235
-1.7206131595936944   -0.10421944517108328   -0.012057300889894235
-1.7206131595936944   -0.10421944517108328   -0.012057300889894235
-3.0367837051910858   -0.6011611021135437   0.030978194623367594
-3.0367837051910858   -0.6011611021135437   0.030978194623367594
-3.0367837051910858   -0.6011611021135437   0.030978194623367594
-3.0367837051910858   -0.6011611021135437   0.030978194623367594
-2.9171707914159586   -0.2894246034803812   -0.06402235771895605
-2.9171707914159586   -0.2894246034803812   -0.06402235771895605
-2.9171707914159586   -0.2894246034803812   -0.06402235771895605
-2.9171707914159586   -0.2894246034803812   -0.06402235771895605
-1.6823918335094472   -0.3113563248616511   0.12561020920119165
-1.6823918335094472   -0.3113563248616511   0.12561020920119165
-1.6823918335094472   -0.3113563248616511   0.12561020920119165
-1.6823918335094472   -0.3113563248616511   0.12561020920119165
-2.2444724661846216   -0.3487171995772833   0.032179186732521625
-2.2444724661846216   -0.3487171995772833   0.032179186732521625
-2.2444724661846216   -0.3487171995772833   0.032179186732521625
-2.2444724661846216   -0.3487171995772833   0.032179186732521625
-1.649777499549663   -0.023063635613030598   0.0003891897515014703
-1.649777499549663   -0.023063635613030598   0.0003891897515014703
-1.649777499549663   -0.023063635613030598   0.0003891897515014703
-1.649777499549663   -0.023063635613030598   0.0003891897515014703
-2.961183330976443   -0.5891154983297043   0.015605839327921034
-2.961183330976443   -0.5891154983297043   0.015605839327921034
-2.961183330976443   -0.5891154983297043   0.015605839327921034
-2.961183330976443   -0.5891154983297043   0.015605839327921034
-2.851262632332492   -0.2651975058511713   -0.08125909347481736
-2.851262632332492   -0.2651975058511713   -0.08125909347481736
-2.851262632332492   -0.2651975058511713   -0.08125909347481736
-2.851262632332492   -0.2651975058511713   -0.08125909347481736
-1.6251545128550742   -0.295751400797023   0.14639750886995911
-1.6251545128550742   -0.295751400797023   0.14639750886995911
-1.6251545128550742   -0.295751400797023   0.14639750886995911
-1.6251545128550742   -0.295751400797023   0.14639750886995911
-2.209666301586583   -0.28718002377611723   0.030931084731095876
-2.209666301586583   -0.28718002377611723   0.030931084731095876
-2.209666301586583   -0.28718002377611723   0.030931084731095876
-2.209666301586583   -0.28718002377611723   0.030931084731095876
-1.598784325108094   -0.001625513624790631   -0.015877439567372573
-1.598784325108094   -0.001625513624790631   -0.015877439567372573
-1.598784325108094   -0.001625513624790631   -0.015877439567372573
-1.598784325108094   -0.001625513624790631   -0.015877439567372573
-2.8818233628972454   -0.5635139358411708   0.06425368369139128
-2.8818233628972454   -0.5635139358411708   0.06425368369139128
-2.8818233628972454   -0.5635139358411708   0.06425368369139128
-2.8818233628972454   -0.5635139358411708   0.06425368369139128
-2.7144011786445086   -0.21483189216339588   -0.09083592116009949
-2.7144011786445086   -0.21483189216339588   -0.09083592116009949
-2.7144011786445086   -0.21483189216339588   -0.09083592116009949
-2.7144011786445086   -0.21483189216339588   -0.09083592116009949
-1.5361295038314164   -0.274956299549672   0.1613480060830566
-1.5361295038314164   -0.274956299549672   0.1613480060830566
-1.5361295038314164   -0.274956299549672   0.1613480060830566
-1.5361295038314164   -0.274956299549672   0.1613480060830566
-2.0773379992992593   -0.2195340434361617   0.06338296418454487
-2.0773379992992593   -0.2195340434361617   0.06338296418454487
-2.0773379992992593   -0.2195340434361617   0.06338296418454487
-2.0773379992992593   -0.2195340434361617   0.06338296418454487
2.1843919844462527   0.07144229500382793   0.030772000607075647
2.1843919844462527   0.07144229500382793   0.030772000607075647
2.1843919844462527   0.07144229500382793   0.030772000607075647
2.1843919844462527   0.07144229500382793   0.030772000607075647
1.1155630851753806   -0.058669186059218725   0.022702579819650265
1.1155630851753806   -0.058669186059218725   0.022702579819650265
1.1155630851753806   -0.058669186059218725   0.022702579819650265
1.1155630851753806   -0.058669186059218725   0.022702579819650265
1.0719066205163383   -0.1575861937378546   0.04459259472044136
1.0719066205163383   -0.1575861937378546   0.04459259472044136
1.0719066205163383   -0.1575861937378546   0.04459259472044136
1.0719066205163383   -0.1575861937378546   0.04459259472044136
2.1685262818956903   0.12219139897749576   0.016451431380846843
2.1685262818956903   0.12219139897749576   0.016451431380846843
2.1685262818956903   0.12219139897749576   0.016451431380846843
2.1685262818956903   0.12219139897749576   0.016451431380846843
1.5479513515979817   -0.02201965639793091   -0.05714778191714283
1.5479513515979817   -0.02201965639793091   -0.05714778191714283
1.5479513515979817   -0.02201965639793091   -0.05714778191714283
1.5479513515979817   -0.02201965639793091   -0.05714778191714283
2.156536658608773   0.05513353143441241   0.02356118248934186
2.156536658608773   0.05513353143441241   0.02356118248934186
2.156536658608773   0.05513353143441241   0.02356118248934186
2.156536658608773   0.05513353143441241   0.02356118248934186
1.0803200829635293   -0.09410448703449786   0.02317820025303996
1.0803200829635293   -0.09410448703449786   0.02317820025303996
1.0803200829635293   -0.09410448703449786   0.02317820025303996
1.0803200829635293   -0.09410448703449786   0.02317820025303996
1.0440792094870084   -0.16124450545919727   0.03689467103480237
1.0440792094870084   -0.16124450545919727   0.03689467103480237
1.0440792094870084   -0.16124450545919727   0.03689467103480237
1.0440792094870084   -0.16124450545919727   0.03689467103480237
2.1430863224549506   0.11687817771555997   0.02843291096833951
2.1430863224549506   0.11687817771555997   0.02843291096833951
2.1430863224549506   0.11687817771555997   0.02843291096833951
2.1430863224549506   0.11687817771555997   0.02843291096833951
1.5432772992365196   -0.030378512999725882   -0.06619145322130211
1.5432772992365196   -0.030378512999725882   -0.06619145322130211
1.5432772992365196   -0.030378512999725882   -0.06619145322130211
1.5432772992365196   -0.030378512999725882   -0.06619145322130211
2.125239760058996   0.04902027149088495   0.0070580052132259985
2.125239760058996   0.04902027149088495   0.0070580052132259985
2.125239760058996   0.04902027149088495   0.0070580052132259985
2.125239760058996   0.04902027149088495   0.0070580052132259985
1.0555079942370347   -0.0998043768804534   0.032598466206188795
1.0555079942370347   -0.0998043768804534   0.032598466206188795
1.0555079942370347   -0.0998043768804534   0.032598466206188795
1.0555079942370347   -0.0998043768804534   0.032598466206188795
1.0147138019369237   -0.14713902333302753   0.03185702557947928
1.0147138019369237   -0.14713902333302753   0.03185702557947928
1.0147138019369237   -0.14713902333302753   0.03185702557947928
1.0147138019369237   -0.14713902333302753   0.03185702557947928
2.1038750794072603   0.11814216256318089   0.04085955556337599
2.1038750794072603   0.11814216256318089   0.04085955556337599
2.1038750794072603   0.11814216256318089   0.04085955556337599
2.1038750794072603   0.11814216256318089   0.04085955556337599
1.4852350941358348   -0.030633500597135044   -0.0894028915235985
1.4852350941358348   -0.030633500597135044   -0.0894028915235985
1.4852350941358348   -0.030633500597135044   -0.0894028915235985
1.4852350941358348   -0.030633500597135044   -0.0894028915235985
1.1054931913863124   -0.14095268568909797   0.05463661050418826
1.1054931913863124   -0.14095268568909797   0.05463661050418826
1.1054931913863124   -0.14095268568909797   0.05463661050418826
1.1054931913863124   -0.14095268568909797   0.05463661050418826
0.21524363355098927   -0.131657444379445   0.011765039130277093
0.21524363355098927   -0.131657444379445   0.011765039130277093
0.21524363355098927   -0.131657444379445   0.011765039130277093
0.21524363355098927   -0.131657444379445   0.011765039130277093
0.13996537127743944   -0.3313512874450403   0.058623885088786964
0.13996537127743944   -0.3313512874450403   0.058623885088786964
0.13996537127743944   -0.3313512874450403   0.058623885088786964
0.13996537127743944   -0.3313512874450403   0.058623885088786964
1.1115410330418467   0.04295538083778386   0.04222308277234397
1.1115410330418467   0.04295538083778386   0.04222308277234397
1.1115410330418467   0.04295538083778386   0.04222308277234397
1.1115410330418467   0.04295538083778386   0.04222308277234397
0.6331794727487794   -0.140812521248697   -0.0024208959497288574
0.6331794727487794   -0.140812521248697   -0.0024208959497288574
0.6331794727487794   -0.140812521248697   -0.0024208959497288574
0.6331794727487794   -0.140812521248697   -0.0024208959497288574
1.0742444313306225   -0.14706763453446697   0.0457630895884705
1.0742444313306225   -0.14706763453446697   0.0457630895884705
1.0742444313306225   -0.14706763453446697   0.0457630895884705
1.0742444313306225   -0.14706763453446697   0.0457630895884705
0.16784362561297403   -0.15074661944847959   0.017410488769899278
0.16784362561297403   -0.15074661944847959   0.017410488769899278
0.16784362561297403   -0.15074661944847959   0.017410488769899278
0.16784362561297403   -0.15074661944847959   0.017410488769899278
0.10625634159371133   -0.3343444264197306   0.05248884047328839
0.10625634159371133   -0.3343444264197306   0.05248884047328839
0.10625634159371133   -0.3343444264197306   0.05248884047328839
0.10625634159371133   -0.3343444264197306   0.05248884047328839
1.0858774863737957   0.03460914305629076   0.05003240695325095
1.0858774863737957   0.03460914305629076   0.05003240695325095
1.0858774863737957   0.03460914305629076   0.05003240695325095
1.0858774863737957   0.03460914305629076   0.05003240695325095
0.5874059334015882   -0.15009061982771707   -0.030384248811213738
0.5874059334015882   -0.15009061982771707   -0.030384248811213738
0.5874059334015882   -0.15009061982771707   -0.030384248811213738
0.5874059334015882   -0.15009061982771707   -0.030384248811213738
1.0466792534758684   -0.14918961252831453   0.03783999804821159
1.0466792534758684   -0.14918961252831453   0.03783999804821159
1.0466792534758684   -0.14918961252831453   0.03783999804821159
1.0466792534758684   -0.14918961252831453   0.03783999804821159
0.13522013900039573   -0.16078010632636958   0.02374350741334931
0.13522013900039573   -0.16078010632636958   0.02374350741334931
0.13522013900039573   -0.16078010632636958   0.02374350741334931
0.13522013900039573   -0.16078010632636958   0.02374350741334931
0.06853424511453204   -0.33422360812903606   0.04109499103210021
0.06853424511453204   -0.33422360812903606   0.04109499103210021
0.06853424511453204   -0.33422360812903606   0.04109499103210021
0.06853424511453204   -0.33422360812903606   0.04109499103210021
1.0567519941486538   0.0350840181170865   0.05982494518802142
1.0567519941486538   0.0350840181170865   0.05982494518802142
1.0567519941486538   0.0350840181170865   0.05982494518802142
1.0567519941486538   0.0350840181170865   0.05982494518802142
0.5594317884350044   -0.14897203996480568   -0.05417734571618911
0.5594317884350044   -0.14897203996480568   -0.05417734571618911
0.5594317884350044   -0.14897203996480568   -0.05417734571618911
0.5594317884350044   -0.14897203996480568   -0.05417734571618911
0.1676783125405418   -0.40679645094318834   0.04907744064177935
0.1676783125405418   -0.40679645094318834   0.04907744064177935
0.1676783125405418   -0.40679645094318834   0.04907744064177935
0.1676783125405418   -0.40679645094318834   0.04907744064177935
-0.6502364708500517   -0.2043738985390779   0.0007869792592508917
-0.6502364708500517   -0.2043738985390779   0.0007869792592508917
-0.6502364708500517   -0.2043738985390779   0.0007869792592508917
-0.6502364708500517   -0.2043738985390779   0.0007869792592508917
-0.7864268369572782   -0.6039582546495005   0.067190033130128
-0.7864268369572782   -0.6039582546495005   0.067190033130128
-0.7864268369572782   -0.6039582546495005   0.067190033130128
-0.7864268369572782   -0.6039582546495005   0.067190033130128
0.1928997800586096   -0.03473592979840668   0.026680571348008057
0.1928997800586096   -0.03473592979840668   0.026680571348008057
0.1928997800586096   -0.03473592979840668   0.026680571348008057
0.1928997800586096   -0.03473592979840668   0.026680571348008057
-0.2654112330617334   -0.30806790917574245   0.01157108028911534
-0.2654112330617334   -0.30806790917574245   0.01157108028911534
-0.2654112330617334   -0.30806790917574245   0.01157108028911534
-0.2654112330617334   -0.30806790917574245   0.01157108028911534
0.11556638070810596   -0.42995174065252784   0.035229385449607103
0.11556638070810596   -0.42995174065252784   0.035229385449607103
0.11556638070810596   -0.42995174065252784   0.035229385449607103
0.11556638070810596   -0.42995174065252784   0.035229385449607103
-0.7222680519809764   -0.22191705816958274   0.005942761531713799
-0.7222680519809764   -0.22191705816958274   0.005942761531713799
-0.7222680519809764   -0.22191705816958274   0.005942761531713799
-0.7222680519809764   -0.22191705816958274   0.005942761531713799
-0.8333908746153328   -0.6137109977805066   0.05467704969107692
-0.8333908746153328   -0.6137109977805066   0.05467704969107692
-0.8333908746153328   -0.6137109977805066   0.05467704969107692
-0.8333908746153328   -0.6137109977805066   0.05467704969107692
0.1613177818910465   -0.04400252364581343   0.037454139186047
0.1613177818910465   -0.04400252364581343   0.037454139186047
0.1613177818910465   -0.04400252364581343   0.037454139186047
0.1613177818910465   -0.04400252364581343   0.037454139186047
-0.3240913496061567   -0.3268279253877224   -0.027631252135731588
-0.3240913496061567   -0.3268279253877224   -0.027631252135731588
-0.3240913496061567   -0.3268279253877224   -0.027631252135731588
-0.3240913496061567   -0.3268279253877224   -0.027631252135731588
0.07965957388092909   -0.437503502434617   0.02266407792426342
0.07965957388092909   -0.437503502434617   0.02266407792426342
0.07965957388092909   -0.437503502434617   0.02266407792426342
0.07965957388092909   -0.437503502434617   0.02266407792426342
-0.7673950192733436   -0.23587237165983194   0.006817700280344563
-0.7673950192733436   -0.23587237165983194   0.006817700280344563
-0.7673950192733436   -0.23587237165983194   0.006817700280344563
-0.7673950192733436   -0.23587237165983194   0.006817700280344563
-0.884274470102992   -0.6095552158935339   0.04610313083893858
-0.884274470102992   -0.6095552158935339   0.04610313083893858
-0.884274470102992   -0.6095552158935339   0.04610313083893858
-0.884274470102992   -0.6095552158935339   0.04610313083893858
0.12617545987794315   -0.049177613445012244   0.044255070165130264
0.12617545987794315   -0.049177613445012244   0.044255070165130264
0.12617545987794315   -0.049177613445012244   0.044255070165130264
0.12617545987794315   -0.049177613445012244   0.044255070165130264
-0.3716910185630254   -0.33397034374220114   -0.06677190440063295
-0.3716910185630254   -0.33397034374220114   -0.06677190440063295
-0.3716910185630254   -0.33397034374220114   -0.06677190440063295
-0.3716910185630254   -0.33397034374220114   -0.06677190440063295
-0.7372986510254946   -0.6972542845028521   0.0583564643458144
-0.7372986510254946   -0.6972542845028521   0.0583564643458144
-0.7372986510254946   -0.6972542845028521   0.0583564643458144
-0.7372986510254946   -0.6972542845028521   0.0583564643458144
-1.634513776971553   -0.25447102360736296   -0.03789991766529882
-1.634513776971553   -0.25447102360736296   -0.03789991766529882
-1.634513776971553   -0.25447102360736296   -0.03789991766529882
-1.634513776971553   -0.25447102360736296   -0.03789991766529882
-1.872490141579957   -1.0118509979794286   -0.05250838703646507
-1.872490141579957   -1.0118509979794286   -0.05250838703646507
-1.872490141579957   -1.0118509979794286   -0.05250838703646507
-1.872490141579957   -1.0118509979794286   -0.05250838703646507
-0.6859324909780616   -0.057349205470633255   0.023052713847337817
-0.6859324909780616   -0.057349205470633255   0.023052713847337817
-0.6859324909780616   -0.057349205470633255   0.023052713847337817
-0.6859324909780616   -0.057349205470633255   0.023052713847337817
-1.220766382958627   -0.4856594919250069   -0.04192117579430331
-1.220766382958627   -0.4856594919250069   -0.04192117579430331
-1.220766382958627   -0.4856594919250069   -0.04192117579430331
-1.220766382958627   -0.4856594919250069   -0.04192117579430331
-0.8330685107498652   -0.7895502604188156   0.019573669936507915
-0.8330685107498652   -0.7895502604188156   0.019573669936507915
-0.8330685107498652   -0.7895502604188156   0.019573669936507915
-0.8330685107498652   -0.7895502604188156   0.019573669936507915
-1.7215730618226301   -0.2758688830457221   -0.03390510318353773
-1.7215730618226301   -0.2758688830457221   -0.03390510318353773
-1.7215730618226301   -0.2758688830457221   -0.03390510318353773
-1.7215730618226301   -0.2758688830457221   -0.03390510318353773
-1.9283401074605386   -1.0281715406747738   -0.06072363802668396
-1.9283401074605386   -1.0281715406747738   -0.06072363802668396
-1.9283401074605386   -1.0281715406747738   -0.06072363802668396
-1.9283401074605386   -1.0281715406747738   -0.06072363802668396
-0.7292068616675115   -0.07254357881554205   0.03442969546521491
-0.7292068616675115   -0.07254357881554205   0.03442969546521491
-0.7292068616675115   -0.07254357881554205   0.03442969546521491
-0.7292068616675115   -0.07254357881554205   0.03442969546521491
-1.2890047757445648   -0.5380418461090495   -0.059239417214356216
-1.2890047757445648   -0.5380418461090495   -0.059239417214356216
-1.2890047757445648   -0.5380418461090495   -0.059239417214356216
-1.2890047757445648   -0.5380418461090495   -0.059239417214356216
-0.881062795424685   -0.8050417175745888   0.007648165438388255
-0.881062795424685   -0.8050417175745888   0.007648165438388255
-0.881062795424685   -0.8050417175745888   0.007648165438388255
-0.881062795424685   -0.8050417175745888   0.007648165438388255
-1.7767010017181968   -0.29589022993056247   -0.034809420059202116
-1.7767010017181968   -0.29589022993056247   -0.034809420059202116
-1.7767010017181968   -0.29589022993056247   -0.034809420059202116
-1.7767010017181968   -0.29589022993056247   -0.034809420059202116
-1.9759895708769477   -0.984225701869115   -0.06847788778993852
-1.9759895708769477   -0.984225701869115   -0.06847788778993852
-1.9759895708769477   -0.984225701869115   -0.06847788778993852
-1.9759895708769477   -0.984225701869115   -0.06847788778993852
-0.7840091342622326   -0.09399563122111727   0.03187022537030891
-0.7840091342622326   -0.09399563122111727   0.03187022537030891
-0.7840091342622326   -0.09399563122111727   0.03187022537030891
-0.7840091342622326   -0.09399563122111727   0.03187022537030891
-1.3518268861506089   -0.5559215427486776   -0.07577006905019604
-1.3518268861506089   -0.5559215427486776   -0.07577006905019604
-1.3518268861506089   -0.5559215427486776   -0.07577006905019604
-1.3518268861506089   -0.5559215427486776   -0.07577006905019604
-1.6054995872201814   -0.29213326328933487   0.14483327077350727
-1.6054995872201814   -0.29213326328933487   0.14483327077350727
-1.6054995872201814   -0.29213326328933487   0.14483327077350727
-1.6054995872201814   -0.29213326328933487   0.14483327077350727
-2.828266114203111   -0.21176580148854746   -0.05035262292730071
-2.828266114203111   -0.21176580148854746   -0.05035262292730071
-2.828266114203111   -0.21176580148854746   -0.05035262292730071
-2.828266114203111   -0.21176580148854746   -0.05035262292730071
-3.0016346798053344   -0.5923738457671058   0.03976545096980544
-3.0016346798053344   -0.5923738457671058   0.03976545096980544
-3.0016346798053344   -0.5923738457671058   0.03976545096980544
-3.0016346798053344   -0.5923738457671058   0.03976545096980544
-1.652029174058928   0.02371187079211895   0.014233581797121794
-1.652029174058928   0.02371187079211895   0.014233581797121794
-1.652029174058928   0.02371187079211895   0.014233581797121794
-1.652029174058928   0.02371187079211895   0.014233581797121794
-2.1636627823256287   -0.20809645376080063   0.04351399894221878
-2.1636627823256287   -0.20809645376080063   0.04351399894221878
-2.1636627823256287   -0.20809645376080063   0.04351399894221878
-2.1636627823256287   -0.20809645376080063   0.04351399894221878
-1.6966373240851995   -0.31362210360455434   0.12852680606242778
-1.6966373240851995   -0.31362210360455434   0.12852680606242778
-1.6966373240851995   -0.31362210360455434   0.12852680606242778
-1.6966373240851995   -0.31362210360455434   0.12852680606242778
-2.9494186793005284   -0.24743202089189503   -0.04409637138134771
-2.9494186793005284   -0.24743202089189503   -0.04409637138134771
-2.9494186793005284   -0.24743202089189503   -0.04409637138134771
-2.9494186793005284   -0.24743202089189503   -0.04409637138134771
-3.0752793173217476   -0.6176394949160305   -0.012918157258405172
-3.0752793173217476   -0.6176394949160305   -0.012918157258405172
-3.0752793173217476   -0.6176394949160305   -0.012918157258405172
-3.0752793173217476   -0.6176394949160305   -0.012918157258405172
-1.7040002206969525   0.006684177888094667   0.026120077228361155
-1.7040002206969525   0.006684177888094667   0.026120077228361155
-1.7040002206969525   0.006684177888094667   0.026120077228361155
-1.7040002206969525   0.006684177888094667   0.026120077228361155
-2.293290221427963   -0.274765147035396   0.017948903328201447
-2.293290221427963   -0.274765147035396   0.017948903328201447
-2.293290221427963   -0.274765147035396   0.017948903328201447
-2.293290221427963   -0.274765147035396   0.017948903328201447
-1.7551886444782505   -0.32972108471138084   0.10658322092134653
-1.7551886444782505   -0.32972108471138084   0.10658322092134653
-1.7551886444782505   -0.32972108471138084   0.10658322092134653
-1.7551886444782505   -0.32972108471138084   0.10658322092134653
-3.008835924942231   -0.2659792637183279   -0.03236142655847282
-3.008835924942231   -0.2659792637183279   -0.03236142655847282
-3.008835924942231   -0.2659792637183279   -0.03236142655847282
-3.008835924942231   -0.2659792637183279   -0.03236142655847282
-3.139431468899644   -0.6279159623417705   -0.0001483428092083905
-3.139431468899644   -0.6279159623417705   -0.0001483428092083905
-3.139431468899644   -0.6279159623417705   -0.0001483428092083905
-3.139431468899644   -0.6279159623417705   -0.0001483428092083905
-1.776964225545582   -0.06824403680305008   0.010667173800824839
-1.776964225545582   -0.06824403680305008   0.010667173800824839
-1.776964225545582   -0.06824403680305008   0.010667173800824839
-1.776964225545582   -0.06824403680305008   0.010667173800824839
-2.3213465400963424   -0.33203507562888984   0.028342597352640317
-2.3213465400963424   -0.33203507562888984   0.028342597352640317
-2.3213465400963424   -0.33203507562888984   0.028342597352640317
-2.3213465400963424   -0.33203507562888984   0.028342597352640317
1.9124752586879599   0.08784721048763267   -0.04162761095867229
1.9124752586879599   0.08784721048763267   -0.04162761095867229
1.9124752586879599   0.08784721048763267   -0.04162761095867229
1.9124752586879599   0.08784721048763267   -0.04162761095867229
0.9628449867222395   -0.019257546813288978   0.020520430406382732
0.9628449867222395   -0.019257546813288978   0.020520430406382732
0.9628449867222395   -0.019257546813288978   0.020520430406382732
0.9628449867222395   -0.019257546813288978   0.020520430406382732
0.9014612800873546   -0.141863204643282   -0.0367565849147672
0.9014612800873546   -0.141863204643282   -0.0367565849147672
0.9014612800873546   -0.141863204643282   -0.0367565849147672
0.9014612800873546   -0.141863204643282   -0.0367565849147672
1.890295024603588   0.13812447704345604   0.024008686118338243
1.890295024603588   0.13812447704345604   0.024008686118338243
1.890295024603588   0.13812447704345604   0.024008686118338243
1.890295024603588   0.13812447704345604   0.024008686118338243
1.3425018327094158   0.003290631153920698   -0.051861800246367926
1.3425018327094158   0.003290631153920698   -0.051861800246367926
1.3425018327094158   0.003290631153920698   -0.051861800246367926
1.3425018327094158   0.003290631153920698   -0.051861800246367926
1.8591970653170398   0.048636618942851595   -0.041993252213783985
1.8591970653170398   0.048636618942851595   -0.041993252213783985
1.8591970653170398   0.048636618942851595   -0.041993252213783985
1.8591970653170398   0.048636618942851595   -0.041993252213783985
0.9308286097937164   -0.05410597612286336   0.022322835096612606
0.9308286097937164   -0.05410597612286336   0.022322835096612606
0.9308286097937164   -0.05410597612286336   0.022322835096612606
0.9308286097937164   -0.05410597612286336   0.022322835096612606
0.8684153555309954   -0.1498114244043881   -0.030344132707445667
0.8684153555309954   -0.1498114244043881   -0.030344132707445667
0.8684153555309954   -0.1498114244043881   -0.030344132707445667
0.8684153555309954   -0.1498114244043881   -0.030344132707445667
1.8443786819441896   0.12687046756225134   0.03506924761913678
1.8443786819441896   0.12687046756225134   0.03506924761913678
1.8443786819441896   0.12687046756225134   0.03506924761913678
1.8443786819441896   0.12687046756225134   0.03506924761913678
1.3243984747613198   -0.013476576668675855   -0.061951046644839886
1.3243984747613198   -0.013476576668675855   -0.061951046644839886
1.3243984747613198   -0.013476576668675855   -0.061951046644839886
1.3243984747613198   -0.013476576668675855   -0.061951046644839886
1.8130537205088437   0.03854004727800209   -0.03322513927334307
1.8130537205088437   0.03854004727800209   -0.03322513927334307
1.8130537205088437   0.03854004727800209   -0.03322513927334307
1.8130537205088437   0.03854004727800209   -0.03322513927334307
0.8973434348105536   -0.06387788627592644   0.028362725561883698
0.8973434348105536   -0.06387788627592644   0.028362725561883698
0.8973434348105536   -0.06387788627592644   0.028362725561883698
0.8973434348105536   -0.06387788627592644   0.028362725561883698
0.8364014156062258   -0.14768424597758073   -0.02079882333939763
0.8364014156062258   -0.14768424597758073   -0.02079882333939763
0.8364014156062258   -0.14768424597758073   -0.02079882333939763
0.8364014156062258   -0.14768424597758073   -0.02079882333939763
1.787517981926672   0.1191752499342259   0.04560456795480372
1.787517981926672   0.1191752499342259   0.04560456795480372
1.787517981926672   0.1191752499342259   0.04560456795480372
1.787517981926672   0.1191752499342259   0.04560456795480372
1.258789974505125   -0.023526926325647624   -0.08139720450789147
1.258789974505125   -0.023526926325647624   -0.08139720450789147
1.258789974505125   -0.023526926325647624   -0.08139720450789147
1.258789974505125   -0.023526926325647624   -0.08139720450789147
0.9679539614153357   0.01824430398256857   0.008563453075998394
0.9679539614153357   0.01824430398256857   0.008563453075998394
0.9679539614153357   0.01824430398256857   0.008563453075998394
0.9679539614153357   0.01824430398256857   0.008563453075998394
0.09356051232150461   -0.057912751517494726   -0.0021518731810824046
0.09356051232150461   -0.057912751517494726   -0.0021518731810824046
0.09356051232150461   -0.057912751517494726   -0.0021518731810824046
0.09356051232150461   -0.057912751517494726   -0.0021518731810824046
0.035719296107893685   -0.1877242197916315   -0.03535318344078009
0.035719296107893685   -0.1877242197916315   -0.03535318344078009
0.035719296107893685   -0.1877242197916315   -0.03535318344078009
0.035719296107893685   -0.1877242197916315   -0.03535318344078009
0.9691303491282243   0.11174711949670924   0.04797843614957931
0.9691303491282243   0.11174711949670924   0.04797843614957931
0.9691303491282243   0.11174711949670924   0.04797843614957931
0.9691303491282243   0.11174711949670924   0.04797843614957931
0.5071099856002013   -0.026442446670364855   -0.020137735864331083
0.5071099856002013   -0.026442446670364855   -0.020137735864331083
0.5071099856002013   -0.026442446670364855   -0.020137735864331083
0.5071099856002013   -0.026442446670364855   -0.020137735864331083
0.9407996085383451   0.0033140416016617935   0.01475781109523503
0.9407996085383451   0.0033140416016617935   0.01475781109523503
0.9407996085383451   0.0033140416016617935   0.01475781109523503
0.9407996085383451   0.0033140416016617935   0.01475781109523503
0.06512135130227367   -0.07821982729208257   0.00215270003157084
0.06512135130227367   -0.07821982729208257   0.00215270003157084
0.06512135130227367   -0.07821982729208257   0.00215270003157084
0.06512135130227367   -0.07821982729208257   0.00215270003157084
0.00385656465891962   -0.1967177526912267   -0.024581150069460267
0.00385656465891962   -0.1967177526912267   -0.024581150069460267
0.00385656465891962   -0.1967177526912267   -0.024581150069460267
0.00385656465891962   -0.1967177526912267   -0.024581150069460267
0.9341493189520159   0.09558840653368678   0.052925853459582554
0.9341493189520159   0.09558840653368678   0.052925853459582554
0.9341493189520159   0.09558840653368678   0.052925853459582554
0.9341493189520159   0.09558840653368678   0.052925853459582554
0.470457425261215   -0.04130825396204979   -0.02851304310236244
0.470457425261215   -0.04130825396204979   -0.02851304310236244
0.470457425261215   -0.04130825396204979   -0.02851304310236244
0.470457425261215   -0.04130825396204979   -0.02851304310236244
0.9074085485942218   -0.0067742035411778034   0.021584611745482152
0.9074085485942218   -0.0067742035411778034   0.021584611745482152
0.9074085485942218   -0.0067742035411778034   0.021584611745482152
0.9074085485942218   -0.0067742035411778034   0.021584611745482152
0.030443962078281178   -0.09450851555479378   0.006146599890914602
0.030443962078281178   -0.09450851555479378   0.006146599890914602
0.030443962078281178   -0.09450851555479378   0.006146599890914602
0.030443962078281178   -0.09450851555479378   0.006146599890914602
-0.0303543956680056   -0.1976513797238136   -0.016745654199819764
-0.0303543956680056   -0.1976513797238136   -0.016745654199819764
-0.0303543956680056   -0.1976513797238136   -0.016745654199819764
-0.0303543956680056   -0.1976513797238136   -0.016745654199819764
0.8988567775036532   0.08529397401206097   0.05849976615810153
0.8988567775036532   0.08529397401206097   0.05849976615810153
0.8988567775036532   0.08529397401206097   0.05849976615810153
0.8988567775036532   0.08529397401206097   0.05849976615810153
0.4417518680925632   -0.04726246404913702   -0.035721067842686756
0.4417518680925632   -0.04726246404913702   -0.035721067842686756
0.4417518680925632   -0.04726246404913702   -0.035721067842686756
0.4417518680925632   -0.04726246404913702   -0.035721067842686756
0.09523820836664718   -0.05480965620180095   0.003133511728936722
0.09523820836664718   -0.05480965620180095   0.003133511728936722
0.09523820836664718   -0.05480965620180095   0.003133511728936722
0.09523820836664718   -0.05480965620180095   0.003133511728936722
-0.7466515049306603   -0.08632217168084524   -0.02350123961603883
-0.7466515049306603   -0.08632217168084524   -0.02350123961603883
-0.7466515049306603   -0.08632217168084524   -0.02350123961603883
-0.7466515049306603   -0.08632217168084524   -0.02350123961603883
-0.8109547013606366   -0.24889512268632047   -0.0402609116723146
-0.8109547013606366   -0.24889512268632047   -0.0402609116723146
-0.8109547013606366   -0.24889512268632047   -0.0402609116723146
-0.8109547013606366   -0.24889512268632047   -0.0402609116723146
0.1021994423218964   0.08180405392925585   0.02751927390834607
0.1021994423218964   0.08180405392925585   0.02751927390834607
0.1021994423218964   0.08180405392925585   0.02751927390834607
0.1021994423218964   0.08180405392925585   0.02751927390834607
-0.3410552851528559   -0.07336362038246902   -0.019998914004040937
-0.3410552851528559   -0.07336362038246902   -0.019998914004040937
-0.3410552851528559   -0.07336362038246902   -0.019998914004040937
-0.3410552851528559   -0.07336362038246902   -0.019998914004040937
0.07129949846521613   -0.06118948222987303   0.01601309078406977
0.07129949846521613   -0.06118948222987303   0.01601309078406977
0.07129949846521613   -0.06118948222987303   0.01601309078406977
0.07129949846521613   -0.06118948222987303   0.01601309078406977
-0.777692710639667   -0.10353953966290289   -0.019306541090884186
-0.777692710639667   -0.10353953966290289   -0.019306541090884186
-0.777692710639667   -0.10353953966290289   -0.019306541090884186
-0.777692710639667   -0.10353953966290289   -0.019306541090884186
-0.8483245452409017   -0.2587487937569619   -0.026634884237747097
-0.8483245452409017   -0.2587487937569619   -0.026634884237747097
-0.8483245452409017   -0.2587487937569619   -0.026634884237747097
-0.8483245452409017   -0.2587487937569619   -0.026634884237747097
0.06724135958453721   0.06450367060080077   0.031121401266600214
0.06724135958453721   0.06450367060080077   0.031121401266600214
0.06724135958453721   0.06450367060080077   0.031121401266600214
0.06724135958453721   0.06450367060080077   0.031121401266600214
-0.37196664933774826   -0.08367554185804656   -0.023991886780416038
-0.37196664933774826   -0.08367554185804656   -0.023991886780416038
-0.37196664933774826   -0.08367554185804656   -0.023991886780416038
-0.37196664933774826   -0.08367554185804656   -0.023991886780416038
0.03821221496153889   -0.07168216259870207   0.02216151135111144
0.03821221496153889   -0.07168216259870207   0.02216151135111144
0.03821221496153889   -0.07168216259870207   0.02216151135111144
0.03821221496153889   -0.07168216259870207   0.02216151135111144
-0.8188018554267193   -0.12206941536627636   -0.015700813557528753
-0.8188018554267193   -0.12206941536627636   -0.015700813557528753
-0.8188018554267193   -0.12206941536627636   -0.015700813557528753
-0.8188018554267193   -0.12206941536627636   -0.015700813557528753
-0.8897940772450923   -0.26595839822818035   -0.023679316627674876
-0.8897940772450923   -0.26595839822818035   -0.023679316627674876
-0.8897940772450923   -0.26595839822818035   -0.023679316627674876
-0.8897940772450923   -0.26595839822818035   -0.023679316627674876
0.029429572492186088   0.04973115149389387   0.03479165538343311
0.029429572492186088   0.04973115149389387   0.03479165538343311
0.029429572492186088   0.04973115149389387   0.03479165538343311
0.029429572492186088   0.04973115149389387   0.03479165538343311
-0.41213114287626224   -0.09602199369858079   -0.03360569451209795
-0.41213114287626224   -0.09602199369858079   -0.03360569451209795
-0.41213114287626224   -0.09602199369858079   -0.03360569451209795
-0.41213114287626224   -0.09602199369858079   -0.03360569451209795
-0.7352851450633441   -0.06470303007060413   0.011711418110286392
-0.7352851450633441   -0.06470303007060413   0.011711418110286392
-0.7352851450633441   -0.06470303007060413   0.011711418110286392
-0.7352851450633441   -0.06470303007060413   0.011711418110286392
-1.5665553990776873   -0.10101748933610685   -0.04144950153174653
-1.5665553990776873   -0.10101748933610685   -0.04144950153174653
-1.5665553990776873   -0.10101748933610685   -0.04144950153174653
-1.5665553990776873   -0.10101748933610685   -0.04144950153174653
-1.6396645990675194   -0.2607430680527044   -0.040184490973560416
-1.6396645990675194   -0.2607430680527044   -0.040184490973560416
-1.6396645990675194   -0.2607430680527044   -0.040184490973560416
-1.6396645990675194   -0.2607430680527044   -0.040184490973560416
-0.7390818762483073   0.06244247562199817   0.007765615581001237
-0.7390818762483073   0.06244247562199817   0.007765615581001237
-0.7390818762483073   0.06244247562199817   0.007765615581001237
-0.7390818762483073   0.06244247562199817   0.007765615581001237
-1.1604990845014107   -0.08678694607757248   -0.01682440794785159
-1.1604990845014107   -0.08678694607757248   -0.01682440794785159
-1.1604990845014107   -0.08678694607757248   -0.01682440794785159
-1.1604990845014107   -0.08678694607757248   -0.01682440794785159
-0.7618020678995263   -0.07151019752917674   0.028117330476085004
-0.7618020678995263   -0.07151019752917674   0.028117330476085004
-0.7618020678995263   -0.07151019752917674   0.028117330476085004
-0.7618020678995263   -0.07151019752917674   0.028117330476085004
-1.6123091472924258   -0.12215513477765688   -0.04199516537315569
-1.6123091472924258   -0.12215513477765688   -0.04199516537315569
-1.6123091472924258   -0.12215513477765688   -0.04199516537315569
-1.6123091472924258   -0.12215513477765688   -0.04199516537315569
-1.691374216075802   -0.2775013544533841   -0.028191828315704485
-1.691374216075802   -0.2775013544533841   -0.028191828315704485
-1.691374216075802   -0.2775013544533841   -0.028191828315704485
-1.691374216075802   -0.2775013544533841   -0.028191828315704485
-0.7806474472538365   0.043492827018122154   0.009508984922486925
-0.7806474472538365   0.043492827018122154   0.009508984922486925
-0.7806474472538365   0.043492827018122154   0.009508984922486925
-0.7806474472538365   0.043492827018122154   0.009508984922486925
-1.1932203267020582   -0.09608284005807743   -0.016884366961111827
-1.1932203267020582   -0.09608284005807743   -0.016884366961111827
-1.1932203267020582   -0.09608284005807743   -0.016884366961111827
-1.1932203267020582   -0.09608284005807743   -0.016884366961111827
-0.80308561268776   -0.08836922596536378   0.029180210736354885
-0.80308561268776   -0.08836922596536378   0.029180210736354885
-0.80308561268776   -0.08836922596536378   0.029180210736354885
-0.80308561268776   -0.08836922596536378   0.029180210736354885
-1.6658303717223808   -0.14253362255039043   -0.03544033845159275
-1.6658303717223808   -0.14253362255039043   -0.03544033845159275
-1.6658303717223808   -0.14253362255039043   -0.03544033845159275
-1.6658303717223808   -0.14253362255039043   -0.03544033845159275
-1.7498948064155146   -0.29958420596701407   -0.030186976205954473
-1.7498948064155146   -0.29958420596701407   -0.030186976205954473
-1.7498948064155146   -0.29958420596701407   -0.030186976205954473
-1.7498948064155146   -0.29958420596701407   -0.030186976205954473
-0.8255666027285482   0.020116281392905   0.011383376333941368
-0.8255666027285482   0.020116281392905   0.011383376333941368
-0.8255666027285482   0.020116281392905   0.011383376333941368
-0.8255666027285482   0.020116281392905   0.011383376333941368
-1.2512361698609622   -0.11870762316503553   -0.02742227015919567
-1.2512361698609622   -0.11870762316503553   -0.02742227015919567
-1.2512361698609622   -0.11870762316503553   -0.02742227015919567
-1.2512361698609622   -0.11870762316503553   -0.02742227015919567
-1.5134425042301245   0.07157411813791853   0.05152336523204236
-1.5134425042301245   0.07157411813791853   0.05152336523204236
-1.5134425042301245   0.07157411813791853   0.05152336523204236
-1.5134425042301245   0.07157411813791853   0.05152336523204236
-2.346741923929964   -0.11693366938413208   -0.03162776016995575
-2.346741923929964   -0.11693366938413208   -0.03162776016995575
-2.346741923929964   -0.11693366938413208   -0.03162776016995575
-2.346741923929964   -0.11693366938413208   -0.03162776016995575
-2.404606955074882   -0.11906659159508887   0.05291905087703684
-2.404606955074882   -0.11906659159508887   0.05291905087703684
-2.404606955074882   -0.11906659159508887   0.05291905087703684
-2.404606955074882   -0.11906659159508887   0.05291905087703684
-1.5722857893409483   0.048632142769792885   -0.012665653163218007
-1.5722857893409483   0.048632142769792885   -0.012665653163218007
-1.5722857893409483   0.048632142769792885   -0.012665653163218007
-1.5722857893409483   0.048632142769792885   -0.012665653163218007
-1.8679673115780253   0.001448095902762514   0.04739368786335579
-1.8679673115780253   0.001448095902762514   0.04739368786335579
-1.8679673115780253   0.001448095902762514   0.04739368786335579
-1.8679673115780253   0.001448095902762514   0.04739368786335579
-1.5558505761151207   0.05310782097383099   0.06503473476187481
-1.5558505761151207   0.05310782097383099   0.06503473476187481
-1.5558505761151207   0.05310782097383099   0.06503473476187481
-1.5558505761151207   0.05310782097383099   0.06503473476187481
-2.419965167410767   -0.12246526890918569   -0.020473333488292014
-2.419965167410767   -0.12246526890918569   -0.020473333488292014
-2.419965167410767   -0.12246526890918569   -0.020473333488292014
-2.419965167410767   -0.12246526890918569   -0.020473333488292014
-2.4776701904946368   -0.1388811306307135   0.07196350443206606
-2.4776701904946368   -0.1388811306307135   0.07196350443206606
-2.4776701904946368   -0.1388811306307135   0.07196350443206606
-2.4776701904946368   -0.1388811306307135   0.07196350443206606
-1.6258489214306624   0.03517115308489105   -0.013237862628292713
-1.6258489214306624   0.03517115308489105   -0.013237862628292713
-1.6258489214306624   0.03517115308489105   -0.013237862628292713
-1.6258489214306624   0.03517115308489105   -0.013237862628292713
-1.9621516835813697   -0.021750125400527898   0.025855770803922054
-1.9621516835813697   -0.021750125400527898   0.025855770803922054
-1.9621516835813697   -0.021750125400527898   0.025855770803922054
-1.9621516835813697   -0.021750125400527898   0.025855770803922054
-1.6108259125654347   0.03292057585439451   0.06412775892834241
-1.6108259125654347   0.03292057585439451   0.06412775892834241
-1.6108259125654347   0.03292057585439451   0.06412775892834241
-1.6108259125654347   0.03292057585439451   0.06412775892834241
-2.495522246431452   -0.13945960047180417   -0.016718305410918066
-2.495522246431452   -0.13945960047180417   -0.016718305410918066
-2.495522246431452   -0.13945960047180417   -0.016718305410918066
-2.495522246431452   -0.13945960047180417   -0.016718305410918066
-2.5815201885151176   -0.218780364023958   0.06254150066582122
-2.5815201885151176   -0.218780364023958   0.06254150066582122
-2.5815201885151176   -0.218780364023958   0.06254150066582122
-2.5815201885151176   -0.218780364023958   0.06254150066582122
-1.687603830367476   -0.0058566635518907395   -0.012459638380912602
-1.687603830367476   -0.0058566635518907395   -0.012459638380912602
-1.687603830367476   -0.0058566635518907395   -0.012459638380912602
-1.687603830367476   -0.0058566635518907395   -0.012459638380912602
-2.0023653313199774   -0.050940689306818276   0.006882643746085215
-2.0023653313199774   -0.050940689306818276   0.006882643746085215
-2.0023653313199774   -0.050940689306818276   0.006882643746085215
-2.0023653313199774   -0.050940689306818276   0.006882643746085215
1.5489688578358536   0.0827988049993641   -0.0553216816440273
1.5489688578358536   0.0827988049993641   -0.0553216816440273
1.5489688578358536   0.0827988049993641   -0.0553216816440273
1.5489688578358536   0.0827988049993641   -0.0553216816440273
0.7680579198518507   -0.000675566757879692   0.02007358024003722
0.7680579198518507   -0.000675566757879692   0.02007358024003722
0.7680579198518507   -0.000675566757879692   0.02007358024003722
0.7680579198518507   -0.000675566757879692   0.02007358024003722
0.701864795584046   -0.11450846424565336   -0.05072579130772849
0.701864795584046   -0.11450846424565336   -0.05072579130772849
0.701864795584046   -0.11450846424565336   -0.05072579130772849
0.701864795584046   -0.11450846424565336   -0.05072579130772849
1.519743133989334   0.12530444201711607   0.025171289014385693
1.519743133989334   0.12530444201711607   0.025171289014385693
1.519743133989334   0.12530444201711607   0.025171289014385693
1.519743133989334   0.12530444201711607   0.025171289014385693
1.0759982941016382   0.00950921702534921   -0.035408773868326665
1.0759982941016382   0.00950921702534921   -0.035408773868326665
1.0759982941016382   0.00950921702534921   -0.035408773868326665
1.0759982941016382   0.00950921702534921   -0.035408773868326665
1.4874097510414046   0.04208954030478135   -0.053280724012913463
1.4874097510414046   0.04208954030478135   -0.053280724012913463
1.4874097510414046   0.04208954030478135   -0.053280724012913463
1.4874097510414046   0.04208954030478135   -0.053280724012913463
0.7328102567423918   -0.03268148432290202   0.022174534561237406
0.7328102567423918   -0.03268148432290202   0.022174534561237406
0.7328102567423918   -0.03268148432290202   0.022174534561237406
0.7328102567423918   -0.03268148432290202   0.022174534561237406
0.668756860754871   -0.12408521885078799   -0.04408736325674141
0.668756860754871   -0.12408521885078799   -0.04408736325674141
0.668756860754871   -0.12408521885078799   -0.04408736325674141
0.668756860754871   -0.12408521885078799   -0.04408736325674141
1.4702182223646827   0.112146428340162   0.034401805391767924
1.4702182223646827   0.112146428340162   0.034401805391767924
1.4702182223646827   0.112146428340162   0.034401805391767924
1.4702182223646827   0.112146428340162   0.034401805391767924
1.0500587378621162   -0.0077399918319311645   -0.04654478610893704
1.0500587378621162   -0.0077399918319311645   -0.04654478610893704
1.0500587378621162   -0.0077399918319311645   -0.04654478610893704
1.0500587378621162   -0.0077399918319311645   -0.04654478610893704
1.4385780849181569   0.030305006610892193   -0.04195746011156522
1.4385780849181569   0.030305006610892193   -0.04195746011156522
1.4385780849181569   0.030305006610892193   -0.04195746011156522
1.4385780849181569   0.030305006610892193   -0.04195746011156522
0.699153616658117   -0.043487178664804504   0.027298376073501114
0.699153616658117   -0.043487178664804504   0.027298376073501114
0.699153616658117   -0.043487178664804504   0.027298376073501114
0.699153616658117   -0.043487178664804504   0.027298376073501114
0.638521127391565   -0.12694819405948118   -0.03601579747862457
0.638521127391565   -0.12694819405948118   -0.03601579747862457
0.638521127391565   -0.12694819405948118   -0.03601579747862457
0.638521127391565   -0.12694819405948118   -0.03601579747862457
1.4143866635242204   0.10059284320129608   0.04279901655396297
1.4143866635242204   0.10059284320129608   0.04279901655396297
1.4143866635242204   0.10059284320129608   0.04279901655396297
1.4143866635242204   0.10059284320129608   0.04279901655396297
0.9897106064979978   -0.019626258428363713   -0.06322975247893617
0.9897106064979978   -0.019626258428363713   -0.06322975247893617
0.9897106064979978   -0.019626258428363713   -0.06322975247893617
0.9897106064979978   -0.019626258428363713   -0.06322975247893617
0.781200481027966   0.08088981727712388   0.0042210020856105895
0.781200481027966   0.08088981727712388   0.0042210020856105895
0.781200481027966   0.08088981727712388   0.0042210020856105895
0.781200481027966   0.08088981727712388   0.0042210020856105895
0.026958148079113373   -0.02551591846596455   -0.003157560926415689
0.026958148079113373   -0.02551591846596455   -0.003157560926415689
0.026958148079113373   -0.02551591846596455   -0.003157560926415689
0.026958148079113373   -0.02551591846596455   -0.003157560926415689
-0.022934118148638886   -0.10316157394052274   -0.034500563759717474
-0.022934118148638886   -0.10316157394052274   -0.034500563759717474
-0.022934118148638886   -0.10316157394052274   -0.034500563759717474
-0.022934118148638886   -0.10316157394052274   -0.034500563759717474
0.7661033405456938   0.11345057627038661   0.04250789298445912
0.7661033405456938   0.11345057627038661   0.04250789298445912
0.7661033405456938   0.11345057627038661   0.04250789298445912
0.7661033405456938   0.11345057627038661   0.04250789298445912
0.38179045448943927   0.01615904305293489   -0.004381759358046116
0.38179045448943927   0.01615904305293489   -0.004381759358046116
0.38179045448943927   0.01615904305293489   -0.004381759358046116
0.38179045448943927   0.01615904305293489   -0.004381759358046116
0.7485972937729132   0.05977539022826678   0.008652845162678002
0.7485972937729132   0.05977539022826678   0.008652845162678002
0.7485972937729132   0.05977539022826678   0.008652845162678002
0.7485972937729132   0.05977539022826678   0.008652845162678002
-0.005118168681301575   -0.04917648520384585   0.0005940948402921899
-0.005118168681301575   -0.04917648520384585   0.0005940948402921899
-0.005118168681301575   -0.04917648520384585   0.0005940948402921899
-0.005118168681301575   -0.04917648520384585   0.0005940948402921899
-0.05429742655426076   -0.1186495117455845   -0.029816992430435663
-0.05429742655426076   -0.1186495117455845   -0.029816992430435663
-0.05429742655426076   -0.1186495117455845   -0.029816992430435663
-0.05429742655426076   -0.1186495117455845   -0.029816992430435663
0.7305758095196887   0.09388184977939795   0.047040311937156784
0.7305758095196887   0.09388184977939795   0.047040311937156784
0.7305758095196887   0.09388184977939795   0.047040311937156784
0.7305758095196887   0.09388184977939795   0.047040311937156784
0.3434926254069409   -0.0031214004755593106   -0.015339589030042497
0.3434926254069409   -0.0031214004755593106   -0.015339589030042497
0.3434926254069409   -0.0031214004755593106   -0.015339589030042497
0.3434926254069409   -0.0031214004755593106   -0.015339589030042497
0.7137245823921724   0.04354291145465396   0.013123114624323525
0.7137245823921724   0.04354291145465396   0.013123114624323525
0.7137245823921724   0.04354291145465396   0.013123114624323525
0.7137245823921724   0.04354291145465396   0.013123114624323525
-0.037415646954339715   -0.06828002094843505   0.004222414772020119
-0.037415646954339715   -0.06828002094843505   0.004222414772020119
-0.037415646954339715   -0.06828002094843505   0.004222414772020119
-0.037415646954339715   -0.06828002094843505   0.004222414772020119
-0.08534482703739724   -0.1279876990541895   -0.023706994632100225
-0.08534482703739724   -0.1279876990541895   -0.023706994632100225
-0.08534482703739724   -0.1279876990541895   -0.023706994632100225
-0.08534482703739724   -0.1279876990541895   -0.023706994632100225
0.6967862982572477   0.07736626222000824   0.050995600570289804
0.6967862982572477   0.07736626222000824   0.050995600570289804
0.6967862982572477   0.07736626222000824   0.050995600570289804
0.6967862982572477   0.07736626222000824   0.050995600570289804
0.31515563982116507   -0.015470622613293267   -0.023421836124414213
0.31515563982116507   -0.015470622613293267   -0.023421836124414213
0.31515563982116507   -0.015470622613293267   -0.023421836124414213
0.31515563982116507   -0.015470622613293267   -0.023421836124414213
0.05255509103249108   0.08173470209157872   0.01757653328292958
0.05255509103249108   0.08173470209157872   0.01757653328292958
0.05255509103249108   0.08173470209157872   0.01757653328292958
0.05255509103249108   0.08173470209157872   0.01757653328292958
-0.6911173837086755   -0.04468687553919526   -0.023784876600997762
-0.6911173837086755   -0.04468687553919526   -0.023784876600997762
-0.6911173837086755   -0.04468687553919526   -0.023784876600997762
-0.6911173837086755   -0.04468687553919526   -0.023784876600997762
-0.7300429584200898   -0.09451177103787681   -0.02181745018533103
-0.7300429584200898   -0.09451177103787681   -0.02181745018533103
-0.7300429584200898   -0.09451177103787681   -0.02181745018533103
-0.7300429584200898   -0.09451177103787681   -0.02181745018533103
0.02729564034170911   0.09289461127683617   0.0205920434746636
0.02729564034170911   0.09289461127683617   0.0205920434746636
0.02729564034170911   0.09289461127683617   0.0205920434746636
0.02729564034170911   0.09289461127683617   0.0205920434746636
-0.33490805629629294   0.01043715791320074   0.0012670127354859617
-0.33490805629629294   0.01043715791320074   0.0012670127354859617
-0.33490805629629294   0.01043715791320074   0.0012670127354859617
-0.33490805629629294   0.01043715791320074   0.0012670127354859617
0.021951650966215937   0.06466998537604776   0.022096722497986127
0.021951650966215937   0.06466998537604776   0.022096722497986127
0.021951650966215937   0.06466998537604776   0.022096722497986127
0.021951650966215937   0.06466998537604776   0.022096722497986127
-0.7238441067221671   -0.06543228281465897   -0.019902679918935757
-0.7238441067221671   -0.06543228281465897   -0.019902679918935757
-0.7238441067221671   -0.06543228281465897   -0.019902679918935757
-0.7238441067221671   -0.06543228281465897   -0.019902679918935757
-0.7637021583079153   -0.11153064350977933   -0.018106651393909132
-0.7637021583079153   -0.11153064350977933   -0.018106651393909132
-0.7637021583079153   -0.11153064350977933   -0.018106651393909132
-0.7637021583079153   -0.11153064350977933   -0.018106651393909132
-0.005052405345980868   0.07276338109771181   0.02499522076766748
-0.005052405345980868   0.07276338109771181   0.02499522076766748
-0.005052405345980868   0.07276338109771181   0.02499522076766748
-0.005052405345980868   0.07276338109771181   0.02499522076766748
-0.36715457927058226   -0.006210837830166779   -0.006973138827672792
-0.36715457927058226   -0.006210837830166779   -0.006973138827672792
-0.36715457927058226   -0.006210837830166779   -0.006973138827672792
-0.36715457927058226   -0.006210837830166779   -0.006973138827672792
-0.009618298294284615   0.04824440516375062   0.026684731960109936
-0.009618298294284615   0.04824440516375062   0.026684731960109936
-0.009618298294284615   0.04824440516375062   0.026684731960109936
-0.009618298294284615   0.04824440516375062   0.026684731960109936
-0.7584010693229737   -0.08627647153917893   -0.016855378439793445
-0.7584010693229737   -0.08627647153917893   -0.016855378439793445
-0.7584010693229737   -0.08627647153917893   -0.016855378439793445
-0.7584010693229737   -0.08627647153917893   -0.016855378439793445
-0.7971352953532664   -0.12492799671437489   -0.011939217812458245
-0.7971352953532664   -0.12492799671437489   -0.011939217812458245
-0.7971352953532664   -0.12492799671437489   -0.011939217812458245
-0.7971352953532664   -0.12492799671437489   -0.011939217812458245
-0.03856434732400772   0.0537991883274036   0.028408516553254246
-0.03856434732400772   0.0537991883274036   0.028408516553254246
-0.03856434732400772   0.0537991883274036   0.028408516553254246
-0.03856434732400772   0.0537991883274036   0.028408516553254246
-0.40185077084499243   -0.023142518532883058   -0.015975360417146728
-0.40185077084499243   -0.023142518532883058   -0.015975360417146728
-0.40185077084499243   -0.023142518532883058   -0.015975360417146728
-0.40185077084499243   -0.023142518532883058   -0.015975360417146728
-0.6516708740640351   0.09666789599130399   0.03209290009171685
-0.6516708740640351   0.09666789599130399   0.03209290009171685
-0.6516708740640351   0.09666789599130399   0.03209290009171685
-0.6516708740640351   0.09666789599130399   0.03209290009171685
-1.3852463908487753   -0.061472411916944525   -0.03899021612109406
-1.3852463908487753   -0.061472411916944525   -0.03899021612109406
-1.3852463908487753   -0.061472411916944525   -0.03899021612109406
-1.3852463908487753   -0.061472411916944525   -0.03899021612109406
-1.4155994672248962   -0.07565117619615941   -0.006185052533198024
-1.4155994672248962   -0.07565117619615941   -0.006185052533198024
-1.4155994672248962   -0.07565117619615941   -0.006185052533198024
-1.4155994672248962   -0.07565117619615941   -0.006185052533198024
-0.6929613676616085   0.07024585904412231   -0.0011671264749201146
-0.6929613676616085   0.07024585904412231   -0.0011671264749201146
-0.6929613676616085   0.07024585904412231   -0.0011671264749201146
-0.6929613676616085   0.07024585904412231   -0.0011671264749201146
-1.028885645893987   0.01063738804819861   0.007492849380077805
-1.028885645893987   0.01063738804819861   0.007492849380077805
-1.028885645893987   0.01063738804819861   0.007492849380077805
-1.028885645893987   0.01063738804819861   0.007492849380077805
-0.6837396722157522   0.0791626960600049   0.036024513738479605
-0.6837396722157522   0.0791626960600049   0.036024513738479605
-0.6837396722157522   0.0791626960600049   0.036024513738479605
-0.6837396722157522   0.0791626960600049   0.036024513738479605
-1.4236571881603188   -0.08340403870161053   -0.03872079470487382
-1.4236571881603188   -0.08340403870161053   -0.03872079470487382
-1.4236571881603188   -0.08340403870161053   -0.03872079470487382
-1.4236571881603188   -0.08340403870161053   -0.03872079470487382
-1.4570534886492679   -0.09478414539921631   -0.0054698357688352794
-1.4570534886492679   -0.09478414539921631   -0.0054698357688352794
-1.4570534886492679   -0.09478414539921631   -0.0054698357688352794
-1.4570534886492679   -0.09478414539921631   -0.0054698357688352794
-0.7270164072616815   0.05103511982616235   0.0027563405013260253
-0.7270164072616815   0.05103511982616235   0.0027563405013260253
-0.7270164072616815   0.05103511982616235   0.0027563405013260253
-0.7270164072616815   0.05103511982616235   0.0027563405013260253
-1.0579274071428801   -0.004602090537943471   0.0007317555318467894
-1.0579274071428801   -0.004602090537943471   0.0007317555318467894
-1.0579274071428801   -0.004602090537943471   0.0007317555318467894
-1.0579274071428801   -0.004602090537943471   0.0007317555318467894
-0.7169180103397885   0.06266133866986373   0.04162210626708543
-0.7169180103397885   0.06266133866986373   0.04162210626708543
-0.7169180103397885   0.06266133866986373   0.04162210626708543
-0.7169180103397885   0.06266133866986373   0.04162210626708543
-1.464791623812019   -0.10405010248377847   -0.034894554498040554
-1.464791623812019   -0.10405010248377847   -0.034894554498040554
-1.464791623812019   -0.10405010248377847   -0.034894554498040554
-1.464791623812019   -0.10405010248377847   -0.034894554498040554
-1.4952264178072923   -0.11526554325139982   0.004134068191222778
-1.4952264178072923   -0.11526554325139982   0.004134068191222778
-1.4952264178072923   -0.11526554325139982   0.004134068191222778
-1.4952264178072923   -0.11526554325139982   0.004134068191222778
-0.7631055251579696   0.028185509790516233   0.0050961266591464036
-0.7631055251579696   0.028185509790516233   0.0050961266591464036
-0.7631055251579696   0.028185509790516233   0.0050961266591464036
-0.7631055251579696   0.028185509790516233   0.0050961266591464036
-1.1032095152672885   -0.025965893933787426   -0.008348955605754736
-1.1032095152672885   -0.025965893933787426   -0.008348955605754736
-1.1032095152672885   -0.025965893933787426   -0.008348955605754736
-1.1032095152672885   -0.025965893933787426   -0.008348955605754736
-1.3360583659382776   0.10052007795923729   0.04495741855520499
-1.3360583659382776   0.10052007795923729   0.04495741855520499
-1.3360583659382776   0.10052007795923729   0.04495741855520499
-1.3360583659382776   0.10052007795923729   0.04495741855520499
-2.0447156842108845   -0.09456164683761092   -0.03601190382745699
-2.0447156842108845   -0.09456164683761092   -0.03601190382745699
-2.0447156842108845   -0.09456164683761092   -0.03601190382745699
-2.0447156842108845   -0.09456164683761092   -0.03601190382745699
-2.072870858859762   -0.041296982455358455   0.038273790229839275
-2.072870858859762   -0.041296982455358455   0.038273790229839275
-2.072870858859762   -0.041296982455358455   0.038273790229839275
-2.072870858859762   -0.041296982455358455   0.038273790229839275
-1.3948856320980707   0.04196377407694457   -0.020230827172175295
-1.3948856320980707   0.04196377407694457   -0.020230827172175295
-1.3948856320980707   0.04196377407694457   -0.020230827172175295
-1.3948856320980707   0.04196377407694457   -0.020230827172175295
-1.6364877329878784   0.02095447029263925   0.037563607360249676
-1.6364877329878784   0.02095447029263925   0.037563607360249676
-1.6364877329878784   0.02095447029263925   0.037563607360249676
-1.6364877329878784   0.02095447029263925   0.037563607360249676
-1.3684468787790551   0.10226533184565112   0.051661381654180036
-1.3684468787790551   0.10226533184565112   0.051661381654180036
-1.3684468787790551   0.10226533184565112   0.051661381654180036
-1.3684468787790551   0.10226533184565112   0.051661381654180036
-2.0977486941964303   -0.1000376222417152   -0.02737474666711455
-2.0977486941964303   -0.1000376222417152   -0.02737474666711455
-2.0977486941964303   -0.1000376222417152   -0.02737474666711455
-2.0977486941964303   -0.1000376222417152   -0.02737474666711455
-2.12435395033235   -0.05130613273745266   0.05288073716173741
-2.12435395033235   -0.05130613273745266   0.05288073716173741
-2.12435395033235   -0.05130613273745266   0.05288073716173741
-2.12435395033235   -0.05130613273745266   0.05288073716173741
-1.4344198032502327   0.03092246317471553   -0.018008017347590957
-1.4344198032502327   0.03092246317471553   -0.018008017347590957
-1.4344198032502327   0.03092246317471553   -0.018008017347590957
-1.4344198032502327   0.03092246317471553   -0.018008017347590957
-1.70723090013272   0.010329996677574504   0.024099731576499417
-1.70723090013272   0.010329996677574504   0.024099731576499417
-1.70723090013272   0.010329996677574504   0.024099731576499417
-1.70723090013272   0.010329996677574504   0.024099731576499417
-1.4052193887119444   0.09477327988166184   0.06414323863690469
-1.4052193887119444   0.09477327988166184   0.06414323863690469
-1.4052193887119444   0.09477327988166184   0.06414323863690469
-1.4052193887119444   0.09477327988166184   0.06414323863690469
-2.1520481190048053   -0.11365070357856   -0.0232455353593959
-2.1520481190048053   -0.11365070357856   -0.0232455353593959
-2.1520481190048053   -0.11365070357856   -0.0232455353593959
-2.1520481190048053   -0.11365070357856   -0.0232455353593959
-2.194179602585642   -0.09415777253003393   0.052610588946597994
-2.194179602585642   -0.09415777253003393   0.052610588946597994
-2.194179602585642   -0.09415777253003393   0.052610588946597994
-2.194179602585642   -0.09415777253003393   0.052610588946597994
-1.4768075829143112   -0.002124645644608014   -0.016912654950664102
-1.4768075829143112   -0.002124645644608014   -0.016912654950664102
-1.4768075829143112   -0.002124645644608014   -0.016912654950664102
-1.4768075829143112   -0.002124645644608014   -0.016912654950664102
-1.7279403482984819   -0.00493513166470172   0.019616058833404892
-1.7279403482984819   -0.00493513166470172   0.019616058833404892
-1.7279403482984819   -0.00493513166470172   0.019616058833404892
-1.7279403482984819   -0.00493513166470172   0.019616058833404892
1.1733557130295023   0.06514151990983591   -0.05613877959903635
1.1733557130295023   0.06514151990983591   -0.05613877959903635
1.1733557130295023   0.06514151990983591   -0.05613877959903635
1.1733557130295023   0.06514151990983591   -0.05613877959903635
0.5581025502296706   0.011308986006875035   0.02143149125922784
0.5581025502296706   0.011308986006875035   0.02143149125922784
0.5581025502296706   0.011308986006875035   0.02143149125922784
0.5581025502296706   0.011308986006875035   0.02143149125922784
0.4957184866209359   -0.09519435819828606   -0.053298064694226994
0.4957184866209359   -0.09519435819828606   -0.053298064694226994
0.4957184866209359   -0.09519435819828606   -0.053298064694226994
0.4957184866209359   -0.09519435819828606   -0.053298064694226994
1.1478678214634987   0.10791103884944309   0.026497337266919135
1.1478678214634987   0.10791103884944309   0.026497337266919135
1.1478678214634987   0.10791103884944309   0.026497337266919135
1.1478678214634987   0.10791103884944309   0.026497337266919135
0.8001846010817935   0.010826165357434775   -0.02365876537046885
0.8001846010817935   0.010826165357434775   -0.02365876537046885
0.8001846010817935   0.010826165357434775   -0.02365876537046885
0.8001846010817935   0.010826165357434775   -0.02365876537046885
1.1161652826744624   0.028944791987906948   -0.05304910981672714
1.1161652826744624   0.028944791987906948   -0.05304910981672714
1.1161652826744624   0.028944791987906948   -0.05304910981672714
1.1161652826744624   0.028944791987906948   -0.05304910981672714
0.5267954369374259   -0.0168536998093074   0.023746028499239707
0.5267954369374259   -0.0168536998093074   0.023746028499239707
0.5267954369374259   -0.0168536998093074   0.023746028499239707
0.5267954369374259   -0.0168536998093074   0.023746028499239707
0.4665690983072506   -0.10455337250198732   -0.0454480747616079
0.4665690983072506   -0.10455337250198732   -0.0454480747616079
0.4665690983072506   -0.10455337250198732   -0.0454480747616079
0.4665690983072506   -0.10455337250198732   -0.0454480747616079
1.1025449777664658   0.09453834215683554   0.03483620577565205
1.1025449777664658   0.09453834215683554   0.03483620577565205
1.1025449777664658   0.09453834215683554   0.03483620577565205
1.1025449777664658   0.09453834215683554   0.03483620577565205
0.7740540229475448   -0.005392048676901545   -0.033254583054764676
0.7740540229475448   -0.005392048676901545   -0.033254583054764676
0.7740540229475448   -0.005392048676901545   -0.033254583054764676
0.7740540229475448   -0.005392048676901545   -0.033254583054764676
1.0715849474215549   0.017045242928976218   -0.04247084672103333
1.0715849474215549   0.017045242928976218   -0.04247084672103333
1.0715849474215549   0.017045242928976218   -0.04247084672103333
1.0715849474215549   0.017045242928976218   -0.04247084672103333
0.49674146551225584   -0.02784793641404293   0.02870832517546959
0.49674146551225584   -0.02784793641404293   0.02870832517546959
0.49674146551225584   -0.02784793641404293   0.02870832517546959
0.49674146551225584   -0.02784793641404293   0.02870832517546959
0.440293063575324   -0.11035514568884906   -0.03784732794786641
0.440293063575324   -0.11035514568884906   -0.03784732794786641
0.440293063575324   -0.11035514568884906   -0.03784732794786641
0.440293063575324   -0.11035514568884906   -0.03784732794786641
1.0514404547784064   0.08003358719649248   0.04137208873335744
1.0514404547784064   0.08003358719649248   0.04137208873335744
1.0514404547784064   0.08003358719649248   0.04137208873335744
1.0514404547784064   0.08003358719649248   0.04137208873335744
0.7225149674081912   -0.017660268841652588   -0.04743383184740733
0.7225149674081912   -0.017660268841652588   -0.04743383184740733
0.7225149674081912   -0.017660268841652588   -0.04743383184740733
0.7225149674081912   -0.017660268841652588   -0.04743383184740733
0.5673719146751475   0.08251317244768751   -0.0034258729541895606
0.5673719146751475   0.08251317244768751   -0.0034258729541895606
0.5673719146751475   0.08251317244768751   -0.0034258729541895606
0.5673719146751475   0.08251317244768751   -0.0034258729541895606
-0.0369409018723274   -0.007964457108343733   -0.00025715113530583983
-0.0369409018723274   -0.007964457108343733   -0.00025715113530583983
-0.0369409018723274   -0.007964457108343733   -0.00025715113530583983
-0.0369409018723274   -0.007964457108343733   -0.00025715113530583983
-0.08088650424984382   -0.07122253419314123   -0.03386781453764247
-0.08088650424984382   -0.07122253419314123   -0.03386781453764247
-0.08088650424984382   -0.07122253419314123   -0.03386781453764247
-0.08088650424984382   -0.07122253419314123   -0.03386781453764247
0.5525657762243467   0.09806807155645682   0.037675953568079415
0.5525657762243467   0.09806807155645682   0.037675953568079415
0.5525657762243467   0.09806807155645682   0.037675953568079415
0.5525657762243467   0.09806807155645682   0.037675953568079415
0.2466687486265602   0.024214759411973635   0.0017501709173973245
0.2466687486265602   0.024214759411973635   0.0017501709173973245
0.2466687486265602   0.024214759411973635   0.0017501709173973245
0.2466687486265602   0.024214759411973635   0.0017501709173973245
0.537651387344291   0.059577519315056074   0.0015945614092092476
0.537651387344291   0.059577519315056074   0.0015945614092092476
0.537651387344291   0.059577519315056074   0.0015945614092092476
0.537651387344291   0.059577519315056074   0.0015945614092092476
-0.06571612537835986   -0.03247599196031095   0.0032375375869470764
-0.06571612537835986   -0.03247599196031095   0.0032375375869470764
-0.06571612537835986   -0.03247599196031095   0.0032375375869470764
-0.06571612537835986   -0.03247599196031095   0.0032375375869470764
-0.10834416515826015   -0.08890975940259303   -0.027997759294849343
-0.10834416515826015   -0.08890975940259303   -0.027997759294849343
-0.10834416515826015   -0.08890975940259303   -0.027997759294849343
-0.10834416515826015   -0.08890975940259303   -0.027997759294849343
0.5201990097494731   0.07695885577000211   0.04118925417751105
0.5201990097494731   0.07695885577000211   0.04118925417751105
0.5201990097494731   0.07695885577000211   0.04118925417751105
0.5201990097494731   0.07695885577000211   0.04118925417751105
0.21284039045143724   0.0033449569167698368   -0.008728679232094312
0.21284039045143724   0.0033449569167698368   -0.008728679232094312
0.21284039045143724   0.0033449569167698368   -0.008728679232094312
0.21284039045143724   0.0033449569167698368   -0.008728679232094312
0.5057781291674328   0.04060249394082577   0.005441213096490313
0.5057781291674328   0.04060249394082577   0.005441213096490313
0.5057781291674328   0.04060249394082577   0.005441213096490313
0.5057781291674328   0.04060249394082577   0.005441213096490313
-0.09413170218549298   -0.052761815182678855   0.006916611349072335
-0.09413170218549298   -0.052761815182678855   0.006916611349072335
-0.09413170218549298   -0.052761815182678855   0.006916611349072335
-0.09413170218549298   -0.052761815182678855   0.006916611349072335
-0.13544434725620136   -0.103775470017159   -0.02248241510209738
-0.13544434725620136   -0.103775470017159   -0.02248241510209738
-0.13544434725620136   -0.103775470017159   -0.02248241510209738
-0.13544434725620136   -0.103775470017159   -0.02248241510209738
0.4903155278828757   0.05743093580719796   0.044478912093841735
0.4903155278828757   0.05743093580719796   0.044478912093841735
0.4903155278828757   0.05743093580719796   0.044478912093841735
0.4903155278828757   0.05743093580719796   0.044478912093841735
0.18687755426291153   -0.012487117373206964   -0.017462813024490816
0.18687755426291153   -0.012487117373206964   -0.017462813024490816
0.18687755426291153   -0.012487117373206964   -0.017462813024490816
0.18687755426291153   -0.012487117373206964   -0.017462813024490816
-0.01287187533908319   0.09845325528286486   0.013670269139710499
-0.01287187533908319   0.09845325528286486   0.013670269139710499
-0.01287187533908319   0.09845325528286486   0.013670269139710499
-0.01287187533908319   0.09845325528286486   0.013670269139710499
-0.6193045638617126   -0.026802090385745353   -0.020542356022088176
-0.6193045638617126   -0.026802090385745353   -0.020542356022088176
-0.6193045638617126   -0.026802090385745353   -0.020542356022088176
-0.6193045638617126   -0.026802090385745353   -0.020542356022088176
-0.6476283864757043   -0.049415149157179164   -0.016032731877999546
-0.6476283864757043   -0.049415149157179164   -0.016032731877999546
-0.6476283864757043   -0.049415149157179164   -0.016032731877999546
-0.6476283864757043   -0.049415149157179164   -0.016032731877999546
-0.040744687710814353   0.0792031257047481   0.01641560825961552
-0.040744687710814353   0.0792031257047481   0.01641560825961552
-0.040744687710814353   0.0792031257047481   0.01641560825961552
-0.040744687710814353   0.0792031257047481   0.01641560825961552
-0.32935550602876634   0.02553175793857794   0.006461830555335918
-0.32935550602876634   0.02553175793857794   0.006461830555335918
-0.32935550602876634   0.02553175793857794   0.006461830555335918
-0.32935550602876634   0.02553175793857794   0.006461830555335918
-0.04019545496774028   0.07912580254663364   0.019239095133100348
-0.04019545496774028   0.07912580254663364   0.019239095133100348
-0.04019545496774028   0.07912580254663364   0.019239095133100348
-0.04019545496774028   0.07912580254663364   0.019239095133100348
-0.6476469920340095   -0.04880719881429585   -0.016733710012409003
-0.6476469920340095   -0.04880719881429585   -0.016733710012409003
-0.6476469920340095   -0.04880719881429585   -0.016733710012409003
-0.6476469920340095   -0.04880719881429585   -0.016733710012409003
-0.6757527965616008   -0.0685576391288789   -0.010909489149666097
-0.6757527965616008   -0.0685576391288789   -0.010909489149666097
-0.6757527965616008   -0.0685576391288789   -0.010909489149666097
-0.6757527965616008   -0.0685576391288789   -0.010909489149666097
-0.0693702424109355   0.05746681872224213   0.020495276316942562
-0.0693702424109355   0.05746681872224213   0.020495276316942562
-0.0693702424109355   0.05746681872224213   0.020495276316942562
-0.0693702424109355   0.05746681872224213   0.020495276316942562
-0.3577693542563981   0.006650603288406665   -0.002042041087640792
-0.3577693542563981   0.006650603288406665   -0.002042041087640792
-0.3577693542563981   0.006650603288406665   -0.002042041087640792
-0.3577693542563981   0.006650603288406665   -0.002042041087640792
-0.06825396647476457   0.059860599718680976   0.023682875001358353
-0.06825396647476457   0.059860599718680976   0.023682875001358353
-0.06825396647476457   0.059860599718680976   0.023682875001358353
-0.06825396647476457   0.059860599718680976   0.023682875001358353
-0.6767126258529415   -0.07079497348049774   -0.013471301254750725
-0.6767126258529415   -0.07079497348049774   -0.013471301254750725
-0.6767126258529415   -0.07079497348049774   -0.013471301254750725
-0.6767126258529415   -0.07079497348049774   -0.013471301254750725
-0.703547474967179   -0.08604688912920967   -0.005838743086641025
-0.703547474967179   -0.08604688912920967   -0.005838743086641025
-0.703547474967179   -0.08604688912920967   -0.005838743086641025
-0.703547474967179   -0.08604688912920967   -0.005838743086641025
-0.09811159511335954   0.03644406649576482   0.023961809099187756
-0.09811159511335954   0.03644406649576482   0.023961809099187756
-0.09811159511335954   0.03644406649576482   0.023961809099187756
-0.09811159511335954   0.03644406649576482   0.023961809099187756
-0.38748374979685585   -0.01239023418997623   -0.01151148373070817
-0.38748374979685585   -0.01239023418997623   -0.01151148373070817
-0.38748374979685585   -0.01239023418997623   -0.01151148373070817
-0.38748374979685585   -0.01239023418997623   -0.01151148373070817
-0.5812755037763819   0.11306664960459686   0.02973420441421938
-0.5812755037763819   0.11306664960459686   0.02973420441421938
-0.5812755037763819   0.11306664960459686   0.02973420441421938
-0.5812755037763819   0.11306664960459686   0.02973420441421938
-1.188273776951568   -0.046040059017268015   -0.03704740315274798
-1.188273776951568   -0.046040059017268015   -0.03704740315274798
-1.188273776951568   -0.046040059017268015   -0.03704740315274798
-1.188273776951568   -0.046040059017268015   -0.03704740315274798
-1.2037558252663654   -0.030999095110510105   0.0034025603566748067
-1.2037558252663654   -0.030999095110510105   0.0034025603566748067
-1.2037558252663654   -0.030999095110510105   0.0034025603566748067
-1.2037558252663654   -0.030999095110510105   0.0034025603566748067
-0.624119483157943   0.05686796446485071   -0.004771328911215032
-0.624119483157943   0.05686796446485071   -0.004771328911215032
-0.624119483157943   0.05686796446485071   -0.004771328911215032
-0.624119483157943   0.05686796446485071   -0.004771328911215032
-0.8935187747281425   0.02436549800356011   0.010952128951754153
-0.8935187747281425   0.02436549800356011   0.010952128951754153
-0.8935187747281425   0.02436549800356011   0.010952128951754153
-0.8935187747281425   0.02436549800356011   0.010952128951754153
-0.6086475236707822   0.09436111644596484   0.03509531654346635
-0.6086475236707822   0.09436111644596484   0.03509531654346635
-0.6086475236707822   0.09436111644596484   0.03509531654346635
-0.6086475236707822   0.09436111644596484   0.03509531654346635
-1.2190827513000315   -0.06834721363813115   -0.03588395128403548
-1.2190827513000315   -0.06834721363813115   -0.03588395128403548
-1.2190827513000315   -0.06834721363813115   -0.03588395128403548
-1.2190827513000315   -0.06834721363813115   -0.03588395128403548
-1.2365045736548017   -0.05034966079730893   0.005320603777089948
-1.2365045736548017   -0.05034966079730893   0.005320603777089948
-1.2365045736548017   -0.05034966079730893   0.005320603777089948
-1.2365045736548017   -0.05034966079730893   0.005320603777089948
-0.6526365475746769   0.03673691501147103   -0.0006227983553891078
-0.6526365475746769   0.03673691501147103   -0.0006227983553891078
-0.6526365475746769   0.03673691501147103   -0.0006227983553891078
-0.6526365475746769   0.03673691501147103   -0.0006227983553891078
-0.9175582349701807   0.007516631351276365   0.0030355237891768957
-0.9175582349701807   0.007516631351276365   0.0030355237891768957
-0.9175582349701807   0.007516631351276365   0.0030355237891768957
-0.9175582349701807   0.007516631351276365   0.0030355237891768957
-0.6365195057535278   0.07660258098324388   0.040096744778579906
-0.6365195057535278   0.07660258098324388   0.040096744778579906
-0.6365195057535278   0.07660258098324388   0.040096744778579906
-0.6365195057535278   0.07660258098324388   0.040096744778579906
-1.251791484528126   -0.08938519582125756   -0.03207841556558288
-1.251791484528126   -0.08938519582125756   -0.03207841556558288
-1.251791484528126   -0.08938519582125756   -0.03207841556558288
-1.251791484528126   -0.08938519582125756   -0.03207841556558288
-1.2662126744702464   -0.07117593148995241   0.01139606956907998
-1.2662126744702464   -0.07117593148995241   0.01139606956907998
-1.2662126744702464   -0.07117593148995241   0.01139606956907998
-1.2662126744702464   -0.07117593148995241   0.01139606956907998
-0.6819519387959847   0.013710181489485607   0.002381867150637665
-0.6819519387959847   0.013710181489485607   0.002381867150637665
-0.6819519387959847   0.013710181489485607   0.002381867150637665
-0.6819519387959847   0.013710181489485607   0.002381867150637665
-0.9541452121312888   -0.01360295944277265   -0.007011554095771727
-0.9541452121312888   -0.01360295944277265   -0.007011554095771727
-0.9541452121312888   -0.01360295944277265   -0.007011554095771727
-0.9541452121312888   -0.01360295944277265   -0.007011554095771727
-1.14296881190782   0.10139798416519824   0.04203937888352478
-1.14296881190782   0.10139798416519824   0.04203937888352478
-1.14296881190782   0.10139798416519824   0.04203937888352478
-1.14296881190782   0.10139798416519824   0.04203937888352478
-1.7292184489545732   -0.07976908070113214   -0.04085906358020992
-1.7292184489545732   -0.07976908070113214   -0.04085906358020992
-1.7292184489545732   -0.07976908070113214   -0.04085906358020992
-1.7292184489545732   -0.07976908070113214   -0.04085906358020992
-1.7485009881550009   -0.01696297786433143   0.03875076917837482
-1.7485009881550009   -0.01696297786433143   0.03875076917837482
-1.7485009881550009   -0.01696297786433143   0.03875076917837482
-1.7485009881550009   -0.01696297786433143   0.03875076917837482
-1.1972966490269814   0.028619426839550877   -0.023920080396466536
-1.1972966490269814   0.028619426839550877   -0.023920080396466536
-1.1972966490269814   0.028619426839550877   -0.023920080396466536
-1.1972966490269814   0.028619426839550877   -0.023920080396466536
-1.3901617821331091   0.022826924263696313   0.03402499610924621
-1.3901617821331091   0.022826924263696313   0.03402499610924621
-1.3901617821331091   0.022826924263696313   0.03402499610924621
-1.3901617821331091   0.022826924263696313   0.03402499610924621
-1.1681298768510746   0.10122311002109424   0.049310097301515976
-1.1681298768510746   0.10122311002109424   0.049310097301515976
-1.1681298768510746   0.10122311002109424   0.049310097301515976
-1.1681298768510746   0.10122311002109424   0.049310097301515976
-1.7771738122182066   -0.08907271293316366   -0.032503616068813995
-1.7771738122182066   -0.08907271293316366   -0.032503616068813995
-1.7771738122182066   -0.08907271293316366   -0.032503616068813995
-1.7771738122182066   -0.08907271293316366   -0.032503616068813995
-1.7913684697030678   -0.027170731364951406   0.04847467640690954
-1.7913684697030678   -0.027170731364951406   0.04847467640690954
-1.7913684697030678   -0.027170731364951406   0.04847467640690954
-1.7913684697030678   -0.027170731364951406   0.04847467640690954
-1.2280818821167079   0.017582279491661745   -0.020497878821412158
-1.2280818821167079   0.017582279491661745   -0.020497878821412158
-1.2280818821167079   0.017582279491661745   -0.020497878821412158
-1.2280818821167079   0.017582279491661745   -0.020497878821412158
-1.449995234688189   0.011431823850192091   0.02066839211838481
-1.449995234688189   0.011431823850192091   0.02066839211838481
-1.449995234688189   0.011431823850192091   0.02066839211838481
-1.449995234688189   0.011431823850192091   0.02066839211838481
-1.1971425641521165   0.09361309380209226   0.0581678966911149
-1.1971425641521165   0.09361309380209226   0.0581678966911149
-1.1971425641521165   0.09361309380209226   0.0581678966911149
-1.1971425641521165   0.09361309380209226   0.0581678966911149
-1.8214941809997918   -0.10238793900750026   -0.026936672434138248
-1.8214941809997918   -0.10238793900750026   -0.026936672434138248
-1.8214941809997918   -0.10238793900750026   -0.026936672434138248
-1.8214941809997918   -0.10238793900750026   -0.026936672434138248
-1.8479443897718577   -0.06344625602646203   0.0476160999976121
-1.8479443897718577   -0.06344625602646203   0.0476160999976121
-1.8479443897718577   -0.06344625602646203   0.0476160999976121
-1.8479443897718577   -0.06344625602646203   0.0476160999976121
-1.2605855431675523   -0.01307001439848815   -0.01857419100891429
-1.2605855431675523   -0.01307001439848815   -0.01857419100891429
-1.2605855431675523   -0.01307001439848815   -0.01857419100891429
-1.2605855431675523   -0.01307001439848815   -0.01857419100891429
-1.465486537618113   -0.0027316343191852166   0.01620193190068886
-1.465486537618113   -0.0027316343191852166   0.01620193190068886
-1.465486537618113   -0.0027316343191852166   0.01620193190068886
-1.465486537618113   -0.0027316343191852166   0.01620193190068886
0.8052102039616289   0.04554264552161717   -0.054507864899019653
0.8052102039616289   0.04554264552161717   -0.054507864899019653
0.8052102039616289   0.04554264552161717   -0.054507864899019653
0.8052102039616289   0.04554264552161717   -0.054507864899019653
0.3439446889423227   0.022077801568630095   0.023411526724078778
0.3439446889423227   0.022077801568630095   0.023411526724078778
0.3439446889423227   0.022077801568630095   0.023411526724078778
0.3439446889423227   0.022077801568630095   0.023411526724078778
0.2877489487636524   -0.07957542540727104   -0.05081611131680501
0.2877489487636524   -0.07957542540727104   -0.05081611131680501
0.2877489487636524   -0.07957542540727104   -0.05081611131680501
0.2877489487636524   -0.07957542540727104   -0.05081611131680501
0.7862621962899468   0.0915477714359335   0.028442497407487142
0.7862621962899468   0.0915477714359335   0.028442497407487142
0.7862621962899468   0.0915477714359335   0.028442497407487142
0.7862621962899468   0.0915477714359335   0.028442497407487142
0.5263549245236184   0.011677314771511946   -0.01438305489767534
0.5263549245236184   0.011677314771511946   -0.01438305489767534
0.5263549245236184   0.011677314771511946   -0.01438305489767534
0.5263549245236184   0.011677314771511946   -0.01438305489767534
0.7548650330498354   0.013843253534915001   -0.05083880089205772
0.7548650330498354   0.013843253534915001   -0.05083880089205772
0.7548650330498354   0.013843253534915001   -0.05083880089205772
0.7548650330498354   0.013843253534915001   -0.05083880089205772
0.3185563951315123   -0.002460624378504181   0.02610631949373318
0.3185563951315123   -0.002460624378504181   0.02610631949373318
0.3185563951315123   -0.002460624378504181   0.02610631949373318
0.3185563951315123   -0.002460624378504181   0.02610631949373318
0.26380701312135735   -0.0888257033205615   -0.04324605696622483
0.26380701312135735   -0.0888257033205615   -0.04324605696622483
0.26380701312135735   -0.0888257033205615   -0.04324605696622483
0.26380701312135735   -0.0888257033205615   -0.04324605696622483
0.7468748242911721   0.07842351251936147   0.03664620224429793
0.7468748242911721   0.07842351251936147   0.03664620224429793
0.7468748242911721   0.07842351251936147   0.03664620224429793
0.7468748242911721   0.07842351251936147   0.03664620224429793
0.5015777955851268   -0.003573754446217825   -0.023450184898972534
0.5015777955851268   -0.003573754446217825   -0.023450184898972534
0.5015777955851268   -0.003573754446217825   -0.023450184898972534
0.5015777955851268   -0.003573754446217825   -0.023450184898972534
0.7159952530945987   0.001996273186240849   -0.041324414405454396
0.7159952530945987   0.001996273186240849   -0.041324414405454396
0.7159952530945987   0.001996273186240849   -0.041324414405454396
0.7159952530945987   0.001996273186240849   -0.041324414405454396
0.293817526684084   -0.013267521621288192   0.031248329148137653
0.293817526684084   -0.013267521621288192   0.031248329148137653
0.293817526684084   -0.013267521621288192   0.031248329148137653
0.293817526684084   -0.013267521621288192   0.031248329148137653
0.24240245567789442   -0.09725667528333351   -0.0360412245652608
0.24240245567789442   -0.09725667528333351   -0.0360412245652608
0.24240245567789442   -0.09725667528333351   -0.0360412245652608
0.24240245567789442   -0.09725667528333351   -0.0360412245652608
0.7009007664956552   0.06114979525350721   0.041817941622906224
0.7009007664956552   0.06114979525350721   0.041817941622906224
0.7009007664956552   0.06114979525350721   0.041817941622906224
0.7009007664956552   0.06114979525350721   0.041817941622906224
0.4597335964769116   -0.016098251547738862   -0.03588822788184533
0.4597335964769116   -0.016098251547738862   -0.03588822788184533
0.4597335964769116   -0.016098251547738862   -0.03588822788184533
0.4597335964769116   -0.016098251547738862   -0.03588822788184533
0.34622545295561935   0.06674906146345344   -0.00985591310426673
0.34622545295561935   0.06674906146345344   -0.00985591310426673
0.34622545295561935   0.06674906146345344   -0.00985591310426673
0.34622545295561935   0.06674906146345344   -0.00985591310426673
-0.10643387106272342   0.005830818941868151   0.0031948210318918932
-0.10643387106272342   0.005830818941868151   0.0031948210318918932
-0.10643387106272342   0.005830818941868151   0.0031948210318918932
-0.10643387106272342   0.005830818941868151   0.0031948210318918932
-0.1448513348169616   -0.055208136068680656   -0.03128797351629968
-0.1448513348169616   -0.055208136068680656   -0.03128797351629968
-0.1448513348169616   -0.055208136068680656   -0.03128797351629968
-0.1448513348169616   -0.055208136068680656   -0.03128797351629968
0.33659529751057804   0.08026176573879476   0.03357844127176277
0.33659529751057804   0.08026176573879476   0.03357844127176277
0.33659529751057804   0.08026176573879476   0.03357844127176277
0.33659529751057804   0.08026176573879476   0.03357844127176277
0.10551631089076337   0.023223662182471343   0.004043280947976137
0.10551631089076337   0.023223662182471343   0.004043280947976137
0.10551631089076337   0.023223662182471343   0.004043280947976137
0.10551631089076337   0.023223662182471343   0.004043280947976137
0.3214128975292936   0.04323995543721382   -0.005311748333082511
0.3214128975292936   0.04323995543721382   -0.005311748333082511
0.3214128975292936   0.04323995543721382   -0.005311748333082511
0.3214128975292936   0.04323995543721382   -0.005311748333082511
-0.12989256375432554   -0.0184099546857481   0.006707700413952035
-0.12989256375432554   -0.0184099546857481   0.006707700413952035
-0.12989256375432554   -0.0184099546857481   0.006707700413952035
-0.12989256375432554   -0.0184099546857481   0.006707700413952035
-0.1671206250782465   -0.07380474460753919   -0.0253091128824759
-0.1671206250782465   -0.07380474460753919   -0.0253091128824759
-0.1671206250782465   -0.07380474460753919   -0.0253091128824759
-0.1671206250782465   -0.07380474460753919   -0.0253091128824759
0.309284779604063   0.05881079238566709   0.03650627974107757
0.309284779604063   0.05881079238566709   0.03650627974107757
0.309284779604063   0.05881079238566709   0.03650627974107757
0.309284779604063   0.05881079238566709   0.03650627974107757
0.07806127774530174   0.0022038176211023   -0.006054226646957105
0.07806127774530174   0.0022038176211023   -0.006054226646957105
0.07806127774530174   0.0022038176211023   -0.006054226646957105
0.07806127774530174   0.0022038176211023   -0.006054226646957105
0.2945823008486925   0.023298832353600994   -0.0014941540037138965
0.2945823008486925   0.023298832353600994   -0.0014941540037138965
0.2945823008486925   0.023298832353600994   -0.0014941540037138965
0.2945823008486925   0.023298832353600994   -0.0014941540037138965
-0.1529849254215747   -0.03885956367417272   0.010424204467516312
-0.1529849254215747   -0.03885956367417272   0.010424204467516312
-0.1529849254215747   -0.03885956367417272   0.010424204467516312
-0.1529849254215747   -0.03885956367417272   0.010424204467516312
-0.18909496230286593   -0.09130383351697074   -0.019784444341260247
-0.18909496230286593   -0.09130383351697074   -0.019784444341260247
-0.18909496230286593   -0.09130383351697074   -0.019784444341260247
-0.18909496230286593   -0.09130383351697074   -0.019784444341260247
0.28463934124240686   0.0381836096582614   0.03970291831571215
0.28463934124240686   0.0381836096582614   0.03970291831571215
0.28463934124240686   0.0381836096582614   0.03970291831571215
0.28463934124240686   0.0381836096582614   0.03970291831571215
0.056006860734657195   -0.015258521664165806   -0.014977780283799428
0.056006860734657195   -0.015258521664165806   -0.014977780283799428
0.056006860734657195   -0.015258521664165806   -0.014977780283799428
0.056006860734657195   -0.015258521664165806   -0.014977780283799428
-0.0897402172161264   0.0847650266576148   0.007728882549126452
-0.0897402172161264   0.0847650266576148   0.007728882549126452
-0.0897402172161264   0.0847650266576148   0.007728882549126452
-0.0897402172161264   0.0847650266576148   0.007728882549126452
-0.55014316189085   -0.013826371863236264   -0.016720747867596114
-0.55014316189085   -0.013826371863236264   -0.016720747867596114
-0.55014316189085   -0.013826371863236264   -0.016720747867596114
-0.55014316189085   -0.013826371863236264   -0.016720747867596114
-0.5721106435598465   -0.032814393639473555   -0.012306032612460605
-0.5721106435598465   -0.032814393639473555   -0.012306032612460605
-0.5721106435598465   -0.032814393639473555   -0.012306032612460605
-0.5721106435598465   -0.032814393639473555   -0.012306032612460605
-0.11270909353299875   0.061201236737808626   0.013013860097025307
-0.11270909353299875   0.061201236737808626   0.013013860097025307
-0.11270909353299875   0.061201236737808626   0.013013860097025307
-0.11270909353299875   0.061201236737808626   0.013013860097025307
-0.33036991532201515   0.024447837110345372   0.006527325625079385
-0.33036991532201515   0.024447837110345372   0.006527325625079385
-0.33036991532201515   0.024447837110345372   0.006527325625079385
-0.33036991532201515   0.024447837110345372   0.006527325625079385
-0.11201765248616474   0.06433322625962977   0.013339075809374244
-0.11201765248616474   0.06433322625962977   0.013339075809374244
-0.11201765248616474   0.06433322625962977   0.013339075809374244
-0.11201765248616474   0.06433322625962977   0.013339075809374244
-0.5728639376823604   -0.03600823623697465   -0.012878660627529303
-0.5728639376823604   -0.03600823623697465   -0.012878660627529303
-0.5728639376823604   -0.03600823623697465   -0.012878660627529303
-0.5728639376823604   -0.03600823623697465   -0.012878660627529303
-0.5946093308700827   -0.053076043579509014   -0.006979946732665901
-0.5946093308700827   -0.053076043579509014   -0.006979946732665901
-0.5946093308700827   -0.053076043579509014   -0.006979946732665901
-0.5946093308700827   -0.053076043579509014   -0.006979946732665901
-0.13607723089792914   0.03912529624099216   0.016977817170579362
-0.13607723089792914   0.03912529624099216   0.016977817170579362
-0.13607723089792914   0.03912529624099216   0.016977817170579362
-0.13607723089792914   0.03912529624099216   0.016977817170579362
-0.3535016810796308   0.0047239946831415525   -0.002155131548108216
-0.3535016810796308   0.0047239946831415525   -0.002155131548108216
-0.3535016810796308   0.0047239946831415525   -0.002155131548108216
-0.3535016810796308   0.0047239946831415525   -0.002155131548108216
-0.13490396876589622   0.043879085835173914   0.01809033823656224
-0.13490396876589622   0.043879085835173914   0.01809033823656224
-0.13490396876589622   0.043879085835173914   0.01809033823656224
-0.13490396876589622   0.043879085835173914   0.01809033823656224
-0.5961408170138708   -0.05818805718544584   -0.009525363845669078
-0.5961408170138708   -0.05818805718544584   -0.009525363845669078
-0.5961408170138708   -0.05818805718544584   -0.009525363845669078
-0.5961408170138708   -0.05818805718544584   -0.009525363845669078
-0.6167300258476437   -0.07243243623171655   -0.0018022738039349326
-0.6167300258476437   -0.07243243623171655   -0.0018022738039349326
-0.6167300258476437   -0.07243243623171655   -0.0018022738039349326
-0.6167300258476437   -0.07243243623171655   -0.0018022738039349326
-0.15924679778390366   0.017674001672245934   0.020478543064334255
-0.15924679778390366   0.017674001672245934   0.020478543064334255
-0.15924679778390366   0.017674001672245934   0.020478543064334255
-0.15924679778390366   0.017674001672245934   0.020478543064334255
-0.37758542626273695   -0.015022189001077699   -0.011565920542732425
-0.37758542626273695   -0.015022189001077699   -0.011565920542732425
-0.37758542626273695   -0.015022189001077699   -0.011565920542732425
-0.37758542626273695   -0.015022189001077699   -0.011565920542732425
-0.5190088333188155   0.10020609580475018   0.024918427324590355
-0.5190088333188155   0.10020609580475018   0.024918427324590355
-0.5190088333188155   0.10020609580475018   0.024918427324590355
-0.5190088333188155   0.10020609580475018   0.024918427324590355
-0.9859612694528409   -0.033375106038412594   -0.03404731496778313
-0.9859612694528409   -0.033375106038412594   -0.03404731496778313
-0.9859612694528409   -0.033375106038412594   -0.03404731496778313
-0.9859612694528409   -0.033375106038412594   -0.03404731496778313
-0.9942193236046731   -0.014586914560661829   0.008054116407952595
-0.9942193236046731   -0.014586914560661829   0.008054116407952595
-0.9942193236046731   -0.014586914560661829   0.008054116407952595
-0.9942193236046731   -0.014586914560661829   0.008054116407952595
-0.5565639313835282   0.03987730168594544   -0.007264167056295401
-0.5565639313835282   0.03987730168594544   -0.007264167056295401
-0.5565639313835282   0.03987730168594544   -0.007264167056295401
-0.5565639313835282   0.03987730168594544   -0.007264167056295401
-0.7594105447812421   0.023256315287311147   0.009480979233958547
-0.7594105447812421   0.023256315287311147   0.009480979233958547
-0.7594105447812421   0.023256315287311147   0.009480979233958547
-0.7594105447812421   0.023256315287311147   0.009480979233958547
-0.5408730495005291   0.08057085482292264   0.0304966892217308
-0.5408730495005291   0.08057085482292264   0.0304966892217308
-0.5408730495005291   0.08057085482292264   0.0304966892217308
-0.5408730495005291   0.08057085482292264   0.0304966892217308
-1.0105944813211962   -0.05596474353115666   -0.032443843204168314
-1.0105944813211962   -0.05596474353115666   -0.032443843204168314
-1.0105944813211962   -0.05596474353115666   -0.032443843204168314
-1.0105944813211962   -0.05596474353115666   -0.032443843204168314
-1.020739753723496   -0.034654529536911866   0.010523185051515511
-1.020739753723496   -0.034654529536911866   0.010523185051515511
-1.020739753723496   -0.034654529536911866   0.010523185051515511
-1.020739753723496   -0.034654529536911866   0.010523185051515511
-0.5793030011477789   0.01953373697712618   -0.0030580786777931954
-0.5793030011477789   0.01953373697712618   -0.0030580786777931954
-0.5793030011477789   0.01953373697712618   -0.0030580786777931954
-0.5793030011477789   0.01953373697712618   -0.0030580786777931954
-0.7788923593759262   0.0053668842837331365   0.0007750336139631595
-0.7788923593759262   0.0053668842837331365   0.0007750336139631595
-0.7788923593759262   0.0053668842837331365   0.0007750336139631595
-0.7788923593759262   0.0053668842837331365   0.0007750336139631595
-0.5630482023392127   0.06194089516506321   0.03580875717710758
-0.5630482023392127   0.06194089516506321   0.03580875717710758
-0.5630482023392127   0.06194089516506321   0.03580875717710758
-0.5630482023392127   0.06194089516506321   0.03580875717710758
-1.0370535742605729   -0.07712070945335978   -0.028579737717428923
-1.0370535742605729   -0.07712070945335978   -0.028579737717428923
-1.0370535742605729   -0.07712070945335978   -0.028579737717428923
-1.0370535742605729   -0.07712070945335978   -0.028579737717428923
-1.0443559338757373   -0.056031087719544986   0.016079516185237355
-1.0443559338757373   -0.056031087719544986   0.016079516185237355
-1.0443559338757373   -0.056031087719544986   0.016079516185237355
-1.0443559338757373   -0.056031087719544986   0.016079516185237355
-0.602439084355493   -0.0030271639150035723   0.00024716134009455937
-0.602439084355493   -0.0030271639150035723   0.00024716134009455937
-0.602439084355493   -0.0030271639150035723   0.00024716134009455937
-0.602439084355493   -0.0030271639150035723   0.00024716134009455937
-0.8081128194212465   -0.015389393017312653   -0.009326552966629938
-0.8081128194212465   -0.015389393017312653   -0.009326552966629938
-0.8081128194212465   -0.015389393017312653   -0.009326552966629938
-0.8081128194212465   -0.015389393017312653   -0.009326552966629938
-0.9460681542109899   0.09286785167019873   0.039175303532861014
-0.9460681542109899   0.09286785167019873   0.039175303532861014
-0.9460681542109899   0.09286785167019873   0.039175303532861014
-0.9460681542109899   0.09286785167019873   0.039175303532861014
-1.3958132763251865   -0.06425026881170631   -0.044245070357550514
-1.3958132763251865   -0.06425026881170631   -0.044245070357550514
-1.3958132763251865   -0.06425026881170631   -0.044245070357550514
-1.3958132763251865   -0.06425026881170631   -0.044245070357550514
-1.4093175361512116   -0.0012351536269418206   0.03882790439530007
-1.4093175361512116   -0.0012351536269418206   0.03882790439530007
-1.4093175361512116   -0.0012351536269418206   0.03882790439530007
-1.4093175361512116   -0.0012351536269418206   0.03882790439530007
-0.9955133695309206   0.013566404993128472   -0.02656943277709125
-0.9955133695309206   0.013566404993128472   -0.02656943277709125
-0.9955133695309206   0.013566404993128472   -0.02656943277709125
-0.9955133695309206   0.013566404993128472   -0.02656943277709125
-1.1344692315518659   0.021567840067998112   0.028705666067630448
-1.1344692315518659   0.021567840067998112   0.028705666067630448
-1.1344692315518659   0.021567840067998112   0.028705666067630448
-1.1344692315518659   0.021567840067998112   0.028705666067630448
-0.9658850670746354   0.08892788017400771   0.046210604323471544
-0.9658850670746354   0.08892788017400771   0.046210604323471544
-0.9658850670746354   0.08892788017400771   0.046210604323471544
-0.9658850670746354   0.08892788017400771   0.046210604323471544
-1.4395296519137168   -0.07718044211404082   -0.036287385930111
-1.4395296519137168   -0.07718044211404082   -0.036287385930111
-1.4395296519137168   -0.07718044211404082   -0.036287385930111
-1.4395296519137168   -0.07718044211404082   -0.036287385930111
-1.4467820165806118   -0.012271160945605653   0.04893505345621613
-1.4467820165806118   -0.012271160945605653   0.04893505345621613
-1.4467820165806118   -0.012271160945605653   0.04893505345621613
-1.4467820165806118   -0.012271160945605653   0.04893505345621613
-1.0199597713011757   0.002410433433434833   -0.022641865807245913
-1.0199597713011757   0.002410433433434833   -0.022641865807245913
-1.0199597713011757   0.002410433433434833   -0.022641865807245913
-1.0199597713011757   0.002410433433434833   -0.022641865807245913
-1.184970907903023   0.00888048086044535   0.015016995004707573
-1.184970907903023   0.00888048086044535   0.015016995004707573
-1.184970907903023   0.00888048086044535   0.015016995004707573
-1.184970907903023   0.00888048086044535   0.015016995004707573
-0.9889441075339132   0.08039898955417227   0.054447896908345644
-0.9889441075339132   0.08039898955417227   0.054447896908345644
-0.9889441075339132   0.08039898955417227   0.054447896908345644
-0.9889441075339132   0.08039898955417227   0.054447896908345644
-1.4782195639135716   -0.09068160063202721   -0.029842243522160382
-1.4782195639135716   -0.09068160063202721   -0.029842243522160382
-1.4782195639135716   -0.09068160063202721   -0.029842243522160382
-1.4782195639135716   -0.09068160063202721   -0.029842243522160382
-1.4969018102299128   -0.046798491359281214   0.049099691249481034
-1.4969018102299128   -0.046798491359281214   0.049099691249481034
-1.4969018102299128   -0.046798491359281214   0.049099691249481034
-1.4969018102299128   -0.046798491359281214   0.049099691249481034
-1.0455370918867735   -0.025837551864589053   -0.0200198097249153
-1.0455370918867735   -0.025837551864589053   -0.0200198097249153
-1.0455370918867735   -0.025837551864589053   -0.0200198097249153
-1.0455370918867735   -0.025837551864589053   -0.0200198097249153
-1.19929344718555   -0.0055894293512044335   0.00849911468761759
-1.19929344718555   -0.0055894293512044335   0.00849911468761759
-1.19929344718555   -0.0055894293512044335   0.00849911468761759
-1.19929344718555   -0.0055894293512044335   0.00849911468761759
0.44254552224859384   0.02645165057028598   -0.05332006157391295
0.44254552224859384   0.02645165057028598   -0.05332006157391295
0.44254552224859384   0.02645165057028598   -0.05332006157391295
0.44254552224859384   0.02645165057028598   -0.05332006157391295
0.12854228691074213   0.03206259053966247   0.025515722554470634
0.12854228691074213   0.03206259053966247   0.025515722554470634
0.12854228691074213   0.03206259053966247   0.025515722554470634
0.12854228691074213   0.03206259053966247   0.025515722554470634
0.07890208307858715   -0.06501589754200089   -0.047015734270794536
0.07890208307858715   -0.06501589754200089   -0.047015734270794536
0.07890208307858715   -0.06501589754200089   -0.047015734270794536
0.07890208307858715   -0.06501589754200089   -0.047015734270794536
0.43031707599091545   0.07553579801229493   0.030700797148717596
0.43031707599091545   0.07553579801229493   0.030700797148717596
0.43031707599091545   0.07553579801229493   0.030700797148717596
0.43031707599091545   0.07553579801229493   0.030700797148717596
0.25429584339964756   0.012594320939013408   -0.005887086898582769
0.25429584339964756   0.012594320939013408   -0.005887086898582769
0.25429584339964756   0.012594320939013408   -0.005887086898582769
0.25429584339964756   0.012594320939013408   -0.005887086898582769
0.3990201098370796   -0.0013656603814813095   -0.048882575226689116
0.3990201098370796   -0.0013656603814813095   -0.048882575226689116
0.3990201098370796   -0.0013656603814813095   -0.048882575226689116
0.3990201098370796   -0.0013656603814813095   -0.048882575226689116
0.10922226475498178   0.01090877637433368   0.028660500194845034
0.10922226475498178   0.01090877637433368   0.028660500194845034
0.10922226475498178   0.01090877637433368   0.028660500194845034
0.10922226475498178   0.01090877637433368   0.028660500194845034
0.06016085215618576   -0.07423401583502252   -0.03992746739263581
0.06016085215618576   -0.07423401583502252   -0.03992746739263581
0.06016085215618576   -0.07423401583502252   -0.03992746739263581
0.06016085215618576   -0.07423401583502252   -0.03992746739263581
0.3966298053631497   0.06281510137573493   0.03943417812875382
0.3966298053631497   0.06281510137573493   0.03943417812875382
0.3966298053631497   0.06281510137573493   0.03943417812875382
0.3966298053631497   0.06281510137573493   0.03943417812875382
0.2307633042747872   -0.0018022047582854986   -0.015231111922409475
0.2307633042747872   -0.0018022047582854986   -0.015231111922409475
0.2307633042747872   -0.0018022047582854986   -0.015231111922409475
0.2307633042747872   -0.0018022047582854986   -0.015231111922409475
0.3655130373150994   -0.013204164559883172   -0.040130396175883404
0.3655130373150994   -0.013204164559883172   -0.040130396175883404
0.3655130373150994   -0.013204164559883172   -0.040130396175883404
0.3655130373150994   -0.013204164559883172   -0.040130396175883404
0.08996995432571031   0.00047758422207454937   0.03440644339789132
0.08996995432571031   0.00047758422207454937   0.03440644339789132
0.08996995432571031   0.00047758422207454937   0.03440644339789132
0.08996995432571031   0.00047758422207454937   0.03440644339789132
0.04340248162495719   -0.08536425536781214   -0.033254026612992496
0.04340248162495719   -0.08536425536781214   -0.033254026612992496
0.04340248162495719   -0.08536425536781214   -0.033254026612992496
0.04340248162495719   -0.08536425536781214   -0.033254026612992496
0.3549181900584686   0.04245783231364671   0.04377733712063256
0.3549181900584686   0.04245783231364671   0.04377733712063256
0.3549181900584686   0.04245783231364671   0.04377733712063256
0.3549181900584686   0.04245783231364671   0.04377733712063256
0.19826404203718054   -0.014628072991101596   -0.026649936597843878
0.19826404203718054   -0.014628072991101596   -0.026649936597843878
0.19826404203718054   -0.014628072991101596   -0.026649936597843878
0.19826404203718054   -0.014628072991101596   -0.026649936597843878
0.12355337631599575   0.04809671352942817   -0.015462953409027196
0.12355337631599575   0.04809671352942817   -0.015462953409027196
0.12355337631599575   0.04809671352942817   -0.015462953409027196
0.12355337631599575   0.04809671352942817   -0.015462953409027196
-0.18010071403668584   0.015528467377419614   0.006204697368507544
-0.18010071403668584   0.015528467377419614   0.006204697368507544
-0.18010071403668584   0.015528467377419614   0.006204697368507544
-0.18010071403668584   0.015528467377419614   0.006204697368507544
-0.21207558229553933   -0.04167503695561476   -0.027434692394167483
-0.21207558229553933   -0.04167503695561476   -0.027434692394167483
-0.21207558229553933   -0.04167503695561476   -0.027434692394167483
-0.21207558229553933   -0.04167503695561476   -0.027434692394167483
0.11907842587239541   0.05969970826448086   0.029150373891765925
0.11907842587239541   0.05969970826448086   0.029150373891765925
0.11907842587239541   0.05969970826448086   0.029150373891765925
0.11907842587239541   0.05969970826448086   0.029150373891765925
-0.038443872947737635   0.019551676989563654   0.004952519910028008
-0.038443872947737635   0.019551676989563654   0.004952519910028008
-0.038443872947737635   0.019551676989563654   0.004952519910028008
-0.038443872947737635   0.019551676989563654   0.004952519910028008
0.10398550585834519   0.02475101297599558   -0.011365530890000296
0.10398550585834519   0.02475101297599558   -0.011365530890000296
0.10398550585834519   0.02475101297599558   -0.011365530890000296
0.10398550585834519   0.02475101297599558   -0.011365530890000296
-0.19781526186559284   -0.007558941251233284   0.009750814051183455
-0.19781526186559284   -0.007558941251233284   0.009750814051183455
-0.19781526186559284   -0.007558941251233284   0.009750814051183455
-0.19781526186559284   -0.007558941251233284   0.009750814051183455
-0.22884126778854486   -0.060412169721060886   -0.02148248339995439
-0.22884126778854486   -0.060412169721060886   -0.02148248339995439
-0.22884126778854486   -0.060412169721060886   -0.02148248339995439
-0.22884126778854486   -0.060412169721060886   -0.02148248339995439
0.09708109183377908   0.03865767068714265   0.031782044473167056
0.09708109183377908   0.03865767068714265   0.031782044473167056
0.09708109183377908   0.03865767068714265   0.031782044473167056
0.09708109183377908   0.03865767068714265   0.031782044473167056
-0.0591575054929876   -0.00065596163676525   -0.004730413575674656
-0.0591575054929876   -0.00065596163676525   -0.004730413575674656
-0.0591575054929876   -0.00065596163676525   -0.004730413575674656
-0.0591575054929876   -0.00065596163676525   -0.004730413575674656
0.08243430662752421   0.004650499723292166   -0.007444710594258228
0.08243430662752421   0.004650499723292166   -0.007444710594258228
0.08243430662752421   0.004650499723292166   -0.007444710594258228
0.08243430662752421   0.004650499723292166   -0.007444710594258228
-0.21527211651508038   -0.02748263269000102   0.013433735936308165
-0.21527211651508038   -0.02748263269000102   0.013433735936308165
-0.21527211651508038   -0.02748263269000102   0.013433735936308165
-0.21527211651508038   -0.02748263269000102   0.013433735936308165
-0.24547903913170271   -0.07900124082045615   -0.016102953703765972
-0.24547903913170271   -0.07900124082045615   -0.016102953703765972
-0.24547903913170271   -0.07900124082045615   -0.016102953703765972
-0.24547903913170271   -0.07900124082045615   -0.016102953703765972
0.07782123983753089   0.017995271188519485   0.03548023789354538
0.07782123983753089   0.017995271188519485   0.03548023789354538
0.07782123983753089   0.017995271188519485   0.03548023789354538
0.07782123983753089   0.017995271188519485   0.03548023789354538
-0.07708631635273276   -0.01875364929528563   -0.013875454358351223
-0.07708631635273276   -0.01875364929528563   -0.013875454358351223
-0.07708631635273276   -0.01875364929528563   -0.013875454358351223
-0.07708631635273276   -0.01875364929528563   -0.013875454358351223
-0.1708132073330469   0.06584825689555665   0.0023224413685652805
-0.1708132073330469   0.06584825689555665   0.0023224413685652805
-0.1708132073330469   0.06584825689555665   0.0023224413685652805
-0.1708132073330469   0.06584825689555665   0.0023224413685652805
-0.48464501893412215   -0.005765163448324992   -0.013316793176751544
-0.48464501893412215   -0.005765163448324992   -0.013316793176751544
-0.48464501893412215   -0.005765163448324992   -0.013316793176751544
-0.48464501893412215   -0.005765163448324992   -0.013316793176751544
-0.4997451362754332   -0.020399914067142103   -0.007955851185293916
-0.4997451362754332   -0.020399914067142103   -0.007955851185293916
-0.4997451362754332   -0.020399914067142103   -0.007955851185293916
-0.4997451362754332   -0.020399914067142103   -0.007955851185293916
-0.18854019638624148   0.039296743977992266   0.009270456218710948
-0.18854019638624148   0.039296743977992266   0.009270456218710948
-0.18854019638624148   0.039296743977992266   0.009270456218710948
-0.18854019638624148   0.039296743977992266   0.009270456218710948
-0.33513960537977616   0.01933026283069944   0.005135148031337175
-0.33513960537977616   0.01933026283069944   0.005135148031337175
-0.33513960537977616   0.01933026283069944   0.005135148031337175
-0.33513960537977616   0.01933026283069944   0.005135148031337175
-0.18764057171537815   0.045187694826776995   0.007877628724246525
-0.18764057171537815   0.045187694826776995   0.007877628724246525
-0.18764057171537815   0.045187694826776995   0.007877628724246525
-0.18764057171537815   0.045187694826776995   0.007877628724246525
-0.5013738508468921   -0.02701995481652826   -0.009479383293210297
-0.5013738508468921   -0.02701995481652826   -0.009479383293210297
-0.5013738508468921   -0.02701995481652826   -0.009479383293210297
-0.5013738508468921   -0.02701995481652826   -0.009479383293210297
-0.5164377951931444   -0.040854934404817606   -0.0025627717632542915
-0.5164377951931444   -0.040854934404817606   -0.0025627717632542915
-0.5164377951931444   -0.040854934404817606   -0.0025627717632542915
-0.5164377951931444   -0.040854934404817606   -0.0025627717632542915
-0.2062372214969634   0.017956139968110053   0.013169438368778003
-0.2062372214969634   0.017956139968110053   0.013169438368778003
-0.2062372214969634   0.017956139968110053   0.013169438368778003
-0.2062372214969634   0.017956139968110053   0.013169438368778003
-0.35255576925696863   -9.698531818488898e-05   -0.003545896194949008
-0.35255576925696863   -9.698531818488898e-05   -0.003545896194949008
-0.35255576925696863   -9.698531818488898e-05   -0.003545896194949008
-0.35255576925696863   -9.698531818488898e-05   -0.003545896194949008
-0.20503085205117758   0.024475411407825685   0.01268201415799542
-0.20503085205117758   0.024475411407825685   0.01268201415799542
-0.20503085205117758   0.024475411407825685   0.01268201415799542
-0.20503085205117758   0.024475411407825685   0.01268201415799542
-0.518680650081511   -0.04841069128711924   -0.006221289322790154
-0.518680650081511   -0.04841069128711924   -0.006221289322790154
-0.518680650081511   -0.04841069128711924   -0.006221289322790154
-0.518680650081511   -0.04841069128711924   -0.006221289322790154
-0.5328103117723628   -0.06060285417746071   0.00265777780422952
-0.5328103117723628   -0.06060285417746071   0.00265777780422952
-0.5328103117723628   -0.06060285417746071   0.00265777780422952
-0.5328103117723628   -0.06060285417746071   0.00265777780422952
-0.22363093153306274   -0.002601796668111306   0.016738140137089255
-0.22363093153306274   -0.002601796668111306   0.016738140137089255
-0.22363093153306274   -0.002601796668111306   0.016738140137089255
-0.22363093153306274   -0.002601796668111306   0.016738140137089255
-0.37088029171648085   -0.019570728403912524   -0.012971223100639213
-0.37088029171648085   -0.019570728403912524   -0.012971223100639213
-0.37088029171648085   -0.019570728403912524   -0.012971223100639213
-0.37088029171648085   -0.019570728403912524   -0.012971223100639213
-0.4601707613076371   0.08270860407137867   0.020580727435969448
-0.4601707613076371   0.08270860407137867   0.020580727435969448
-0.4601707613076371   0.08270860407137867   0.020580727435969448
-0.4601707613076371   0.08270860407137867   0.020580727435969448
-0.7825208623071152   -0.023239167140730294   -0.030392459794439886
-0.7825208623071152   -0.023239167140730294   -0.030392459794439886
-0.7825208623071152   -0.023239167140730294   -0.030392459794439886
-0.7825208623071152   -0.023239167140730294   -0.030392459794439886
-0.7840156067379603   -0.0016217002261464941   0.012692498737646586
-0.7840156067379603   -0.0016217002261464941   0.012692498737646586
-0.7840156067379603   -0.0016217002261464941   0.012692498737646586
-0.7840156067379603   -0.0016217002261464941   0.012692498737646586
-0.4919511917176918   0.02019912715005029   -0.009585169613790613
-0.4919511917176918   0.02019912715005029   -0.009585169613790613
-0.4919511917176918   0.02019912715005029   -0.009585169613790613
-0.4919511917176918   0.02019912715005029   -0.009585169613790613
-0.6264581897589919   0.01947468287570933   0.006762012977572104
-0.6264581897589919   0.01947468287570933   0.006762012977572104
-0.6264581897589919   0.01947468287570933   0.006762012977572104
-0.6264581897589919   0.01947468287570933   0.006762012977572104
-0.47632145482487115   0.06260929900750897   0.026153342992865286
-0.47632145482487115   0.06260929900750897   0.026153342992865286
-0.47632145482487115   0.06260929900750897   0.026153342992865286
-0.47632145482487115   0.06260929900750897   0.026153342992865286
-0.8010453154212989   -0.045431843874122274   -0.028645901031077163
-0.8010453154212989   -0.045431843874122274   -0.028645901031077163
-0.8010453154212989   -0.045431843874122274   -0.028645901031077163
-0.8010453154212989   -0.045431843874122274   -0.028645901031077163
-0.8045655621276755   -0.021787689182438508   0.01559735150427987
-0.8045655621276755   -0.021787689182438508   0.01559735150427987
-0.8045655621276755   -0.021787689182438508   0.01559735150427987
-0.8045655621276755   -0.021787689182438508   0.01559735150427987
-0.5087315886354513   0.0005502220900017174   -0.005436895469616124
-0.5087315886354513   0.0005502220900017174   -0.005436895469616124
-0.5087315886354513   0.0005502220900017174   -0.005436895469616124
-0.5087315886354513   0.0005502220900017174   -0.005436895469616124
-0.6412601489848044   0.00136890592249031   -0.0023394834811647364
-0.6412601489848044   0.00136890592249031   -0.0023394834811647364
-0.6412601489848044   0.00136890592249031   -0.0023394834811647364
-0.6412601489848044   0.00136890592249031   -0.0023394834811647364
-0.4926862921949125   0.0437805468898963   0.031559261933190995
-0.4926862921949125   0.0437805468898963   0.031559261933190995
-0.4926862921949125   0.0437805468898963   0.031559261933190995
-0.4926862921949125   0.0437805468898963   0.031559261933190995
-0.8214836300927914   -0.06589078550691156   -0.02488989199684236
-0.8214836300927914   -0.06589078550691156   -0.02488989199684236
-0.8214836300927914   -0.06589078550691156   -0.02488989199684236
-0.8214836300927914   -0.06589078550691156   -0.02488989199684236
-0.8223176068392007   -0.04280623036277778   0.021230351584961914
-0.8223176068392007   -0.04280623036277778   0.021230351584961914
-0.8223176068392007   -0.04280623036277778   0.021230351584961914
-0.8223176068392007   -0.04280623036277778   0.021230351584961914
-0.5257218375878466   -0.020462764070019665   -0.0020399413806375354
-0.5257218375878466   -0.020462764070019665   -0.0020399413806375354
-0.5257218375878466   -0.020462764070019665   -0.0020399413806375354
-0.5257218375878466   -0.020462764070019665   -0.0020399413806375354
-0.6632728624932599   -0.018357561909848163   -0.012258308493565385
-0.6632728624932599   -0.018357561909848163   -0.012258308493565385
-0.6632728624932599   -0.018357561909848163   -0.012258308493565385
-0.6632728624932599   -0.018357561909848163   -0.012258308493565385
-0.7482213297291725   0.08140861814159711   0.036457417812952864
-0.7482213297291725   0.08140861814159711   0.036457417812952864
-0.7482213297291725   0.08140861814159711   0.036457417812952864
-0.7482213297291725   0.08140861814159711   0.036457417812952864
-1.053003141872968   -0.048453699322733634   -0.04614326224410298
-1.053003141872968   -0.048453699322733634   -0.04614326224410298
-1.053003141872968   -0.048453699322733634   -0.04614326224410298
-1.053003141872968   -0.048453699322733634   -0.04614326224410298
-1.0607187555779576   0.013504158177063047   0.03832471918964913
-1.0607187555779576   0.013504158177063047   0.03832471918964913
-1.0607187555779576   0.013504158177063047   0.03832471918964913
-1.0607187555779576   0.013504158177063047   0.03832471918964913
-0.7923462792905774   -0.002394045407178025   -0.028188518844421882
-0.7923462792905774   -0.002394045407178025   -0.028188518844421882
-0.7923462792905774   -0.002394045407178025   -0.028188518844421882
-0.7923462792905774   -0.002394045407178025   -0.028188518844421882
-0.874310437516939   0.019529434824336528   0.02116828025070997
-0.874310437516939   0.019529434824336528   0.02116828025070997
-0.874310437516939   0.019529434824336528   0.02116828025070997
-0.874310437516939   0.019529434824336528   0.02116828025070997
-0.7627966940388896   0.07404724920693523   0.04311811279991141
-0.7627966940388896   0.07404724920693523   0.04311811279991141
-0.7627966940388896   0.07404724920693523   0.04311811279991141
-0.7627966940388896   0.07404724920693523   0.04311811279991141
-1.0917582602818057   -0.06442705588920397   -0.038941590263323465
-1.0917582602818057   -0.06442705588920397   -0.038941590263323465
-1.0917582602818057   -0.06442705588920397   -0.038941590263323465
-1.0917582602818057   -0.06442705588920397   -0.038941590263323465
-1.0927226391941962   0.002175264607916866   0.04894515795818464
-1.0927226391941962   0.002175264607916866   0.04894515795818464
-1.0927226391941962   0.002175264607916866   0.04894515795818464
-1.0927226391941962   0.002175264607916866   0.04894515795818464
-0.8108370016404004   -0.013358054784771478   -0.024189480457027512
-0.8108370016404004   -0.013358054784771478   -0.024189480457027512
-0.8108370016404004   -0.013358054784771478   -0.024189480457027512
-0.8108370016404004   -0.013358054784771478   -0.024189480457027512
-0.9152125179945869   0.006130500643202419   0.007626222305064934
-0.9152125179945869   0.006130500643202419   0.007626222305064934
-0.9152125179945869   0.006130500643202419   0.007626222305064934
-0.9152125179945869   0.006130500643202419   0.007626222305064934
-0.7800344718021367   0.06518074107049782   0.05128437287902985
-0.7800344718021367   0.06518074107049782   0.05128437287902985
-0.7800344718021367   0.06518074107049782   0.05128437287902985
-0.7800344718021367   0.06518074107049782   0.05128437287902985
-1.124935298718324   -0.0777736609332152   -0.032169214121322426
-1.124935298718324   -0.0777736609332152   -0.032169214121322426
-1.124935298718324   -0.0777736609332152   -0.032169214121322426
-1.124935298718324   -0.0777736609332152   -0.032169214121322426
-1.1369814541681094   -0.030014711109582815   0.050538756331420964
-1.1369814541681094   -0.030014711109582815   0.050538756331420964
-1.1369814541681094   -0.030014711109582815   0.050538756331420964
-1.1369814541681094   -0.030014711109582815   0.050538756331420964
-0.8299174325263197   -0.03848042652605016   -0.021094580687375755
-0.8299174325263197   -0.03848042652605016   -0.021094580687375755
-0.8299174325263197   -0.03848042652605016   -0.021094580687375755
-0.8299174325263197   -0.03848042652605016   -0.021094580687375755
-0.928551766667357   -0.008118827664718137   -0.0004297265256255553
-0.928551766667357   -0.008118827664718137   -0.0004297265256255553
-0.928551766667357   -0.008118827664718137   -0.0004297265256255553
-0.928551766667357   -0.008118827664718137   -0.0004297265256255553
0.07976017069416988   0.006561952169614232   -0.053205353079167655
0.07976017069416988   0.006561952169614232   -0.053205353079167655
0.07976017069416988   0.006561952169614232   -0.053205353079167655
0.07976017069416988   0.006561952169614232   -0.053205353079167655
-0.08663335143988797   0.03989305692165099   0.027209255677277208
-0.08663335143988797   0.03989305692165099   0.027209255677277208
-0.08663335143988797   0.03989305692165099   0.027209255677277208
-0.08663335143988797   0.03989305692165099   0.027209255677277208
-0.12999314421757918   -0.05123664772392979   -0.04285121132391131
-0.12999314421757918   -0.05123664772392979   -0.04285121132391131
-0.12999314421757918   -0.05123664772392979   -0.04285121132391131
-0.12999314421757918   -0.05123664772392979   -0.04285121132391131
0.07319055771898264   0.05638238659040257   0.03340814056293121
0.07319055771898264   0.05638238659040257   0.03340814056293121
0.07319055771898264   0.05638238659040257   0.03340814056293121
0.07319055771898264   0.05638238659040257   0.03340814056293121
-0.017737961275356838   0.012373751931008668   0.004622215690798987
-0.017737961275356838   0.012373751931008668   0.004622215690798987
-0.017737961275356838   0.012373751931008668   0.004622215690798987
-0.017737961275356838   0.012373751931008668   0.004622215690798987
0.042168674810724636   -0.01774818260923168   -0.04757070477872461
0.042168674810724636   -0.01774818260923168   -0.04757070477872461
0.042168674810724636   -0.01774818260923168   -0.04757070477872461
0.042168674810724636   -0.01774818260923168   -0.04757070477872461
-0.10080415838461712   0.021061024400408513   0.03079604571656072
-0.10080415838461712   0.021061024400408513   0.03079604571656072
-0.10080415838461712   0.021061024400408513   0.03079604571656072
-0.10080415838461712   0.021061024400408513   0.03079604571656072
-0.14428178932122715   -0.06051923579785807   -0.036325913054834326
-0.14428178932122715   -0.06051923579785807   -0.036325913054834326
-0.14428178932122715   -0.06051923579785807   -0.036325913054834326
-0.14428178932122715   -0.06051923579785807   -0.036325913054834326
0.04377794800065987   0.04377559232384061   0.045822690885507555
0.04377794800065987   0.04377559232384061   0.045822690885507555
0.04377794800065987   0.04377559232384061   0.045822690885507555
0.04377794800065987   0.04377559232384061   0.045822690885507555
-0.040940997523187875   -0.0015340029796999614   -0.006099157276441622
-0.040940997523187875   -0.0015340029796999614   -0.006099157276441622
-0.040940997523187875   -0.0015340029796999614   -0.006099157276441622
-0.040940997523187875   -0.0015340029796999614   -0.006099157276441622
0.012038222988532903   -0.02984176591266889   -0.03925857593861779
0.012038222988532903   -0.02984176591266889   -0.03925857593861779
0.012038222988532903   -0.02984176591266889   -0.03925857593861779
0.012038222988532903   -0.02984176591266889   -0.03925857593861779
-0.11508590891146725   0.010554277836279078   0.03857997535982701
-0.11508590891146725   0.010554277836279078   0.03857997535982701
-0.11508590891146725   0.010554277836279078   0.03857997535982701
-0.11508590891146725   0.010554277836279078   0.03857997535982701
-0.15736877120096904   -0.07477749070076982   -0.030112316692012468
-0.15736877120096904   -0.07477749070076982   -0.030112316692012468
-0.15736877120096904   -0.07477749070076982   -0.030112316692012468
-0.15736877120096904   -0.07477749070076982   -0.030112316692012468
0.002930358889760473   0.017356593601705265   0.05224485905299962
0.002930358889760473   0.017356593601705265   0.05224485905299962
0.002930358889760473   0.017356593601705265   0.05224485905299962
0.002930358889760473   0.017356593601705265   0.05224485905299962
-0.06587838754656941   -0.015532786829896266   -0.018465312335415256
-0.06587838754656941   -0.015532786829896266   -0.018465312335415256
-0.06587838754656941   -0.015532786829896266   -0.018465312335415256
-0.06587838754656941   -0.015532786829896266   -0.018465312335415256
-0.09903134390645796   0.02626989331914944   -0.021157543053071222
-0.09903134390645796   0.02626989331914944   -0.021157543053071222
-0.09903134390645796   0.02626989331914944   -0.021157543053071222
-0.09903134390645796   0.02626989331914944   -0.021157543053071222
-0.25481682405377215   0.01072117273649692   0.00709784154460559
-0.25481682405377215   0.01072117273649692   0.00709784154460559
-0.25481682405377215   0.01072117273649692   0.00709784154460559
-0.25481682405377215   0.01072117273649692   0.00709784154460559
-0.2771902339925989   -0.02984154011094061   -0.02228720812034711
-0.2771902339925989   -0.02984154011094061   -0.02228720812034711
-0.2771902339925989   -0.02984154011094061   -0.02228720812034711
-0.2771902339925989   -0.02984154011094061   -0.02228720812034711
-0.10181941713756341   0.025489454332354854   0.021291322019882895
-0.10181941713756341   0.025489454332354854   0.021291322019882895
-0.10181941713756341   0.025489454332354854   0.021291322019882895
-0.10181941713756341   0.025489454332354854   0.021291322019882895
-0.18284178553249772   0.007639561184524156   0.004073474694490001
-0.18284178553249772   0.007639561184524156   0.004073474694490001
-0.18284178553249772   0.007639561184524156   0.004073474694490001
-0.18284178553249772   0.007639561184524156   0.004073474694490001
-0.11389279148650369   0.003798475779879424   -0.017384571172342142
-0.11389279148650369   0.003798475779879424   -0.017384571172342142
-0.11389279148650369   0.003798475779879424   -0.017384571172342142
-0.11389279148650369   0.003798475779879424   -0.017384571172342142
-0.2666222777313335   -0.009655979646140532   0.010367012721176039
-0.2666222777313335   -0.009655979646140532   0.010367012721176039
-0.2666222777313335   -0.009655979646140532   0.010367012721176039
-0.2666222777313335   -0.009655979646140532   0.010367012721176039
-0.28831528578417615   -0.04806822315368662   -0.016451047113024066
-0.28831528578417615   -0.04806822315368662   -0.016451047113024066
-0.28831528578417615   -0.04806822315368662   -0.016451047113024066
-0.28831528578417615   -0.04806822315368662   -0.016451047113024066
-0.11904199909518691   0.005347941319285659   0.024005860958222193
-0.11904199909518691   0.005347941319285659   0.024005860958222193
-0.11904199909518691   0.005347941319285659   0.024005860958222193
-0.11904199909518691   0.005347941319285659   0.024005860958222193
-0.1968954658394418   -0.010654132913037358   -0.005105752744226944
-0.1968954658394418   -0.010654132913037358   -0.005105752744226944
-0.1968954658394418   -0.010654132913037358   -0.005105752744226944
-0.1968954658394418   -0.010654132913037358   -0.005105752744226944
-0.13068029419129432   -0.015848791710920806   -0.012988881492107527
-0.13068029419129432   -0.015848791710920806   -0.012988881492107527
-0.13068029419129432   -0.015848791710920806   -0.012988881492107527
-0.13068029419129432   -0.015848791710920806   -0.012988881492107527
-0.27829312633781583   -0.028487625773221992   0.01407915273831286
-0.27829312633781583   -0.028487625773221992   0.01407915273831286
-0.27829312633781583   -0.028487625773221992   0.01407915273831286
-0.27829312633781583   -0.028487625773221992   0.01407915273831286
-0.2995136735949215   -0.06682434256771448   -0.01128291745520275
-0.2995136735949215   -0.06682434256771448   -0.01128291745520275
-0.2995136735949215   -0.06682434256771448   -0.01128291745520275
-0.2995136735949215   -0.06682434256771448   -0.01128291745520275
-0.13344594712984395   -0.015060665988377644   0.029784978951220332
-0.13344594712984395   -0.015060665988377644   0.029784978951220332
-0.13344594712984395   -0.015060665988377644   0.029784978951220332
-0.13344594712984395   -0.015060665988377644   0.029784978951220332
-0.21093257796557377   -0.028747553305784556   -0.014440903417550287
-0.21093257796557377   -0.028747553305784556   -0.014440903417550287
-0.21093257796557377   -0.028747553305784556   -0.014440903417550287
-0.21093257796557377   -0.028747553305784556   -0.014440903417550287
-0.2501600449904864   0.04334647657938677   -0.0022435669818591346
-0.2501600449904864   0.04334647657938677   -0.0022435669818591346
-0.2501600449904864   0.04334647657938677   -0.0022435669818591346
-0.2501600449904864   0.04334647657938677   -0.0022435669818591346
-0.4214695989295521   -0.01444586152802882   -0.011914295492671298
-0.4214695989295521   -0.01444586152802882   -0.011914295492671298
-0.4214695989295521   -0.01444586152802882   -0.011914295492671298
-0.4214695989295521   -0.01444586152802882   -0.011914295492671298
-0.42590200657889316   -0.010534105111967104   -0.00252197903843418
-0.42590200657889316   -0.010534105111967104   -0.00252197903843418
-0.42590200657889316   -0.010534105111967104   -0.00252197903843418
-0.42590200657889316   -0.010534105111967104   -0.00252197903843418
-0.2656155663546379   0.002458942851150489   0.0032856471073631627
-0.2656155663546379   0.002458942851150489   0.0032856471073631627
-0.2656155663546379   0.002458942851150489   0.0032856471073631627
-0.2656155663546379   0.002458942851150489   0.0032856471073631627
-0.34007410887633166   0.004873467189172781   0.0013923077503762114
-0.34007410887633166   0.004873467189172781   0.0013923077503762114
-0.34007410887633166   0.004873467189172781   0.0013923077503762114
-0.34007410887633166   0.004873467189172781   0.0013923077503762114
-0.2614115529720321   0.023517760659500377   0.00324689621204214
-0.2614115529720321   0.023517760659500377   0.00324689621204214
-0.2614115529720321   0.023517760659500377   0.00324689621204214
-0.2614115529720321   0.023517760659500377   0.00324689621204214
-0.43155436653549006   -0.03304126949430808   -0.008276614439077547
-0.43155436653549006   -0.03304126949430808   -0.008276614439077547
-0.43155436653549006   -0.03304126949430808   -0.008276614439077547
-0.43155436653549006   -0.03304126949430808   -0.008276614439077547
-0.43633369325204746   -0.03011511897796819   0.002909615393470833
-0.43633369325204746   -0.03011511897796819   0.002909615393470833
-0.43633369325204746   -0.03011511897796819   0.002909615393470833
-0.43633369325204746   -0.03011511897796819   0.002909615393470833
-0.27741319999530667   -0.016790721266644035   0.006781879944280707
-0.27741319999530667   -0.016790721266644035   0.006781879944280707
-0.27741319999530667   -0.016790721266644035   0.006781879944280707
-0.27741319999530667   -0.016790721266644035   0.006781879944280707
-0.3513821396546512   -0.012934855495612005   -0.007037986775428624
-0.3513821396546512   -0.012934855495612005   -0.007037986775428624
-0.3513821396546512   -0.012934855495612005   -0.007037986775428624
-0.3513821396546512   -0.012934855495612005   -0.007037986775428624
-0.2730809290422974   0.0035700112281817423   0.00808250221450111
-0.2730809290422974   0.0035700112281817423   0.00808250221450111
-0.2730809290422974   0.0035700112281817423   0.00808250221450111
-0.2730809290422974   0.0035700112281817423   0.00808250221450111
-0.4424120838526486   -0.052221971120385825   -0.005375485467116992
-0.4424120838526486   -0.052221971120385825   -0.005375485467116992
-0.4424120838526486   -0.052221971120385825   -0.005375485467116992
-0.4424120838526486   -0.052221971120385825   -0.005375485467116992
-0.4464932674790281   -0.04889815291010655   0.008118694873109152
-0.4464932674790281   -0.04889815291010655   0.008118694873109152
-0.4464932674790281   -0.04889815291010655   0.008118694873109152
-0.4464932674790281   -0.04889815291010655   0.008118694873109152
-0.28874307937360794   -0.03495081350179029   0.010696524585440775
-0.28874307937360794   -0.03495081350179029   0.010696524585440775
-0.28874307937360794   -0.03495081350179029   0.010696524585440775
-0.28874307937360794   -0.03495081350179029   0.010696524585440775
-0.36355048552898084   -0.030853614008357004   -0.016198423018508747
-0.36355048552898084   -0.030853614008357004   -0.016198423018508747
-0.36355048552898084   -0.030853614008357004   -0.016198423018508747
-0.36355048552898084   -0.030853614008357004   -0.016198423018508747
-0.400189313756206   0.0627615735812905   0.01727969526475498
-0.400189313756206   0.0627615735812905   0.01727969526475498
-0.400189313756206   0.0627615735812905   0.01727969526475498
-0.400189313756206   0.0627615735812905   0.01727969526475498
-0.5815525003549153   -0.02403159950683076   -0.026725952205702445
-0.5815525003549153   -0.02403159950683076   -0.026725952205702445
-0.5815525003549153   -0.02403159950683076   -0.026725952205702445
-0.5815525003549153   -0.02403159950683076   -0.026725952205702445
-0.5737528297381458   0.009330864060649827   0.017875152959630387
-0.5737528297381458   0.009330864060649827   0.017875152959630387
-0.5737528297381458   0.009330864060649827   0.017875152959630387
-0.5737528297381458   0.009330864060649827   0.017875152959630387
-0.42735505518918215   -0.00843259396904529   -0.0118887332328006
-0.42735505518918215   -0.00843259396904529   -0.0118887332328006
-0.42735505518918215   -0.00843259396904529   -0.0118887332328006
-0.42735505518918215   -0.00843259396904529   -0.0118887332328006
-0.49399538796466763   0.009976214051006516   0.002382192080367107
-0.49399538796466763   0.009976214051006516   0.002382192080367107
-0.49399538796466763   0.009976214051006516   0.002382192080367107
-0.49399538796466763   0.009976214051006516   0.002382192080367107
-0.41012705048317527   0.043037273821124475   0.02278142250706381
-0.41012705048317527   0.043037273821124475   0.02278142250706381
-0.41012705048317527   0.043037273821124475   0.02278142250706381
-0.41012705048317527   0.043037273821124475   0.02278142250706381
-0.59309589627878   -0.044254065564154885   -0.025255250118750672
-0.59309589627878   -0.044254065564154885   -0.025255250118750672
-0.59309589627878   -0.044254065564154885   -0.025255250118750672
-0.59309589627878   -0.044254065564154885   -0.025255250118750672
-0.5877333333032706   -0.009939765537668871   0.021114911059819563
-0.5877333333032706   -0.009939765537668871   0.021114911059819563
-0.5877333333032706   -0.009939765537668871   0.021114911059819563
-0.5877333333032706   -0.009939765537668871   0.021114911059819563
-0.43769647573846976   -0.02593552802983072   -0.008083887986778015
-0.43769647573846976   -0.02593552802983072   -0.008083887986778015
-0.43769647573846976   -0.02593552802983072   -0.008083887986778015
-0.43769647573846976   -0.02593552802983072   -0.008083887986778015
-0.5034917087877634   -0.007184267487388624   -0.00675627969426279
-0.5034917087877634   -0.007184267487388624   -0.00675627969426279
-0.5034917087877634   -0.007184267487388624   -0.00675627969426279
-0.5034917087877634   -0.007184267487388624   -0.00675627969426279
-0.4202748534107336   0.0249555727944024   0.028133122827669662
-0.4202748534107336   0.0249555727944024   0.028133122827669662
-0.4202748534107336   0.0249555727944024   0.028133122827669662
-0.4202748534107336   0.0249555727944024   0.028133122827669662
-0.6068251414809854   -0.06250105221188713   -0.021782843154544467
-0.6068251414809854   -0.06250105221188713   -0.021782843154544467
-0.6068251414809854   -0.06250105221188713   -0.021782843154544467
-0.6068251414809854   -0.06250105221188713   -0.021782843154544467
-0.5990980984240818   -0.02935099340987142   0.026895172756308167
-0.5990980984240818   -0.02935099340987142   0.026895172756308167
-0.5990980984240818   -0.02935099340987142   0.026895172756308167
-0.5990980984240818   -0.02935099340987142   0.026895172756308167
-0.44807589783065316   -0.04385729646373504   -0.004835313331387554
-0.44807589783065316   -0.04385729646373504   -0.004835313331387554
-0.44807589783065316   -0.04385729646373504   -0.004835313331387554
-0.44807589783065316   -0.04385729646373504   -0.004835313331387554
-0.5177869989537104   -0.024687412165691078   -0.016122301193074267
-0.5177869989537104   -0.024687412165691078   -0.016122301193074267
-0.5177869989537104   -0.024687412165691078   -0.016122301193074267
-0.5177869989537104   -0.024687412165691078   -0.016122301193074267
-0.5509635645705052   0.06801691169040752   0.034170215519109655
-0.5509635645705052   0.06801691169040752   0.034170215519109655
-0.5509635645705052   0.06801691169040752   0.034170215519109655
-0.5509635645705052   0.06801691169040752   0.034170215519109655
-0.7091482628140976   -0.0354732779197966   -0.0447003472143976
-0.7091482628140976   -0.0354732779197966   -0.0447003472143976
-0.7091482628140976   -0.0354732779197966   -0.0447003472143976
-0.7091482628140976   -0.0354732779197966   -0.0447003472143976
-0.7097067825814742   0.027305112082578548   0.03766777189525781
-0.7097067825814742   0.027305112082578548   0.03766777189525781
-0.7097067825814742   0.027305112082578548   0.03766777189525781
-0.7097067825814742   0.027305112082578548   0.03766777189525781
-0.5886682085133841   -0.02002341909990693   -0.02734745775601162
-0.5886682085133841   -0.02002341909990693   -0.02734745775601162
-0.5886682085133841   -0.02002341909990693   -0.02734745775601162
-0.5886682085133841   -0.02002341909990693   -0.02734745775601162
-0.6137422268397275   0.01613748405287696   0.011873367882215685
-0.6137422268397275   0.01613748405287696   0.011873367882215685
-0.6137422268397275   0.01613748405287696   0.011873367882215685
-0.6137422268397275   0.01613748405287696   0.011873367882215685
-0.559559357644713   0.05786309849030431   0.04031027899712534
-0.559559357644713   0.05786309849030431   0.04031027899712534
-0.559559357644713   0.05786309849030431   0.04031027899712534
-0.559559357644713   0.05786309849030431   0.04031027899712534
-0.7410126541114254   -0.05277842616891007   -0.03877804750298604
-0.7410126541114254   -0.05277842616891007   -0.03877804750298604
-0.7410126541114254   -0.05277842616891007   -0.03877804750298604
-0.7410126541114254   -0.05277842616891007   -0.03877804750298604
-0.7351351734583921   0.016326973540495532   0.04853383298729913
-0.7351351734583921   0.016326973540495532   0.04853383298729913
-0.7351351734583921   0.016326973540495532   0.04853383298729913
-0.7351351734583921   0.016326973540495532   0.04853383298729913
-0.6007769327111535   -0.030085172687397785   -0.023957678829874162
-0.6007769327111535   -0.030085172687397785   -0.023957678829874162
-0.6007769327111535   -0.030085172687397785   -0.023957678829874162
-0.6007769327111535   -0.030085172687397785   -0.023957678829874162
-0.6440116207769843   0.0027893413328432537   -0.0008047766395402195
-0.6440116207769843   0.0027893413328432537   -0.0008047766395402195
-0.6440116207769843   0.0027893413328432537   -0.0008047766395402195
-0.6440116207769843   0.0027893413328432537   -0.0008047766395402195
-0.5704558935758289   0.04922377645951548   0.048338567699835744
-0.5704558935758289   0.04922377645951548   0.048338567699835744
-0.5704558935758289   0.04922377645951548   0.048338567699835744
-0.5704558935758289   0.04922377645951548   0.048338567699835744
-0.7676951136928132   -0.06522087670551684   -0.03271801793877893
-0.7676951136928132   -0.06522087670551684   -0.03271801793877893
-0.7676951136928132   -0.06522087670551684   -0.03271801793877893
-0.7676951136928132   -0.06522087670551684   -0.03271801793877893
-0.7727132381106756   -0.012556964029246082   0.05131853738100052
-0.7727132381106756   -0.012556964029246082   0.05131853738100052
-0.7727132381106756   -0.012556964029246082   0.05131853738100052
-0.7727132381106756   -0.012556964029246082   0.05131853738100052
-0.6129352628678584   -0.0509474882357603   -0.020694154636693687
-0.6129352628678584   -0.0509474882357603   -0.020694154636693687
-0.6129352628678584   -0.0509474882357603   -0.020694154636693687
-0.6129352628678584   -0.0509474882357603   -0.020694154636693687
-0.6556321913187309   -0.010434996216837245   -0.009803780236189927
-0.6556321913187309   -0.010434996216837245   -0.009803780236189927
-0.6556321913187309   -0.010434996216837245   -0.009803780236189927
-0.6556321913187309   -0.010434996216837245   -0.009803780236189927
-0.3004033934674554   -0.019604404185213885   -0.05650800782947969
-0.3004033934674554   -0.019604404185213885   -0.05650800782947969
-0.3004033934674554   -0.019604404185213885   -0.05650800782947969
-0.3004033934674554   -0.019604404185213885   -0.05650800782947969
-0.2975078916980214   0.043264939513682196   0.02541807974333288
-0.2975078916980214   0.043264939513682196   0.02541807974333288
-0.2975078916980214   0.043264939513682196   0.02541807974333288
-0.2975078916980214   0.043264939513682196   0.02541807974333288
-0.3347918289734146   -0.03955825948272374   -0.03831270311030306
-0.3347918289734146   -0.03955825948272374   -0.03831270311030306
-0.3347918289734146   -0.03955825948272374   -0.03831270311030306
-0.3347918289734146   -0.03955825948272374   -0.03831270311030306
-0.30662984003489135   0.022650419484545152   0.03818597012201779
-0.30662984003489135   0.022650419484545152   0.03818597012201779
-0.30662984003489135   0.022650419484545152   0.03818597012201779
-0.30662984003489135   0.022650419484545152   0.03818597012201779
-0.29427951724805024   0.0072990633789022374   0.025932088999359018
-0.29427951724805024   0.0072990633789022374   0.025932088999359018
-0.29427951724805024   0.0072990633789022374   0.025932088999359018
-0.29427951724805024   0.0072990633789022374   0.025932088999359018
-0.33661495613061004   -0.04173181872209505   -0.0473573721499335
-0.33661495613061004   -0.04173181872209505   -0.0473573721499335
-0.33661495613061004   -0.04173181872209505   -0.0473573721499335
-0.33661495613061004   -0.04173181872209505   -0.0473573721499335
-0.30852948155387167   0.021101210047735908   0.0323395644569519
-0.30852948155387167   0.021101210047735908   0.0323395644569519
-0.30852948155387167   0.021101210047735908   0.0323395644569519
-0.30852948155387167   0.021101210047735908   0.0323395644569519
-0.3460190642689184   -0.04983351705756138   -0.03242584375189351
-0.3460190642689184   -0.04983351705756138   -0.03242584375189351
-0.3460190642689184   -0.04983351705756138   -0.03242584375189351
-0.3460190642689184   -0.04983351705756138   -0.03242584375189351
-0.33555262506689465   0.008664150229542054   0.07099634217158513
-0.33555262506689465   0.008664150229542054   0.07099634217158513
-0.33555262506689465   0.008664150229542054   0.07099634217158513
-0.33555262506689465   0.008664150229542054   0.07099634217158513
-0.3209345748852429   -0.010353129758679365   0.010369655227291759
-0.3209345748852429   -0.010353129758679365   0.010369655227291759
-0.3209345748852429   -0.010353129758679365   0.010369655227291759
-0.3209345748852429   -0.010353129758679365   0.010369655227291759
-0.3699711003019928   -0.055520943557224964   -0.036910940217137
-0.3699711003019928   -0.055520943557224964   -0.036910940217137
-0.3699711003019928   -0.055520943557224964   -0.036910940217137
-0.3699711003019928   -0.055520943557224964   -0.036910940217137
-0.3204146306626577   0.005537535100368446   0.040225272121480124
-0.3204146306626577   0.005537535100368446   0.040225272121480124
-0.3204146306626577   0.005537535100368446   0.040225272121480124
-0.3204146306626577   0.005537535100368446   0.040225272121480124
-0.3552121455091976   -0.06982510895216797   -0.02552114931740847
-0.3552121455091976   -0.06982510895216797   -0.02552114931740847
-0.3552121455091976   -0.06982510895216797   -0.02552114931740847
-0.3552121455091976   -0.06982510895216797   -0.02552114931740847
-0.3805065182721841   -0.0375556673973997   0.06644023767553131
-0.3805065182721841   -0.0375556673973997   0.06644023767553131
-0.3805065182721841   -0.0375556673973997   0.06644023767553131
-0.3805065182721841   -0.0375556673973997   0.06644023767553131
-0.34404335496892025   -0.03121989248426537   -0.014290728266467904
-0.34404335496892025   -0.03121989248426537   -0.014290728266467904
-0.34404335496892025   -0.03121989248426537   -0.014290728266467904
-0.34404335496892025   -0.03121989248426537   -0.014290728266467904
-0.31893213843845564   -0.00934091778199396   -0.029097296663165316
-0.31893213843845564   -0.00934091778199396   -0.029097296663165316
-0.31893213843845564   -0.00934091778199396   -0.029097296663165316
-0.31893213843845564   -0.00934091778199396   -0.029097296663165316
-0.32339227164126844   -0.03973873121611028   -0.0016936147150545594
-0.32339227164126844   -0.03973873121611028   -0.0016936147150545594
-0.32339227164126844   -0.03973873121611028   -0.0016936147150545594
-0.32339227164126844   -0.03973873121611028   -0.0016936147150545594
-0.3257505363574628   -0.026460063550299985   -0.014525148173491915
-0.3257505363574628   -0.026460063550299985   -0.014525148173491915
-0.3257505363574628   -0.026460063550299985   -0.014525148173491915
-0.3257505363574628   -0.026460063550299985   -0.014525148173491915
-0.3301310651233008   -0.054006333748332094   -0.0005608095941258659
-0.3301310651233008   -0.054006333748332094   -0.0005608095941258659
-0.3301310651233008   -0.054006333748332094   -0.0005608095941258659
-0.3301310651233008   -0.054006333748332094   -0.0005608095941258659
-0.32179276716093447   -0.03379312744724507   -0.0011442692056103966
-0.32179276716093447   -0.03379312744724507   -0.0011442692056103966
-0.32179276716093447   -0.03379312744724507   -0.0011442692056103966
-0.32179276716093447   -0.03379312744724507   -0.0011442692056103966
-0.3301474444305413   -0.029470186254963122   -0.02517885362369844
-0.3301474444305413   -0.029470186254963122   -0.02517885362369844
-0.3301474444305413   -0.029470186254963122   -0.02517885362369844
-0.3301474444305413   -0.029470186254963122   -0.02517885362369844
-0.32781047578825717   -0.05307252978170915   0.001787620903945231
-0.32781047578825717   -0.05307252978170915   0.001787620903945231
-0.32781047578825717   -0.05307252978170915   0.001787620903945231
-0.32781047578825717   -0.05307252978170915   0.001787620903945231
-0.331216812517863   -0.04376284710236908   -0.009373267727375477
-0.331216812517863   -0.04376284710236908   -0.009373267727375477
-0.331216812517863   -0.04376284710236908   -0.009373267727375477
-0.331216812517863   -0.04376284710236908   -0.009373267727375477
-0.3421017613296412   -0.07006476050443335   0.007391914391364141
-0.3421017613296412   -0.07006476050443335   0.007391914391364141
-0.3421017613296412   -0.07006476050443335   0.007391914391364141
-0.3421017613296412   -0.07006476050443335   0.007391914391364141
-0.3291943657717136   -0.04777174406467845   -0.009157685979713257
-0.3291943657717136   -0.04777174406467845   -0.009157685979713257
-0.3291943657717136   -0.04777174406467845   -0.009157685979713257
-0.3291943657717136   -0.04777174406467845   -0.009157685979713257
-0.34289647164071285   -0.047961170762624517   -0.018685226905802772
-0.34289647164071285   -0.047961170762624517   -0.018685226905802772
-0.34289647164071285   -0.047961170762624517   -0.018685226905802772
-0.34289647164071285   -0.047961170762624517   -0.018685226905802772
-0.33307741854156764   -0.06852175317895288   0.0060826082306774925
-0.33307741854156764   -0.06852175317895288   0.0060826082306774925
-0.33307741854156764   -0.06852175317895288   0.0060826082306774925
-0.33307741854156764   -0.06852175317895288   0.0060826082306774925
-0.3361243848132669   -0.06240756674555507   -0.004271087151243877
-0.3361243848132669   -0.06240756674555507   -0.004271087151243877
-0.3361243848132669   -0.06240756674555507   -0.004271087151243877
-0.3361243848132669   -0.06240756674555507   -0.004271087151243877
-0.35126287586403854   -0.09045668842076024   0.014856778376978207
-0.35126287586403854   -0.09045668842076024   0.014856778376978207
-0.35126287586403854   -0.09045668842076024   0.014856778376978207
-0.35126287586403854   -0.09045668842076024   0.014856778376978207
-0.3393729148640112   -0.06465626092371832   -0.019349868572582342
-0.3393729148640112   -0.06465626092371832   -0.019349868572582342
-0.3393729148640112   -0.06465626092371832   -0.019349868572582342
-0.3393729148640112   -0.06465626092371832   -0.019349868572582342
-0.3145209224043523   0.008259677438524418   -0.0053352771851048475
-0.3145209224043523   0.008259677438524418   -0.0053352771851048475
-0.3145209224043523   0.008259677438524418   -0.0053352771851048475
-0.3145209224043523   0.008259677438524418   -0.0053352771851048475
-0.3559626298129722   -0.06758056205301731   -0.017064273804489043
-0.3559626298129722   -0.06758056205301731   -0.017064273804489043
-0.3559626298129722   -0.06758056205301731   -0.017064273804489043
-0.3559626298129722   -0.06758056205301731   -0.017064273804489043
-0.3414323657181491   -0.01246362682498059   0.004489598090218948
-0.3414323657181491   -0.01246362682498059   0.004489598090218948
-0.3414323657181491   -0.01246362682498059   0.004489598090218948
-0.3414323657181491   -0.01246362682498059   0.004489598090218948
-0.3342688904783172   -0.07304649174068478   -0.01053049058737916
-0.3342688904783172   -0.07304649174068478   -0.01053049058737916
-0.3342688904783172   -0.07304649174068478   -0.01053049058737916
-0.3342688904783172   -0.07304649174068478   -0.01053049058737916
-0.33631094683283136   -0.03735462168578234   -0.007610516770970181
-0.33631094683283136   -0.03735462168578234   -0.007610516770970181
-0.33631094683283136   -0.03735462168578234   -0.007610516770970181
-0.33631094683283136   -0.03735462168578234   -0.007610516770970181
-0.31935177365376144   -0.008953089726003227   -3.830847928189968e-05
-0.31935177365376144   -0.008953089726003227   -3.830847928189968e-05
-0.31935177365376144   -0.008953089726003227   -3.830847928189968e-05
-0.31935177365376144   -0.008953089726003227   -3.830847928189968e-05
-0.358234683344664   -0.07844222964162255   -0.01354338722572122
-0.358234683344664   -0.07844222964162255   -0.01354338722572122
-0.358234683344664   -0.07844222964162255   -0.01354338722572122
-0.358234683344664   -0.07844222964162255   -0.01354338722572122
-0.34536191082878065   -0.029815430522885183   0.009607044496548915
-0.34536191082878065   -0.029815430522885183   0.009607044496548915
-0.34536191082878065   -0.029815430522885183   0.009607044496548915
-0.34536191082878065   -0.029815430522885183   0.009607044496548915
-0.33938523473312904   -0.08672116748115966   -0.007257058424919328
-0.33938523473312904   -0.08672116748115966   -0.007257058424919328
-0.33938523473312904   -0.08672116748115966   -0.007257058424919328
-0.33938523473312904   -0.08672116748115966   -0.007257058424919328
-0.34048413652374143   -0.05057205784128285   -0.014482003383781885
-0.34048413652374143   -0.05057205784128285   -0.014482003383781885
-0.34048413652374143   -0.05057205784128285   -0.014482003383781885
-0.34048413652374143   -0.05057205784128285   -0.014482003383781885
-0.3248854200843245   -0.026614476504756714   0.005135323842704464
-0.3248854200843245   -0.026614476504756714   0.005135323842704464
-0.3248854200843245   -0.026614476504756714   0.005135323842704464
-0.3248854200843245   -0.026614476504756714   0.005135323842704464
-0.3619676348293004   -0.0920280308509989   -0.011208975177944138
-0.3619676348293004   -0.0920280308509989   -0.011208975177944138
-0.3619676348293004   -0.0920280308509989   -0.011208975177944138
-0.3619676348293004   -0.0920280308509989   -0.011208975177944138
-0.3485620696883018   -0.046131389754018044   0.014612633639026497
-0.3485620696883018   -0.046131389754018044   0.014612633639026497
-0.3485620696883018   -0.046131389754018044   0.014612633639026497
-0.3485620696883018   -0.046131389754018044   0.014612633639026497
-0.34319733312676354   -0.09983864284476276   -0.0022047526195235635
-0.34319733312676354   -0.09983864284476276   -0.0022047526195235635
-0.34319733312676354   -0.09983864284476276   -0.0022047526195235635
-0.34319733312676354   -0.09983864284476276   -0.0022047526195235635
-0.3454570321109485   -0.06439518953443515   -0.02203184567294598
-0.3454570321109485   -0.06439518953443515   -0.02203184567294598
-0.3454570321109485   -0.06439518953443515   -0.02203184567294598
-0.3454570321109485   -0.06439518953443515   -0.02203184567294598
-0.32867826748937395   0.035203193882929196   0.016573781877555933
-0.32867826748937395   0.035203193882929196   0.016573781877555933
-0.32867826748937395   0.035203193882929196   0.016573781877555933
-0.32867826748937395   0.035203193882929196   0.016573781877555933
-0.3885837319368798   -0.05042723533972894   -0.023784389524235717
-0.3885837319368798   -0.05042723533972894   -0.023784389524235717
-0.3885837319368798   -0.05042723533972894   -0.023784389524235717
-0.3885837319368798   -0.05042723533972894   -0.023784389524235717
-0.3676399313896533   0.010479951807468704   0.022958871850209863
-0.3676399313896533   0.010479951807468704   0.022958871850209863
-0.3676399313896533   0.010479951807468704   0.022958871850209863
-0.3676399313896533   0.010479951807468704   0.022958871850209863
-0.3539711874097504   -0.05626522023293911   -0.014402916959829136
-0.3539711874097504   -0.05626522023293911   -0.014402916959829136
-0.3539711874097504   -0.05626522023293911   -0.014402916959829136
-0.3539711874097504   -0.05626522023293911   -0.014402916959829136
-0.35968579442422366   -0.014874542037365143   -0.004545136625449617
-0.35968579442422366   -0.014874542037365143   -0.004545136625449617
-0.35968579442422366   -0.014874542037365143   -0.004545136625449617
-0.35968579442422366   -0.014874542037365143   -0.004545136625449617
-0.3320254342784854   0.017352668793643042   0.021707959669913606
-0.3320254342784854   0.017352668793643042   0.021707959669913606
-0.3320254342784854   0.017352668793643042   0.021707959669913606
-0.3320254342784854   0.017352668793643042   0.021707959669913606
-0.392089146856751   -0.06564139955494613   -0.02316585412286372
-0.392089146856751   -0.06564139955494613   -0.02316585412286372
-0.392089146856751   -0.06564139955494613   -0.02316585412286372
-0.392089146856751   -0.06564139955494613   -0.02316585412286372
-0.37445059712106255   -0.006463177233196782   0.026031987378984423
-0.37445059712106255   -0.006463177233196782   0.026031987378984423
-0.37445059712106255   -0.006463177233196782   0.026031987378984423
-0.37445059712106255   -0.006463177233196782   0.026031987378984423
-0.35739197180091586   -0.06889357658197111   -0.011465114305041305
-0.35739197180091586   -0.06889357658197111   -0.011465114305041305
-0.35739197180091586   -0.06889357658197111   -0.011465114305041305
-0.35739197180091586   -0.06889357658197111   -0.011465114305041305
-0.36312238253388723   -0.02920158688141912   -0.012604095420691908
-0.36312238253388723   -0.02920158688141912   -0.012604095420691908
-0.36312238253388723   -0.02920158688141912   -0.012604095420691908
-0.36312238253388723   -0.02920158688141912   -0.012604095420691908
-0.33569696229204016   0.001420352990236684   0.026696003667129393
-0.33569696229204016   0.001420352990236684   0.026696003667129393
-0.33569696229204016   0.001420352990236684   0.026696003667129393
-0.33569696229204016   0.001420352990236684   0.026696003667129393
-0.398314952973321   -0.07894645314878736   -0.020806515966717353
-0.398314952973321   -0.07894645314878736   -0.020806515966717353
-0.398314952973321   -0.07894645314878736   -0.020806515966717353
-0.398314952973321   -0.07894645314878736   -0.020806515966717353
-0.378957213314791   -0.022716985739650572   0.03174755577314194
-0.378957213314791   -0.022716985739650572   0.03174755577314194
-0.378957213314791   -0.022716985739650572   0.03174755577314194
-0.378957213314791   -0.022716985739650572   0.03174755577314194
-0.360332540782634   -0.08157896782354117   -0.00879214376311931
-0.360332540782634   -0.08157896782354117   -0.00879214376311931
-0.360332540782634   -0.08157896782354117   -0.00879214376311931
-0.360332540782634   -0.08157896782354117   -0.00879214376311931
-0.3691380685542456   -0.0427073050255745   -0.020413199671683587
-0.3691380685542456   -0.0427073050255745   -0.020413199671683587
-0.3691380685542456   -0.0427073050255745   -0.020413199671683587
-0.3691380685542456   -0.0427073050255745   -0.020413199671683587
-0.3570217544455012   0.050509788096157804   0.0330884744967781
-0.3570217544455012   0.050509788096157804   0.0330884744967781
-0.3570217544455012   0.050509788096157804   0.0330884744967781
-0.3570217544455012   0.050509788096157804   0.0330884744967781
-0.38172118118532217   -0.030462707427753803   -0.034462461416772484
-0.38172118118532217   -0.030462707427753803   -0.034462461416772484
-0.38172118118532217   -0.030462707427753803   -0.034462461416772484
-0.38172118118532217   -0.030462707427753803   -0.034462461416772484
-0.37316059861827394   0.03590204445006527   0.03677225009873933
-0.37316059861827394   0.03590204445006527   0.03677225009873933
-0.37316059861827394   0.03590204445006527   0.03677225009873933
-0.37316059861827394   0.03590204445006527   0.03677225009873933
-0.38635327351435766   -0.039062530161721315   -0.02106535680412977
-0.38635327351435766   -0.039062530161721315   -0.02106535680412977
-0.38635327351435766   -0.039062530161721315   -0.02106535680412977
-0.38635327351435766   -0.039062530161721315   -0.02106535680412977
-0.3618222350883439   0.009017958112208888   0.0014160864864578154
-0.3618222350883439   0.009017958112208888   0.0014160864864578154
-0.3618222350883439   0.009017958112208888   0.0014160864864578154
-0.3618222350883439   0.009017958112208888   0.0014160864864578154
-0.35886564668915033   0.03905719520681601   0.03825305195336942
-0.35886564668915033   0.03905719520681601   0.03825305195336942
-0.35886564668915033   0.03905719520681601   0.03825305195336942
-0.35886564668915033   0.03905719520681601   0.03825305195336942
-0.40268834524928854   -0.04425780072427936   -0.030706637881989088
-0.40268834524928854   -0.04425780072427936   -0.030706637881989088
-0.40268834524928854   -0.04425780072427936   -0.030706637881989088
-0.40268834524928854   -0.04425780072427936   -0.030706637881989088
-0.3895953467729954   0.02641135427697798   0.04734337005387737
-0.3895953467729954   0.02641135427697798   0.04734337005387737
-0.3895953467729954   0.02641135427697798   0.04734337005387737
-0.3895953467729954   0.02641135427697798   0.04734337005387737
-0.39150746068666853   -0.046495225586993205   -0.01922028209525664
-0.39150746068666853   -0.046495225586993205   -0.01922028209525664
-0.39150746068666853   -0.046495225586993205   -0.01922028209525664
-0.39150746068666853   -0.046495225586993205   -0.01922028209525664
-0.3795261905526342   -0.0024809228055244215   -0.00809669644040015
-0.3795261905526342   -0.0024809228055244215   -0.00809669644040015
-0.3795261905526342   -0.0024809228055244215   -0.00809669644040015
-0.3795261905526342   -0.0024809228055244215   -0.00809669644040015
-0.36292035872112294   0.03143473192139386   0.04578527022408424
-0.36292035872112294   0.03143473192139386   0.04578527022408424
-0.36292035872112294   0.03143473192139386   0.04578527022408424
-0.36292035872112294   0.03143473192139386   0.04578527022408424
-0.42084013005335025   -0.0541762845462183   -0.02829290752470036
-0.42084013005335025   -0.0541762845462183   -0.02829290752470036
-0.42084013005335025   -0.0541762845462183   -0.02829290752470036
-0.42084013005335025   -0.0541762845462183   -0.02829290752470036
-0.41857375019470255   0.0021809700485404954   0.050586624111654474
-0.41857375019470255   0.0021809700485404954   0.050586624111654474
-0.41857375019470255   0.0021809700485404954   0.050586624111654474
-0.41857375019470255   0.0021809700485404954   0.050586624111654474
-0.3962108349707943   -0.060534280425065146   -0.01670325782146765
-0.3962108349707943   -0.060534280425065146   -0.01670325782146765
-0.3962108349707943   -0.060534280425065146   -0.01670325782146765
-0.3962108349707943   -0.060534280425065146   -0.01670325782146765
-0.3879207953317893   -0.013062616264536892   -0.016675782454690237
-0.3879207953317893   -0.013062616264536892   -0.016675782454690237
-0.3879207953317893   -0.013062616264536892   -0.016675782454690237
-0.3879207953317893   -0.013062616264536892   -0.016675782454690237
-0.7662131615252487   -0.07001238126564831   -0.07226325432609242
-0.7662131615252487   -0.07001238126564831   -0.07226325432609242
-0.7662131615252487   -0.07001238126564831   -0.07226325432609242
-0.7662131615252487   -0.07001238126564831   -0.07226325432609242
-0.4859778573644731   0.041518963853513655   0.017038065424138597
-0.4859778573644731   0.041518963853513655   0.017038065424138597
-0.4859778573644731   0.041518963853513655   0.017038065424138597
-0.4859778573644731   0.041518963853513655   0.017038065424138597
-0.5103026438602634   -0.03216677814927417   -0.032227214221706775
-0.5103026438602634   -0.03216677814927417   -0.032227214221706775
-0.5103026438602634   -0.03216677814927417   -0.032227214221706775
-0.5103026438602634   -0.03216677814927417   -0.032227214221706775
-0.8145597549611554   -0.09169022084092804   0.08100758087002378
-0.8145597549611554   -0.09169022084092804   0.08100758087002378
-0.8145597549611554   -0.09169022084092804   0.08100758087002378
-0.8145597549611554   -0.09169022084092804   0.08100758087002378
-0.5922897884919616   -0.022519292443361663   0.07854975432042001
-0.5922897884919616   -0.022519292443361663   0.07854975432042001
-0.5922897884919616   -0.022519292443361663   0.07854975432042001
-0.5922897884919616   -0.022519292443361663   0.07854975432042001
-0.8436054659060357   -0.10297011554428911   -0.052941079151009256
-0.8436054659060357   -0.10297011554428911   -0.052941079151009256
-0.8436054659060357   -0.10297011554428911   -0.052941079151009256
-0.8436054659060357   -0.10297011554428911   -0.052941079151009256
-0.5016829370957234   -0.04131288762625222   0.02001742907797098
-0.5016829370957234   -0.04131288762625222   0.02001742907797098
-0.5016829370957234   -0.04131288762625222   0.02001742907797098
-0.5016829370957234   -0.04131288762625222   0.02001742907797098
-0.5180991791862837   -0.04667015879632115   -0.023128648838341762
-0.5180991791862837   -0.04667015879632115   -0.023128648838341762
-0.5180991791862837   -0.04667015879632115   -0.023128648838341762
-0.5180991791862837   -0.04667015879632115   -0.023128648838341762
-0.8404400624562495   -0.12812856869957617   0.002023819966869886
-0.8404400624562495   -0.12812856869957617   0.002023819966869886
-0.8404400624562495   -0.12812856869957617   0.002023819966869886
-0.8404400624562495   -0.12812856869957617   0.002023819966869886
-0.6557024885600055   -0.07731383051256817   0.018141499168359995
-0.6557024885600055   -0.07731383051256817   0.018141499168359995
-0.6557024885600055   -0.07731383051256817   0.018141499168359995
-0.6557024885600055   -0.07731383051256817   0.018141499168359995
-0.8470134358946626   -0.11635133629606816   -0.04262027962869787
-0.8470134358946626   -0.11635133629606816   -0.04262027962869787
-0.8470134358946626   -0.11635133629606816   -0.04262027962869787
-0.8470134358946626   -0.11635133629606816   -0.04262027962869787
-0.5177168566140554   -0.06463844206601382   -0.0032487527075123895
-0.5177168566140554   -0.06463844206601382   -0.0032487527075123895
-0.5177168566140554   -0.06463844206601382   -0.0032487527075123895
-0.5177168566140554   -0.06463844206601382   -0.0032487527075123895
-0.5184159823453754   -0.08179386332726211   -0.01684127790058938
-0.5184159823453754   -0.08179386332726211   -0.01684127790058938
-0.5184159823453754   -0.08179386332726211   -0.01684127790058938
-0.5184159823453754   -0.08179386332726211   -0.01684127790058938
-0.8604960446106688   -0.19569481638163486   0.012877523189299696
-0.8604960446106688   -0.19569481638163486   0.012877523189299696
-0.8604960446106688   -0.19569481638163486   0.012877523189299696
-0.8604960446106688   -0.19569481638163486   0.012877523189299696
-0.6549567839272967   -0.10628639520350547   0.0013522355975818644
-0.6549567839272967   -0.10628639520350547   0.0013522355975818644
-0.6549567839272967   -0.10628639520350547   0.0013522355975818644
-0.6549567839272967   -0.10628639520350547   0.0013522355975818644
-0.5247810935124064   -0.08897466911644067   -0.04648448234556856
-0.5247810935124064   -0.08897466911644067   -0.04648448234556856
-0.5247810935124064   -0.08897466911644067   -0.04648448234556856
-0.5247810935124064   -0.08897466911644067   -0.04648448234556856
-0.36052278238039287   -0.23296730551957834   -0.043679033196576976
-0.36052278238039287   -0.23296730551957834   -0.043679033196576976
-0.36052278238039287   -0.23296730551957834   -0.043679033196576976
-0.36052278238039287   -0.23296730551957834   -0.043679033196576976
-0.31666965937333147   -0.05175224987829381   -0.0027517959939038186
-0.31666965937333147   -0.05175224987829381   -0.0027517959939038186
-0.31666965937333147   -0.05175224987829381   -0.0027517959939038186
-0.31666965937333147   -0.05175224987829381   -0.0027517959939038186
-0.5578591755608472   -0.24711221657338434   -0.05506443430051582
-0.5578591755608472   -0.24711221657338434   -0.05506443430051582
-0.5578591755608472   -0.24711221657338434   -0.05506443430051582
-0.5578591755608472   -0.24711221657338434   -0.05506443430051582
-0.43485244703167564   -0.1647243159079203   -0.01267479382601466
-0.43485244703167564   -0.1647243159079203   -0.01267479382601466
-0.43485244703167564   -0.1647243159079203   -0.01267479382601466
-0.43485244703167564   -0.1647243159079203   -0.01267479382601466
-0.5243717004419273   -0.09974179495757653   -0.03499748032172155
-0.5243717004419273   -0.09974179495757653   -0.03499748032172155
-0.5243717004419273   -0.09974179495757653   -0.03499748032172155
-0.5243717004419273   -0.09974179495757653   -0.03499748032172155
-0.35228325507753805   -0.20124879207938856   -0.03132323231384603
-0.35228325507753805   -0.20124879207938856   -0.03132323231384603
-0.35228325507753805   -0.20124879207938856   -0.03132323231384603
-0.35228325507753805   -0.20124879207938856   -0.03132323231384603
-0.3202210906325021   -0.0670656338176987   0.0005068771278982564
-0.3202210906325021   -0.0670656338176987   0.0005068771278982564
-0.3202210906325021   -0.0670656338176987   0.0005068771278982564
-0.3202210906325021   -0.0670656338176987   0.0005068771278982564
-0.5598070138048322   -0.24582764332400853   -0.032510337403402055
-0.5598070138048322   -0.24582764332400853   -0.032510337403402055
-0.5598070138048322   -0.24582764332400853   -0.032510337403402055
-0.5598070138048322   -0.24582764332400853   -0.032510337403402055
-0.42998913428763985   -0.15440645089390587   -0.013465575327921288
-0.42998913428763985   -0.15440645089390587   -0.013465575327921288
-0.42998913428763985   -0.15440645089390587   -0.013465575327921288
-0.42998913428763985   -0.15440645089390587   -0.013465575327921288
-0.5323554918111789   -0.11484163635903466   -0.026238734400104595
-0.5323554918111789   -0.11484163635903466   -0.026238734400104595
-0.5323554918111789   -0.11484163635903466   -0.026238734400104595
-0.5323554918111789   -0.11484163635903466   -0.026238734400104595
-0.35207238824298404   -0.2024514163995004   -0.02336382834270965
-0.35207238824298404   -0.2024514163995004   -0.02336382834270965
-0.35207238824298404   -0.2024514163995004   -0.02336382834270965
-0.35207238824298404   -0.2024514163995004   -0.02336382834270965
-0.3200379174877687   -0.08615008396401701   0.005164842284424548
-0.3200379174877687   -0.08615008396401701   0.005164842284424548
-0.3200379174877687   -0.08615008396401701   0.005164842284424548
-0.3200379174877687   -0.08615008396401701   0.005164842284424548
-0.5583581670979803   -0.2499139488331558   -0.04843211615772574
-0.5583581670979803   -0.2499139488331558   -0.04843211615772574
-0.5583581670979803   -0.2499139488331558   -0.04843211615772574
-0.5583581670979803   -0.2499139488331558   -0.04843211615772574
-0.43641649403221966   -0.1660959696824874   -0.025008547144843202
-0.43641649403221966   -0.1660959696824874   -0.025008547144843202
-0.43641649403221966   -0.1660959696824874   -0.025008547144843202
-0.43641649403221966   -0.1660959696824874   -0.025008547144843202
-0.3174490705615975   -0.057267126138566854   -0.00401065348361148
-0.3174490705615975   -0.057267126138566854   -0.00401065348361148
-0.3174490705615975   -0.057267126138566854   -0.00401065348361148
-0.3174490705615975   -0.057267126138566854   -0.00401065348361148
-0.26619031870171556   -0.17822824297902057   -0.03076736829551549
-0.26619031870171556   -0.17822824297902057   -0.03076736829551549
-0.26619031870171556   -0.17822824297902057   -0.03076736829551549
-0.26619031870171556   -0.17822824297902057   -0.03076736829551549
-0.22939435271976255   -0.04751290340265288   0.01226291334422568
-0.22939435271976255   -0.04751290340265288   0.01226291334422568
-0.22939435271976255   -0.04751290340265288   0.01226291334422568
-0.22939435271976255   -0.04751290340265288   0.01226291334422568
-0.35132437640559616   -0.19377645011318567   -0.03400118092033926
-0.35132437640559616   -0.19377645011318567   -0.03400118092033926
-0.35132437640559616   -0.19377645011318567   -0.03400118092033926
-0.35132437640559616   -0.19377645011318567   -0.03400118092033926
-0.2898057198820782   -0.12086522124342672   -0.014197000731901301
-0.2898057198820782   -0.12086522124342672   -0.014197000731901301
-0.2898057198820782   -0.12086522124342672   -0.014197000731901301
-0.2898057198820782   -0.12086522124342672   -0.014197000731901301
-0.31922160952921436   -0.06781974730309298   0.0005559506514769999
-0.31922160952921436   -0.06781974730309298   0.0005559506514769999
-0.31922160952921436   -0.06781974730309298   0.0005559506514769999
-0.31922160952921436   -0.06781974730309298   0.0005559506514769999
-0.2633805486520167   -0.17535303526861795   -0.029827934451080194
-0.2633805486520167   -0.17535303526861795   -0.029827934451080194
-0.2633805486520167   -0.17535303526861795   -0.029827934451080194
-0.2633805486520167   -0.17535303526861795   -0.029827934451080194
-0.22941628351680923   -0.06009814356174681   0.01588910995582508
-0.22941628351680923   -0.06009814356174681   0.01588910995582508
-0.22941628351680923   -0.06009814356174681   0.01588910995582508
-0.22941628351680923   -0.06009814356174681   0.01588910995582508
-0.3523712334325105   -0.19684866760073275   -0.03046080308910943
-0.3523712334325105   -0.19684866760073275   -0.03046080308910943
-0.3523712334325105   -0.19684866760073275   -0.03046080308910943
-0.3523712334325105   -0.19684866760073275   -0.03046080308910943
-0.2892370669135903   -0.1256065594214193   -0.01842171007437264
-0.2892370669135903   -0.1256065594214193   -0.01842171007437264
-0.2892370669135903   -0.1256065594214193   -0.01842171007437264
-0.2892370669135903   -0.1256065594214193   -0.01842171007437264
-0.3218410065147045   -0.08057714781054451   0.005918811709731871
-0.3218410065147045   -0.08057714781054451   0.005918811709731871
-0.3218410065147045   -0.08057714781054451   0.005918811709731871
-0.3218410065147045   -0.08057714781054451   0.005918811709731871
-0.2609814582535295   -0.17740461117084938   -0.024630296118673484
-0.2609814582535295   -0.17740461117084938   -0.024630296118673484
-0.2609814582535295   -0.17740461117084938   -0.024630296118673484
-0.2609814582535295   -0.17740461117084938   -0.024630296118673484
-0.22664739720252816   -0.07212038482550934   0.01983660155250823
-0.22664739720252816   -0.07212038482550934   0.01983660155250823
-0.22664739720252816   -0.07212038482550934   0.01983660155250823
-0.22664739720252816   -0.07212038482550934   0.01983660155250823
-0.3481042619527016   -0.19936420349958633   -0.021952760504670425
-0.3481042619527016   -0.19936420349958633   -0.021952760504670425
-0.3481042619527016   -0.19936420349958633   -0.021952760504670425
-0.3481042619527016   -0.19936420349958633   -0.021952760504670425
-0.28830513052846085   -0.13184406653767086   -0.0213457302946429
-0.28830513052846085   -0.13184406653767086   -0.0213457302946429
-0.28830513052846085   -0.13184406653767086   -0.0213457302946429
-0.28830513052846085   -0.13184406653767086   -0.0213457302946429
-0.22163167562945288   -0.007933687796700784   0.021731291883478134
-0.22163167562945288   -0.007933687796700784   0.021731291883478134
-0.22163167562945288   -0.007933687796700784   0.021731291883478134
-0.22163167562945288   -0.007933687796700784   0.021731291883478134
-0.2094692386245019   -0.09432455277532852   -0.018409681850479503
-0.2094692386245019   -0.09432455277532852   -0.018409681850479503
-0.2094692386245019   -0.09432455277532852   -0.018409681850479503
-0.2094692386245019   -0.09432455277532852   -0.018409681850479503
-0.18055817135370325   -0.013667499685098755   0.025172669723325526
-0.18055817135370325   -0.013667499685098755   0.025172669723325526
-0.18055817135370325   -0.013667499685098755   0.025172669723325526
-0.18055817135370325   -0.013667499685098755   0.025172669723325526
-0.24676089302481335   -0.10903904751612511   -0.013043644067556204
-0.24676089302481335   -0.10903904751612511   -0.013043644067556204
-0.24676089302481335   -0.10903904751612511   -0.013043644067556204
-0.24676089302481335   -0.10903904751612511   -0.013043644067556204
-0.21532206428293033   -0.05572316095922429   -0.007699279814947994
-0.21532206428293033   -0.05572316095922429   -0.007699279814947994
-0.21532206428293033   -0.05572316095922429   -0.007699279814947994
-0.21532206428293033   -0.05572316095922429   -0.007699279814947994
-0.22171550633883208   -0.021920543547953843   0.025064785394178904
-0.22171550633883208   -0.021920543547953843   0.025064785394178904
-0.22171550633883208   -0.021920543547953843   0.025064785394178904
-0.22171550633883208   -0.021920543547953843   0.025064785394178904
-0.20760611390992656   -0.10278855952351207   -0.02094598321937772
-0.20760611390992656   -0.10278855952351207   -0.02094598321937772
-0.20760611390992656   -0.10278855952351207   -0.02094598321937772
-0.20760611390992656   -0.10278855952351207   -0.02094598321937772
-0.18076290206768092   -0.025863755026174946   0.02705492374070453
-0.18076290206768092   -0.025863755026174946   0.02705492374070453
-0.18076290206768092   -0.025863755026174946   0.02705492374070453
-0.18076290206768092   -0.025863755026174946   0.02705492374070453
-0.24661913560149923   -0.11568187436843844   -0.014541419660940875
-0.24661913560149923   -0.11568187436843844   -0.014541419660940875
-0.24661913560149923   -0.11568187436843844   -0.014541419660940875
-0.24661913560149923   -0.11568187436843844   -0.014541419660940875
-0.21432716744091065   -0.06552119673431803   -0.013064508167998612
-0.21432716744091065   -0.06552119673431803   -0.013064508167998612
-0.21432716744091065   -0.06552119673431803   -0.013064508167998612
-0.21432716744091065   -0.06552119673431803   -0.013064508167998612
-0.22161941905143262   -0.03374248785572954   0.028517776576683296
-0.22161941905143262   -0.03374248785572954   0.028517776576683296
-0.22161941905143262   -0.03374248785572954   0.028517776576683296
-0.22161941905143262   -0.03374248785572954   0.028517776576683296
-0.20697509067468584   -0.10901561359582089   -0.020854160724666556
-0.20697509067468584   -0.10901561359582089   -0.020854160724666556
-0.20697509067468584   -0.10901561359582089   -0.020854160724666556
-0.20697509067468584   -0.10901561359582089   -0.020854160724666556
-0.17915517917580526   -0.03731470923441651   0.03135178757565988
-0.17915517917580526   -0.03731470923441651   0.03135178757565988
-0.17915517917580526   -0.03731470923441651   0.03135178757565988
-0.17915517917580526   -0.03731470923441651   0.03135178757565988
-0.24264587772909657   -0.12232827343852166   -0.00994791246732157
-0.24264587772909657   -0.12232827343852166   -0.00994791246732157
-0.24264587772909657   -0.12232827343852166   -0.00994791246732157
-0.24264587772909657   -0.12232827343852166   -0.00994791246732157
-0.21361706452778556   -0.07394066796964474   -0.01678883153492488
-0.21361706452778556   -0.07394066796964474   -0.01678883153492488
-0.21361706452778556   -0.07394066796964474   -0.01678883153492488
-0.21361706452778556   -0.07394066796964474   -0.01678883153492488
-0.17524937271489258   0.02449763794510941   0.0338674569771293
-0.17524937271489258   0.02449763794510941   0.0338674569771293
-0.17524937271489258   0.02449763794510941   0.0338674569771293
-0.17524937271489258   0.02449763794510941   0.0338674569771293
-0.11631702491639738   -0.031005304900742797   -0.011316559611998853
-0.11631702491639738   -0.031005304900742797   -0.011316559611998853
-0.11631702491639738   -0.031005304900742797   -0.011316559611998853
-0.11631702491639738   -0.031005304900742797   -0.011316559611998853
-0.10149088310475866   0.02881067418541941   0.03343827452197486
-0.10149088310475866   0.02881067418541941   0.03343827452197486
-0.10149088310475866   0.02881067418541941   0.03343827452197486
-0.10149088310475866   0.02881067418541941   0.03343827452197486
-0.19353233611840376   -0.04750688582590132   -0.005858767959374539
-0.19353233611840376   -0.04750688582590132   -0.005858767959374539
-0.19353233611840376   -0.04750688582590132   -0.005858767959374539
-0.19353233611840376   -0.04750688582590132   -0.005858767959374539
-0.1446395720786311   -0.003029551717589646   -0.006125036115245959
-0.1446395720786311   -0.003029551717589646   -0.006125036115245959
-0.1446395720786311   -0.003029551717589646   -0.006125036115245959
-0.1446395720786311   -0.003029551717589646   -0.006125036115245959
-0.1723987139955379   0.015334953723898141   0.03696750310514775
-0.1723987139955379   0.015334953723898141   0.03696750310514775
-0.1723987139955379   0.015334953723898141   0.03696750310514775
-0.1723987139955379   0.015334953723898141   0.03696750310514775
-0.12282572153776972   -0.03423238167452905   -0.010192861783147291
-0.12282572153776972   -0.03423238167452905   -0.010192861783147291
-0.12282572153776972   -0.03423238167452905   -0.010192861783147291
-0.12282572153776972   -0.03423238167452905   -0.010192861783147291
-0.1059423996686609   0.022875693032768856   0.042069249985546085
-0.1059423996686609   0.022875693032768856   0.042069249985546085
-0.1059423996686609   0.022875693032768856   0.042069249985546085
-0.1059423996686609   0.022875693032768856   0.042069249985546085
-0.1926150463147048   -0.050566245604132254   -0.007503306916457591
-0.1926150463147048   -0.050566245604132254   -0.007503306916457591
-0.1926150463147048   -0.050566245604132254   -0.007503306916457591
-0.1926150463147048   -0.050566245604132254   -0.007503306916457591
-0.14890583968061002   -0.009511961539048416   -0.00863696095820397
-0.14890583968061002   -0.009511961539048416   -0.00863696095820397
-0.14890583968061002   -0.009511961539048416   -0.00863696095820397
-0.14890583968061002   -0.009511961539048416   -0.00863696095820397
-0.17047457083756978   0.010068311479079078   0.04256451338600609
-0.17047457083756978   0.010068311479079078   0.04256451338600609
-0.17047457083756978   0.010068311479079078   0.04256451338600609
-0.17047457083756978   0.010068311479079078   0.04256451338600609
-0.1295986398144647   -0.03927462871911003   -0.014061628991578852
-0.1295986398144647   -0.03927462871911003   -0.014061628991578852
-0.1295986398144647   -0.03927462871911003   -0.014061628991578852
-0.1295986398144647   -0.03927462871911003   -0.014061628991578852
-0.12122819899923781   0.0065581723464716996   0.043776370064660126
-0.12122819899923781   0.0065581723464716996   0.043776370064660126
-0.12122819899923781   0.0065581723464716996   0.043776370064660126
-0.12122819899923781   0.0065581723464716996   0.043776370064660126
-0.18988163032711405   -0.053302359566093735   -0.006292817849206868
-0.18988163032711405   -0.053302359566093735   -0.006292817849206868
-0.18988163032711405   -0.053302359566093735   -0.006292817849206868
-0.18988163032711405   -0.053302359566093735   -0.006292817849206868
-0.15094823701530388   -0.014198018156145194   -0.012711028152159132
-0.15094823701530388   -0.014198018156145194   -0.012711028152159132
-0.15094823701530388   -0.014198018156145194   -0.012711028152159132
-0.15094823701530388   -0.014198018156145194   -0.012711028152159132
-1.8073179079539592   -0.2562477713138332   -0.15045555982311704
-1.8073179079539592   -0.2562477713138332   -0.15045555982311704
-1.8073179079539592   -0.2562477713138332   -0.15045555982311704
-1.8073179079539592   -0.2562477713138332   -0.15045555982311704
-0.6274256431876721   -0.988980950868471   -0.11773181235468055
-0.6274256431876721   -0.988980950868471   -0.11773181235468055
-0.6274256431876721   -0.988980950868471   -0.11773181235468055
-0.6274256431876721   -0.988980950868471   -0.11773181235468055
-0.4846427492637012   -0.04177924689658741   0.0006454448942728591
-0.4846427492637012   -0.04177924689658741   0.0006454448942728591
-0.4846427492637012   -0.04177924689658741   0.0006454448942728591
-0.4846427492637012   -0.04177924689658741   0.0006454448942728591
-1.9302455439660204   -1.1620701057235732   -0.6184631299379187
-1.9302455439660204   -1.1620701057235732   -0.6184631299379187
-1.9302455439660204   -1.1620701057235732   -0.6184631299379187
-1.9302455439660204   -1.1620701057235732   -0.6184631299379187
-1.1820940866783827   -0.5780510622801409   -0.08423811576784561
-1.1820940866783827   -0.5780510622801409   -0.08423811576784561
-1.1820940866783827   -0.5780510622801409   -0.08423811576784561
-1.1820940866783827   -0.5780510622801409   -0.08423811576784561
-1.6793882853220952   -0.32175569297958073   -0.20449124946229974
-1.6793882853220952   -0.32175569297958073   -0.20449124946229974
-1.6793882853220952   -0.32175569297958073   -0.20449124946229974
-1.6793882853220952   -0.32175569297958073   -0.20449124946229974
-0.6776315967083881   -0.8242252484413435   -0.18185279078440264
-0.6776315967083881   -0.8242252484413435   -0.18185279078440264
-0.6776315967083881   -0.8242252484413435   -0.18185279078440264
-0.6776315967083881   -0.8242252484413435   -0.18185279078440264
-0.4944833095236525   -0.05562291216969127   0.018595349683697457
-0.4944833095236525   -0.05562291216969127   0.018595349683697457
-0.4944833095236525   -0.05562291216969127   0.018595349683697457
-0.4944833095236525   -0.05562291216969127   0.018595349683697457
-1.8063136938648512   -1.0368414902238574   -0.5686310368177417
-1.8063136938648512   -1.0368414902238574   -0.5686310368177417
-1.8063136938648512   -1.0368414902238574   -0.5686310368177417
-1.8063136938648512   -1.0368414902238574   -0.5686310368177417
-1.113419522723207   -0.5213277603225593   0.04500459757332999
-1.113419522723207   -0.5213277603225593   0.04500459757332999
-1.113419522723207   -0.5213277603225593   0.04500459757332999
-1.113419522723207   -0.5213277603225593   0.04500459757332999
-1.57700177184446   -0.30635688163210256   -0.15255603530755174
-1.57700177184446   -0.30635688163210256   -0.15255603530755174
-1.57700177184446   -0.30635688163210256   -0.15255603530755174
-1.57700177184446   -0.30635688163210256   -0.15255603530755174
-0.6594861520203776   -0.7217984412377815   -0.14024333373183517
-0.6594861520203776   -0.7217984412377815   -0.14024333373183517
-0.6594861520203776   -0.7217984412377815   -0.14024333373183517
-0.6594861520203776   -0.7217984412377815   -0.14024333373183517
-0.5683893865445262   -0.1457709411066115   -0.029609758501726
-0.5683893865445262   -0.1457709411066115   -0.029609758501726
-0.5683893865445262   -0.1457709411066115   -0.029609758501726
-0.5683893865445262   -0.1457709411066115   -0.029609758501726
-1.6463466932546182   -0.8717386329595309   -0.5036170652428298
-1.6463466932546182   -0.8717386329595309   -0.5036170652428298
-1.6463466932546182   -0.8717386329595309   -0.5036170652428298
-1.6463466932546182   -0.8717386329595309   -0.5036170652428298
-1.0314026281795359   -0.4520351449472565   0.19102284269972028
-1.0314026281795359   -0.4520351449472565   0.19102284269972028
-1.0314026281795359   -0.4520351449472565   0.19102284269972028
-1.0314026281795359   -0.4520351449472565   0.19102284269972028
-0.464035961236116   -0.2524058377870688   -0.0373585156783064
-0.464035961236116   -0.2524058377870688   -0.0373585156783064
-0.464035961236116   -0.2524058377870688   -0.0373585156783064
-0.464035961236116   -0.2524058377870688   -0.0373585156783064
-0.21476456769564659   -0.312996256222097   -0.0530746702627376
-0.21476456769564659   -0.312996256222097   -0.0530746702627376
-0.21476456769564659   -0.312996256222097   -0.0530746702627376
-0.21476456769564659   -0.312996256222097   -0.0530746702627376
-0.18930333036140823   -0.16141301771996489   0.0048757147671425055
-0.18930333036140823   -0.16141301771996489   0.0048757147671425055
-0.18930333036140823   -0.16141301771996489   0.0048757147671425055
-0.18930333036140823   -0.16141301771996489   0.0048757147671425055
-0.5679085270900974   -0.45785874347735106   0.0003960523430583257
-0.5679085270900974   -0.45785874347735106   0.0003960523430583257
-0.5679085270900974   -0.45785874347735106   0.0003960523430583257
-0.5679085270900974   -0.45785874347735106   0.0003960523430583257
-0.3049460430418269   -0.22199451732132064   0.09778142826326644
-0.3049460430418269   -0.22199451732132064   0.09778142826326644
-0.3049460430418269   -0.22199451732132064   0.09778142826326644
-0.3049460430418269   -0.22199451732132064   0.09778142826326644
-0.5282152377865824   -0.2349748259014774   -0.024021418715245747
-0.5282152377865824   -0.2349748259014774   -0.024021418715245747
-0.5282152377865824   -0.2349748259014774   -0.024021418715245747
-0.5282152377865824   -0.2349748259014774   -0.024021418715245747
-0.24504908497469718   -0.40034940060561275   -0.03491667541365053
-0.24504908497469718   -0.40034940060561275   -0.03491667541365053
-0.24504908497469718   -0.40034940060561275   -0.03491667541365053
-0.24504908497469718   -0.40034940060561275   -0.03491667541365053
-0.2045231003957779   -0.1672636268269172   0.005025831673000247
-0.2045231003957779   -0.1672636268269172   0.005025831673000247
-0.2045231003957779   -0.1672636268269172   0.005025831673000247
-0.2045231003957779   -0.1672636268269172   0.005025831673000247
-0.5956973149629645   -0.4520639207795849   -0.09103366890296606
-0.5956973149629645   -0.4520639207795849   -0.09103366890296606
-0.5956973149629645   -0.4520639207795849   -0.09103366890296606
-0.5956973149629645   -0.4520639207795849   -0.09103366890296606
-0.36373079921079804   -0.28470928154065545   0.044587086628011745
-0.36373079921079804   -0.28470928154065545   0.044587086628011745
-0.36373079921079804   -0.28470928154065545   0.044587086628011745
-0.36373079921079804   -0.28470928154065545   0.044587086628011745
-0.5451258483776874   -0.24536449509094413   -0.04487576166522477
-0.5451258483776874   -0.24536449509094413   -0.04487576166522477
-0.5451258483776874   -0.24536449509094413   -0.04487576166522477
-0.5451258483776874   -0.24536449509094413   -0.04487576166522477
-0.25360013283165944   -0.372468618366163   -0.03515433896716166
-0.25360013283165944   -0.372468618366163   -0.03515433896716166
-0.25360013283165944   -0.372468618366163   -0.03515433896716166
-0.25360013283165944   -0.372468618366163   -0.03515433896716166
-0.2280116199200102   -0.1726775983808954   0.007403088925606267
-0.2280116199200102   -0.1726775983808954   0.007403088925606267
-0.2280116199200102   -0.1726775983808954   0.007403088925606267
-0.2280116199200102   -0.1726775983808954   0.007403088925606267
-0.6370240553699595   -0.4393023479844224   -0.07925169575107949
-0.6370240553699595   -0.4393023479844224   -0.07925169575107949
-0.6370240553699595   -0.4393023479844224   -0.07925169575107949
-0.6370240553699595   -0.4393023479844224   -0.07925169575107949
-0.3806507685894869   -0.26835022165861194   0.04716488619759351
-0.3806507685894869   -0.26835022165861194   0.04716488619759351
-0.3806507685894869   -0.26835022165861194   0.04716488619759351
-0.3806507685894869   -0.26835022165861194   0.04716488619759351
-0.1694497918863544   -0.1505217278704333   0.01102468043205973
-0.1694497918863544   -0.1505217278704333   0.01102468043205973
-0.1694497918863544   -0.1505217278704333   0.01102468043205973
-0.1694497918863544   -0.1505217278704333   0.01102468043205973
-0.10367202076058707   -0.09785880646182153   -0.025922196832866232
-0.10367202076058707   -0.09785880646182153   -0.025922196832866232
-0.10367202076058707   -0.09785880646182153   -0.025922196832866232
-0.10367202076058707   -0.09785880646182153   -0.025922196832866232
-0.10048448039504199   -0.1345878595152941   0.01110187605856447
-0.10048448039504199   -0.1345878595152941   0.01110187605856447
-0.10048448039504199   -0.1345878595152941   0.01110187605856447
-0.10048448039504199   -0.1345878595152941   0.01110187605856447
-0.1871804569336229   -0.13413694912331547   -0.011785986690576466
-0.1871804569336229   -0.13413694912331547   -0.011785986690576466
-0.1871804569336229   -0.13413694912331547   -0.011785986690576466
-0.1871804569336229   -0.13413694912331547   -0.011785986690576466
-0.11838146294300338   -0.10904124671260085   0.049044358074335784
-0.11838146294300338   -0.10904124671260085   0.049044358074335784
-0.11838146294300338   -0.10904124671260085   0.049044358074335784
-0.11838146294300338   -0.10904124671260085   0.049044358074335784
-0.18591990017050958   -0.15151612423480526   0.011895972236476163
-0.18591990017050958   -0.15151612423480526   0.011895972236476163
-0.18591990017050958   -0.15151612423480526   0.011895972236476163
-0.18591990017050958   -0.15151612423480526   0.011895972236476163
-0.10337838603456492   -0.11884203328021455   -0.0191134783741298
-0.10337838603456492   -0.11884203328021455   -0.0191134783741298
-0.10337838603456492   -0.11884203328021455   -0.0191134783741298
-0.10337838603456492   -0.11884203328021455   -0.0191134783741298
-0.10161022145847047   -0.1386301635206571   0.009870705337221286
-0.10161022145847047   -0.1386301635206571   0.009870705337221286
-0.10161022145847047   -0.1386301635206571   0.009870705337221286
-0.10161022145847047   -0.1386301635206571   0.009870705337221286
-0.1987539149843475   -0.1565034223352559   0.023111554238490935
-0.1987539149843475   -0.1565034223352559   0.023111554238490935
-0.1987539149843475   -0.1565034223352559   0.023111554238490935
-0.1987539149843475   -0.1565034223352559   0.023111554238490935
-0.12872257329050354   -0.12149907897929632   0.041544541573958024
-0.12872257329050354   -0.12149907897929632   0.041544541573958024
-0.12872257329050354   -0.12149907897929632   0.041544541573958024
-0.12872257329050354   -0.12149907897929632   0.041544541573958024
-0.20028985921405543   -0.15712879165690066   0.016057202411596
-0.20028985921405543   -0.15712879165690066   0.016057202411596
-0.20028985921405543   -0.15712879165690066   0.016057202411596
-0.20028985921405543   -0.15712879165690066   0.016057202411596
-0.10869265072860916   -0.14662316769886025   -0.01754843683526904
-0.10869265072860916   -0.14662316769886025   -0.01754843683526904
-0.10869265072860916   -0.14662316769886025   -0.01754843683526904
-0.10869265072860916   -0.14662316769886025   -0.01754843683526904
-0.10276186813434979   -0.14313152479907856   0.013868239179516566
-0.10276186813434979   -0.14313152479907856   0.013868239179516566
-0.10276186813434979   -0.14313152479907856   0.013868239179516566
-0.10276186813434979   -0.14313152479907856   0.013868239179516566
-0.23245573743218834   -0.19255280066845107   0.0050577036522751195
-0.23245573743218834   -0.19255280066845107   0.0050577036522751195
-0.23245573743218834   -0.19255280066845107   0.0050577036522751195
-0.23245573743218834   -0.19255280066845107   0.0050577036522751195
-0.14372935054615973   -0.138514425391566   0.019627044540649854
-0.14372935054615973   -0.138514425391566   0.019627044540649854
-0.14372935054615973   -0.138514425391566   0.019627044540649854
-0.14372935054615973   -0.138514425391566   0.019627044540649854
-0.08508214029063896   -0.059942930772875824   0.029111329827928623
-0.08508214029063896   -0.059942930772875824   0.029111329827928623
-0.08508214029063896   -0.059942930772875824   0.029111329827928623
-0.08508214029063896   -0.059942930772875824   0.029111329827928623
-0.05967775504318817   -0.00010454284345220652   -0.00582118429030945
-0.05967775504318817   -0.00010454284345220652   -0.00582118429030945
-0.05967775504318817   -0.00010454284345220652   -0.00582118429030945
-0.05967775504318817   -0.00010454284345220652   -0.00582118429030945
-0.05663368772659491   -0.06479209361055903   0.01806392016205579
-0.05663368772659491   -0.06479209361055903   0.01806392016205579
-0.05663368772659491   -0.06479209361055903   0.01806392016205579
-0.05663368772659491   -0.06479209361055903   0.01806392016205579
-0.07882033265616044   -0.011487622368921101   -0.003677622393400794
-0.07882033265616044   -0.011487622368921101   -0.003677622393400794
-0.07882033265616044   -0.011487622368921101   -0.003677622393400794
-0.07882033265616044   -0.011487622368921101   -0.003677622393400794
-0.06477486076500942   -0.03278355698943838   0.014439950632686605
-0.06477486076500942   -0.03278355698943838   0.014439950632686605
-0.06477486076500942   -0.03278355698943838   0.014439950632686605
-0.06477486076500942   -0.03278355698943838   0.014439950632686605
-0.08397458127205241   -0.06838362826701504   0.027447140425233253
-0.08397458127205241   -0.06838362826701504   0.027447140425233253
-0.08397458127205241   -0.06838362826701504   0.027447140425233253
-0.08397458127205241   -0.06838362826701504   0.027447140425233253
-0.05000020602222219   -0.0064168546239843525   -0.007143910302655287
-0.05000020602222219   -0.0064168546239843525   -0.007143910302655287
-0.05000020602222219   -0.0064168546239843525   -0.007143910302655287
-0.05000020602222219   -0.0064168546239843525   -0.007143910302655287
-0.05189101158140365   -0.07049689146044302   0.016655370858940578
-0.05189101158140365   -0.07049689146044302   0.016655370858940578
-0.05189101158140365   -0.07049689146044302   0.016655370858940578
-0.05189101158140365   -0.07049689146044302   0.016655370858940578
-0.07938730532351627   -0.02258168494398976   0.004936807435324911
-0.07938730532351627   -0.02258168494398976   0.004936807435324911
-0.07938730532351627   -0.02258168494398976   0.004936807435324911
-0.07938730532351627   -0.02258168494398976   0.004936807435324911
-0.05942051253754119   -0.037576507584362054   0.01721484971846083
-0.05942051253754119   -0.037576507584362054   0.01721484971846083
-0.05942051253754119   -0.037576507584362054   0.01721484971846083
-0.05942051253754119   -0.037576507584362054   0.01721484971846083
-0.08439893467691321   -0.07405846258871786   0.03135543831307597
-0.08439893467691321   -0.07405846258871786   0.03135543831307597
-0.08439893467691321   -0.07405846258871786   0.03135543831307597
-0.08439893467691321   -0.07405846258871786   0.03135543831307597
-0.047329150859387256   -0.019469882447094192   -0.011562334544326291
-0.047329150859387256   -0.019469882447094192   -0.011562334544326291
-0.047329150859387256   -0.019469882447094192   -0.011562334544326291
-0.047329150859387256   -0.019469882447094192   -0.011562334544326291
-0.04336635477740498   -0.07682150470825862   0.018306408232302066
-0.04336635477740498   -0.07682150470825862   0.018306408232302066
-0.04336635477740498   -0.07682150470825862   0.018306408232302066
-0.04336635477740498   -0.07682150470825862   0.018306408232302066
-0.08554591888745773   -0.04965756871486256   0.006474029329760806
-0.08554591888745773   -0.04965756871486256   0.006474029329760806
-0.08554591888745773   -0.04965756871486256   0.006474029329760806
-0.08554591888745773   -0.04965756871486256   0.006474029329760806
-0.0571434257903022   -0.04742714041812848   0.014890556964673464
-0.0571434257903022   -0.04742714041812848   0.014890556964673464
-0.0571434257903022   -0.04742714041812848   0.014890556964673464
-0.0571434257903022   -0.04742714041812848   0.014890556964673464
-0.054749986119811196   -0.010571634768667623   0.029284752251790818
-0.054749986119811196   -0.010571634768667623   0.029284752251790818
-0.054749986119811196   -0.010571634768667623   0.029284752251790818
-0.054749986119811196   -0.010571634768667623   0.029284752251790818
-0.00960545915230136   0.006382902518277409   -0.0005913438093419201
-0.00960545915230136   0.006382902518277409   -0.0005913438093419201
-0.00960545915230136   0.006382902518277409   -0.0005913438093419201
-0.00960545915230136   0.006382902518277409   -0.0005913438093419201
0.0031921476375043195   -0.0033676753198528964   0.018112800814959466
0.0031921476375043195   -0.0033676753198528964   0.018112800814959466
0.0031921476375043195   -0.0033676753198528964   0.018112800814959466
0.0031921476375043195   -0.0033676753198528964   0.018112800814959466
-0.04678545200388615   0.004779016898999226   -0.0022660117339586647
-0.04678545200388615   0.004779016898999226   -0.0022660117339586647
-0.04678545200388615   0.004779016898999226   -0.0022660117339586647
-0.04678545200388615   0.004779016898999226   -0.0022660117339586647
-0.027444048406356142   -0.002062629436837416   -0.002270265777731743
-0.027444048406356142   -0.002062629436837416   -0.002270265777731743
-0.027444048406356142   -0.002062629436837416   -0.002270265777731743
-0.027444048406356142   -0.002062629436837416   -0.002270265777731743
-0.04323553491405782   -0.010186044891936545   0.03044863550611104
-0.04323553491405782   -0.010186044891936545   0.03044863550611104
-0.04323553491405782   -0.010186044891936545   0.03044863550611104
-0.04323553491405782   -0.010186044891936545   0.03044863550611104
0.0012776781740673703   0.013232834097474246   -0.00806005591953708
0.0012776781740673703   0.013232834097474246   -0.00806005591953708
0.0012776781740673703   0.013232834097474246   -0.00806005591953708
0.0012776781740673703   0.013232834097474246   -0.00806005591953708
0.009661756762603906   -0.004145834961472817   0.022321943219538582
0.009661756762603906   -0.004145834961472817   0.022321943219538582
0.009661756762603906   -0.004145834961472817   0.022321943219538582
0.009661756762603906   -0.004145834961472817   0.022321943219538582
-0.041059419492855576   0.0036573515943525738   -0.0033409117531146755
-0.041059419492855576   0.0036573515943525738   -0.0033409117531146755
-0.041059419492855576   0.0036573515943525738   -0.0033409117531146755
-0.041059419492855576   0.0036573515943525738   -0.0033409117531146755
-0.01795301805856809   -0.0004748442675418631   0.002889303053193377
-0.01795301805856809   -0.0004748442675418631   0.002889303053193377
-0.01795301805856809   -0.0004748442675418631   0.002889303053193377
-0.01795301805856809   -0.0004748442675418631   0.002889303053193377
-0.03685817352024418   -0.011374729767575982   0.03269739947187085
-0.03685817352024418   -0.011374729767575982   0.03269739947187085
-0.03685817352024418   -0.011374729767575982   0.03269739947187085
-0.03685817352024418   -0.011374729767575982   0.03269739947187085
0.006933114154651086   0.012358849765114312   -0.00782595454681265
0.006933114154651086   0.012358849765114312   -0.00782595454681265
0.006933114154651086   0.012358849765114312   -0.00782595454681265
0.006933114154651086   0.012358849765114312   -0.00782595454681265
0.016273745391808803   -0.006478298014343506   0.02167211419062906
0.016273745391808803   -0.006478298014343506   0.02167211419062906
0.016273745391808803   -0.006478298014343506   0.02167211419062906
0.016273745391808803   -0.006478298014343506   0.02167211419062906
-0.031671347340441296   0.0037472817166500257   -0.003787341007788158
-0.031671347340441296   0.0037472817166500257   -0.003787341007788158
-0.031671347340441296   0.0037472817166500257   -0.003787341007788158
-0.031671347340441296   0.0037472817166500257   -0.003787341007788158
-0.009473729964477505   0.0005141906952874236   0.007433653720962686
-0.009473729964477505   0.0005141906952874236   0.007433653720962686
-0.009473729964477505   0.0005141906952874236   0.007433653720962686
-0.009473729964477505   0.0005141906952874236   0.007433653720962686
              </DataArray>   
             <DataArray type="Float64" NumberOfComponents="3" Name="Displacements" format="ascii">   
0.0   0.0   0.0
-0.005031594879983827   -0.0033013995013427486   -0.0016855452601661227
0.0   0.0   0.0
0.0   0.0   0.0
-0.005031594879983827   -0.0033013995013427486   -0.0016855452601661227
-0.00320178490921633   -0.0029668896825199758   -0.001238381773387386
0.0   0.0   0.0
-0.003138530983774422   -0.0031157585241236825   -0.0010374867009400365
0.0   0.0   0.0
0.0   0.0   0.0
-0.003138530983774422   -0.0031157585241236825   -0.0010374867009400365
0.0   0.0   0.0
0.0   0.0   0.0
-0.003138530983774422   -0.0031157585241236825   -0.0010374867009400365
-0.005265885044773172   -0.0035171552424018027   -0.0013532389359563472
-0.005031594879983827   -0.0033013995013427486   -0.0016855452601661227
0.0   0.0   0.0
-0.003138530983774422   -0.0031157585241236825   -0.0010374867009400365
-0.005031594879983827   -0.0033013995013427486   -0.0016855452601661227
0.0   0.0   0.0
0.0   0.0   0.0
-0.005265885044773172   -0.0035171552424018027   -0.0013532389359563472
0.0   0.0   0.0
0.0   0.0   0.0
-0.005265885044773172   -0.0035171552424018027   -0.0013532389359563472
-0.003138530983774422   -0.0031157585241236825   -0.0010374867009400365
0.0   0.0   0.0
-0.0031474546656273016   -0.003192040850998999   -0.0008368727525823274
0.0   0.0   0.0
0.0   0.0   0.0
-0.0031474546656273016   -0.003192040850998999   -0.0008368727525823274
0.0   0.0   0.0
0.0   0.0   0.0
-0.0031474546656273016   -0.003192040850998999   -0.0008368727525823274
-0.005430458000988773   -0.003622068176973917   -0.0010348221314417443
-0.005265885044773172   -0.0035171552424018027   -0.0013532389359563472
0.0   0.0   0.0
-0.0031474546656273016   -0.003192040850998999   -0.0008368727525823274
-0.005265885044773172   -0.0035171552424018027   -0.0013532389359563472
0.0   0.0   0.0
0.0   0.0   0.0
-0.005430458000988773   -0.003622068176973917   -0.0010348221314417443
0.0   0.0   0.0
0.0   0.0   0.0
-0.005430458000988773   -0.003622068176973917   -0.0010348221314417443
-0.0031474546656273016   -0.003192040850998999   -0.0008368727525823274
0.0   0.0   0.0
-0.003145881986853789   -0.003211630939044334   -0.0006294249736124793
0.0   0.0   0.0
0.0   0.0   0.0
-0.003145881986853789   -0.003211630939044334   -0.0006294249736124793
0.0   0.0   0.0
0.0   0.0   0.0
-0.003145881986853789   -0.003211630939044334   -0.0006294249736124793
-0.005784921569658189   -0.0037014928436341   -0.0006654031395462445
-0.005430458000988773   -0.003622068176973917   -0.0010348221314417443
0.0   0.0   0.0
-0.003145881986853789   -0.003211630939044334   -0.0006294249736124793
-0.005430458000988773   -0.003622068176973917   -0.0010348221314417443
0.0   0.0   0.0
0.0   0.0   0.0
-0.00320178490921633   -0.0029668896825199758   -0.001238381773387386
0.0   0.0   0.0
0.0   0.0   0.0
-0.00320178490921633   -0.0029668896825199758   -0.001238381773387386
-0.0014580263563496387   -0.0028441916523942734   -0.0009419076156022764
0.0   0.0   0.0
-0.001402379753637029   -0.0029410967020335782   -0.0008470757457749001
0.0   0.0   0.0
0.0   0.0   0.0
-0.001402379753637029   -0.0029410967020335782   -0.0008470757457749001
0.0   0.0   0.0
0.0   0.0   0.0
-0.001402379753637029   -0.0029410967020335782   -0.0008470757457749001
-0.003138530983774422   -0.0031157585241236825   -0.0010374867009400365
-0.00320178490921633   -0.0029668896825199758   -0.001238381773387386
0.0   0.0   0.0
-0.001402379753637029   -0.0029410967020335782   -0.0008470757457749001
-0.00320178490921633   -0.0029668896825199758   -0.001238381773387386
0.0   0.0   0.0
0.0   0.0   0.0
-0.003138530983774422   -0.0031157585241236825   -0.0010374867009400365
0.0   0.0   0.0
0.0   0.0   0.0
-0.003138530983774422   -0.0031157585241236825   -0.0010374867009400365
-0.001402379753637029   -0.0029410967020335782   -0.0008470757457749001
0.0   0.0   0.0
-0.001371156531759746   -0.0029780303870158243   -0.0007547122218562714
0.0   0.0   0.0
0.0   0.0   0.0
-0.001371156531759746   -0.0029780303870158243   -0.0007547122218562714
0.0   0.0   0.0
0.0   0.0   0.0
-0.001371156531759746   -0.0029780303870158243   -0.0007547122218562714
-0.0031474546656273016   -0.003192040850998999   -0.0008368727525823274
-0.003138530983774422   -0.0031157585241236825   -0.0010374867009400365
0.0   0.0   0.0
-0.001371156531759746   -0.0029780303870158243   -0.0007547122218562714
-0.003138530983774422   -0.0031157585241236825   -0.0010374867009400365
0.0   0.0   0.0
0.0   0.0   0.0
-0.0031474546656273016   -0.003192040850998999   -0.0008368727525823274
0.0   0.0   0.0
0.0   0.0   0.0
-0.0031474546656273016   -0.003192040850998999   -0.0008368727525823274
-0.001371156531759746   -0.0029780303870158243   -0.0007547122218562714
0.0   0.0   0.0
-0.0013427373140694088   -0.0029626151006979465   -0.0006592166113538237
0.0   0.0   0.0
0.0   0.0   0.0
-0.0013427373140694088   -0.0029626151006979465   -0.0006592166113538237
0.0   0.0   0.0
0.0   0.0   0.0
-0.0013427373140694088   -0.0029626151006979465   -0.0006592166113538237
-0.003145881986853789   -0.003211630939044334   -0.0006294249736124793
-0.0031474546656273016   -0.003192040850998999   -0.0008368727525823274
0.0   0.0   0.0
-0.0013427373140694088   -0.0029626151006979465   -0.0006592166113538237
-0.0031474546656273016   -0.003192040850998999   -0.0008368727525823274
0.0   0.0   0.0
0.0   0.0   0.0
-0.0014580263563496387   -0.0028441916523942734   -0.0009419076156022764
0.0   0.0   0.0
0.0   0.0   0.0
-0.0014580263563496387   -0.0028441916523942734   -0.0009419076156022764
0.00018955983568063093   -0.002859901302014117   -0.0007529757524563056
0.0   0.0   0.0
0.00022504537694516006   -0.002910135940488688   -0.000766118471405548
0.0   0.0   0.0
0.0   0.0   0.0
0.00022504537694516006   -0.002910135940488688   -0.000766118471405548
0.0   0.0   0.0
0.0   0.0   0.0
0.00022504537694516006   -0.002910135940488688   -0.000766118471405548
-0.001402379753637029   -0.0029410967020335782   -0.0008470757457749001
-0.0014580263563496387   -0.0028441916523942734   -0.0009419076156022764
0.0   0.0   0.0
0.00022504537694516006   -0.002910135940488688   -0.000766118471405548
-0.0014580263563496387   -0.0028441916523942734   -0.0009419076156022764
0.0   0.0   0.0
0.0   0.0   0.0
-0.001402379753637029   -0.0029410967020335782   -0.0008470757457749001
0.0   0.0   0.0
0.0   0.0   0.0
-0.001402379753637029   -0.0029410967020335782   -0.0008470757457749001
0.00022504537694516006   -0.002910135940488688   -0.000766118471405548
0.0   0.0   0.0
0.00025304323691133663   -0.002905978117229377   -0.0007779831816562646
0.0   0.0   0.0
0.0   0.0   0.0
0.00025304323691133663   -0.002905978117229377   -0.0007779831816562646
0.0   0.0   0.0
0.0   0.0   0.0
0.00025304323691133663   -0.002905978117229377   -0.0007779831816562646
-0.001371156531759746   -0.0029780303870158243   -0.0007547122218562714
-0.001402379753637029   -0.0029410967020335782   -0.0008470757457749001
0.0   0.0   0.0
0.00025304323691133663   -0.002905978117229377   -0.0007779831816562646
-0.001402379753637029   -0.0029410967020335782   -0.0008470757457749001
0.0   0.0   0.0
0.0   0.0   0.0
-0.001371156531759746   -0.0029780303870158243   -0.0007547122218562714
0.0   0.0   0.0
0.0   0.0   0.0
-0.001371156531759746   -0.0029780303870158243   -0.0007547122218562714
0.00025304323691133663   -0.002905978117229377   -0.0007779831816562646
0.0   0.0   0.0
0.0002907385478226397   -0.0028429658065013447   -0.0007901689476114259
0.0   0.0   0.0
0.0   0.0   0.0
0.0002907385478226397   -0.0028429658065013447   -0.0007901689476114259
0.0   0.0   0.0
0.0   0.0   0.0
0.0002907385478226397   -0.0028429658065013447   -0.0007901689476114259
-0.0013427373140694088   -0.0029626151006979465   -0.0006592166113538237
-0.001371156531759746   -0.0029780303870158243   -0.0007547122218562714
0.0   0.0   0.0
0.0002907385478226397   -0.0028429658065013447   -0.0007901689476114259
-0.001371156531759746   -0.0029780303870158243   -0.0007547122218562714
0.0   0.0   0.0
0.0   0.0   0.0
0.00018955983568063093   -0.002859901302014117   -0.0007529757524563056
0.0   0.0   0.0
0.0   0.0   0.0
0.00018955983568063093   -0.002859901302014117   -0.0007529757524563056
0.001977928062947605   -0.0029990955283497184   -0.0006595311099882973
0.0   0.0   0.0
0.001981323889172514   -0.003015082223424402   -0.0007862866156155894
0.0   0.0   0.0
0.0   0.0   0.0
0.001981323889172514   -0.003015082223424402   -0.0007862866156155894
0.0   0.0   0.0
0.0   0.0   0.0
0.001981323889172514   -0.003015082223424402   -0.0007862866156155894
0.00022504537694516006   -0.002910135940488688   -0.000766118471405548
0.00018955983568063093   -0.002859901302014117   -0.0007529757524563056
0.0   0.0   0.0
0.001981323889172514   -0.003015082223424402   -0.0007862866156155894
0.00018955983568063093   -0.002859901302014117   -0.0007529757524563056
0.0   0.0   0.0
0.0   0.0   0.0
0.00022504537694516006   -0.002910135940488688   -0.000766118471405548
0.0   0.0   0.0
0.0   0.0   0.0
0.00022504537694516006   -0.002910135940488688   -0.000766118471405548
0.001981323889172514   -0.003015082223424402   -0.0007862866156155894
0.0   0.0   0.0
0.0019727336644573255   -0.002972027118926154   -0.0009078804690078385
0.0   0.0   0.0
0.0   0.0   0.0
0.0019727336644573255   -0.002972027118926154   -0.0009078804690078385
0.0   0.0   0.0
0.0   0.0   0.0
0.0019727336644573255   -0.002972027118926154   -0.0009078804690078385
0.00025304323691133663   -0.002905978117229377   -0.0007779831816562646
0.00022504537694516006   -0.002910135940488688   -0.000766118471405548
0.0   0.0   0.0
0.0019727336644573255   -0.002972027118926154   -0.0009078804690078385
0.00022504537694516006   -0.002910135940488688   -0.000766118471405548
0.0   0.0   0.0
0.0   0.0   0.0
0.00025304323691133663   -0.002905978117229377   -0.0007779831816562646
0.0   0.0   0.0
0.0   0.0   0.0
0.00025304323691133663   -0.002905978117229377   -0.0007779831816562646
0.0019727336644573255   -0.002972027118926154   -0.0009078804690078385
0.0   0.0   0.0
0.0020108391671077707   -0.002856741726339891   -0.0010271548526132397
0.0   0.0   0.0
0.0   0.0   0.0
0.0020108391671077707   -0.002856741726339891   -0.0010271548526132397
0.0   0.0   0.0
0.0   0.0   0.0
0.0020108391671077707   -0.002856741726339891   -0.0010271548526132397
0.0002907385478226397   -0.0028429658065013447   -0.0007901689476114259
0.00025304323691133663   -0.002905978117229377   -0.0007779831816562646
0.0   0.0   0.0
0.0020108391671077707   -0.002856741726339891   -0.0010271548526132397
0.00025304323691133663   -0.002905978117229377   -0.0007779831816562646
0.0   0.0   0.0
0.0   0.0   0.0
0.001977928062947605   -0.0029990955283497184   -0.0006595311099882973
0.0   0.0   0.0
0.0   0.0   0.0
0.001977928062947605   -0.0029990955283497184   -0.0006595311099882973
0.004464813882856351   -0.0033519033027768937   -0.0006222864032829067
0.0   0.0   0.0
0.004193023249847524   -0.003315303926920816   -0.0009096489030753485
0.0   0.0   0.0
0.0   0.0   0.0
0.004193023249847524   -0.003315303926920816   -0.0009096489030753485
0.0   0.0   0.0
0.0   0.0   0.0
0.004193023249847524   -0.003315303926920816   -0.0009096489030753485
0.001981323889172514   -0.003015082223424402   -0.0007862866156155894
0.001977928062947605   -0.0029990955283497184   -0.0006595311099882973
0.0   0.0   0.0
0.004193023249847524   -0.003315303926920816   -0.0009096489030753485
0.001977928062947605   -0.0029990955283497184   -0.0006595311099882973
0.0   0.0   0.0
0.0   0.0   0.0
0.001981323889172514   -0.003015082223424402   -0.0007862866156155894
0.0   0.0   0.0
0.0   0.0   0.0
0.001981323889172514   -0.003015082223424402   -0.0007862866156155894
0.004193023249847524   -0.003315303926920816   -0.0009096489030753485
0.0   0.0   0.0
0.004067642519118556   -0.003246375798396496   -0.0011526467691462823
0.0   0.0   0.0
0.0   0.0   0.0
0.004067642519118556   -0.003246375798396496   -0.0011526467691462823
0.0   0.0   0.0
0.0   0.0   0.0
0.004067642519118556   -0.003246375798396496   -0.0011526467691462823
0.0019727336644573255   -0.002972027118926154   -0.0009078804690078385
0.001981323889172514   -0.003015082223424402   -0.0007862866156155894
0.0   0.0   0.0
0.004067642519118556   -0.003246375798396496   -0.0011526467691462823
0.001981323889172514   -0.003015082223424402   -0.0007862866156155894
0.0   0.0   0.0
0.0   0.0   0.0
0.0019727336644573255   -0.002972027118926154   -0.0009078804690078385
0.0   0.0   0.0
0.0   0.0   0.0
0.0019727336644573255   -0.002972027118926154   -0.0009078804690078385
0.004067642519118556   -0.003246375798396496   -0.0011526467691462823
0.0   0.0   0.0
0.0038810589190796767   -0.0030700173006325032   -0.0014097826859163515
0.0   0.0   0.0
0.0   0.0   0.0
0.0038810589190796767   -0.0030700173006325032   -0.0014097826859163515
0.0   0.0   0.0
0.0   0.0   0.0
0.0038810589190796767   -0.0030700173006325032   -0.0014097826859163515
0.0020108391671077707   -0.002856741726339891   -0.0010271548526132397
0.0019727336644573255   -0.002972027118926154   -0.0009078804690078385
0.0   0.0   0.0
0.0038810589190796767   -0.0030700173006325032   -0.0014097826859163515
0.0019727336644573255   -0.002972027118926154   -0.0009078804690078385
0.0   0.0   0.0
-0.005031594879983827   -0.0033013995013427486   -0.0016855452601661227
-0.009397844185435744   -0.009215344323659436   -0.002270877745019309
-0.00320178490921633   -0.0029668896825199758   -0.001238381773387386
-0.005265885044773172   -0.0035171552424018027   -0.0013532389359563472
-0.009397844185435744   -0.009215344323659436   -0.002270877745019309
-0.005998275701142304   -0.008914502653601341   -0.0018692095132483981
-0.00320178490921633   -0.0029668896825199758   -0.001238381773387386
-0.006005432062371383   -0.009066814925474679   -0.001683405035064542
-0.005265885044773172   -0.0035171552424018027   -0.0013532389359563472
-0.003138530983774422   -0.0031157585241236825   -0.0010374867009400365
-0.006005432062371383   -0.009066814925474679   -0.001683405035064542
-0.00320178490921633   -0.0029668896825199758   -0.001238381773387386
-0.005265885044773172   -0.0035171552424018027   -0.0013532389359563472
-0.006005432062371383   -0.009066814925474679   -0.001683405035064542
-0.009679502905116237   -0.009427872635159455   -0.0019691506786193597
-0.009397844185435744   -0.009215344323659436   -0.002270877745019309
-0.005265885044773172   -0.0035171552424018027   -0.0013532389359563472
-0.006005432062371383   -0.009066814925474679   -0.001683405035064542
-0.009397844185435744   -0.009215344323659436   -0.002270877745019309
-0.00320178490921633   -0.0029668896825199758   -0.001238381773387386
-0.005265885044773172   -0.0035171552424018027   -0.0013532389359563472
-0.009679502905116237   -0.009427872635159455   -0.0019691506786193597
-0.003138530983774422   -0.0031157585241236825   -0.0010374867009400365
-0.005430458000988773   -0.003622068176973917   -0.0010348221314417443
-0.009679502905116237   -0.009427872635159455   -0.0019691506786193597
-0.006005432062371383   -0.009066814925474679   -0.001683405035064542
-0.003138530983774422   -0.0031157585241236825   -0.0010374867009400365
-0.0060291589290738645   -0.009159659737933772   -0.0015048501413525673
-0.005430458000988773   -0.003622068176973917   -0.0010348221314417443
-0.0031474546656273016   -0.003192040850998999   -0.0008368727525823274
-0.0060291589290738645   -0.009159659737933772   -0.0015048501413525673
-0.003138530983774422   -0.0031157585241236825   -0.0010374867009400365
-0.005430458000988773   -0.003622068176973917   -0.0010348221314417443
-0.0060291589290738645   -0.009159659737933772   -0.0015048501413525673
-0.00987522666949669   -0.009547893798550167   -0.0016737022645606395
-0.009679502905116237   -0.009427872635159455   -0.0019691506786193597
-0.005430458000988773   -0.003622068176973917   -0.0010348221314417443
-0.0060291589290738645   -0.009159659737933772   -0.0015048501413525673
-0.009679502905116237   -0.009427872635159455   -0.0019691506786193597
-0.003138530983774422   -0.0031157585241236825   -0.0010374867009400365
-0.005430458000988773   -0.003622068176973917   -0.0010348221314417443
-0.00987522666949669   -0.009547893798550167   -0.0016737022645606395
-0.0031474546656273016   -0.003192040850998999   -0.0008368727525823274
-0.005784921569658189   -0.0037014928436341   -0.0006654031395462445
-0.00987522666949669   -0.009547893798550167   -0.0016737022645606395
-0.0060291589290738645   -0.009159659737933772   -0.0015048501413525673
-0.0031474546656273016   -0.003192040850998999   -0.0008368727525823274
-0.006011274274038941   -0.009207830112751983   -0.001337712282688413
-0.005784921569658189   -0.0037014928436341   -0.0006654031395462445
-0.003145881986853789   -0.003211630939044334   -0.0006294249736124793
-0.006011274274038941   -0.009207830112751983   -0.001337712282688413
-0.0031474546656273016   -0.003192040850998999   -0.0008368727525823274
-0.005784921569658189   -0.0037014928436341   -0.0006654031395462445
-0.006011274274038941   -0.009207830112751983   -0.001337712282688413
-0.010106567566263349   -0.009617662923807844   -0.0014048894110929048
-0.00987522666949669   -0.009547893798550167   -0.0016737022645606395
-0.005784921569658189   -0.0037014928436341   -0.0006654031395462445
-0.006011274274038941   -0.009207830112751983   -0.001337712282688413
-0.00987522666949669   -0.009547893798550167   -0.0016737022645606395
-0.0031474546656273016   -0.003192040850998999   -0.0008368727525823274
-0.00320178490921633   -0.0029668896825199758   -0.001238381773387386
-0.005998275701142304   -0.008914502653601341   -0.0018692095132483981
-0.0014580263563496387   -0.0028441916523942734   -0.0009419076156022764
-0.003138530983774422   -0.0031157585241236825   -0.0010374867009400365
-0.005998275701142304   -0.008914502653601341   -0.0018692095132483981
-0.0027830618431987347   -0.008774517104084122   -0.001595012852193808
-0.0014580263563496387   -0.0028441916523942734   -0.0009419076156022764
-0.0027591254829928856   -0.008871456330310184   -0.001499804342805111
-0.003138530983774422   -0.0031157585241236825   -0.0010374867009400365
-0.001402379753637029   -0.0029410967020335782   -0.0008470757457749001
-0.0027591254829928856   -0.008871456330310184   -0.001499804342805111
-0.0014580263563496387   -0.0028441916523942734   -0.0009419076156022764
-0.003138530983774422   -0.0031157585241236825   -0.0010374867009400365
-0.0027591254829928856   -0.008871456330310184   -0.001499804342805111
-0.006005432062371383   -0.009066814925474679   -0.001683405035064542
-0.005998275701142304   -0.008914502653601341   -0.0018692095132483981
-0.003138530983774422   -0.0031157585241236825   -0.0010374867009400365
-0.0027591254829928856   -0.008871456330310184   -0.001499804342805111
-0.005998275701142304   -0.008914502653601341   -0.0018692095132483981
-0.0014580263563496387   -0.0028441916523942734   -0.0009419076156022764
-0.003138530983774422   -0.0031157585241236825   -0.0010374867009400365
-0.006005432062371383   -0.009066814925474679   -0.001683405035064542
-0.001402379753637029   -0.0029410967020335782   -0.0008470757457749001
-0.0031474546656273016   -0.003192040850998999   -0.0008368727525823274
-0.006005432062371383   -0.009066814925474679   -0.001683405035064542
-0.0027591254829928856   -0.008871456330310184   -0.001499804342805111
-0.001402379753637029   -0.0029410967020335782   -0.0008470757457749001
-0.002737922344186112   -0.008918469897297337   -0.0014134931658104219
-0.0031474546656273016   -0.003192040850998999   -0.0008368727525823274
-0.001371156531759746   -0.0029780303870158243   -0.0007547122218562714
-0.002737922344186112   -0.008918469897297337   -0.0014134931658104219
-0.001402379753637029   -0.0029410967020335782   -0.0008470757457749001
-0.0031474546656273016   -0.003192040850998999   -0.0008368727525823274
-0.002737922344186112   -0.008918469897297337   -0.0014134931658104219
-0.0060291589290738645   -0.009159659737933772   -0.0015048501413525673
-0.006005432062371383   -0.009066814925474679   -0.001683405035064542
-0.0031474546656273016   -0.003192040850998999   -0.0008368727525823274
-0.002737922344186112   -0.008918469897297337   -0.0014134931658104219
-0.006005432062371383   -0.009066814925474679   -0.001683405035064542
-0.001402379753637029   -0.0029410967020335782   -0.0008470757457749001
-0.0031474546656273016   -0.003192040850998999   -0.0008368727525823274
-0.0060291589290738645   -0.009159659737933772   -0.0015048501413525673
-0.001371156531759746   -0.0029780303870158243   -0.0007547122218562714
-0.003145881986853789   -0.003211630939044334   -0.0006294249736124793
-0.0060291589290738645   -0.009159659737933772   -0.0015048501413525673
-0.002737922344186112   -0.008918469897297337   -0.0014134931658104219
-0.001371156531759746   -0.0029780303870158243   -0.0007547122218562714
-0.0027062463765272194   -0.008917330141028194   -0.0013383458052304593
-0.003145881986853789   -0.003211630939044334   -0.0006294249736124793
-0.0013427373140694088   -0.0029626151006979465   -0.0006592166113538237
-0.0027062463765272194   -0.008917330141028194   -0.0013383458052304593
-0.001371156531759746   -0.0029780303870158243   -0.0007547122218562714
-0.003145881986853789   -0.003211630939044334   -0.0006294249736124793
-0.0027062463765272194   -0.008917330141028194   -0.0013383458052304593
-0.006011274274038941   -0.009207830112751983   -0.001337712282688413
-0.0060291589290738645   -0.009159659737933772   -0.0015048501413525673
-0.003145881986853789   -0.003211630939044334   -0.0006294249736124793
-0.0027062463765272194   -0.008917330141028194   -0.0013383458052304593
-0.0060291589290738645   -0.009159659737933772   -0.0015048501413525673
-0.001371156531759746   -0.0029780303870158243   -0.0007547122218562714
-0.0014580263563496387   -0.0028441916523942734   -0.0009419076156022764
-0.0027830618431987347   -0.008774517104084122   -0.001595012852193808
0.00018955983568063093   -0.002859901302014117   -0.0007529757524563056
-0.001402379753637029   -0.0029410967020335782   -0.0008470757457749001
-0.0027830618431987347   -0.008774517104084122   -0.001595012852193808
0.0003174272935167742   -0.008778680566163388   -0.0014216594533761216
0.00018955983568063093   -0.002859901302014117   -0.0007529757524563056
0.00034686131872672254   -0.00882460274891138   -0.0014153689505725156
-0.001402379753637029   -0.0029410967020335782   -0.0008470757457749001
0.00022504537694516006   -0.002910135940488688   -0.000766118471405548
0.00034686131872672254   -0.00882460274891138   -0.0014153689505725156
0.00018955983568063093   -0.002859901302014117   -0.0007529757524563056
-0.001402379753637029   -0.0029410967020335782   -0.0008470757457749001
0.00034686131872672254   -0.00882460274891138   -0.0014153689505725156
-0.0027591254829928856   -0.008871456330310184   -0.001499804342805111
-0.0027830618431987347   -0.008774517104084122   -0.001595012852193808
-0.001402379753637029   -0.0029410967020335782   -0.0008470757457749001
0.00034686131872672254   -0.00882460274891138   -0.0014153689505725156
-0.0027830618431987347   -0.008774517104084122   -0.001595012852193808
0.00018955983568063093   -0.002859901302014117   -0.0007529757524563056
-0.001402379753637029   -0.0029410967020335782   -0.0008470757457749001
-0.0027591254829928856   -0.008871456330310184   -0.001499804342805111
0.00022504537694516006   -0.002910135940488688   -0.000766118471405548
-0.001371156531759746   -0.0029780303870158243   -0.0007547122218562714
-0.0027591254829928856   -0.008871456330310184   -0.001499804342805111
0.00034686131872672254   -0.00882460274891138   -0.0014153689505725156
0.00022504537694516006   -0.002910135940488688   -0.000766118471405548
0.00036664258923106024   -0.008821769871408595   -0.0014191770593347762
-0.001371156531759746   -0.0029780303870158243   -0.0007547122218562714
0.00025304323691133663   -0.002905978117229377   -0.0007779831816562646
0.00036664258923106024   -0.008821769871408595   -0.0014191770593347762
0.00022504537694516006   -0.002910135940488688   -0.000766118471405548
-0.001371156531759746   -0.0029780303870158243   -0.0007547122218562714
0.00036664258923106024   -0.008821769871408595   -0.0014191770593347762
-0.002737922344186112   -0.008918469897297337   -0.0014134931658104219
-0.0027591254829928856   -0.008871456330310184   -0.001499804342805111
-0.001371156531759746   -0.0029780303870158243   -0.0007547122218562714
0.00036664258923106024   -0.008821769871408595   -0.0014191770593347762
-0.0027591254829928856   -0.008871456330310184   -0.001499804342805111
0.00022504537694516006   -0.002910135940488688   -0.000766118471405548
-0.001371156531759746   -0.0029780303870158243   -0.0007547122218562714
-0.002737922344186112   -0.008918469897297337   -0.0014134931658104219
0.00025304323691133663   -0.002905978117229377   -0.0007779831816562646
-0.0013427373140694088   -0.0029626151006979465   -0.0006592166113538237
-0.002737922344186112   -0.008918469897297337   -0.0014134931658104219
0.00036664258923106024   -0.008821769871408595   -0.0014191770593347762
0.00025304323691133663   -0.002905978117229377   -0.0007779831816562646
0.00038787046494270094   -0.008768693796605583   -0.0014332435541836793
-0.0013427373140694088   -0.0029626151006979465   -0.0006592166113538237
0.0002907385478226397   -0.0028429658065013447   -0.0007901689476114259
0.00038787046494270094   -0.008768693796605583   -0.0014332435541836793
0.00025304323691133663   -0.002905978117229377   -0.0007779831816562646
-0.0013427373140694088   -0.0029626151006979465   -0.0006592166113538237
0.00038787046494270094   -0.008768693796605583   -0.0014332435541836793
-0.0027062463765272194   -0.008917330141028194   -0.0013383458052304593
-0.002737922344186112   -0.008918469897297337   -0.0014134931658104219
-0.0013427373140694088   -0.0029626151006979465   -0.0006592166113538237
0.00038787046494270094   -0.008768693796605583   -0.0014332435541836793
-0.002737922344186112   -0.008918469897297337   -0.0014134931658104219
0.00025304323691133663   -0.002905978117229377   -0.0007779831816562646
0.00018955983568063093   -0.002859901302014117   -0.0007529757524563056
0.0003174272935167742   -0.008778680566163388   -0.0014216594533761216
0.001977928062947605   -0.0029990955283497184   -0.0006595311099882973
0.00022504537694516006   -0.002910135940488688   -0.000766118471405548
0.0003174272935167742   -0.008778680566163388   -0.0014216594533761216
0.003603036767391332   -0.008921788422867082   -0.0013408001975313835
0.001977928062947605   -0.0029990955283497184   -0.0006595311099882973
0.003619664587800219   -0.008921359981060646   -0.0014263116773908272
0.00022504537694516006   -0.002910135940488688   -0.000766118471405548
0.001981323889172514   -0.003015082223424402   -0.0007862866156155894
0.003619664587800219   -0.008921359981060646   -0.0014263116773908272
0.001977928062947605   -0.0029990955283497184   -0.0006595311099882973
0.00022504537694516006   -0.002910135940488688   -0.000766118471405548
0.003619664587800219   -0.008921359981060646   -0.0014263116773908272
0.00034686131872672254   -0.00882460274891138   -0.0014153689505725156
0.0003174272935167742   -0.008778680566163388   -0.0014216594533761216
0.00022504537694516006   -0.002910135940488688   -0.000766118471405548
0.003619664587800219   -0.008921359981060646   -0.0014263116773908272
0.0003174272935167742   -0.008778680566163388   -0.0014216594533761216
0.001977928062947605   -0.0029990955283497184   -0.0006595311099882973
0.00022504537694516006   -0.002910135940488688   -0.000766118471405548
0.00034686131872672254   -0.00882460274891138   -0.0014153689505725156
0.001981323889172514   -0.003015082223424402   -0.0007862866156155894
0.00025304323691133663   -0.002905978117229377   -0.0007779831816562646
0.00034686131872672254   -0.00882460274891138   -0.0014153689505725156
0.003619664587800219   -0.008921359981060646   -0.0014263116773908272
0.001981323889172514   -0.003015082223424402   -0.0007862866156155894
0.0036028820388509146   -0.008873122248708322   -0.00152324868063105
0.00025304323691133663   -0.002905978117229377   -0.0007779831816562646
0.0019727336644573255   -0.002972027118926154   -0.0009078804690078385
0.0036028820388509146   -0.008873122248708322   -0.00152324868063105
0.001981323889172514   -0.003015082223424402   -0.0007862866156155894
0.00025304323691133663   -0.002905978117229377   -0.0007779831816562646
0.0036028820388509146   -0.008873122248708322   -0.00152324868063105
0.00036664258923106024   -0.008821769871408595   -0.0014191770593347762
0.00034686131872672254   -0.00882460274891138   -0.0014153689505725156
0.00025304323691133663   -0.002905978117229377   -0.0007779831816562646
0.0036028820388509146   -0.008873122248708322   -0.00152324868063105
0.00034686131872672254   -0.00882460274891138   -0.0014153689505725156
0.001981323889172514   -0.003015082223424402   -0.0007862866156155894
0.00025304323691133663   -0.002905978117229377   -0.0007779831816562646
0.00036664258923106024   -0.008821769871408595   -0.0014191770593347762
0.0019727336644573255   -0.002972027118926154   -0.0009078804690078385
0.0002907385478226397   -0.0028429658065013447   -0.0007901689476114259
0.00036664258923106024   -0.008821769871408595   -0.0014191770593347762
0.0036028820388509146   -0.008873122248708322   -0.00152324868063105
0.0019727336644573255   -0.002972027118926154   -0.0009078804690078385
0.003593244235133545   -0.008763883300950622   -0.001628024888613998
0.0002907385478226397   -0.0028429658065013447   -0.0007901689476114259
0.0020108391671077707   -0.002856741726339891   -0.0010271548526132397
0.003593244235133545   -0.008763883300950622   -0.001628024888613998
0.0019727336644573255   -0.002972027118926154   -0.0009078804690078385
0.0002907385478226397   -0.0028429658065013447   -0.0007901689476114259
0.003593244235133545   -0.008763883300950622   -0.001628024888613998
0.00038787046494270094   -0.008768693796605583   -0.0014332435541836793
0.00036664258923106024   -0.008821769871408595   -0.0014191770593347762
0.0002907385478226397   -0.0028429658065013447   -0.0007901689476114259
0.003593244235133545   -0.008763883300950622   -0.001628024888613998
0.00036664258923106024   -0.008821769871408595   -0.0014191770593347762
0.0019727336644573255   -0.002972027118926154   -0.0009078804690078385
0.001977928062947605   -0.0029990955283497184   -0.0006595311099882973
0.003603036767391332   -0.008921788422867082   -0.0013408001975313835
0.004464813882856351   -0.0033519033027768937   -0.0006222864032829067
0.001981323889172514   -0.003015082223424402   -0.0007862866156155894
0.003603036767391332   -0.008921788422867082   -0.0013408001975313835
0.007567758450928586   -0.009187800163492455   -0.0013190806241743893
0.004464813882856351   -0.0033519033027768937   -0.0006222864032829067
0.0074137274424421334   -0.00916270835690872   -0.0015114530178586918
0.001981323889172514   -0.003015082223424402   -0.0007862866156155894
0.004193023249847524   -0.003315303926920816   -0.0009096489030753485
0.0074137274424421334   -0.00916270835690872   -0.0015114530178586918
0.004464813882856351   -0.0033519033027768937   -0.0006222864032829067
0.001981323889172514   -0.003015082223424402   -0.0007862866156155894
0.0074137274424421334   -0.00916270835690872   -0.0015114530178586918
0.003619664587800219   -0.008921359981060646   -0.0014263116773908272
0.003603036767391332   -0.008921788422867082   -0.0013408001975313835
0.001981323889172514   -0.003015082223424402   -0.0007862866156155894
0.0074137274424421334   -0.00916270835690872   -0.0015114530178586918
0.003603036767391332   -0.008921788422867082   -0.0013408001975313835
0.004464813882856351   -0.0033519033027768937   -0.0006222864032829067
0.001981323889172514   -0.003015082223424402   -0.0007862866156155894
0.003619664587800219   -0.008921359981060646   -0.0014263116773908272
0.004193023249847524   -0.003315303926920816   -0.0009096489030753485
0.0019727336644573255   -0.002972027118926154   -0.0009078804690078385
0.003619664587800219   -0.008921359981060646   -0.0014263116773908272
0.0074137274424421334   -0.00916270835690872   -0.0015114530178586918
0.004193023249847524   -0.003315303926920816   -0.0009096489030753485
0.0072760783964920936   -0.009088340663333862   -0.0017278660057777557
0.0019727336644573255   -0.002972027118926154   -0.0009078804690078385
0.004067642519118556   -0.003246375798396496   -0.0011526467691462823
0.0072760783964920936   -0.009088340663333862   -0.0017278660057777557
0.004193023249847524   -0.003315303926920816   -0.0009096489030753485
0.0019727336644573255   -0.002972027118926154   -0.0009078804690078385
0.0072760783964920936   -0.009088340663333862   -0.0017278660057777557
0.0036028820388509146   -0.008873122248708322   -0.00152324868063105
0.003619664587800219   -0.008921359981060646   -0.0014263116773908272
0.0019727336644573255   -0.002972027118926154   -0.0009078804690078385
0.0072760783964920936   -0.009088340663333862   -0.0017278660057777557
0.003619664587800219   -0.008921359981060646   -0.0014263116773908272
0.004193023249847524   -0.003315303926920816   -0.0009096489030753485
0.0019727336644573255   -0.002972027118926154   -0.0009078804690078385
0.0036028820388509146   -0.008873122248708322   -0.00152324868063105
0.004067642519118556   -0.003246375798396496   -0.0011526467691462823
0.0020108391671077707   -0.002856741726339891   -0.0010271548526132397
0.0036028820388509146   -0.008873122248708322   -0.00152324868063105
0.0072760783964920936   -0.009088340663333862   -0.0017278660057777557
0.004067642519118556   -0.003246375798396496   -0.0011526467691462823
0.007069844997963111   -0.00892286895161867   -0.0019531428441944064
0.0020108391671077707   -0.002856741726339891   -0.0010271548526132397
0.0038810589190796767   -0.0030700173006325032   -0.0014097826859163515
0.007069844997963111   -0.00892286895161867   -0.0019531428441944064
0.004067642519118556   -0.003246375798396496   -0.0011526467691462823
0.0020108391671077707   -0.002856741726339891   -0.0010271548526132397
0.007069844997963111   -0.00892286895161867   -0.0019531428441944064
0.003593244235133545   -0.008763883300950622   -0.001628024888613998
0.0036028820388509146   -0.008873122248708322   -0.00152324868063105
0.0020108391671077707   -0.002856741726339891   -0.0010271548526132397
0.007069844997963111   -0.00892286895161867   -0.0019531428441944064
0.0036028820388509146   -0.008873122248708322   -0.00152324868063105
0.004067642519118556   -0.003246375798396496   -0.0011526467691462823
-0.009397844185435744   -0.009215344323659436   -0.002270877745019309
-0.012876471936435594   -0.017281981101224017   -0.002586550399564075
-0.005998275701142304   -0.008914502653601341   -0.0018692095132483981
-0.009679502905116237   -0.009427872635159455   -0.0019691506786193597
-0.012876471936435594   -0.017281981101224017   -0.002586550399564075
-0.008278709761945708   -0.01705208129156162   -0.0022607885212310923
-0.005998275701142304   -0.008914502653601341   -0.0018692095132483981
-0.008296930268325477   -0.017183541790415938   -0.0021166363121292247
-0.009679502905116237   -0.009427872635159455   -0.0019691506786193597
-0.006005432062371383   -0.009066814925474679   -0.001683405035064542
-0.008296930268325477   -0.017183541790415938   -0.0021166363121292247
-0.005998275701142304   -0.008914502653601341   -0.0018692095132483981
-0.009679502905116237   -0.009427872635159455   -0.0019691506786193597
-0.008296930268325477   -0.017183541790415938   -0.0021166363121292247
-0.013105536337443718   -0.017461640369455904   -0.0023615383498391857
-0.012876471936435594   -0.017281981101224017   -0.002586550399564075
-0.009679502905116237   -0.009427872635159455   -0.0019691506786193597
-0.008296930268325477   -0.017183541790415938   -0.0021166363121292247
-0.012876471936435594   -0.017281981101224017   -0.002586550399564075
-0.005998275701142304   -0.008914502653601341   -0.0018692095132483981
-0.009679502905116237   -0.009427872635159455   -0.0019691506786193597
-0.013105536337443718   -0.017461640369455904   -0.0023615383498391857
-0.006005432062371383   -0.009066814925474679   -0.001683405035064542
-0.00987522666949669   -0.009547893798550167   -0.0016737022645606395
-0.013105536337443718   -0.017461640369455904   -0.0023615383498391857
-0.008296930268325477   -0.017183541790415938   -0.0021166363121292247
-0.006005432062371383   -0.009066814925474679   -0.001683405035064542
-0.00831837794939715   -0.0172750271503848   -0.0019829142254139693
-0.00987522666949669   -0.009547893798550167   -0.0016737022645606395
-0.0060291589290738645   -0.009159659737933772   -0.0015048501413525673
-0.00831837794939715   -0.0172750271503848   -0.0019829142254139693
-0.006005432062371383   -0.009066814925474679   -0.001683405035064542
-0.00987522666949669   -0.009547893798550167   -0.0016737022645606395
-0.00831837794939715   -0.0172750271503848   -0.0019829142254139693
-0.013249972925651072   -0.01757429988615848   -0.0021518155908671387
-0.013105536337443718   -0.017461640369455904   -0.0023615383498391857
-0.00987522666949669   -0.009547893798550167   -0.0016737022645606395
-0.00831837794939715   -0.0172750271503848   -0.0019829142254139693
-0.013105536337443718   -0.017461640369455904   -0.0023615383498391857
-0.006005432062371383   -0.009066814925474679   -0.001683405035064542
-0.00987522666949669   -0.009547893798550167   -0.0016737022645606395
-0.013249972925651072   -0.01757429988615848   -0.0021518155908671387
-0.0060291589290738645   -0.009159659737933772   -0.0015048501413525673
-0.010106567566263349   -0.009617662923807844   -0.0014048894110929048
-0.013249972925651072   -0.01757429988615848   -0.0021518155908671387
-0.00831837794939715   -0.0172750271503848   -0.0019829142254139693
-0.0060291589290738645   -0.009159659737933772   -0.0015048501413525673
-0.00830285755157844   -0.017335216727343044   -0.001857400315750242
-0.010106567566263349   -0.009617662923807844   -0.0014048894110929048
-0.006011274274038941   -0.009207830112751983   -0.001337712282688413
-0.00830285755157844   -0.017335216727343044   -0.001857400315750242
-0.0060291589290738645   -0.009159659737933772   -0.0015048501413525673
-0.010106567566263349   -0.009617662923807844   -0.0014048894110929048
-0.00830285755157844   -0.017335216727343044   -0.001857400315750242
-0.01341431254181173   -0.0176553235529066   -0.001958811886714975
-0.013249972925651072   -0.01757429988615848   -0.0021518155908671387
-0.010106567566263349   -0.009617662923807844   -0.0014048894110929048
-0.00830285755157844   -0.017335216727343044   -0.001857400315750242
-0.013249972925651072   -0.01757429988615848   -0.0021518155908671387
-0.0060291589290738645   -0.009159659737933772   -0.0015048501413525673
-0.005998275701142304   -0.008914502653601341   -0.0018692095132483981
-0.008278709761945708   -0.01705208129156162   -0.0022607885212310923
-0.0027830618431987347   -0.008774517104084122   -0.001595012852193808
-0.006005432062371383   -0.009066814925474679   -0.001683405035064542
-0.008278709761945708   -0.01705208129156162   -0.0022607885212310923
-0.003943585914567316   -0.016937456072567594   -0.0020344632180184815
-0.0027830618431987347   -0.008774517104084122   -0.001595012852193808
-0.003933780609739952   -0.017021515572002942   -0.0019529988308276324
-0.006005432062371383   -0.009066814925474679   -0.001683405035064542
-0.0027591254829928856   -0.008871456330310184   -0.001499804342805111
-0.003933780609739952   -0.017021515572002942   -0.0019529988308276324
-0.0027830618431987347   -0.008774517104084122   -0.001595012852193808
-0.006005432062371383   -0.009066814925474679   -0.001683405035064542
-0.003933780609739952   -0.017021515572002942   -0.0019529988308276324
-0.008296930268325477   -0.017183541790415938   -0.0021166363121292247
-0.008278709761945708   -0.01705208129156162   -0.0022607885212310923
-0.006005432062371383   -0.009066814925474679   -0.001683405035064542
-0.003933780609739952   -0.017021515572002942   -0.0019529988308276324
-0.008278709761945708   -0.01705208129156162   -0.0022607885212310923
-0.0027830618431987347   -0.008774517104084122   -0.001595012852193808
-0.006005432062371383   -0.009066814925474679   -0.001683405035064542
-0.008296930268325477   -0.017183541790415938   -0.0021166363121292247
-0.0027591254829928856   -0.008871456330310184   -0.001499804342805111
-0.0060291589290738645   -0.009159659737933772   -0.0015048501413525673
-0.008296930268325477   -0.017183541790415938   -0.0021166363121292247
-0.003933780609739952   -0.017021515572002942   -0.0019529988308276324
-0.0027591254829928856   -0.008871456330310184   -0.001499804342805111
-0.003921753466252548   -0.01707089199192337   -0.001881466626048102
-0.0060291589290738645   -0.009159659737933772   -0.0015048501413525673
-0.002737922344186112   -0.008918469897297337   -0.0014134931658104219
-0.003921753466252548   -0.01707089199192337   -0.001881466626048102
-0.0027591254829928856   -0.008871456330310184   -0.001499804342805111
-0.0060291589290738645   -0.009159659737933772   -0.0015048501413525673
-0.003921753466252548   -0.01707089199192337   -0.001881466626048102
-0.00831837794939715   -0.0172750271503848   -0.0019829142254139693
-0.008296930268325477   -0.017183541790415938   -0.0021166363121292247
-0.0060291589290738645   -0.009159659737933772   -0.0015048501413525673
-0.003921753466252548   -0.01707089199192337   -0.001881466626048102
-0.008296930268325477   -0.017183541790415938   -0.0021166363121292247
-0.0027591254829928856   -0.008871456330310184   -0.001499804342805111
-0.0060291589290738645   -0.009159659737933772   -0.0015048501413525673
-0.00831837794939715   -0.0172750271503848   -0.0019829142254139693
-0.002737922344186112   -0.008918469897297337   -0.0014134931658104219
-0.006011274274038941   -0.009207830112751983   -0.001337712282688413
-0.00831837794939715   -0.0172750271503848   -0.0019829142254139693
-0.003921753466252548   -0.01707089199192337   -0.001881466626048102
-0.002737922344186112   -0.008918469897297337   -0.0014134931658104219
-0.003901937911662557   -0.01708629122642346   -0.0018198368793682748
-0.006011274274038941   -0.009207830112751983   -0.001337712282688413
-0.0027062463765272194   -0.008917330141028194   -0.0013383458052304593
-0.003901937911662557   -0.01708629122642346   -0.0018198368793682748
-0.002737922344186112   -0.008918469897297337   -0.0014134931658104219
-0.006011274274038941   -0.009207830112751983   -0.001337712282688413
-0.003901937911662557   -0.01708629122642346   -0.0018198368793682748
-0.00830285755157844   -0.017335216727343044   -0.001857400315750242
-0.00831837794939715   -0.0172750271503848   -0.0019829142254139693
-0.006011274274038941   -0.009207830112751983   -0.001337712282688413
-0.003901937911662557   -0.01708629122642346   -0.0018198368793682748
-0.00831837794939715   -0.0172750271503848   -0.0019829142254139693
-0.002737922344186112   -0.008918469897297337   -0.0014134931658104219
-0.0027830618431987347   -0.008774517104084122   -0.001595012852193808
-0.003943585914567316   -0.016937456072567594   -0.0020344632180184815
0.0003174272935167742   -0.008778680566163388   -0.0014216594533761216
-0.0027591254829928856   -0.008871456330310184   -0.001499804342805111
-0.003943585914567316   -0.016937456072567594   -0.0020344632180184815
0.0002642468337313295   -0.016931355355719088   -0.0018941439281094986
0.0003174272935167742   -0.008778680566163388   -0.0014216594533761216
0.00028233806537961506   -0.016968758059845695   -0.0018750311700736733
-0.0027591254829928856   -0.008871456330310184   -0.001499804342805111
0.00034686131872672254   -0.00882460274891138   -0.0014153689505725156
0.00028233806537961506   -0.016968758059845695   -0.0018750311700736733
0.0003174272935167742   -0.008778680566163388   -0.0014216594533761216
-0.0027591254829928856   -0.008871456330310184   -0.001499804342805111
0.00028233806537961506   -0.016968758059845695   -0.0018750311700736733
-0.003933780609739952   -0.017021515572002942   -0.0019529988308276324
-0.003943585914567316   -0.016937456072567594   -0.0020344632180184815
-0.0027591254829928856   -0.008871456330310184   -0.001499804342805111
0.00028233806537961506   -0.016968758059845695   -0.0018750311700736733
-0.003943585914567316   -0.016937456072567594   -0.0020344632180184815
0.0003174272935167742   -0.008778680566163388   -0.0014216594533761216
-0.0027591254829928856   -0.008871456330310184   -0.001499804342805111
-0.003933780609739952   -0.017021515572002942   -0.0019529988308276324
0.00034686131872672254   -0.00882460274891138   -0.0014153689505725156
-0.002737922344186112   -0.008918469897297337   -0.0014134931658104219
-0.003933780609739952   -0.017021515572002942   -0.0019529988308276324
0.00028233806537961506   -0.016968758059845695   -0.0018750311700736733
0.00034686131872672254   -0.00882460274891138   -0.0014153689505725156
0.0002939108035234747   -0.01697161699721437   -0.0018655909714391775
-0.002737922344186112   -0.008918469897297337   -0.0014134931658104219
0.00036664258923106024   -0.008821769871408595   -0.0014191770593347762
0.0002939108035234747   -0.01697161699721437   -0.0018655909714391775
0.00034686131872672254   -0.00882460274891138   -0.0014153689505725156
-0.002737922344186112   -0.008918469897297337   -0.0014134931658104219
0.0002939108035234747   -0.01697161699721437   -0.0018655909714391775
-0.003921753466252548   -0.01707089199192337   -0.001881466626048102
-0.003933780609739952   -0.017021515572002942   -0.0019529988308276324
-0.002737922344186112   -0.008918469897297337   -0.0014134931658104219
0.0002939108035234747   -0.01697161699721437   -0.0018655909714391775
-0.003933780609739952   -0.017021515572002942   -0.0019529988308276324
0.00034686131872672254   -0.00882460274891138   -0.0014153689505725156
-0.002737922344186112   -0.008918469897297337   -0.0014134931658104219
-0.003921753466252548   -0.01707089199192337   -0.001881466626048102
0.00036664258923106024   -0.008821769871408595   -0.0014191770593347762
-0.0027062463765272194   -0.008917330141028194   -0.0013383458052304593
-0.003921753466252548   -0.01707089199192337   -0.001881466626048102
0.0002939108035234747   -0.01697161699721437   -0.0018655909714391775
0.00036664258923106024   -0.008821769871408595   -0.0014191770593347762
0.0003022617308450396   -0.016939417084551402   -0.0018664113469159486
-0.0027062463765272194   -0.008917330141028194   -0.0013383458052304593
0.00038787046494270094   -0.008768693796605583   -0.0014332435541836793
0.0003022617308450396   -0.016939417084551402   -0.0018664113469159486
0.00036664258923106024   -0.008821769871408595   -0.0014191770593347762
-0.0027062463765272194   -0.008917330141028194   -0.0013383458052304593
0.0003022617308450396   -0.016939417084551402   -0.0018664113469159486
-0.003901937911662557   -0.01708629122642346   -0.0018198368793682748
-0.003921753466252548   -0.01707089199192337   -0.001881466626048102
-0.0027062463765272194   -0.008917330141028194   -0.0013383458052304593
0.0003022617308450396   -0.016939417084551402   -0.0018664113469159486
-0.003921753466252548   -0.01707089199192337   -0.001881466626048102
0.00036664258923106024   -0.008821769871408595   -0.0014191770593347762
0.0003174272935167742   -0.008778680566163388   -0.0014216594533761216
0.0002642468337313295   -0.016931355355719088   -0.0018941439281094986
0.003603036767391332   -0.008921788422867082   -0.0013408001975313835
0.00034686131872672254   -0.00882460274891138   -0.0014153689505725156
0.0002642468337313295   -0.016931355355719088   -0.0018941439281094986
0.004651655296866143   -0.0170273287217651   -0.0018374317592114542
0.003603036767391332   -0.008921788422867082   -0.0013408001975313835
0.004667443065869002   -0.017021967878664942   -0.0018819659094612502
0.00034686131872672254   -0.00882460274891138   -0.0014153689505725156
0.003619664587800219   -0.008921359981060646   -0.0014263116773908272
0.004667443065869002   -0.017021967878664942   -0.0018819659094612502
0.003603036767391332   -0.008921788422867082   -0.0013408001975313835
0.00034686131872672254   -0.00882460274891138   -0.0014153689505725156
0.004667443065869002   -0.017021967878664942   -0.0018819659094612502
0.00028233806537961506   -0.016968758059845695   -0.0018750311700736733
0.0002642468337313295   -0.016931355355719088   -0.0018941439281094986
0.00034686131872672254   -0.00882460274891138   -0.0014153689505725156
0.004667443065869002   -0.017021967878664942   -0.0018819659094612502
0.0002642468337313295   -0.016931355355719088   -0.0018941439281094986
0.003603036767391332   -0.008921788422867082   -0.0013408001975313835
0.00034686131872672254   -0.00882460274891138   -0.0014153689505725156
0.00028233806537961506   -0.016968758059845695   -0.0018750311700736733
0.003619664587800219   -0.008921359981060646   -0.0014263116773908272
0.00036664258923106024   -0.008821769871408595   -0.0014191770593347762
0.00028233806537961506   -0.016968758059845695   -0.0018750311700736733
0.004667443065869002   -0.017021967878664942   -0.0018819659094612502
0.003619664587800219   -0.008921359981060646   -0.0014263116773908272
0.004655565448587421   -0.016982803370624237   -0.0019354618838545372
0.00036664258923106024   -0.008821769871408595   -0.0014191770593347762
0.0036028820388509146   -0.008873122248708322   -0.00152324868063105
0.004655565448587421   -0.016982803370624237   -0.0019354618838545372
0.003619664587800219   -0.008921359981060646   -0.0014263116773908272
0.00036664258923106024   -0.008821769871408595   -0.0014191770593347762
0.004655565448587421   -0.016982803370624237   -0.0019354618838545372
0.0002939108035234747   -0.01697161699721437   -0.0018655909714391775
0.00028233806537961506   -0.016968758059845695   -0.0018750311700736733
0.00036664258923106024   -0.008821769871408595   -0.0014191770593347762
0.004655565448587421   -0.016982803370624237   -0.0019354618838545372
0.00028233806537961506   -0.016968758059845695   -0.0018750311700736733
0.003619664587800219   -0.008921359981060646   -0.0014263116773908272
0.00036664258923106024   -0.008821769871408595   -0.0014191770593347762
0.0002939108035234747   -0.01697161699721437   -0.0018655909714391775
0.0036028820388509146   -0.008873122248708322   -0.00152324868063105
0.00038787046494270094   -0.008768693796605583   -0.0014332435541836793
0.0002939108035234747   -0.01697161699721437   -0.0018655909714391775
0.004655565448587421   -0.016982803370624237   -0.0019354618838545372
0.0036028820388509146   -0.008873122248708322   -0.00152324868063105
0.0046378054529358495   -0.01690146560819815   -0.0019989813058862156
0.00038787046494270094   -0.008768693796605583   -0.0014332435541836793
0.003593244235133545   -0.008763883300950622   -0.001628024888613998
0.0046378054529358495   -0.01690146560819815   -0.0019989813058862156
0.0036028820388509146   -0.008873122248708322   -0.00152324868063105
0.00038787046494270094   -0.008768693796605583   -0.0014332435541836793
0.0046378054529358495   -0.01690146560819815   -0.0019989813058862156
0.0003022617308450396   -0.016939417084551402   -0.0018664113469159486
0.0002939108035234747   -0.01697161699721437   -0.0018655909714391775
0.00038787046494270094   -0.008768693796605583   -0.0014332435541836793
0.0046378054529358495   -0.01690146560819815   -0.0019989813058862156
0.0002939108035234747   -0.01697161699721437   -0.0018655909714391775
0.0036028820388509146   -0.008873122248708322   -0.00152324868063105
0.003603036767391332   -0.008921788422867082   -0.0013408001975313835
0.004651655296866143   -0.0170273287217651   -0.0018374317592114542
0.007567758450928586   -0.009187800163492455   -0.0013190806241743893
0.003619664587800219   -0.008921359981060646   -0.0014263116773908272
0.004651655296866143   -0.0170273287217651   -0.0018374317592114542
0.009648227602520655   -0.017201412315370368   -0.0018385711361804838
0.007567758450928586   -0.009187800163492455   -0.0013190806241743893
0.00956424509353812   -0.017171413460123824   -0.00195494628897493
0.003619664587800219   -0.008921359981060646   -0.0014263116773908272
0.0074137274424421334   -0.00916270835690872   -0.0015114530178586918
0.00956424509353812   -0.017171413460123824   -0.00195494628897493
0.007567758450928586   -0.009187800163492455   -0.0013190806241743893
0.003619664587800219   -0.008921359981060646   -0.0014263116773908272
0.00956424509353812   -0.017171413460123824   -0.00195494628897493
0.004667443065869002   -0.017021967878664942   -0.0018819659094612502
0.004651655296866143   -0.0170273287217651   -0.0018374317592114542
0.003619664587800219   -0.008921359981060646   -0.0014263116773908272
0.00956424509353812   -0.017171413460123824   -0.00195494628897493
0.004651655296866143   -0.0170273287217651   -0.0018374317592114542
0.007567758450928586   -0.009187800163492455   -0.0013190806241743893
0.003619664587800219   -0.008921359981060646   -0.0014263116773908272
0.004667443065869002   -0.017021967878664942   -0.0018819659094612502
0.0074137274424421334   -0.00916270835690872   -0.0015114530178586918
0.0036028820388509146   -0.008873122248708322   -0.00152324868063105
0.004667443065869002   -0.017021967878664942   -0.0018819659094612502
0.00956424509353812   -0.017171413460123824   -0.00195494628897493
0.0074137274424421334   -0.00916270835690872   -0.0015114530178586918
0.00948042000933277   -0.017111113165554737   -0.0020874818341298086
0.0036028820388509146   -0.008873122248708322   -0.00152324868063105
0.0072760783964920936   -0.009088340663333862   -0.0017278660057777557
0.00948042000933277   -0.017111113165554737   -0.0020874818341298086
0.0074137274424421334   -0.00916270835690872   -0.0015114530178586918
0.0036028820388509146   -0.008873122248708322   -0.00152324868063105
0.00948042000933277   -0.017111113165554737   -0.0020874818341298086
0.004655565448587421   -0.016982803370624237   -0.0019354618838545372
0.004667443065869002   -0.017021967878664942   -0.0018819659094612502
0.0036028820388509146   -0.008873122248708322   -0.00152324868063105
0.00948042000933277   -0.017111113165554737   -0.0020874818341298086
0.004667443065869002   -0.017021967878664942   -0.0018819659094612502
0.0074137274424421334   -0.00916270835690872   -0.0015114530178586918
0.0036028820388509146   -0.008873122248708322   -0.00152324868063105
0.004655565448587421   -0.016982803370624237   -0.0019354618838545372
0.0072760783964920936   -0.009088340663333862   -0.0017278660057777557
0.003593244235133545   -0.008763883300950622   -0.001628024888613998
0.004655565448587421   -0.016982803370624237   -0.0019354618838545372
0.00948042000933277   -0.017111113165554737   -0.0020874818341298086
0.0072760783964920936   -0.009088340663333862   -0.0017278660057777557
0.009331529584662164   -0.016984622126328987   -0.002236194953231628
0.003593244235133545   -0.008763883300950622   -0.001628024888613998
0.007069844997963111   -0.00892286895161867   -0.0019531428441944064
0.009331529584662164   -0.016984622126328987   -0.002236194953231628
0.0072760783964920936   -0.009088340663333862   -0.0017278660057777557
0.003593244235133545   -0.008763883300950622   -0.001628024888613998
0.009331529584662164   -0.016984622126328987   -0.002236194953231628
0.0046378054529358495   -0.01690146560819815   -0.0019989813058862156
0.004655565448587421   -0.016982803370624237   -0.0019354618838545372
0.003593244235133545   -0.008763883300950622   -0.001628024888613998
0.009331529584662164   -0.016984622126328987   -0.002236194953231628
0.004655565448587421   -0.016982803370624237   -0.0019354618838545372
0.0072760783964920936   -0.009088340663333862   -0.0017278660057777557
-0.012876471936435594   -0.017281981101224017   -0.002586550399564075
-0.015376627351139276   -0.02684679231995686   -0.0027585381786677395
-0.008278709761945708   -0.01705208129156162   -0.0022607885212310923
-0.013105536337443718   -0.017461640369455904   -0.0023615383498391857
-0.015376627351139276   -0.02684679231995686   -0.0027585381786677395
-0.009980932043349154   -0.026700524120803336   -0.0024929526368390412
-0.008278709761945708   -0.01705208129156162   -0.0022607885212310923
-0.00999295885496042   -0.02681359954899172   -0.0023897758305522114
-0.013105536337443718   -0.017461640369455904   -0.0023615383498391857
-0.008296930268325477   -0.017183541790415938   -0.0021166363121292247
-0.00999295885496042   -0.02681359954899172   -0.0023897758305522114
-0.008278709761945708   -0.01705208129156162   -0.0022607885212310923
-0.013105536337443718   -0.017461640369455904   -0.0023615383498391857
-0.00999295885496042   -0.02681359954899172   -0.0023897758305522114
-0.015530942693091708   -0.026999768139394528   -0.0026091328679066564
-0.015376627351139276   -0.02684679231995686   -0.0027585381786677395
-0.013105536337443718   -0.017461640369455904   -0.0023615383498391857
-0.00999295885496042   -0.02681359954899172   -0.0023897758305522114
-0.015376627351139276   -0.02684679231995686   -0.0027585381786677395
-0.008278709761945708   -0.01705208129156162   -0.0022607885212310923
-0.013105536337443718   -0.017461640369455904   -0.0023615383498391857
-0.015530942693091708   -0.026999768139394528   -0.0026091328679066564
-0.008296930268325477   -0.017183541790415938   -0.0021166363121292247
-0.013249972925651072   -0.01757429988615848   -0.0021518155908671387
-0.015530942693091708   -0.026999768139394528   -0.0026091328679066564
-0.00999295885496042   -0.02681359954899172   -0.0023897758305522114
-0.008296930268325477   -0.017183541790415938   -0.0021166363121292247
-0.010001545926583469   -0.026903246457792324   -0.002296880359469396
-0.013249972925651072   -0.01757429988615848   -0.0021518155908671387
-0.00831837794939715   -0.0172750271503848   -0.0019829142254139693
-0.010001545926583469   -0.026903246457792324   -0.002296880359469396
-0.008296930268325477   -0.017183541790415938   -0.0021166363121292247
-0.013249972925651072   -0.01757429988615848   -0.0021518155908671387
-0.010001545926583469   -0.026903246457792324   -0.002296880359469396
-0.015619497498267413   -0.027108003933723323   -0.0024740634930976797
-0.015530942693091708   -0.026999768139394528   -0.0026091328679066564
-0.013249972925651072   -0.01757429988615848   -0.0021518155908671387
-0.010001545926583469   -0.026903246457792324   -0.002296880359469396
-0.015530942693091708   -0.026999768139394528   -0.0026091328679066564
-0.008296930268325477   -0.017183541790415938   -0.0021166363121292247
-0.013249972925651072   -0.01757429988615848   -0.0021518155908671387
-0.015619497498267413   -0.027108003933723323   -0.0024740634930976797
-0.00831837794939715   -0.0172750271503848   -0.0019829142254139693
-0.01341431254181173   -0.0176553235529066   -0.001958811886714975
-0.015619497498267413   -0.027108003933723323   -0.0024740634930976797
-0.010001545926583469   -0.026903246457792324   -0.002296880359469396
-0.00831837794939715   -0.0172750271503848   -0.0019829142254139693
-0.009980874218706491   -0.02697689942825408   -0.0022128996023338824
-0.01341431254181173   -0.0176553235529066   -0.001958811886714975
-0.00830285755157844   -0.017335216727343044   -0.001857400315750242
-0.009980874218706491   -0.02697689942825408   -0.0022128996023338824
-0.00831837794939715   -0.0172750271503848   -0.0019829142254139693
-0.01341431254181173   -0.0176553235529066   -0.001958811886714975
-0.009980874218706491   -0.02697689942825408   -0.0022128996023338824
-0.015710714801791054   -0.02720502944124373   -0.002355034035063928
-0.015619497498267413   -0.027108003933723323   -0.0024740634930976797
-0.01341431254181173   -0.0176553235529066   -0.001958811886714975
-0.009980874218706491   -0.02697689942825408   -0.0022128996023338824
-0.015619497498267413   -0.027108003933723323   -0.0024740634930976797
-0.00831837794939715   -0.0172750271503848   -0.0019829142254139693
-0.008278709761945708   -0.01705208129156162   -0.0022607885212310923
-0.009980932043349154   -0.026700524120803336   -0.0024929526368390412
-0.003943585914567316   -0.016937456072567594   -0.0020344632180184815
-0.008296930268325477   -0.017183541790415938   -0.0021166363121292247
-0.009980932043349154   -0.026700524120803336   -0.0024929526368390412
-0.004922594514347669   -0.02662491464443937   -0.0023090501693559832
-0.003943585914567316   -0.016937456072567594   -0.0020344632180184815
-0.0049132635645416966   -0.026695867289864117   -0.0022409303306502467
-0.008296930268325477   -0.017183541790415938   -0.0021166363121292247
-0.003933780609739952   -0.017021515572002942   -0.0019529988308276324
-0.0049132635645416966   -0.026695867289864117   -0.0022409303306502467
-0.003943585914567316   -0.016937456072567594   -0.0020344632180184815
-0.008296930268325477   -0.017183541790415938   -0.0021166363121292247
-0.0049132635645416966   -0.026695867289864117   -0.0022409303306502467
-0.00999295885496042   -0.02681359954899172   -0.0023897758305522114
-0.009980932043349154   -0.026700524120803336   -0.0024929526368390412
-0.008296930268325477   -0.017183541790415938   -0.0021166363121292247
-0.0049132635645416966   -0.026695867289864117   -0.0022409303306502467
-0.009980932043349154   -0.026700524120803336   -0.0024929526368390412
-0.003943585914567316   -0.016937456072567594   -0.0020344632180184815
-0.008296930268325477   -0.017183541790415938   -0.0021166363121292247
-0.00999295885496042   -0.02681359954899172   -0.0023897758305522114
-0.003933780609739952   -0.017021515572002942   -0.0019529988308276324
-0.00831837794939715   -0.0172750271503848   -0.0019829142254139693
-0.00999295885496042   -0.02681359954899172   -0.0023897758305522114
-0.0049132635645416966   -0.026695867289864117   -0.0022409303306502467
-0.003933780609739952   -0.017021515572002942   -0.0019529988308276324
-0.0049005094266538025   -0.026747187027233107   -0.002182937330160067
-0.00831837794939715   -0.0172750271503848   -0.0019829142254139693
-0.003921753466252548   -0.01707089199192337   -0.001881466626048102
-0.0049005094266538025   -0.026747187027233107   -0.002182937330160067
-0.003933780609739952   -0.017021515572002942   -0.0019529988308276324
-0.00831837794939715   -0.0172750271503848   -0.0019829142254139693
-0.0049005094266538025   -0.026747187027233107   -0.002182937330160067
-0.010001545926583469   -0.026903246457792324   -0.002296880359469396
-0.00999295885496042   -0.02681359954899172   -0.0023897758305522114
-0.00831837794939715   -0.0172750271503848   -0.0019829142254139693
-0.0049005094266538025   -0.026747187027233107   -0.002182937330160067
-0.00999295885496042   -0.02681359954899172   -0.0023897758305522114
-0.003933780609739952   -0.017021515572002942   -0.0019529988308276324
-0.00831837794939715   -0.0172750271503848   -0.0019829142254139693
-0.010001545926583469   -0.026903246457792324   -0.002296880359469396
-0.003921753466252548   -0.01707089199192337   -0.001881466626048102
-0.00830285755157844   -0.017335216727343044   -0.001857400315750242
-0.010001545926583469   -0.026903246457792324   -0.002296880359469396
-0.0049005094266538025   -0.026747187027233107   -0.002182937330160067
-0.003921753466252548   -0.01707089199192337   -0.001881466626048102
-0.004881472741784101   -0.026779210253576016   -0.002135238955440801
-0.00830285755157844   -0.017335216727343044   -0.001857400315750242
-0.003901937911662557   -0.01708629122642346   -0.0018198368793682748
-0.004881472741784101   -0.026779210253576016   -0.002135238955440801
-0.003921753466252548   -0.01707089199192337   -0.001881466626048102
-0.00830285755157844   -0.017335216727343044   -0.001857400315750242
-0.004881472741784101   -0.026779210253576016   -0.002135238955440801
-0.009980874218706491   -0.02697689942825408   -0.0022128996023338824
-0.010001545926583469   -0.026903246457792324   -0.002296880359469396
-0.00830285755157844   -0.017335216727343044   -0.001857400315750242
-0.004881472741784101   -0.026779210253576016   -0.002135238955440801
-0.010001545926583469   -0.026903246457792324   -0.002296880359469396
-0.003921753466252548   -0.01707089199192337   -0.001881466626048102
-0.003943585914567316   -0.016937456072567594   -0.0020344632180184815
-0.004922594514347669   -0.02662491464443937   -0.0023090501693559832
0.0002642468337313295   -0.016931355355719088   -0.0018941439281094986
-0.003933780609739952   -0.017021515572002942   -0.0019529988308276324
-0.004922594514347669   -0.02662491464443937   -0.0023090501693559832
-1.6149582939522272e-06   -0.026611904597965537   -0.0022019519127316665
0.0002642468337313295   -0.016931355355719088   -0.0018941439281094986
1.597356264935598e-05   -0.026640507715445006   -0.0021691614098212826
-0.003933780609739952   -0.017021515572002942   -0.0019529988308276324
0.00028233806537961506   -0.016968758059845695   -0.0018750311700736733
1.597356264935598e-05   -0.026640507715445006   -0.0021691614098212826
0.0002642468337313295   -0.016931355355719088   -0.0018941439281094986
-0.003933780609739952   -0.017021515572002942   -0.0019529988308276324
1.597356264935598e-05   -0.026640507715445006   -0.0021691614098212826
-0.0049132635645416966   -0.026695867289864117   -0.0022409303306502467
-0.004922594514347669   -0.02662491464443937   -0.0023090501693559832
-0.003933780609739952   -0.017021515572002942   -0.0019529988308276324
1.597356264935598e-05   -0.026640507715445006   -0.0021691614098212826
-0.004922594514347669   -0.02662491464443937   -0.0023090501693559832
0.0002642468337313295   -0.016931355355719088   -0.0018941439281094986
-0.003933780609739952   -0.017021515572002942   -0.0019529988308276324
-0.0049132635645416966   -0.026695867289864117   -0.0022409303306502467
0.00028233806537961506   -0.016968758059845695   -0.0018750311700736733
-0.003921753466252548   -0.01707089199192337   -0.001881466626048102
-0.0049132635645416966   -0.026695867289864117   -0.0022409303306502467
1.597356264935598e-05   -0.026640507715445006   -0.0021691614098212826
0.00028233806537961506   -0.016968758059845695   -0.0018750311700736733
2.848724130219671e-05   -0.02664934256787773   -0.002146369363343716
-0.003921753466252548   -0.01707089199192337   -0.001881466626048102
0.0002939108035234747   -0.01697161699721437   -0.0018655909714391775
2.848724130219671e-05   -0.02664934256787773   -0.002146369363343716
0.00028233806537961506   -0.016968758059845695   -0.0018750311700736733
-0.003921753466252548   -0.01707089199192337   -0.001881466626048102
2.848724130219671e-05   -0.02664934256787773   -0.002146369363343716
-0.0049005094266538025   -0.026747187027233107   -0.002182937330160067
-0.0049132635645416966   -0.026695867289864117   -0.0022409303306502467
-0.003921753466252548   -0.01707089199192337   -0.001881466626048102
2.848724130219671e-05   -0.02664934256787773   -0.002146369363343716
-0.0049132635645416966   -0.026695867289864117   -0.0022409303306502467
0.00028233806537961506   -0.016968758059845695   -0.0018750311700736733
-0.003921753466252548   -0.01707089199192337   -0.001881466626048102
-0.0049005094266538025   -0.026747187027233107   -0.002182937330160067
0.0002939108035234747   -0.01697161699721437   -0.0018655909714391775
-0.003901937911662557   -0.01708629122642346   -0.0018198368793682748
-0.0049005094266538025   -0.026747187027233107   -0.002182937330160067
2.848724130219671e-05   -0.02664934256787773   -0.002146369363343716
0.0002939108035234747   -0.01697161699721437   -0.0018655909714391775
3.64225516639589e-05   -0.026638138102283056   -0.0021340182544831317
-0.003901937911662557   -0.01708629122642346   -0.0018198368793682748
0.0003022617308450396   -0.016939417084551402   -0.0018664113469159486
3.64225516639589e-05   -0.026638138102283056   -0.0021340182544831317
0.0002939108035234747   -0.01697161699721437   -0.0018655909714391775
-0.003901937911662557   -0.01708629122642346   -0.0018198368793682748
3.64225516639589e-05   -0.026638138102283056   -0.0021340182544831317
-0.004881472741784101   -0.026779210253576016   -0.002135238955440801
-0.0049005094266538025   -0.026747187027233107   -0.002182937330160067
-0.003901937911662557   -0.01708629122642346   -0.0018198368793682748
3.64225516639589e-05   -0.026638138102283056   -0.0021340182544831317
-0.0049005094266538025   -0.026747187027233107   -0.002182937330160067
0.0002939108035234747   -0.01697161699721437   -0.0018655909714391775
0.0002642468337313295   -0.016931355355719088   -0.0018941439281094986
-1.6149582939522272e-06   -0.026611904597965537   -0.0022019519127316665
0.004651655296866143   -0.0170273287217651   -0.0018374317592114542
0.00028233806537961506   -0.016968758059845695   -0.0018750311700736733
-1.6149582939522272e-06   -0.026611904597965537   -0.0022019519127316665
0.0050885864224688975   -0.026656146578893963   -0.002171225408274178
0.004651655296866143   -0.0170273287217651   -0.0018374317592114542
0.005110113340880995   -0.02664486257409982   -0.0021745089769529477
0.00028233806537961506   -0.016968758059845695   -0.0018750311700736733
0.004667443065869002   -0.017021967878664942   -0.0018819659094612502
0.005110113340880995   -0.02664486257409982   -0.0021745089769529477
0.004651655296866143   -0.0170273287217651   -0.0018374317592114542
0.00028233806537961506   -0.016968758059845695   -0.0018750311700736733
0.005110113340880995   -0.02664486257409982   -0.0021745089769529477
1.597356264935598e-05   -0.026640507715445006   -0.0021691614098212826
-1.6149582939522272e-06   -0.026611904597965537   -0.0022019519127316665
0.00028233806537961506   -0.016968758059845695   -0.0018750311700736733
0.005110113340880995   -0.02664486257409982   -0.0021745089769529477
-1.6149582939522272e-06   -0.026611904597965537   -0.0022019519127316665
0.004651655296866143   -0.0170273287217651   -0.0018374317592114542
0.00028233806537961506   -0.016968758059845695   -0.0018750311700736733
1.597356264935598e-05   -0.026640507715445006   -0.0021691614098212826
0.004667443065869002   -0.017021967878664942   -0.0018819659094612502
0.0002939108035234747   -0.01697161699721437   -0.0018655909714391775
1.597356264935598e-05   -0.026640507715445006   -0.0021691614098212826
0.005110113340880995   -0.02664486257409982   -0.0021745089769529477
0.004667443065869002   -0.017021967878664942   -0.0018819659094612502
0.005111756196863316   -0.026615322850429494   -0.002187252787304234
0.0002939108035234747   -0.01697161699721437   -0.0018655909714391775
0.004655565448587421   -0.016982803370624237   -0.0019354618838545372
0.005111756196863316   -0.026615322850429494   -0.002187252787304234
0.004667443065869002   -0.017021967878664942   -0.0018819659094612502
0.0002939108035234747   -0.01697161699721437   -0.0018655909714391775
0.005111756196863316   -0.026615322850429494   -0.002187252787304234
2.848724130219671e-05   -0.02664934256787773   -0.002146369363343716
1.597356264935598e-05   -0.026640507715445006   -0.0021691614098212826
0.0002939108035234747   -0.01697161699721437   -0.0018655909714391775
0.005111756196863316   -0.026615322850429494   -0.002187252787304234
1.597356264935598e-05   -0.026640507715445006   -0.0021691614098212826
0.004667443065869002   -0.017021967878664942   -0.0018819659094612502
0.0002939108035234747   -0.01697161699721437   -0.0018655909714391775
2.848724130219671e-05   -0.02664934256787773   -0.002146369363343716
0.004655565448587421   -0.016982803370624237   -0.0019354618838545372
0.0003022617308450396   -0.016939417084551402   -0.0018664113469159486
2.848724130219671e-05   -0.02664934256787773   -0.002146369363343716
0.005111756196863316   -0.026615322850429494   -0.002187252787304234
0.004655565448587421   -0.016982803370624237   -0.0019354618838545372
0.005100611897854495   -0.026560133772198406   -0.0022098170811783243
0.0003022617308450396   -0.016939417084551402   -0.0018664113469159486
0.0046378054529358495   -0.01690146560819815   -0.0019989813058862156
0.005100611897854495   -0.026560133772198406   -0.0022098170811783243
0.004655565448587421   -0.016982803370624237   -0.0019354618838545372
0.0003022617308450396   -0.016939417084551402   -0.0018664113469159486
0.005100611897854495   -0.026560133772198406   -0.0022098170811783243
3.64225516639589e-05   -0.026638138102283056   -0.0021340182544831317
2.848724130219671e-05   -0.02664934256787773   -0.002146369363343716
0.0003022617308450396   -0.016939417084551402   -0.0018664113469159486
0.005100611897854495   -0.026560133772198406   -0.0022098170811783243
2.848724130219671e-05   -0.02664934256787773   -0.002146369363343716
0.004655565448587421   -0.016982803370624237   -0.0019354618838545372
0.004651655296866143   -0.0170273287217651   -0.0018374317592114542
0.0050885864224688975   -0.026656146578893963   -0.002171225408274178
0.009648227602520655   -0.017201412315370368   -0.0018385711361804838
0.004667443065869002   -0.017021967878664942   -0.0018819659094612502
0.0050885864224688975   -0.026656146578893963   -0.002171225408274178
0.010709423157476703   -0.026737455096844442   -0.0022001908199810903
0.009648227602520655   -0.017201412315370368   -0.0018385711361804838
0.010699557957879526   -0.026699157164339033   -0.002242399818410466
0.004667443065869002   -0.017021967878664942   -0.0018819659094612502
0.00956424509353812   -0.017171413460123824   -0.00195494628897493
0.010699557957879526   -0.026699157164339033   -0.002242399818410466
0.009648227602520655   -0.017201412315370368   -0.0018385711361804838
0.004667443065869002   -0.017021967878664942   -0.0018819659094612502
0.010699557957879526   -0.026699157164339033   -0.002242399818410466
0.005110113340880995   -0.02664486257409982   -0.0021745089769529477
0.0050885864224688975   -0.026656146578893963   -0.002171225408274178
0.004667443065869002   -0.017021967878664942   -0.0018819659094612502
0.010699557957879526   -0.026699157164339033   -0.002242399818410466
0.0050885864224688975   -0.026656146578893963   -0.002171225408274178
0.009648227602520655   -0.017201412315370368   -0.0018385711361804838
0.004667443065869002   -0.017021967878664942   -0.0018819659094612502
0.005110113340880995   -0.02664486257409982   -0.0021745089769529477
0.00956424509353812   -0.017171413460123824   -0.00195494628897493
0.004655565448587421   -0.016982803370624237   -0.0019354618838545372
0.005110113340880995   -0.02664486257409982   -0.0021745089769529477
0.010699557957879526   -0.026699157164339033   -0.002242399818410466
0.00956424509353812   -0.017171413460123824   -0.00195494628897493
0.010672779693490805   -0.02665096567250872   -0.0022999573428220373
0.004655565448587421   -0.016982803370624237   -0.0019354618838545372
0.00948042000933277   -0.017111113165554737   -0.0020874818341298086
0.010672779693490805   -0.02665096567250872   -0.0022999573428220373
0.00956424509353812   -0.017171413460123824   -0.00195494628897493
0.004655565448587421   -0.016982803370624237   -0.0019354618838545372
0.010672779693490805   -0.02665096567250872   -0.0022999573428220373
0.005111756196863316   -0.026615322850429494   -0.002187252787304234
0.005110113340880995   -0.02664486257409982   -0.0021745089769529477
0.004655565448587421   -0.016982803370624237   -0.0019354618838545372
0.010672779693490805   -0.02665096567250872   -0.0022999573428220373
0.005110113340880995   -0.02664486257409982   -0.0021745089769529477
0.00956424509353812   -0.017171413460123824   -0.00195494628897493
0.004655565448587421   -0.016982803370624237   -0.0019354618838545372
0.005111756196863316   -0.026615322850429494   -0.002187252787304234
0.00948042000933277   -0.017111113165554737   -0.0020874818341298086
0.0046378054529358495   -0.01690146560819815   -0.0019989813058862156
0.005111756196863316   -0.026615322850429494   -0.002187252787304234
0.010672779693490805   -0.02665096567250872   -0.0022999573428220373
0.00948042000933277   -0.017111113165554737   -0.0020874818341298086
0.010599697963105167   -0.02655910580517136   -0.002372752100994201
0.0046378054529358495   -0.01690146560819815   -0.0019989813058862156
0.009331529584662164   -0.016984622126328987   -0.002236194953231628
0.010599697963105167   -0.02655910580517136   -0.002372752100994201
0.00948042000933277   -0.017111113165554737   -0.0020874818341298086
0.0046378054529358495   -0.01690146560819815   -0.0019989813058862156
0.010599697963105167   -0.02655910580517136   -0.002372752100994201
0.005100611897854495   -0.026560133772198406   -0.0022098170811783243
0.005111756196863316   -0.026615322850429494   -0.002187252787304234
0.0046378054529358495   -0.01690146560819815   -0.0019989813058862156
0.010599697963105167   -0.02655910580517136   -0.002372752100994201
0.005111756196863316   -0.026615322850429494   -0.002187252787304234
0.00948042000933277   -0.017111113165554737   -0.0020874818341298086
-0.015376627351139276   -0.02684679231995686   -0.0027585381786677395
-0.01689027288917422   -0.0372580032188663   -0.0028091109318686843
-0.009980932043349154   -0.026700524120803336   -0.0024929526368390412
-0.015530942693091708   -0.026999768139394528   -0.0026091328679066564
-0.01689027288917422   -0.0372580032188663   -0.0028091109318686843
-0.011098513786323523   -0.037198402467050265   -0.00259757916012489
-0.009980932043349154   -0.026700524120803336   -0.0024929526368390412
-0.011094099819810117   -0.037294844481312456   -0.002534299020056409
-0.015530942693091708   -0.026999768139394528   -0.0026091328679066564
-0.00999295885496042   -0.02681359954899172   -0.0023897758305522114
-0.011094099819810117   -0.037294844481312456   -0.002534299020056409
-0.009980932043349154   -0.026700524120803336   -0.0024929526368390412
-0.015530942693091708   -0.026999768139394528   -0.0026091328679066564
-0.011094099819810117   -0.037294844481312456   -0.002534299020056409
-0.016962348784551693   -0.03738764782333067   -0.002732076269584356
-0.01689027288917422   -0.0372580032188663   -0.0028091109318686843
-0.015530942693091708   -0.026999768139394528   -0.0026091328679066564
-0.011094099819810117   -0.037294844481312456   -0.002534299020056409
-0.01689027288917422   -0.0372580032188663   -0.0028091109318686843
-0.009980932043349154   -0.026700524120803336   -0.0024929526368390412
-0.015530942693091708   -0.026999768139394528   -0.0026091328679066564
-0.016962348784551693   -0.03738764782333067   -0.002732076269584356
-0.00999295885496042   -0.02681359954899172   -0.0023897758305522114
-0.015619497498267413   -0.027108003933723323   -0.0024740634930976797
-0.016962348784551693   -0.03738764782333067   -0.002732076269584356
-0.011094099819810117   -0.037294844481312456   -0.002534299020056409
-0.00999295885496042   -0.02681359954899172   -0.0023897758305522114
-0.011079223090609873   -0.03738381845840702   -0.0024815264713000155
-0.015619497498267413   -0.027108003933723323   -0.0024740634930976797
-0.010001545926583469   -0.026903246457792324   -0.002296880359469396
-0.011079223090609873   -0.03738381845840702   -0.0024815264713000155
-0.00999295885496042   -0.02681359954899172   -0.0023897758305522114
-0.015619497498267413   -0.027108003933723323   -0.0024740634930976797
-0.011079223090609873   -0.03738381845840702   -0.0024815264713000155
-0.016985301183959974   -0.03749339659335344   -0.0026701653020326324
-0.016962348784551693   -0.03738764782333067   -0.002732076269584356
-0.015619497498267413   -0.027108003933723323   -0.0024740634930976797
-0.011079223090609873   -0.03738381845840702   -0.0024815264713000155
-0.016962348784551693   -0.03738764782333067   -0.002732076269584356
-0.00999295885496042   -0.02681359954899172   -0.0023897758305522114
-0.015619497498267413   -0.027108003933723323   -0.0024740634930976797
-0.016985301183959974   -0.03749339659335344   -0.0026701653020326324
-0.010001545926583469   -0.026903246457792324   -0.002296880359469396
-0.015710714801791054   -0.02720502944124373   -0.002355034035063928
-0.016985301183959974   -0.03749339659335344   -0.0026701653020326324
-0.011079223090609873   -0.03738381845840702   -0.0024815264713000155
-0.010001545926583469   -0.026903246457792324   -0.002296880359469396
-0.011042563171654071   -0.03747210710550362   -0.002438524695173718
-0.015710714801791054   -0.02720502944124373   -0.002355034035063928
-0.009980874218706491   -0.02697689942825408   -0.0022128996023338824
-0.011042563171654071   -0.03747210710550362   -0.002438524695173718
-0.010001545926583469   -0.026903246457792324   -0.002296880359469396
-0.015710714801791054   -0.02720502944124373   -0.002355034035063928
-0.011042563171654071   -0.03747210710550362   -0.002438524695173718
-0.016992982520482584   -0.0376082568701162   -0.002624677598717626
-0.016985301183959974   -0.03749339659335344   -0.0026701653020326324
-0.015710714801791054   -0.02720502944124373   -0.002355034035063928
-0.011042563171654071   -0.03747210710550362   -0.002438524695173718
-0.016985301183959974   -0.03749339659335344   -0.0026701653020326324
-0.010001545926583469   -0.026903246457792324   -0.002296880359469396
-0.009980932043349154   -0.026700524120803336   -0.0024929526368390412
-0.011098513786323523   -0.037198402467050265   -0.00259757916012489
-0.004922594514347669   -0.02662491464443937   -0.0023090501693559832
-0.00999295885496042   -0.02681359954899172   -0.0023897758305522114
-0.011098513786323523   -0.037198402467050265   -0.00259757916012489
-0.005718375417975335   -0.037164189108261636   -0.002453570714768798
-0.004922594514347669   -0.02662491464443937   -0.0023090501693559832
-0.00569827754482694   -0.037222559639874725   -0.002398395707364956
-0.00999295885496042   -0.02681359954899172   -0.0023897758305522114
-0.0049132635645416966   -0.026695867289864117   -0.0022409303306502467
-0.00569827754482694   -0.037222559639874725   -0.002398395707364956
-0.004922594514347669   -0.02662491464443937   -0.0023090501693559832
-0.00999295885496042   -0.02681359954899172   -0.0023897758305522114
-0.00569827754482694   -0.037222559639874725   -0.002398395707364956
-0.011094099819810117   -0.037294844481312456   -0.002534299020056409
-0.011098513786323523   -0.037198402467050265   -0.00259757916012489
-0.00999295885496042   -0.02681359954899172   -0.0023897758305522114
-0.00569827754482694   -0.037222559639874725   -0.002398395707364956
-0.011098513786323523   -0.037198402467050265   -0.00259757916012489
-0.004922594514347669   -0.02662491464443937   -0.0023090501693559832
-0.00999295885496042   -0.02681359954899172   -0.0023897758305522114
-0.011094099819810117   -0.037294844481312456   -0.002534299020056409
-0.0049132635645416966   -0.026695867289864117   -0.0022409303306502467
-0.010001545926583469   -0.026903246457792324   -0.002296880359469396
-0.011094099819810117   -0.037294844481312456   -0.002534299020056409
-0.00569827754482694   -0.037222559639874725   -0.002398395707364956
-0.0049132635645416966   -0.026695867289864117   -0.0022409303306502467
-0.005673632610157284   -0.03727613381395668   -0.002353736730826973
-0.010001545926583469   -0.026903246457792324   -0.002296880359469396
-0.0049005094266538025   -0.026747187027233107   -0.002182937330160067
-0.005673632610157284   -0.03727613381395668   -0.002353736730826973
-0.0049132635645416966   -0.026695867289864117   -0.0022409303306502467
-0.010001545926583469   -0.026903246457792324   -0.002296880359469396
-0.005673632610157284   -0.03727613381395668   -0.002353736730826973
-0.011079223090609873   -0.03738381845840702   -0.0024815264713000155
-0.011094099819810117   -0.037294844481312456   -0.002534299020056409
-0.010001545926583469   -0.026903246457792324   -0.002296880359469396
-0.005673632610157284   -0.03727613381395668   -0.002353736730826973
-0.011094099819810117   -0.037294844481312456   -0.002534299020056409
-0.0049132635645416966   -0.026695867289864117   -0.0022409303306502467
-0.010001545926583469   -0.026903246457792324   -0.002296880359469396
-0.011079223090609873   -0.03738381845840702   -0.0024815264713000155
-0.0049005094266538025   -0.026747187027233107   -0.002182937330160067
-0.009980874218706491   -0.02697689942825408   -0.0022128996023338824
-0.011079223090609873   -0.03738381845840702   -0.0024815264713000155
-0.005673632610157284   -0.03727613381395668   -0.002353736730826973
-0.0049005094266538025   -0.026747187027233107   -0.002182937330160067
-0.005644020419111836   -0.03732508787600962   -0.002319846790785501
-0.009980874218706491   -0.02697689942825408   -0.0022128996023338824
-0.004881472741784101   -0.026779210253576016   -0.002135238955440801
-0.005644020419111836   -0.03732508787600962   -0.002319846790785501
-0.0049005094266538025   -0.026747187027233107   -0.002182937330160067
-0.009980874218706491   -0.02697689942825408   -0.0022128996023338824
-0.005644020419111836   -0.03732508787600962   -0.002319846790785501
-0.011042563171654071   -0.03747210710550362   -0.002438524695173718
-0.011079223090609873   -0.03738381845840702   -0.0024815264713000155
-0.009980874218706491   -0.02697689942825408   -0.0022128996023338824
-0.005644020419111836   -0.03732508787600962   -0.002319846790785501
-0.011079223090609873   -0.03738381845840702   -0.0024815264713000155
-0.0049005094266538025   -0.026747187027233107   -0.002182937330160067
-0.004922594514347669   -0.02662491464443937   -0.0023090501693559832
-0.005718375417975335   -0.037164189108261636   -0.002453570714768798
-1.6149582939522272e-06   -0.026611904597965537   -0.0022019519127316665
-0.0049132635645416966   -0.026695867289864117   -0.0022409303306502467
-0.005718375417975335   -0.037164189108261636   -0.002453570714768798
-0.00048382136996102747   -0.03714458367193564   -0.0023790937611186235
-1.6149582939522272e-06   -0.026611904597965537   -0.0022019519127316665
-0.00045573923390157794   -0.037164178485243046   -0.0023325757209044107
-0.0049132635645416966   -0.026695867289864117   -0.0022409303306502467
1.597356264935598e-05   -0.026640507715445006   -0.0021691614098212826
-0.00045573923390157794   -0.037164178485243046   -0.0023325757209044107
-1.6149582939522272e-06   -0.026611904597965537   -0.0022019519127316665
-0.0049132635645416966   -0.026695867289864117   -0.0022409303306502467
-0.00045573923390157794   -0.037164178485243046   -0.0023325757209044107
-0.00569827754482694   -0.037222559639874725   -0.002398395707364956
-0.005718375417975335   -0.037164189108261636   -0.002453570714768798
-0.0049132635645416966   -0.026695867289864117   -0.0022409303306502467
-0.00045573923390157794   -0.037164178485243046   -0.0023325757209044107
-0.005718375417975335   -0.037164189108261636   -0.002453570714768798
-1.6149582939522272e-06   -0.026611904597965537   -0.0022019519127316665
-0.0049132635645416966   -0.026695867289864117   -0.0022409303306502467
-0.00569827754482694   -0.037222559639874725   -0.002398395707364956
1.597356264935598e-05   -0.026640507715445006   -0.0021691614098212826
-0.0049005094266538025   -0.026747187027233107   -0.002182937330160067
-0.00569827754482694   -0.037222559639874725   -0.002398395707364956
-0.00045573923390157794   -0.037164178485243046   -0.0023325757209044107
1.597356264935598e-05   -0.026640507715445006   -0.0021691614098212826
-0.0004314199849611812   -0.03717863721189862   -0.002296483170071868
-0.0049005094266538025   -0.026747187027233107   -0.002182937330160067
2.848724130219671e-05   -0.02664934256787773   -0.002146369363343716
-0.0004314199849611812   -0.03717863721189862   -0.002296483170071868
1.597356264935598e-05   -0.026640507715445006   -0.0021691614098212826
-0.0049005094266538025   -0.026747187027233107   -0.002182937330160067
-0.0004314199849611812   -0.03717863721189862   -0.002296483170071868
-0.005673632610157284   -0.03727613381395668   -0.002353736730826973
-0.00569827754482694   -0.037222559639874725   -0.002398395707364956
-0.0049005094266538025   -0.026747187027233107   -0.002182937330160067
-0.0004314199849611812   -0.03717863721189862   -0.002296483170071868
-0.00569827754482694   -0.037222559639874725   -0.002398395707364956
1.597356264935598e-05   -0.026640507715445006   -0.0021691614098212826
-0.0049005094266538025   -0.026747187027233107   -0.002182937330160067
-0.005673632610157284   -0.03727613381395668   -0.002353736730826973
2.848724130219671e-05   -0.02664934256787773   -0.002146369363343716
-0.004881472741784101   -0.026779210253576016   -0.002135238955440801
-0.005673632610157284   -0.03727613381395668   -0.002353736730826973
-0.0004314199849611812   -0.03717863721189862   -0.002296483170071868
2.848724130219671e-05   -0.02664934256787773   -0.002146369363343716
-0.0004128781159200282   -0.03718788555376058   -0.002271196099655805
-0.004881472741784101   -0.026779210253576016   -0.002135238955440801
3.64225516639589e-05   -0.026638138102283056   -0.0021340182544831317
-0.0004128781159200282   -0.03718788555376058   -0.002271196099655805
2.848724130219671e-05   -0.02664934256787773   -0.002146369363343716
-0.004881472741784101   -0.026779210253576016   -0.002135238955440801
-0.0004128781159200282   -0.03718788555376058   -0.002271196099655805
-0.005644020419111836   -0.03732508787600962   -0.002319846790785501
-0.005673632610157284   -0.03727613381395668   -0.002353736730826973
-0.004881472741784101   -0.026779210253576016   -0.002135238955440801
-0.0004128781159200282   -0.03718788555376058   -0.002271196099655805
-0.005673632610157284   -0.03727613381395668   -0.002353736730826973
2.848724130219671e-05   -0.02664934256787773   -0.002146369363343716
-1.6149582939522272e-06   -0.026611904597965537   -0.0022019519127316665
-0.00048382136996102747   -0.03714458367193564   -0.0023790937611186235
0.0050885864224688975   -0.026656146578893963   -0.002171225408274178
1.597356264935598e-05   -0.026640507715445006   -0.0021691614098212826
-0.00048382136996102747   -0.03714458367193564   -0.0023790937611186235
0.004910493678645174   -0.03713620847447774   -0.0023748039150842046
0.0050885864224688975   -0.026656146578893963   -0.002171225408274178
0.004947698318040576   -0.0371182432729572   -0.002337376871643841
1.597356264935598e-05   -0.026640507715445006   -0.0021691614098212826
0.005110113340880995   -0.02664486257409982   -0.0021745089769529477
0.004947698318040576   -0.0371182432729572   -0.002337376871643841
0.0050885864224688975   -0.026656146578893963   -0.002171225408274178
1.597356264935598e-05   -0.026640507715445006   -0.0021691614098212826
0.004947698318040576   -0.0371182432729572   -0.002337376871643841
-0.00045573923390157794   -0.037164178485243046   -0.0023325757209044107
-0.00048382136996102747   -0.03714458367193564   -0.0023790937611186235
1.597356264935598e-05   -0.026640507715445006   -0.0021691614098212826
0.004947698318040576   -0.0371182432729572   -0.002337376871643841
-0.00048382136996102747   -0.03714458367193564   -0.0023790937611186235
0.0050885864224688975   -0.026656146578893963   -0.002171225408274178
1.597356264935598e-05   -0.026640507715445006   -0.0021691614098212826
-0.00045573923390157794   -0.037164178485243046   -0.0023325757209044107
0.005110113340880995   -0.02664486257409982   -0.0021745089769529477
2.848724130219671e-05   -0.02664934256787773   -0.002146369363343716
-0.00045573923390157794   -0.037164178485243046   -0.0023325757209044107
0.004947698318040576   -0.0371182432729572   -0.002337376871643841
0.005110113340880995   -0.02664486257409982   -0.0021745089769529477
0.004972616219033248   -0.03709730667047611   -0.002310076388481529
2.848724130219671e-05   -0.02664934256787773   -0.002146369363343716
0.005111756196863316   -0.026615322850429494   -0.002187252787304234
0.004972616219033248   -0.03709730667047611   -0.002310076388481529
0.005110113340880995   -0.02664486257409982   -0.0021745089769529477
2.848724130219671e-05   -0.02664934256787773   -0.002146369363343716
0.004972616219033248   -0.03709730667047611   -0.002310076388481529
-0.0004314199849611812   -0.03717863721189862   -0.002296483170071868
-0.00045573923390157794   -0.037164178485243046   -0.0023325757209044107
2.848724130219671e-05   -0.02664934256787773   -0.002146369363343716
0.004972616219033248   -0.03709730667047611   -0.002310076388481529
-0.00045573923390157794   -0.037164178485243046   -0.0023325757209044107
0.005110113340880995   -0.02664486257409982   -0.0021745089769529477
2.848724130219671e-05   -0.02664934256787773   -0.002146369363343716
-0.0004314199849611812   -0.03717863721189862   -0.002296483170071868
0.005111756196863316   -0.026615322850429494   -0.002187252787304234
3.64225516639589e-05   -0.026638138102283056   -0.0021340182544831317
-0.0004314199849611812   -0.03717863721189862   -0.002296483170071868
0.004972616219033248   -0.03709730667047611   -0.002310076388481529
0.005111756196863316   -0.026615322850429494   -0.002187252787304234
0.004977722842461611   -0.03706653147283237   -0.0022926948864491247
3.64225516639589e-05   -0.026638138102283056   -0.0021340182544831317
0.005100611897854495   -0.026560133772198406   -0.0022098170811783243
0.004977722842461611   -0.03706653147283237   -0.0022926948864491247
0.005111756196863316   -0.026615322850429494   -0.002187252787304234
3.64225516639589e-05   -0.026638138102283056   -0.0021340182544831317
0.004977722842461611   -0.03706653147283237   -0.0022926948864491247
-0.0004128781159200282   -0.03718788555376058   -0.002271196099655805
-0.0004314199849611812   -0.03717863721189862   -0.002296483170071868
3.64225516639589e-05   -0.026638138102283056   -0.0021340182544831317
0.004977722842461611   -0.03706653147283237   -0.0022926948864491247
-0.0004314199849611812   -0.03717863721189862   -0.002296483170071868
0.005111756196863316   -0.026615322850429494   -0.002187252787304234
0.0050885864224688975   -0.026656146578893963   -0.002171225408274178
0.004910493678645174   -0.03713620847447774   -0.0023748039150842046
0.010709423157476703   -0.026737455096844442   -0.0022001908199810903
0.005110113340880995   -0.02664486257409982   -0.0021745089769529477
0.004910493678645174   -0.03713620847447774   -0.0023748039150842046
0.0107562991985046   -0.0371246003272447   -0.0024336678228466845
0.010709423157476703   -0.026737455096844442   -0.0022001908199810903
0.01082914528986909   -0.03707694897075235   -0.0024029862181086867
0.005110113340880995   -0.02664486257409982   -0.0021745089769529477
0.010699557957879526   -0.026699157164339033   -0.002242399818410466
0.01082914528986909   -0.03707694897075235   -0.0024029862181086867
0.010709423157476703   -0.026737455096844442   -0.0022001908199810903
0.005110113340880995   -0.02664486257409982   -0.0021745089769529477
0.01082914528986909   -0.03707694897075235   -0.0024029862181086867
0.004947698318040576   -0.0371182432729572   -0.002337376871643841
0.004910493678645174   -0.03713620847447774   -0.0023748039150842046
0.005110113340880995   -0.02664486257409982   -0.0021745089769529477
0.01082914528986909   -0.03707694897075235   -0.0024029862181086867
0.004910493678645174   -0.03713620847447774   -0.0023748039150842046
0.010709423157476703   -0.026737455096844442   -0.0022001908199810903
0.005110113340880995   -0.02664486257409982   -0.0021745089769529477
0.004947698318040576   -0.0371182432729572   -0.002337376871643841
0.010699557957879526   -0.026699157164339033   -0.002242399818410466
0.005111756196863316   -0.026615322850429494   -0.002187252787304234
0.004947698318040576   -0.0371182432729572   -0.002337376871643841
0.01082914528986909   -0.03707694897075235   -0.0024029862181086867
0.010699557957879526   -0.026699157164339033   -0.002242399818410466
0.010867675295551387   -0.03703931630898454   -0.0023876916004935615
0.005111756196863316   -0.026615322850429494   -0.002187252787304234
0.010672779693490805   -0.02665096567250872   -0.0022999573428220373
0.010867675295551387   -0.03703931630898454   -0.0023876916004935615
0.010699557957879526   -0.026699157164339033   -0.002242399818410466
0.005111756196863316   -0.026615322850429494   -0.002187252787304234
0.010867675295551387   -0.03703931630898454   -0.0023876916004935615
0.004972616219033248   -0.03709730667047611   -0.002310076388481529
0.004947698318040576   -0.0371182432729572   -0.002337376871643841
0.005111756196863316   -0.026615322850429494   -0.002187252787304234
0.010867675295551387   -0.03703931630898454   -0.0023876916004935615
0.004947698318040576   -0.0371182432729572   -0.002337376871643841
0.010699557957879526   -0.026699157164339033   -0.002242399818410466
0.005111756196863316   -0.026615322850429494   -0.002187252787304234
0.004972616219033248   -0.03709730667047611   -0.002310076388481529
0.010672779693490805   -0.02665096567250872   -0.0022999573428220373
0.005100611897854495   -0.026560133772198406   -0.0022098170811783243
0.004972616219033248   -0.03709730667047611   -0.002310076388481529
0.010867675295551387   -0.03703931630898454   -0.0023876916004935615
0.010672779693490805   -0.02665096567250872   -0.0022999573428220373
0.010876997462054732   -0.03697892984971976   -0.002388046171201268
0.005100611897854495   -0.026560133772198406   -0.0022098170811783243
0.010599697963105167   -0.02655910580517136   -0.002372752100994201
0.010876997462054732   -0.03697892984971976   -0.002388046171201268
0.010672779693490805   -0.02665096567250872   -0.0022999573428220373
0.005100611897854495   -0.026560133772198406   -0.0022098170811783243
0.010876997462054732   -0.03697892984971976   -0.002388046171201268
0.004977722842461611   -0.03706653147283237   -0.0022926948864491247
0.004972616219033248   -0.03709730667047611   -0.002310076388481529
0.005100611897854495   -0.026560133772198406   -0.0022098170811783243
0.010876997462054732   -0.03697892984971976   -0.002388046171201268
0.004972616219033248   -0.03709730667047611   -0.002310076388481529
0.010672779693490805   -0.02665096567250872   -0.0022999573428220373
-0.01689027288917422   -0.0372580032188663   -0.0028091109318686843
-0.017417752111943074   -0.04785648682443907   -0.0027617224059072274
-0.011098513786323523   -0.037198402467050265   -0.00259757916012489
-0.016962348784551693   -0.03738764782333067   -0.002732076269584356
-0.017417752111943074   -0.04785648682443907   -0.0027617224059072274
-0.011632933485497269   -0.04788419310033775   -0.002605329423886621
-0.011098513786323523   -0.037198402467050265   -0.00259757916012489
-0.011601742615626472   -0.04796367050452263   -0.0025813335691104535
-0.016962348784551693   -0.03738764782333067   -0.002732076269584356
-0.011094099819810117   -0.037294844481312456   -0.002534299020056409
-0.011601742615626472   -0.04796367050452263   -0.0025813335691104535
-0.011098513786323523   -0.037198402467050265   -0.00259757916012489
-0.016962348784551693   -0.03738764782333067   -0.002732076269584356
-0.011601742615626472   -0.04796367050452263   -0.0025813335691104535
-0.017397705498574063   -0.04796282558607347   -0.002756745211454262
-0.017417752111943074   -0.04785648682443907   -0.0027617224059072274
-0.016962348784551693   -0.03738764782333067   -0.002732076269584356
-0.011601742615626472   -0.04796367050452263   -0.0025813335691104535
-0.017417752111943074   -0.04785648682443907   -0.0027617224059072274
-0.011098513786323523   -0.037198402467050265   -0.00259757916012489
-0.016962348784551693   -0.03738764782333067   -0.002732076269584356
-0.017397705498574063   -0.04796282558607347   -0.002756745211454262
-0.011094099819810117   -0.037294844481312456   -0.002534299020056409
-0.016985301183959974   -0.03749339659335344   -0.0026701653020326324
-0.017397705498574063   -0.04796282558607347   -0.002756745211454262
-0.011601742615626472   -0.04796367050452263   -0.0025813335691104535
-0.011094099819810117   -0.037294844481312456   -0.002534299020056409
-0.011553090153843855   -0.04805173533553885   -0.0025681670421441607
-0.016985301183959974   -0.03749339659335344   -0.0026701653020326324
-0.011079223090609873   -0.03738381845840702   -0.0024815264713000155
-0.011553090153843855   -0.04805173533553885   -0.0025681670421441607
-0.011094099819810117   -0.037294844481312456   -0.002534299020056409
-0.016985301183959974   -0.03749339659335344   -0.0026701653020326324
-0.011553090153843855   -0.04805173533553885   -0.0025681670421441607
-0.017344472391575858   -0.04806608456910884   -0.0027679510455417165
-0.017397705498574063   -0.04796282558607347   -0.002756745211454262
-0.016985301183959974   -0.03749339659335344   -0.0026701653020326324
-0.011553090153843855   -0.04805173533553885   -0.0025681670421441607
-0.017397705498574063   -0.04796282558607347   -0.002756745211454262
-0.011094099819810117   -0.037294844481312456   -0.002534299020056409
-0.016985301183959974   -0.03749339659335344   -0.0026701653020326324
-0.017344472391575858   -0.04806608456910884   -0.0027679510455417165
-0.011079223090609873   -0.03738381845840702   -0.0024815264713000155
-0.016992982520482584   -0.0376082568701162   -0.002624677598717626
-0.017344472391575858   -0.04806608456910884   -0.0027679510455417165
-0.011553090153843855   -0.04805173533553885   -0.0025681670421441607
-0.011079223090609873   -0.03738381845840702   -0.0024815264713000155
-0.011490082271613323   -0.04815445182509367   -0.0025656537138244724
-0.016992982520482584   -0.0376082568701162   -0.002624677598717626
-0.011042563171654071   -0.03747210710550362   -0.002438524695173718
-0.011490082271613323   -0.04815445182509367   -0.0025656537138244724
-0.011079223090609873   -0.03738381845840702   -0.0024815264713000155
-0.016992982520482584   -0.0376082568701162   -0.002624677598717626
-0.011490082271613323   -0.04815445182509367   -0.0025656537138244724
-0.0172580891030483   -0.04819910513048667   -0.0027961586994178452
-0.017344472391575858   -0.04806608456910884   -0.0027679510455417165
-0.016992982520482584   -0.0376082568701162   -0.002624677598717626
-0.011490082271613323   -0.04815445182509367   -0.0025656537138244724
-0.017344472391575858   -0.04806608456910884   -0.0027679510455417165
-0.011079223090609873   -0.03738381845840702   -0.0024815264713000155
-0.011098513786323523   -0.037198402467050265   -0.00259757916012489
-0.011632933485497269   -0.04788419310033775   -0.002605329423886621
-0.005718375417975335   -0.037164189108261636   -0.002453570714768798
-0.011094099819810117   -0.037294844481312456   -0.002534299020056409
-0.011632933485497269   -0.04788419310033775   -0.002605329423886621
-0.0063340200183465145   -0.04789019810967566   -0.0025013819554474156
-0.005718375417975335   -0.037164189108261636   -0.002453570714768798
-0.006292284255658119   -0.047935783922016056   -0.0024587727383071833
-0.011094099819810117   -0.037294844481312456   -0.002534299020056409
-0.00569827754482694   -0.037222559639874725   -0.002398395707364956
-0.006292284255658119   -0.047935783922016056   -0.0024587727383071833
-0.005718375417975335   -0.037164189108261636   -0.002453570714768798
-0.011094099819810117   -0.037294844481312456   -0.002534299020056409
-0.006292284255658119   -0.047935783922016056   -0.0024587727383071833
-0.011601742615626472   -0.04796367050452263   -0.0025813335691104535
-0.011632933485497269   -0.04788419310033775   -0.002605329423886621
-0.011094099819810117   -0.037294844481312456   -0.002534299020056409
-0.006292284255658119   -0.047935783922016056   -0.0024587727383071833
-0.011632933485497269   -0.04788419310033775   -0.002605329423886621
-0.005718375417975335   -0.037164189108261636   -0.002453570714768798
-0.011094099819810117   -0.037294844481312456   -0.002534299020056409
-0.011601742615626472   -0.04796367050452263   -0.0025813335691104535
-0.00569827754482694   -0.037222559639874725   -0.002398395707364956
-0.011079223090609873   -0.03738381845840702   -0.0024815264713000155
-0.011601742615626472   -0.04796367050452263   -0.0025813335691104535
-0.006292284255658119   -0.047935783922016056   -0.0024587727383071833
-0.00569827754482694   -0.037222559639874725   -0.002398395707364956
-0.00624513517378783   -0.047991219352965686   -0.0024270336077907638
-0.011079223090609873   -0.03738381845840702   -0.0024815264713000155
-0.005673632610157284   -0.03727613381395668   -0.002353736730826973
-0.00624513517378783   -0.047991219352965686   -0.0024270336077907638
-0.00569827754482694   -0.037222559639874725   -0.002398395707364956
-0.011079223090609873   -0.03738381845840702   -0.0024815264713000155
-0.00624513517378783   -0.047991219352965686   -0.0024270336077907638
-0.011553090153843855   -0.04805173533553885   -0.0025681670421441607
-0.011601742615626472   -0.04796367050452263   -0.0025813335691104535
-0.011079223090609873   -0.03738381845840702   -0.0024815264713000155
-0.00624513517378783   -0.047991219352965686   -0.0024270336077907638
-0.011601742615626472   -0.04796367050452263   -0.0025813335691104535
-0.00569827754482694   -0.037222559639874725   -0.002398395707364956
-0.011079223090609873   -0.03738381845840702   -0.0024815264713000155
-0.011553090153843855   -0.04805173533553885   -0.0025681670421441607
-0.005673632610157284   -0.03727613381395668   -0.002353736730826973
-0.011042563171654071   -0.03747210710550362   -0.002438524695173718
-0.011553090153843855   -0.04805173533553885   -0.0025681670421441607
-0.00624513517378783   -0.047991219352965686   -0.0024270336077907638
-0.005673632610157284   -0.03727613381395668   -0.002353736730826973
-0.006194327207931735   -0.04805667724317286   -0.0024065173783743466
-0.011042563171654071   -0.03747210710550362   -0.002438524695173718
-0.005644020419111836   -0.03732508787600962   -0.002319846790785501
-0.006194327207931735   -0.04805667724317286   -0.0024065173783743466
-0.005673632610157284   -0.03727613381395668   -0.002353736730826973
-0.011042563171654071   -0.03747210710550362   -0.002438524695173718
-0.006194327207931735   -0.04805667724317286   -0.0024065173783743466
-0.011490082271613323   -0.04815445182509367   -0.0025656537138244724
-0.011553090153843855   -0.04805173533553885   -0.0025681670421441607
-0.011042563171654071   -0.03747210710550362   -0.002438524695173718
-0.006194327207931735   -0.04805667724317286   -0.0024065173783743466
-0.011553090153843855   -0.04805173533553885   -0.0025681670421441607
-0.005673632610157284   -0.03727613381395668   -0.002353736730826973
-0.005718375417975335   -0.037164189108261636   -0.002453570714768798
-0.0063340200183465145   -0.04789019810967566   -0.0025013819554474156
-0.00048382136996102747   -0.03714458367193564   -0.0023790937611186235
-0.00569827754482694   -0.037222559639874725   -0.002398395707364956
-0.0063340200183465145   -0.04789019810967566   -0.0025013819554474156
-0.0011850119344183835   -0.047862096780261855   -0.0024589023019031863
-0.00048382136996102747   -0.03714458367193564   -0.0023790937611186235
-0.0011356642973158679   -0.047872653655470034   -0.0023986062581132753
-0.00569827754482694   -0.037222559639874725   -0.002398395707364956
-0.00045573923390157794   -0.037164178485243046   -0.0023325757209044107
-0.0011356642973158679   -0.047872653655470034   -0.0023986062581132753
-0.00048382136996102747   -0.03714458367193564   -0.0023790937611186235
-0.00569827754482694   -0.037222559639874725   -0.002398395707364956
-0.0011356642973158679   -0.047872653655470034   -0.0023986062581132753
-0.006292284255658119   -0.047935783922016056   -0.0024587727383071833
-0.0063340200183465145   -0.04789019810967566   -0.0025013819554474156
-0.00569827754482694   -0.037222559639874725   -0.002398395707364956
-0.0011356642973158679   -0.047872653655470034   -0.0023986062581132753
-0.0063340200183465145   -0.04789019810967566   -0.0025013819554474156
-0.00048382136996102747   -0.03714458367193564   -0.0023790937611186235
-0.00569827754482694   -0.037222559639874725   -0.002398395707364956
-0.006292284255658119   -0.047935783922016056   -0.0024587727383071833
-0.00045573923390157794   -0.037164178485243046   -0.0023325757209044107
-0.005673632610157284   -0.03727613381395668   -0.002353736730826973
-0.006292284255658119   -0.047935783922016056   -0.0024587727383071833
-0.0011356642973158679   -0.047872653655470034   -0.0023986062581132753
-0.00045573923390157794   -0.037164178485243046   -0.0023325757209044107
-0.0010889793661918235   -0.047892289971523595   -0.002349103718592605
-0.005673632610157284   -0.03727613381395668   -0.002353736730826973
-0.0004314199849611812   -0.03717863721189862   -0.002296483170071868
-0.0010889793661918235   -0.047892289971523595   -0.002349103718592605
-0.00045573923390157794   -0.037164178485243046   -0.0023325757209044107
-0.005673632610157284   -0.03727613381395668   -0.002353736730826973
-0.0010889793661918235   -0.047892289971523595   -0.002349103718592605
-0.00624513517378783   -0.047991219352965686   -0.0024270336077907638
-0.006292284255658119   -0.047935783922016056   -0.0024587727383071833
-0.005673632610157284   -0.03727613381395668   -0.002353736730826973
-0.0010889793661918235   -0.047892289971523595   -0.002349103718592605
-0.006292284255658119   -0.047935783922016056   -0.0024587727383071833
-0.00045573923390157794   -0.037164178485243046   -0.0023325757209044107
-0.005673632610157284   -0.03727613381395668   -0.002353736730826973
-0.00624513517378783   -0.047991219352965686   -0.0024270336077907638
-0.0004314199849611812   -0.03717863721189862   -0.002296483170071868
-0.005644020419111836   -0.03732508787600962   -0.002319846790785501
-0.00624513517378783   -0.047991219352965686   -0.0024270336077907638
-0.0010889793661918235   -0.047892289971523595   -0.002349103718592605
-0.0004314199849611812   -0.03717863721189862   -0.002296483170071868
-0.0010493434106089508   -0.04792145336772531   -0.0023107714917194205
-0.005644020419111836   -0.03732508787600962   -0.002319846790785501
-0.0004128781159200282   -0.03718788555376058   -0.002271196099655805
-0.0010493434106089508   -0.04792145336772531   -0.0023107714917194205
-0.0004314199849611812   -0.03717863721189862   -0.002296483170071868
-0.005644020419111836   -0.03732508787600962   -0.002319846790785501
-0.0010493434106089508   -0.04792145336772531   -0.0023107714917194205
-0.006194327207931735   -0.04805667724317286   -0.0024065173783743466
-0.00624513517378783   -0.047991219352965686   -0.0024270336077907638
-0.005644020419111836   -0.03732508787600962   -0.002319846790785501
-0.0010493434106089508   -0.04792145336772531   -0.0023107714917194205
-0.00624513517378783   -0.047991219352965686   -0.0024270336077907638
-0.0004314199849611812   -0.03717863721189862   -0.002296483170071868
-0.00048382136996102747   -0.03714458367193564   -0.0023790937611186235
-0.0011850119344183835   -0.047862096780261855   -0.0024589023019031863
0.004910493678645174   -0.03713620847447774   -0.0023748039150842046
-0.00045573923390157794   -0.037164178485243046   -0.0023325757209044107
-0.0011850119344183835   -0.047862096780261855   -0.0024589023019031863
0.004118981635602144   -0.04779963637786897   -0.0024799219082570533
0.004910493678645174   -0.03713620847447774   -0.0023748039150842046
0.004181915580433837   -0.04777504649799844   -0.0024022514615142936
-0.00045573923390157794   -0.037164178485243046   -0.0023325757209044107
0.004947698318040576   -0.0371182432729572   -0.002337376871643841
0.004181915580433837   -0.04777504649799844   -0.0024022514615142936
0.004910493678645174   -0.03713620847447774   -0.0023748039150842046
-0.00045573923390157794   -0.037164178485243046   -0.0023325757209044107
0.004181915580433837   -0.04777504649799844   -0.0024022514615142936
-0.0011356642973158679   -0.047872653655470034   -0.0023986062581132753
-0.0011850119344183835   -0.047862096780261855   -0.0024589023019031863
-0.00045573923390157794   -0.037164178485243046   -0.0023325757209044107
0.004181915580433837   -0.04777504649799844   -0.0024022514615142936
-0.0011850119344183835   -0.047862096780261855   -0.0024589023019031863
0.004910493678645174   -0.03713620847447774   -0.0023748039150842046
-0.00045573923390157794   -0.037164178485243046   -0.0023325757209044107
-0.0011356642973158679   -0.047872653655470034   -0.0023986062581132753
0.004947698318040576   -0.0371182432729572   -0.002337376871643841
-0.0004314199849611812   -0.03717863721189862   -0.002296483170071868
-0.0011356642973158679   -0.047872653655470034   -0.0023986062581132753
0.004181915580433837   -0.04777504649799844   -0.0024022514615142936
0.004947698318040576   -0.0371182432729572   -0.002337376871643841
0.0042400803410391945   -0.047762258801668046   -0.002335342017636392
-0.0004314199849611812   -0.03717863721189862   -0.002296483170071868
0.004972616219033248   -0.03709730667047611   -0.002310076388481529
0.0042400803410391945   -0.047762258801668046   -0.002335342017636392
0.004947698318040576   -0.0371182432729572   -0.002337376871643841
-0.0004314199849611812   -0.03717863721189862   -0.002296483170071868
0.0042400803410391945   -0.047762258801668046   -0.002335342017636392
-0.0010889793661918235   -0.047892289971523595   -0.002349103718592605
-0.0011356642973158679   -0.047872653655470034   -0.0023986062581132753
-0.0004314199849611812   -0.03717863721189862   -0.002296483170071868
0.0042400803410391945   -0.047762258801668046   -0.002335342017636392
-0.0011356642973158679   -0.047872653655470034   -0.0023986062581132753
0.004947698318040576   -0.0371182432729572   -0.002337376871643841
-0.0004314199849611812   -0.03717863721189862   -0.002296483170071868
-0.0010889793661918235   -0.047892289971523595   -0.002349103718592605
0.004972616219033248   -0.03709730667047611   -0.002310076388481529
-0.0004128781159200282   -0.03718788555376058   -0.002271196099655805
-0.0010889793661918235   -0.047892289971523595   -0.002349103718592605
0.0042400803410391945   -0.047762258801668046   -0.002335342017636392
0.004972616219033248   -0.03709730667047611   -0.002310076388481529
0.004271306309899515   -0.04775508392188133   -0.002278491043805089
-0.0004128781159200282   -0.03718788555376058   -0.002271196099655805
0.004977722842461611   -0.03706653147283237   -0.0022926948864491247
0.004271306309899515   -0.04775508392188133   -0.002278491043805089
0.004972616219033248   -0.03709730667047611   -0.002310076388481529
-0.0004128781159200282   -0.03718788555376058   -0.002271196099655805
0.004271306309899515   -0.04775508392188133   -0.002278491043805089
-0.0010493434106089508   -0.04792145336772531   -0.0023107714917194205
-0.0010889793661918235   -0.047892289971523595   -0.002349103718592605
-0.0004128781159200282   -0.03718788555376058   -0.002271196099655805
0.004271306309899515   -0.04775508392188133   -0.002278491043805089
-0.0010889793661918235   -0.047892289971523595   -0.002349103718592605
0.004972616219033248   -0.03709730667047611   -0.002310076388481529
0.004910493678645174   -0.03713620847447774   -0.0023748039150842046
0.004118981635602144   -0.04779963637786897   -0.0024799219082570533
0.0107562991985046   -0.0371246003272447   -0.0024336678228466845
0.004947698318040576   -0.0371182432729572   -0.002337376871643841
0.004118981635602144   -0.04779963637786897   -0.0024799219082570533
0.00979775694903285   -0.047694679424934   -0.0025677688754233126
0.0107562991985046   -0.0371246003272447   -0.0024336678228466845
0.009961965838536086   -0.04763822646512285   -0.002465811097111967
0.004947698318040576   -0.0371182432729572   -0.002337376871643841
0.01082914528986909   -0.03707694897075235   -0.0024029862181086867
0.009961965838536086   -0.04763822646512285   -0.002465811097111967
0.0107562991985046   -0.0371246003272447   -0.0024336678228466845
0.004947698318040576   -0.0371182432729572   -0.002337376871643841
0.009961965838536086   -0.04763822646512285   -0.002465811097111967
0.004181915580433837   -0.04777504649799844   -0.0024022514615142936
0.004118981635602144   -0.04779963637786897   -0.0024799219082570533
0.004947698318040576   -0.0371182432729572   -0.002337376871643841
0.009961965838536086   -0.04763822646512285   -0.002465811097111967
0.004118981635602144   -0.04779963637786897   -0.0024799219082570533
0.0107562991985046   -0.0371246003272447   -0.0024336678228466845
0.004947698318040576   -0.0371182432729572   -0.002337376871643841
0.004181915580433837   -0.04777504649799844   -0.0024022514615142936
0.01082914528986909   -0.03707694897075235   -0.0024029862181086867
0.004972616219033248   -0.03709730667047611   -0.002310076388481529
0.004181915580433837   -0.04777504649799844   -0.0024022514615142936
0.009961965838536086   -0.04763822646512285   -0.002465811097111967
0.01082914528986909   -0.03707694897075235   -0.0024029862181086867
0.010074806701173526   -0.04761084951538236   -0.0023791788110899244
0.004972616219033248   -0.03709730667047611   -0.002310076388481529
0.010867675295551387   -0.03703931630898454   -0.0023876916004935615
0.010074806701173526   -0.04761084951538236   -0.0023791788110899244
0.01082914528986909   -0.03707694897075235   -0.0024029862181086867
0.004972616219033248   -0.03709730667047611   -0.002310076388481529
0.010074806701173526   -0.04761084951538236   -0.0023791788110899244
0.0042400803410391945   -0.047762258801668046   -0.002335342017636392
0.004181915580433837   -0.04777504649799844   -0.0024022514615142936
0.004972616219033248   -0.03709730667047611   -0.002310076388481529
0.010074806701173526   -0.04761084951538236   -0.0023791788110899244
0.004181915580433837   -0.04777504649799844   -0.0024022514615142936
0.01082914528986909   -0.03707694897075235   -0.0024029862181086867
0.004972616219033248   -0.03709730667047611   -0.002310076388481529
0.0042400803410391945   -0.047762258801668046   -0.002335342017636392
0.010867675295551387   -0.03703931630898454   -0.0023876916004935615
0.004977722842461611   -0.03706653147283237   -0.0022926948864491247
0.0042400803410391945   -0.047762258801668046   -0.002335342017636392
0.010074806701173526   -0.04761084951538236   -0.0023791788110899244
0.010867675295551387   -0.03703931630898454   -0.0023876916004935615
0.010175011703881132   -0.04758106606303747   -0.0023085083273655356
0.004977722842461611   -0.03706653147283237   -0.0022926948864491247
0.010876997462054732   -0.03697892984971976   -0.002388046171201268
0.010175011703881132   -0.04758106606303747   -0.0023085083273655356
0.010867675295551387   -0.03703931630898454   -0.0023876916004935615
0.004977722842461611   -0.03706653147283237   -0.0022926948864491247
0.010175011703881132   -0.04758106606303747   -0.0023085083273655356
0.004271306309899515   -0.04775508392188133   -0.002278491043805089
0.0042400803410391945   -0.047762258801668046   -0.002335342017636392
0.004977722842461611   -0.03706653147283237   -0.0022926948864491247
0.010175011703881132   -0.04758106606303747   -0.0023085083273655356
0.0042400803410391945   -0.047762258801668046   -0.002335342017636392
0.010867675295551387   -0.03703931630898454   -0.0023876916004935615
-0.017417752111943074   -0.04785648682443907   -0.0027617224059072274
-0.016951009855088017   -0.05797674375081226   -0.002640521807100532
-0.011632933485497269   -0.04788419310033775   -0.002605329423886621
-0.017397705498574063   -0.04796282558607347   -0.002756745211454262
-0.016951009855088017   -0.05797674375081226   -0.002640521807100532
-0.011585071347067303   -0.05809332130922509   -0.00254633590962947
-0.011632933485497269   -0.04788419310033775   -0.002605329423886621
-0.011517168013329466   -0.05815265164324147   -0.0025605794687403706
-0.017397705498574063   -0.04796282558607347   -0.002756745211454262
-0.011601742615626472   -0.04796367050452263   -0.0025813335691104535
-0.011517168013329466   -0.05815265164324147   -0.0025605794687403706
-0.011632933485497269   -0.04788419310033775   -0.002605329423886621
-0.017397705498574063   -0.04796282558607347   -0.002756745211454262
-0.011517168013329466   -0.05815265164324147   -0.0025605794687403706
-0.01682843177980237   -0.05805685219274273   -0.0027077496120798744
-0.016951009855088017   -0.05797674375081226   -0.002640521807100532
-0.017397705498574063   -0.04796282558607347   -0.002756745211454262
-0.011517168013329466   -0.05815265164324147   -0.0025605794687403706
-0.016951009855088017   -0.05797674375081226   -0.002640521807100532
-0.011632933485497269   -0.04788419310033775   -0.002605329423886621
-0.017397705498574063   -0.04796282558607347   -0.002756745211454262
-0.01682843177980237   -0.05805685219274273   -0.0027077496120798744
-0.011601742615626472   -0.04796367050452263   -0.0025813335691104535
-0.017344472391575858   -0.04806608456910884   -0.0027679510455417165
-0.01682843177980237   -0.05805685219274273   -0.0027077496120798744
-0.011517168013329466   -0.05815265164324147   -0.0025605794687403706
-0.011601742615626472   -0.04796367050452263   -0.0025813335691104535
-0.011425239077282332   -0.05823712534112574   -0.0025859259525110763
-0.017344472391575858   -0.04806608456910884   -0.0027679510455417165
-0.011553090153843855   -0.04805173533553885   -0.0025681670421441607
-0.011425239077282332   -0.05823712534112574   -0.0025859259525110763
-0.011601742615626472   -0.04796367050452263   -0.0025813335691104535
-0.017344472391575858   -0.04806608456910884   -0.0027679510455417165
-0.011425239077282332   -0.05823712534112574   -0.0025859259525110763
-0.016688528321502843   -0.058155176898614894   -0.0027924391290692586
-0.01682843177980237   -0.05805685219274273   -0.0027077496120798744
-0.017344472391575858   -0.04806608456910884   -0.0027679510455417165
-0.011425239077282332   -0.05823712534112574   -0.0025859259525110763
-0.01682843177980237   -0.05805685219274273   -0.0027077496120798744
-0.011601742615626472   -0.04796367050452263   -0.0025813335691104535
-0.017344472391575858   -0.04806608456910884   -0.0027679510455417165
-0.016688528321502843   -0.058155176898614894   -0.0027924391290692586
-0.011553090153843855   -0.04805173533553885   -0.0025681670421441607
-0.0172580891030483   -0.04819910513048667   -0.0027961586994178452
-0.016688528321502843   -0.058155176898614894   -0.0027924391290692586
-0.011425239077282332   -0.05823712534112574   -0.0025859259525110763
-0.011553090153843855   -0.04805173533553885   -0.0025681670421441607
-0.011326602706097475   -0.058351895698043214   -0.0026227024280088074
-0.0172580891030483   -0.04819910513048667   -0.0027961586994178452
-0.011490082271613323   -0.04815445182509367   -0.0025656537138244724
-0.011326602706097475   -0.058351895698043214   -0.0026227024280088074
-0.011553090153843855   -0.04805173533553885   -0.0025681670421441607
-0.0172580891030483   -0.04819910513048667   -0.0027961586994178452
-0.011326602706097475   -0.058351895698043214   -0.0026227024280088074
-0.016498032554709614   -0.058304849693885163   -0.00289491320406855
-0.016688528321502843   -0.058155176898614894   -0.0027924391290692586
-0.0172580891030483   -0.04819910513048667   -0.0027961586994178452
-0.011326602706097475   -0.058351895698043214   -0.0026227024280088074
-0.016688528321502843   -0.058155176898614894   -0.0027924391290692586
-0.011553090153843855   -0.04805173533553885   -0.0025681670421441607
-0.011632933485497269   -0.04788419310033775   -0.002605329423886621
-0.011585071347067303   -0.05809332130922509   -0.00254633590962947
-0.0063340200183465145   -0.04789019810967566   -0.0025013819554474156
-0.011601742615626472   -0.04796367050452263   -0.0025813335691104535
-0.011585071347067303   -0.05809332130922509   -0.00254633590962947
-0.006775034666812863   -0.05813943925281964   -0.0024860552243912916
-0.0063340200183465145   -0.04789019810967566   -0.0025013819554474156
-0.006701093296982211   -0.05817028380124283   -0.002455029466426211
-0.011601742615626472   -0.04796367050452263   -0.0025813335691104535
-0.006292284255658119   -0.047935783922016056   -0.0024587727383071833
-0.006701093296982211   -0.05817028380124283   -0.002455029466426211
-0.0063340200183465145   -0.04789019810967566   -0.0025013819554474156
-0.011601742615626472   -0.04796367050452263   -0.0025813335691104535
-0.006701093296982211   -0.05817028380124283   -0.002455029466426211
-0.011517168013329466   -0.05815265164324147   -0.0025605794687403706
-0.011585071347067303   -0.05809332130922509   -0.00254633590962947
-0.011601742615626472   -0.04796367050452263   -0.0025813335691104535
-0.006701093296982211   -0.05817028380124283   -0.002455029466426211
-0.011585071347067303   -0.05809332130922509   -0.00254633590962947
-0.0063340200183465145   -0.04789019810967566   -0.0025013819554474156
-0.011601742615626472   -0.04796367050452263   -0.0025813335691104535
-0.011517168013329466   -0.05815265164324147   -0.0025605794687403706
-0.006292284255658119   -0.047935783922016056   -0.0024587727383071833
-0.011553090153843855   -0.04805173533553885   -0.0025681670421441607
-0.011517168013329466   -0.05815265164324147   -0.0025605794687403706
-0.006701093296982211   -0.05817028380124283   -0.002455029466426211
-0.006292284255658119   -0.047935783922016056   -0.0024587727383071833
-0.006621555022076576   -0.05822530305323806   -0.0024349712841500756
-0.011553090153843855   -0.04805173533553885   -0.0025681670421441607
-0.00624513517378783   -0.047991219352965686   -0.0024270336077907638
-0.006621555022076576   -0.05822530305323806   -0.0024349712841500756
-0.006292284255658119   -0.047935783922016056   -0.0024587727383071833
-0.011553090153843855   -0.04805173533553885   -0.0025681670421441607
-0.006621555022076576   -0.05822530305323806   -0.0024349712841500756
-0.011425239077282332   -0.05823712534112574   -0.0025859259525110763
-0.011517168013329466   -0.05815265164324147   -0.0025605794687403706
-0.011553090153843855   -0.04805173533553885   -0.0025681670421441607
-0.006621555022076576   -0.05822530305323806   -0.0024349712841500756
-0.011517168013329466   -0.05815265164324147   -0.0025605794687403706
-0.006292284255658119   -0.047935783922016056   -0.0024587727383071833
-0.011553090153843855   -0.04805173533553885   -0.0025681670421441607
-0.011425239077282332   -0.05823712534112574   -0.0025859259525110763
-0.00624513517378783   -0.047991219352965686   -0.0024270336077907638
-0.011490082271613323   -0.04815445182509367   -0.0025656537138244724
-0.011425239077282332   -0.05823712534112574   -0.0025859259525110763
-0.006621555022076576   -0.05822530305323806   -0.0024349712841500756
-0.00624513517378783   -0.047991219352965686   -0.0024270336077907638
-0.0065397991806021806   -0.05830519260690249   -0.002426417351596887
-0.011490082271613323   -0.04815445182509367   -0.0025656537138244724
-0.006194327207931735   -0.04805667724317286   -0.0024065173783743466
-0.0065397991806021806   -0.05830519260690249   -0.002426417351596887
-0.00624513517378783   -0.047991219352965686   -0.0024270336077907638
-0.011490082271613323   -0.04815445182509367   -0.0025656537138244724
-0.0065397991806021806   -0.05830519260690249   -0.002426417351596887
-0.011326602706097475   -0.058351895698043214   -0.0026227024280088074
-0.011425239077282332   -0.05823712534112574   -0.0025859259525110763
-0.011490082271613323   -0.04815445182509367   -0.0025656537138244724
-0.0065397991806021806   -0.05830519260690249   -0.002426417351596887
-0.011425239077282332   -0.05823712534112574   -0.0025859259525110763
-0.00624513517378783   -0.047991219352965686   -0.0024270336077907638
-0.0063340200183465145   -0.04789019810967566   -0.0025013819554474156
-0.006775034666812863   -0.05813943925281964   -0.0024860552243912916
-0.0011850119344183835   -0.047862096780261855   -0.0024589023019031863
-0.006292284255658119   -0.047935783922016056   -0.0024587727383071833
-0.006775034666812863   -0.05813943925281964   -0.0024860552243912916
-0.0021106625387360416   -0.058104015071183915   -0.002476094470160517
-0.0011850119344183835   -0.047862096780261855   -0.0024589023019031863
-0.0020288800064338884   -0.058104722022174426   -0.002401352180228978
-0.006292284255658119   -0.047935783922016056   -0.0024587727383071833
-0.0011356642973158679   -0.047872653655470034   -0.0023986062581132753
-0.0020288800064338884   -0.058104722022174426   -0.002401352180228978
-0.0011850119344183835   -0.047862096780261855   -0.0024589023019031863
-0.006292284255658119   -0.047935783922016056   -0.0024587727383071833
-0.0020288800064338884   -0.058104722022174426   -0.002401352180228978
-0.006701093296982211   -0.05817028380124283   -0.002455029466426211
-0.006775034666812863   -0.05813943925281964   -0.0024860552243912916
-0.006292284255658119   -0.047935783922016056   -0.0024587727383071833
-0.0020288800064338884   -0.058104722022174426   -0.002401352180228978
-0.006775034666812863   -0.05813943925281964   -0.0024860552243912916
-0.0011850119344183835   -0.047862096780261855   -0.0024589023019031863
-0.006292284255658119   -0.047935783922016056   -0.0024587727383071833
-0.006701093296982211   -0.05817028380124283   -0.002455029466426211
-0.0011356642973158679   -0.047872653655470034   -0.0023986062581132753
-0.00624513517378783   -0.047991219352965686   -0.0024270336077907638
-0.006701093296982211   -0.05817028380124283   -0.002455029466426211
-0.0020288800064338884   -0.058104722022174426   -0.002401352180228978
-0.0011356642973158679   -0.047872653655470034   -0.0023986062581132753
-0.0019492396396373426   -0.05812783343894054   -0.002337604802327149
-0.00624513517378783   -0.047991219352965686   -0.0024270336077907638
-0.0010889793661918235   -0.047892289971523595   -0.002349103718592605
-0.0019492396396373426   -0.05812783343894054   -0.002337604802327149
-0.0011356642973158679   -0.047872653655470034   -0.0023986062581132753
-0.00624513517378783   -0.047991219352965686   -0.0024270336077907638
-0.0019492396396373426   -0.05812783343894054   -0.002337604802327149
-0.006621555022076576   -0.05822530305323806   -0.0024349712841500756
-0.006701093296982211   -0.05817028380124283   -0.002455029466426211
-0.00624513517378783   -0.047991219352965686   -0.0024270336077907638
-0.0019492396396373426   -0.05812783343894054   -0.002337604802327149
-0.006701093296982211   -0.05817028380124283   -0.002455029466426211
-0.0011356642973158679   -0.047872653655470034   -0.0023986062581132753
-0.00624513517378783   -0.047991219352965686   -0.0024270336077907638
-0.006621555022076576   -0.05822530305323806   -0.0024349712841500756
-0.0010889793661918235   -0.047892289971523595   -0.002349103718592605
-0.006194327207931735   -0.04805667724317286   -0.0024065173783743466
-0.006621555022076576   -0.05822530305323806   -0.0024349712841500756
-0.0019492396396373426   -0.05812783343894054   -0.002337604802327149
-0.0010889793661918235   -0.047892289971523595   -0.002349103718592605
-0.001878178599560646   -0.05817526369327699   -0.002285234474829399
-0.006194327207931735   -0.04805667724317286   -0.0024065173783743466
-0.0010493434106089508   -0.04792145336772531   -0.0023107714917194205
-0.001878178599560646   -0.05817526369327699   -0.002285234474829399
-0.0010889793661918235   -0.047892289971523595   -0.002349103718592605
-0.006194327207931735   -0.04805667724317286   -0.0024065173783743466
-0.001878178599560646   -0.05817526369327699   -0.002285234474829399
-0.0065397991806021806   -0.05830519260690249   -0.002426417351596887
-0.006621555022076576   -0.05822530305323806   -0.0024349712841500756
-0.006194327207931735   -0.04805667724317286   -0.0024065173783743466
-0.001878178599560646   -0.05817526369327699   -0.002285234474829399
-0.006621555022076576   -0.05822530305323806   -0.0024349712841500756
-0.0010889793661918235   -0.047892289971523595   -0.002349103718592605
-0.0011850119344183835   -0.047862096780261855   -0.0024589023019031863
-0.0021106625387360416   -0.058104015071183915   -0.002476094470160517
0.004118981635602144   -0.04779963637786897   -0.0024799219082570533
-0.0011356642973158679   -0.047872653655470034   -0.0023986062581132753
-0.0021106625387360416   -0.058104015071183915   -0.002476094470160517
0.002714476543483737   -0.05798944932851932   -0.0025204034128232036
0.004118981635602144   -0.04779963637786897   -0.0024799219082570533
0.0028144695871143875   -0.05795798739580978   -0.0024023557610862597
-0.0011356642973158679   -0.047872653655470034   -0.0023986062581132753
0.004181915580433837   -0.04777504649799844   -0.0024022514615142936
0.0028144695871143875   -0.05795798739580978   -0.0024023557610862597
0.004118981635602144   -0.04779963637786897   -0.0024799219082570533
-0.0011356642973158679   -0.047872653655470034   -0.0023986062581132753
0.0028144695871143875   -0.05795798739580978   -0.0024023557610862597
-0.0020288800064338884   -0.058104722022174426   -0.002401352180228978
-0.0021106625387360416   -0.058104015071183915   -0.002476094470160517
-0.0011356642973158679   -0.047872653655470034   -0.0023986062581132753
0.0028144695871143875   -0.05795798739580978   -0.0024023557610862597
-0.0021106625387360416   -0.058104015071183915   -0.002476094470160517
0.004118981635602144   -0.04779963637786897   -0.0024799219082570533
-0.0011356642973158679   -0.047872653655470034   -0.0023986062581132753
-0.0020288800064338884   -0.058104722022174426   -0.002401352180228978
0.004181915580433837   -0.04777504649799844   -0.0024022514615142936
-0.0010889793661918235   -0.047892289971523595   -0.002349103718592605
-0.0020288800064338884   -0.058104722022174426   -0.002401352180228978
0.0028144695871143875   -0.05795798739580978   -0.0024023557610862597
0.004181915580433837   -0.04777504649799844   -0.0024022514615142936
0.0029170027309015027   -0.0579521220186853   -0.0022960070800489914
-0.0010889793661918235   -0.047892289971523595   -0.002349103718592605
0.0042400803410391945   -0.047762258801668046   -0.002335342017636392
0.0029170027309015027   -0.0579521220186853   -0.0022960070800489914
0.004181915580433837   -0.04777504649799844   -0.0024022514615142936
-0.0010889793661918235   -0.047892289971523595   -0.002349103718592605
0.0029170027309015027   -0.0579521220186853   -0.0022960070800489914
-0.0019492396396373426   -0.05812783343894054   -0.002337604802327149
-0.0020288800064338884   -0.058104722022174426   -0.002401352180228978
-0.0010889793661918235   -0.047892289971523595   -0.002349103718592605
0.0029170027309015027   -0.0579521220186853   -0.0022960070800489914
-0.0020288800064338884   -0.058104722022174426   -0.002401352180228978
0.004181915580433837   -0.04777504649799844   -0.0024022514615142936
-0.0010889793661918235   -0.047892289971523595   -0.002349103718592605
-0.0019492396396373426   -0.05812783343894054   -0.002337604802327149
0.0042400803410391945   -0.047762258801668046   -0.002335342017636392
-0.0010493434106089508   -0.04792145336772531   -0.0023107714917194205
-0.0019492396396373426   -0.05812783343894054   -0.002337604802327149
0.0029170027309015027   -0.0579521220186853   -0.0022960070800489914
0.0042400803410391945   -0.047762258801668046   -0.002335342017636392
0.0029851938772348864   -0.057967130634140565   -0.0021998145694777337
-0.0010493434106089508   -0.04792145336772531   -0.0023107714917194205
0.004271306309899515   -0.04775508392188133   -0.002278491043805089
0.0029851938772348864   -0.057967130634140565   -0.0021998145694777337
0.0042400803410391945   -0.047762258801668046   -0.002335342017636392
-0.0010493434106089508   -0.04792145336772531   -0.0023107714917194205
0.0029851938772348864   -0.057967130634140565   -0.0021998145694777337
-0.001878178599560646   -0.05817526369327699   -0.002285234474829399
-0.0019492396396373426   -0.05812783343894054   -0.002337604802327149
-0.0010493434106089508   -0.04792145336772531   -0.0023107714917194205
0.0029851938772348864   -0.057967130634140565   -0.0021998145694777337
-0.0019492396396373426   -0.05812783343894054   -0.002337604802327149
0.0042400803410391945   -0.047762258801668046   -0.002335342017636392
0.004118981635602144   -0.04779963637786897   -0.0024799219082570533
0.002714476543483737   -0.05798944932851932   -0.0025204034128232036
0.00979775694903285   -0.047694679424934   -0.0025677688754233126
0.004181915580433837   -0.04777504649799844   -0.0024022514615142936
0.002714476543483737   -0.05798944932851932   -0.0025204034128232036
0.007847517411255266   -0.05779248434950877   -0.0026347549104708905
0.00979775694903285   -0.047694679424934   -0.0025677688754233126
0.008113553482662704   -0.05772762508923918   -0.0024629830812784885
0.004181915580433837   -0.04777504649799844   -0.0024022514615142936
0.009961965838536086   -0.04763822646512285   -0.002465811097111967
0.008113553482662704   -0.05772762508923918   -0.0024629830812784885
0.00979775694903285   -0.047694679424934   -0.0025677688754233126
0.004181915580433837   -0.04777504649799844   -0.0024022514615142936
0.008113553482662704   -0.05772762508923918   -0.0024629830812784885
0.0028144695871143875   -0.05795798739580978   -0.0024023557610862597
0.002714476543483737   -0.05798944932851932   -0.0025204034128232036
0.004181915580433837   -0.04777504649799844   -0.0024022514615142936
0.008113553482662704   -0.05772762508923918   -0.0024629830812784885
0.002714476543483737   -0.05798944932851932   -0.0025204034128232036
0.00979775694903285   -0.047694679424934   -0.0025677688754233126
0.004181915580433837   -0.04777504649799844   -0.0024022514615142936
0.0028144695871143875   -0.05795798739580978   -0.0024023557610862597
0.009961965838536086   -0.04763822646512285   -0.002465811097111967
0.0042400803410391945   -0.047762258801668046   -0.002335342017636392
0.0028144695871143875   -0.05795798739580978   -0.0024023557610862597
0.008113553482662704   -0.05772762508923918   -0.0024629830812784885
0.009961965838536086   -0.04763822646512285   -0.002465811097111967
0.008310555500617142   -0.05770979333531842   -0.0023067695906256523
0.0042400803410391945   -0.047762258801668046   -0.002335342017636392
0.010074806701173526   -0.04761084951538236   -0.0023791788110899244
0.008310555500617142   -0.05770979333531842   -0.0023067695906256523
0.009961965838536086   -0.04763822646512285   -0.002465811097111967
0.0042400803410391945   -0.047762258801668046   -0.002335342017636392
0.008310555500617142   -0.05770979333531842   -0.0023067695906256523
0.0029170027309015027   -0.0579521220186853   -0.0022960070800489914
0.0028144695871143875   -0.05795798739580978   -0.0024023557610862597
0.0042400803410391945   -0.047762258801668046   -0.002335342017636392
0.008310555500617142   -0.05770979333531842   -0.0023067695906256523
0.0028144695871143875   -0.05795798739580978   -0.0024023557610862597
0.009961965838536086   -0.04763822646512285   -0.002465811097111967
0.0042400803410391945   -0.047762258801668046   -0.002335342017636392
0.0029170027309015027   -0.0579521220186853   -0.0022960070800489914
0.010074806701173526   -0.04761084951538236   -0.0023791788110899244
0.004271306309899515   -0.04775508392188133   -0.002278491043805089
0.0029170027309015027   -0.0579521220186853   -0.0022960070800489914
0.008310555500617142   -0.05770979333531842   -0.0023067695906256523
0.010074806701173526   -0.04761084951538236   -0.0023791788110899244
0.008510285936510743   -0.05770962383135246   -0.002166823603200593
0.004271306309899515   -0.04775508392188133   -0.002278491043805089
0.010175011703881132   -0.04758106606303747   -0.0023085083273655356
0.008510285936510743   -0.05770962383135246   -0.002166823603200593
0.010074806701173526   -0.04761084951538236   -0.0023791788110899244
0.004271306309899515   -0.04775508392188133   -0.002278491043805089
0.008510285936510743   -0.05770962383135246   -0.002166823603200593
0.0029851938772348864   -0.057967130634140565   -0.0021998145694777337
0.0029170027309015027   -0.0579521220186853   -0.0022960070800489914
0.004271306309899515   -0.04775508392188133   -0.002278491043805089
0.008510285936510743   -0.05770962383135246   -0.002166823603200593
0.0029170027309015027   -0.0579521220186853   -0.0022960070800489914
0.010074806701173526   -0.04761084951538236   -0.0023791788110899244
-0.016951009855088017   -0.05797674375081226   -0.002640521807100532
-0.015469902352528677   -0.06693147499342088   -0.002462423550486824
-0.011585071347067303   -0.05809332130922509   -0.00254633590962947
-0.01682843177980237   -0.05805685219274273   -0.0027077496120798744
-0.015469902352528677   -0.06693147499342088   -0.002462423550486824
-0.01095379367151041   -0.06714179125401921   -0.0024472419049565556
-0.011585071347067303   -0.05809332130922509   -0.00254633590962947
-0.010841110780523267   -0.06717221147629135   -0.0024969735668239606
-0.01682843177980237   -0.05805685219274273   -0.0027077496120798744
-0.011517168013329466   -0.05815265164324147   -0.0025605794687403706
-0.010841110780523267   -0.06717221147629135   -0.0024969735668239606
-0.011585071347067303   -0.05809332130922509   -0.00254633590962947
-0.01682843177980237   -0.05805685219274273   -0.0027077496120798744
-0.010841110780523267   -0.06717221147629135   -0.0024969735668239606
-0.015235205484702377   -0.06697661942830253   -0.0026016463106886944
-0.015469902352528677   -0.06693147499342088   -0.002462423550486824
-0.01682843177980237   -0.05805685219274273   -0.0027077496120798744
-0.010841110780523267   -0.06717221147629135   -0.0024969735668239606
-0.015469902352528677   -0.06693147499342088   -0.002462423550486824
-0.011585071347067303   -0.05809332130922509   -0.00254633590962947
-0.01682843177980237   -0.05805685219274273   -0.0027077496120798744
-0.015235205484702377   -0.06697661942830253   -0.0026016463106886944
-0.011517168013329466   -0.05815265164324147   -0.0025605794687403706
-0.016688528321502843   -0.058155176898614894   -0.0027924391290692586
-0.015235205484702377   -0.06697661942830253   -0.0026016463106886944
-0.010841110780523267   -0.06717221147629135   -0.0024969735668239606
-0.011517168013329466   -0.05815265164324147   -0.0025605794687403706
-0.01069957839084456   -0.06724508987591013   -0.002557972571855716
-0.016688528321502843   -0.058155176898614894   -0.0027924391290692586
-0.011425239077282332   -0.05823712534112574   -0.0025859259525110763
-0.01069957839084456   -0.06724508987591013   -0.002557972571855716
-0.011517168013329466   -0.05815265164324147   -0.0025605794687403706
-0.016688528321502843   -0.058155176898614894   -0.0027924391290692586
-0.01069957839084456   -0.06724508987591013   -0.002557972571855716
-0.015001105073877436   -0.06706214723466754   -0.002759215664289294
-0.015235205484702377   -0.06697661942830253   -0.0026016463106886944
-0.016688528321502843   -0.058155176898614894   -0.0027924391290692586
-0.01069957839084456   -0.06724508987591013   -0.002557972571855716
-0.015235205484702377   -0.06697661942830253   -0.0026016463106886944
-0.011517168013329466   -0.05815265164324147   -0.0025605794687403706
-0.016688528321502843   -0.058155176898614894   -0.0027924391290692586
-0.015001105073877436   -0.06706214723466754   -0.002759215664289294
-0.011425239077282332   -0.05823712534112574   -0.0025859259525110763
-0.016498032554709614   -0.058304849693885163   -0.00289491320406855
-0.015001105073877436   -0.06706214723466754   -0.002759215664289294
-0.01069957839084456   -0.06724508987591013   -0.002557972571855716
-0.011425239077282332   -0.05823712534112574   -0.0025859259525110763
-0.010559931060123814   -0.06736456584348754   -0.0026301331289216544
-0.016498032554709614   -0.058304849693885163   -0.00289491320406855
-0.011326602706097475   -0.058351895698043214   -0.0026227024280088074
-0.010559931060123814   -0.06736456584348754   -0.0026301331289216544
-0.011425239077282332   -0.05823712534112574   -0.0025859259525110763
-0.016498032554709614   -0.058304849693885163   -0.00289491320406855
-0.010559931060123814   -0.06736456584348754   -0.0026301331289216544
-0.014701237656871922   -0.06722163113952682   -0.0029347935161375626
-0.015001105073877436   -0.06706214723466754   -0.002759215664289294
-0.016498032554709614   -0.058304849693885163   -0.00289491320406855
-0.010559931060123814   -0.06736456584348754   -0.0026301331289216544
-0.015001105073877436   -0.06706214723466754   -0.002759215664289294
-0.011425239077282332   -0.05823712534112574   -0.0025859259525110763
-0.011585071347067303   -0.05809332130922509   -0.00254633590962947
-0.01095379367151041   -0.06714179125401921   -0.0024472419049565556
-0.006775034666812863   -0.05813943925281964   -0.0024860552243912916
-0.011517168013329466   -0.05815265164324147   -0.0025605794687403706
-0.01095379367151041   -0.06714179125401921   -0.0024472419049565556
-0.00704340573610517   -0.06724030866136632   -0.0024412175534346313
-0.006775034666812863   -0.05813943925281964   -0.0024860552243912916
-0.00692779444146312   -0.06725028455596205   -0.0024189632976527645
-0.011517168013329466   -0.05815265164324147   -0.0025605794687403706
-0.006701093296982211   -0.05817028380124283   -0.002455029466426211
-0.00692779444146312   -0.06725028455596205   -0.0024189632976527645
-0.006775034666812863   -0.05813943925281964   -0.0024860552243912916
-0.011517168013329466   -0.05815265164324147   -0.0025605794687403706
-0.00692779444146312   -0.06725028455596205   -0.0024189632976527645
-0.010841110780523267   -0.06717221147629135   -0.0024969735668239606
-0.01095379367151041   -0.06714179125401921   -0.0024472419049565556
-0.011517168013329466   -0.05815265164324147   -0.0025605794687403706
-0.00692779444146312   -0.06725028455596205   -0.0024189632976527645
-0.01095379367151041   -0.06714179125401921   -0.0024472419049565556
-0.006775034666812863   -0.05813943925281964   -0.0024860552243912916
-0.011517168013329466   -0.05815265164324147   -0.0025605794687403706
-0.010841110780523267   -0.06717221147629135   -0.0024969735668239606
-0.006701093296982211   -0.05817028380124283   -0.002455029466426211
-0.011425239077282332   -0.05823712534112574   -0.0025859259525110763
-0.010841110780523267   -0.06717221147629135   -0.0024969735668239606
-0.00692779444146312   -0.06725028455596205   -0.0024189632976527645
-0.006701093296982211   -0.05817028380124283   -0.002455029466426211
-0.006808469770173132   -0.06729817191832152   -0.0024076427926934233
-0.011425239077282332   -0.05823712534112574   -0.0025859259525110763
-0.006621555022076576   -0.05822530305323806   -0.0024349712841500756
-0.006808469770173132   -0.06729817191832152   -0.0024076427926934233
-0.006701093296982211   -0.05817028380124283   -0.002455029466426211
-0.011425239077282332   -0.05823712534112574   -0.0025859259525110763
-0.006808469770173132   -0.06729817191832152   -0.0024076427926934233
-0.01069957839084456   -0.06724508987591013   -0.002557972571855716
-0.010841110780523267   -0.06717221147629135   -0.0024969735668239606
-0.011425239077282332   -0.05823712534112574   -0.0025859259525110763
-0.006808469770173132   -0.06729817191832152   -0.0024076427926934233
-0.010841110780523267   -0.06717221147629135   -0.0024969735668239606
-0.006701093296982211   -0.05817028380124283   -0.002455029466426211
-0.011425239077282332   -0.05823712534112574   -0.0025859259525110763
-0.01069957839084456   -0.06724508987591013   -0.002557972571855716
-0.006621555022076576   -0.05822530305323806   -0.0024349712841500756
-0.011326602706097475   -0.058351895698043214   -0.0026227024280088074
-0.01069957839084456   -0.06724508987591013   -0.002557972571855716
-0.006808469770173132   -0.06729817191832152   -0.0024076427926934233
-0.006621555022076576   -0.05822530305323806   -0.0024349712841500756
-0.006689340284066586   -0.0673862049112843   -0.002407115829253471
-0.011326602706097475   -0.058351895698043214   -0.0026227024280088074
-0.0065397991806021806   -0.05830519260690249   -0.002426417351596887
-0.006689340284066586   -0.0673862049112843   -0.002407115829253471
-0.006621555022076576   -0.05822530305323806   -0.0024349712841500756
-0.011326602706097475   -0.058351895698043214   -0.0026227024280088074
-0.006689340284066586   -0.0673862049112843   -0.002407115829253471
-0.010559931060123814   -0.06736456584348754   -0.0026301331289216544
-0.01069957839084456   -0.06724508987591013   -0.002557972571855716
-0.011326602706097475   -0.058351895698043214   -0.0026227024280088074
-0.006689340284066586   -0.0673862049112843   -0.002407115829253471
-0.01069957839084456   -0.06724508987591013   -0.002557972571855716
-0.006621555022076576   -0.05822530305323806   -0.0024349712841500756
-0.006775034666812863   -0.05813943925281964   -0.0024860552243912916
-0.00704340573610517   -0.06724030866136632   -0.0024412175534346313
-0.0021106625387360416   -0.058104015071183915   -0.002476094470160517
-0.006701093296982211   -0.05817028380124283   -0.002455029466426211
-0.00704340573610517   -0.06724030866136632   -0.0024412175534346313
-0.003262836433705152   -0.06722242606609671   -0.0024692683550904936
-0.0021106625387360416   -0.058104015071183915   -0.002476094470160517
-0.0031362017164895113   -0.0672094411470292   -0.0023775539480815205
-0.006701093296982211   -0.05817028380124283   -0.002455029466426211
-0.0020288800064338884   -0.058104722022174426   -0.002401352180228978
-0.0031362017164895113   -0.0672094411470292   -0.0023775539480815205
-0.0021106625387360416   -0.058104015071183915   -0.002476094470160517
-0.006701093296982211   -0.05817028380124283   -0.002455029466426211
-0.0031362017164895113   -0.0672094411470292   -0.0023775539480815205
-0.00692779444146312   -0.06725028455596205   -0.0024189632976527645
-0.00704340573610517   -0.06724030866136632   -0.0024412175534346313
-0.006701093296982211   -0.05817028380124283   -0.002455029466426211
-0.0031362017164895113   -0.0672094411470292   -0.0023775539480815205
-0.00704340573610517   -0.06724030866136632   -0.0024412175534346313
-0.0021106625387360416   -0.058104015071183915   -0.002476094470160517
-0.006701093296982211   -0.05817028380124283   -0.002455029466426211
-0.00692779444146312   -0.06725028455596205   -0.0024189632976527645
-0.0020288800064338884   -0.058104722022174426   -0.002401352180228978
-0.006621555022076576   -0.05822530305323806   -0.0024349712841500756
-0.00692779444146312   -0.06725028455596205   -0.0024189632976527645
-0.0031362017164895113   -0.0672094411470292   -0.0023775539480815205
-0.0020288800064338884   -0.058104722022174426   -0.002401352180228978
-0.0030133015557614693   -0.06723073758568254   -0.0022974944003665804
-0.006621555022076576   -0.05822530305323806   -0.0024349712841500756
-0.0019492396396373426   -0.05812783343894054   -0.002337604802327149
-0.0030133015557614693   -0.06723073758568254   -0.0022974944003665804
-0.0020288800064338884   -0.058104722022174426   -0.002401352180228978
-0.006621555022076576   -0.05822530305323806   -0.0024349712841500756
-0.0030133015557614693   -0.06723073758568254   -0.0022974944003665804
-0.006808469770173132   -0.06729817191832152   -0.0024076427926934233
-0.00692779444146312   -0.06725028455596205   -0.0024189632976527645
-0.006621555022076576   -0.05822530305323806   -0.0024349712841500756
-0.0030133015557614693   -0.06723073758568254   -0.0022974944003665804
-0.00692779444146312   -0.06725028455596205   -0.0024189632976527645
-0.0020288800064338884   -0.058104722022174426   -0.002401352180228978
-0.006621555022076576   -0.05822530305323806   -0.0024349712841500756
-0.006808469770173132   -0.06729817191832152   -0.0024076427926934233
-0.0019492396396373426   -0.05812783343894054   -0.002337604802327149
-0.0065397991806021806   -0.05830519260690249   -0.002426417351596887
-0.006808469770173132   -0.06729817191832152   -0.0024076427926934233
-0.0030133015557614693   -0.06723073758568254   -0.0022974944003665804
-0.0019492396396373426   -0.05812783343894054   -0.002337604802327149
-0.0029022659745132702   -0.06729128939168494   -0.002228080390501755
-0.0065397991806021806   -0.05830519260690249   -0.002426417351596887
-0.001878178599560646   -0.05817526369327699   -0.002285234474829399
-0.0029022659745132702   -0.06729128939168494   -0.002228080390501755
-0.0019492396396373426   -0.05812783343894054   -0.002337604802327149
-0.0065397991806021806   -0.05830519260690249   -0.002426417351596887
-0.0029022659745132702   -0.06729128939168494   -0.002228080390501755
-0.006689340284066586   -0.0673862049112843   -0.002407115829253471
-0.006808469770173132   -0.06729817191832152   -0.0024076427926934233
-0.0065397991806021806   -0.05830519260690249   -0.002426417351596887
-0.0029022659745132702   -0.06729128939168494   -0.002228080390501755
-0.006808469770173132   -0.06729817191832152   -0.0024076427926934233
-0.0019492396396373426   -0.05812783343894054   -0.002337604802327149
-0.0021106625387360416   -0.058104015071183915   -0.002476094470160517
-0.003262836433705152   -0.06722242606609671   -0.0024692683550904936
0.002714476543483737   -0.05798944932851932   -0.0025204034128232036
-0.0020288800064338884   -0.058104722022174426   -0.002401352180228978
-0.003262836433705152   -0.06722242606609671   -0.0024692683550904936
0.0006949145277325396   -0.06708397946046336   -0.002537552911777182
0.002714476543483737   -0.05798944932851932   -0.0025204034128232036
0.0008489658184311585   -0.06704183455179182   -0.0023766169343060334
-0.0020288800064338884   -0.058104722022174426   -0.002401352180228978
0.0028144695871143875   -0.05795798739580978   -0.0024023557610862597
0.0008489658184311585   -0.06704183455179182   -0.0023766169343060334
0.002714476543483737   -0.05798944932851932   -0.0025204034128232036
-0.0020288800064338884   -0.058104722022174426   -0.002401352180228978
0.0008489658184311585   -0.06704183455179182   -0.0023766169343060334
-0.0031362017164895113   -0.0672094411470292   -0.0023775539480815205
-0.003262836433705152   -0.06722242606609671   -0.0024692683550904936
-0.0020288800064338884   -0.058104722022174426   -0.002401352180228978
0.0008489658184311585   -0.06704183455179182   -0.0023766169343060334
-0.003262836433705152   -0.06722242606609671   -0.0024692683550904936
0.002714476543483737   -0.05798944932851932   -0.0025204034128232036
-0.0020288800064338884   -0.058104722022174426   -0.002401352180228978
-0.0031362017164895113   -0.0672094411470292   -0.0023775539480815205
0.0028144695871143875   -0.05795798739580978   -0.0024023557610862597
-0.0019492396396373426   -0.05812783343894054   -0.002337604802327149
-0.0031362017164895113   -0.0672094411470292   -0.0023775539480815205
0.0008489658184311585   -0.06704183455179182   -0.0023766169343060334
0.0028144695871143875   -0.05795798739580978   -0.0024023557610862597
0.0010113110545407478   -0.06703801808892416   -0.002230455017225414
-0.0019492396396373426   -0.05812783343894054   -0.002337604802327149
0.0029170027309015027   -0.0579521220186853   -0.0022960070800489914
0.0010113110545407478   -0.06703801808892416   -0.002230455017225414
0.0028144695871143875   -0.05795798739580978   -0.0024023557610862597
-0.0019492396396373426   -0.05812783343894054   -0.002337604802327149
0.0010113110545407478   -0.06703801808892416   -0.002230455017225414
-0.0030133015557614693   -0.06723073758568254   -0.0022974944003665804
-0.0031362017164895113   -0.0672094411470292   -0.0023775539480815205
-0.0019492396396373426   -0.05812783343894054   -0.002337604802327149
0.0010113110545407478   -0.06703801808892416   -0.002230455017225414
-0.0031362017164895113   -0.0672094411470292   -0.0023775539480815205
0.0028144695871143875   -0.05795798739580978   -0.0024023557610862597
-0.0019492396396373426   -0.05812783343894054   -0.002337604802327149
-0.0030133015557614693   -0.06723073758568254   -0.0022974944003665804
0.0029170027309015027   -0.0579521220186853   -0.0022960070800489914
-0.001878178599560646   -0.05817526369327699   -0.002285234474829399
-0.0030133015557614693   -0.06723073758568254   -0.0022974944003665804
0.0010113110545407478   -0.06703801808892416   -0.002230455017225414
0.0029170027309015027   -0.0579521220186853   -0.0022960070800489914
0.0011300448579502252   -0.06707078615104098   -0.0020944658647061506
-0.001878178599560646   -0.05817526369327699   -0.002285234474829399
0.0029851938772348864   -0.057967130634140565   -0.0021998145694777337
0.0011300448579502252   -0.06707078615104098   -0.0020944658647061506
0.0029170027309015027   -0.0579521220186853   -0.0022960070800489914
-0.001878178599560646   -0.05817526369327699   -0.002285234474829399
0.0011300448579502252   -0.06707078615104098   -0.0020944658647061506
-0.0029022659745132702   -0.06729128939168494   -0.002228080390501755
-0.0030133015557614693   -0.06723073758568254   -0.0022974944003665804
-0.001878178599560646   -0.05817526369327699   -0.002285234474829399
0.0011300448579502252   -0.06707078615104098   -0.0020944658647061506
-0.0030133015557614693   -0.06723073758568254   -0.0022974944003665804
0.0029170027309015027   -0.0579521220186853   -0.0022960070800489914
0.002714476543483737   -0.05798944932851932   -0.0025204034128232036
0.0006949145277325396   -0.06708397946046336   -0.002537552911777182
0.007847517411255266   -0.05779248434950877   -0.0026347549104708905
0.0028144695871143875   -0.05795798739580978   -0.0024023557610862597
0.0006949145277325396   -0.06708397946046336   -0.002537552911777182
0.004914379215997934   -0.06681184095681175   -0.0026835563215470803
0.007847517411255266   -0.05779248434950877   -0.0026347549104708905
0.005304540239810937   -0.06673095214601851   -0.002437249365384902
0.0028144695871143875   -0.05795798739580978   -0.0024023557610862597
0.008113553482662704   -0.05772762508923918   -0.0024629830812784885
0.005304540239810937   -0.06673095214601851   -0.002437249365384902
0.007847517411255266   -0.05779248434950877   -0.0026347549104708905
0.0028144695871143875   -0.05795798739580978   -0.0024023557610862597
0.005304540239810937   -0.06673095214601851   -0.002437249365384902
0.0008489658184311585   -0.06704183455179182   -0.0023766169343060334
0.0006949145277325396   -0.06708397946046336   -0.002537552911777182
0.0028144695871143875   -0.05795798739580978   -0.0024023557610862597
0.005304540239810937   -0.06673095214601851   -0.002437249365384902
0.0006949145277325396   -0.06708397946046336   -0.002537552911777182
0.007847517411255266   -0.05779248434950877   -0.0026347549104708905
0.0028144695871143875   -0.05795798739580978   -0.0024023557610862597
0.0008489658184311585   -0.06704183455179182   -0.0023766169343060334
0.008113553482662704   -0.05772762508923918   -0.0024629830812784885
0.0029170027309015027   -0.0579521220186853   -0.0022960070800489914
0.0008489658184311585   -0.06704183455179182   -0.0023766169343060334
0.005304540239810937   -0.06673095214601851   -0.002437249365384902
0.008113553482662704   -0.05772762508923918   -0.0024629830812784885
0.005603684406124667   -0.06671694579401412   -0.00220926355863362
0.0029170027309015027   -0.0579521220186853   -0.0022960070800489914
0.008310555500617142   -0.05770979333531842   -0.0023067695906256523
0.005603684406124667   -0.06671694579401412   -0.00220926355863362
0.008113553482662704   -0.05772762508923918   -0.0024629830812784885
0.0029170027309015027   -0.0579521220186853   -0.0022960070800489914
0.005603684406124667   -0.06671694579401412   -0.00220926355863362
0.0010113110545407478   -0.06703801808892416   -0.002230455017225414
0.0008489658184311585   -0.06704183455179182   -0.0023766169343060334
0.0029170027309015027   -0.0579521220186853   -0.0022960070800489914
0.005603684406124667   -0.06671694579401412   -0.00220926355863362
0.0008489658184311585   -0.06704183455179182   -0.0023766169343060334
0.008113553482662704   -0.05772762508923918   -0.0024629830812784885
0.0029170027309015027   -0.0579521220186853   -0.0022960070800489914
0.0010113110545407478   -0.06703801808892416   -0.002230455017225414
0.008310555500617142   -0.05770979333531842   -0.0023067695906256523
0.0029851938772348864   -0.057967130634140565   -0.0021998145694777337
0.0010113110545407478   -0.06703801808892416   -0.002230455017225414
0.005603684406124667   -0.06671694579401412   -0.00220926355863362
0.008310555500617142   -0.05770979333531842   -0.0023067695906256523
0.005913599420774449   -0.0667409309510035   -0.0020014617962605084
0.0029851938772348864   -0.057967130634140565   -0.0021998145694777337
0.008510285936510743   -0.05770962383135246   -0.002166823603200593
0.005913599420774449   -0.0667409309510035   -0.0020014617962605084
0.008310555500617142   -0.05770979333531842   -0.0023067695906256523
0.0029851938772348864   -0.057967130634140565   -0.0021998145694777337
0.005913599420774449   -0.0667409309510035   -0.0020014617962605084
0.0011300448579502252   -0.06707078615104098   -0.0020944658647061506
0.0010113110545407478   -0.06703801808892416   -0.002230455017225414
0.0029851938772348864   -0.057967130634140565   -0.0021998145694777337
0.005913599420774449   -0.0667409309510035   -0.0020014617962605084
0.0010113110545407478   -0.06703801808892416   -0.002230455017225414
0.008310555500617142   -0.05770979333531842   -0.0023067695906256523
-0.015469902352528677   -0.06693147499342088   -0.002462423550486824
-0.012956280140125072   -0.07396037974014627   -0.0022341339640047832
-0.01095379367151041   -0.06714179125401921   -0.0024472419049565556
-0.015235205484702377   -0.06697661942830253   -0.0026016463106886944
-0.012956280140125072   -0.07396037974014627   -0.0022341339640047832
-0.009742351930197839   -0.07427183304641287   -0.0023275559498045517
-0.01095379367151041   -0.06714179125401921   -0.0024472419049565556
-0.009580039328621047   -0.07425578418268425   -0.002404092504459811
-0.015235205484702377   -0.06697661942830253   -0.0026016463106886944
-0.010841110780523267   -0.06717221147629135   -0.0024969735668239606
-0.009580039328621047   -0.07425578418268425   -0.002404092504459811
-0.01095379367151041   -0.06714179125401921   -0.0024472419049565556
-0.015235205484702377   -0.06697661942830253   -0.0026016463106886944
-0.009580039328621047   -0.07425578418268425   -0.002404092504459811
-0.012606401560036132   -0.07395160876675781   -0.0024404962354376484
-0.012956280140125072   -0.07396037974014627   -0.0022341339640047832
-0.015235205484702377   -0.06697661942830253   -0.0026016463106886944
-0.009580039328621047   -0.07425578418268425   -0.002404092504459811
-0.012956280140125072   -0.07396037974014627   -0.0022341339640047832
-0.01095379367151041   -0.06714179125401921   -0.0024472419049565556
-0.015235205484702377   -0.06697661942830253   -0.0026016463106886944
-0.012606401560036132   -0.07395160876675781   -0.0024404962354376484
-0.010841110780523267   -0.06717221147629135   -0.0024969735668239606
-0.015001105073877436   -0.06706214723466754   -0.002759215664289294
-0.012606401560036132   -0.07395160876675781   -0.0024404962354376484
-0.009580039328621047   -0.07425578418268425   -0.002404092504459811
-0.010841110780523267   -0.06717221147629135   -0.0024969735668239606
-0.009389137135386486   -0.07430060152447922   -0.0024921412237936683
-0.015001105073877436   -0.06706214723466754   -0.002759215664289294
-0.01069957839084456   -0.06724508987591013   -0.002557972571855716
-0.009389137135386486   -0.07430060152447922   -0.0024921412237936683
-0.010841110780523267   -0.06717221147629135   -0.0024969735668239606
-0.015001105073877436   -0.06706214723466754   -0.002759215664289294
-0.009389137135386486   -0.07430060152447922   -0.0024921412237936683
-0.01228388464130583   -0.0740069847500698   -0.0026630715245792107
-0.012606401560036132   -0.07395160876675781   -0.0024404962354376484
-0.015001105073877436   -0.06706214723466754   -0.002759215664289294
-0.009389137135386486   -0.07430060152447922   -0.0024921412237936683
-0.012606401560036132   -0.07395160876675781   -0.0024404962354376484
-0.010841110780523267   -0.06717221147629135   -0.0024969735668239606
-0.015001105073877436   -0.06706214723466754   -0.002759215664289294
-0.01228388464130583   -0.0740069847500698   -0.0026630715245792107
-0.01069957839084456   -0.06724508987591013   -0.002557972571855716
-0.014701237656871922   -0.06722163113952682   -0.0029347935161375626
-0.01228388464130583   -0.0740069847500698   -0.0026630715245792107
-0.009389137135386486   -0.07430060152447922   -0.0024921412237936683
-0.01069957839084456   -0.06724508987591013   -0.002557972571855716
-0.009215951241088156   -0.07440730577803538   -0.0025909657268564767
-0.014701237656871922   -0.06722163113952682   -0.0029347935161375626
-0.010559931060123814   -0.06736456584348754   -0.0026301331289216544
-0.009215951241088156   -0.07440730577803538   -0.0025909657268564767
-0.01069957839084456   -0.06724508987591013   -0.002557972571855716
-0.014701237656871922   -0.06722163113952682   -0.0029347935161375626
-0.009215951241088156   -0.07440730577803538   -0.0025909657268564767
-0.011890524655884104   -0.07415487799695285   -0.0029009043784084154
-0.01228388464130583   -0.0740069847500698   -0.0026630715245792107
-0.014701237656871922   -0.06722163113952682   -0.0029347935161375626
-0.009215951241088156   -0.07440730577803538   -0.0025909657268564767
-0.01228388464130583   -0.0740069847500698   -0.0026630715245792107
-0.01069957839084456   -0.06724508987591013   -0.002557972571855716
-0.01095379367151041   -0.06714179125401921   -0.0024472419049565556
-0.009742351930197839   -0.07427183304641287   -0.0023275559498045517
-0.00704340573610517   -0.06724030866136632   -0.0024412175534346313
-0.010841110780523267   -0.06717221147629135   -0.0024969735668239606
-0.009742351930197839   -0.07427183304641287   -0.0023275559498045517
-0.007116535664061036   -0.07447374263950246   -0.0024006665542455423
-0.00704340573610517   -0.06724030866136632   -0.0024412175534346313
-0.0069499755917925435   -0.07444803803094611   -0.0023772536912932372
-0.010841110780523267   -0.06717221147629135   -0.0024969735668239606
-0.00692779444146312   -0.06725028455596205   -0.0024189632976527645
-0.0069499755917925435   -0.07444803803094611   -0.0023772536912932372
-0.00704340573610517   -0.06724030866136632   -0.0024412175534346313
-0.010841110780523267   -0.06717221147629135   -0.0024969735668239606
-0.0069499755917925435   -0.07444803803094611   -0.0023772536912932372
-0.009580039328621047   -0.07425578418268425   -0.002404092504459811
-0.009742351930197839   -0.07427183304641287   -0.0023275559498045517
-0.010841110780523267   -0.06717221147629135   -0.0024969735668239606
-0.0069499755917925435   -0.07444803803094611   -0.0023772536912932372
-0.009742351930197839   -0.07427183304641287   -0.0023275559498045517
-0.00704340573610517   -0.06724030866136632   -0.0024412175534346313
-0.010841110780523267   -0.06717221147629135   -0.0024969735668239606
-0.009580039328621047   -0.07425578418268425   -0.002404092504459811
-0.00692779444146312   -0.06725028455596205   -0.0024189632976527645
-0.01069957839084456   -0.06724508987591013   -0.002557972571855716
-0.009580039328621047   -0.07425578418268425   -0.002404092504459811
-0.0069499755917925435   -0.07444803803094611   -0.0023772536912932372
-0.00692779444146312   -0.06725028455596205   -0.0024189632976527645
-0.006785760280182713   -0.07447487078110555   -0.002365022033182493
-0.01069957839084456   -0.06724508987591013   -0.002557972571855716
-0.006808469770173132   -0.06729817191832152   -0.0024076427926934233
-0.006785760280182713   -0.07447487078110555   -0.002365022033182493
-0.00692779444146312   -0.06725028455596205   -0.0024189632976527645
-0.01069957839084456   -0.06724508987591013   -0.002557972571855716
-0.006785760280182713   -0.07447487078110555   -0.002365022033182493
-0.009389137135386486   -0.07430060152447922   -0.0024921412237936683
-0.009580039328621047   -0.07425578418268425   -0.002404092504459811
-0.01069957839084456   -0.06724508987591013   -0.002557972571855716
-0.006785760280182713   -0.07447487078110555   -0.002365022033182493
-0.009580039328621047   -0.07425578418268425   -0.002404092504459811
-0.00692779444146312   -0.06725028455596205   -0.0024189632976527645
-0.01069957839084456   -0.06724508987591013   -0.002557972571855716
-0.009389137135386486   -0.07430060152447922   -0.0024921412237936683
-0.006808469770173132   -0.06729817191832152   -0.0024076427926934233
-0.010559931060123814   -0.06736456584348754   -0.0026301331289216544
-0.009389137135386486   -0.07430060152447922   -0.0024921412237936683
-0.006785760280182713   -0.07447487078110555   -0.002365022033182493
-0.006808469770173132   -0.06729817191832152   -0.0024076427926934233
-0.0066346647524116314   -0.0745559876303391   -0.0023663142474877005
-0.010559931060123814   -0.06736456584348754   -0.0026301331289216544
-0.006689340284066586   -0.0673862049112843   -0.002407115829253471
-0.0066346647524116314   -0.0745559876303391   -0.0023663142474877005
-0.006808469770173132   -0.06729817191832152   -0.0024076427926934233
-0.010559931060123814   -0.06736456584348754   -0.0026301331289216544
-0.0066346647524116314   -0.0745559876303391   -0.0023663142474877005
-0.009215951241088156   -0.07440730577803538   -0.0025909657268564767
-0.009389137135386486   -0.07430060152447922   -0.0024921412237936683
-0.010559931060123814   -0.06736456584348754   -0.0026301331289216544
-0.0066346647524116314   -0.0745559876303391   -0.0023663142474877005
-0.009389137135386486   -0.07430060152447922   -0.0024921412237936683
-0.006808469770173132   -0.06729817191832152   -0.0024076427926934233
-0.00704340573610517   -0.06724030866136632   -0.0024412175534346313
-0.007116535664061036   -0.07447374263950246   -0.0024006665542455423
-0.003262836433705152   -0.06722242606609671   -0.0024692683550904936
-0.00692779444146312   -0.06725028455596205   -0.0024189632976527645
-0.007116535664061036   -0.07447374263950246   -0.0024006665542455423
-0.004601561348692258   -0.07457988440788606   -0.0024870479759380696
-0.003262836433705152   -0.06722242606609671   -0.0024692683550904936
-0.004413799296565781   -0.07454280623075685   -0.002369378776611886
-0.00692779444146312   -0.06725028455596205   -0.0024189632976527645
-0.0031362017164895113   -0.0672094411470292   -0.0023775539480815205
-0.004413799296565781   -0.07454280623075685   -0.002369378776611886
-0.003262836433705152   -0.06722242606609671   -0.0024692683550904936
-0.00692779444146312   -0.06725028455596205   -0.0024189632976527645
-0.004413799296565781   -0.07454280623075685   -0.002369378776611886
-0.0069499755917925435   -0.07444803803094611   -0.0023772536912932372
-0.007116535664061036   -0.07447374263950246   -0.0024006665542455423
-0.00692779444146312   -0.06725028455596205   -0.0024189632976527645
-0.004413799296565781   -0.07454280623075685   -0.002369378776611886
-0.007116535664061036   -0.07447374263950246   -0.0024006665542455423
-0.003262836433705152   -0.06722242606609671   -0.0024692683550904936
-0.00692779444146312   -0.06725028455596205   -0.0024189632976527645
-0.0069499755917925435   -0.07444803803094611   -0.0023772536912932372
-0.0031362017164895113   -0.0672094411470292   -0.0023775539480815205
-0.006808469770173132   -0.06729817191832152   -0.0024076427926934233
-0.0069499755917925435   -0.07444803803094611   -0.0023772536912932372
-0.004413799296565781   -0.07454280623075685   -0.002369378776611886
-0.0031362017164895113   -0.0672094411470292   -0.0023775539480815205
-0.0042348177321385625   -0.07455192191156022   -0.0022615914614170876
-0.006808469770173132   -0.06729817191832152   -0.0024076427926934233
-0.0030133015557614693   -0.06723073758568254   -0.0022974944003665804
-0.0042348177321385625   -0.07455192191156022   -0.0022615914614170876
-0.0031362017164895113   -0.0672094411470292   -0.0023775539480815205
-0.006808469770173132   -0.06729817191832152   -0.0024076427926934233
-0.0042348177321385625   -0.07455192191156022   -0.0022615914614170876
-0.006785760280182713   -0.07447487078110555   -0.002365022033182493
-0.0069499755917925435   -0.07444803803094611   -0.0023772536912932372
-0.006808469770173132   -0.06729817191832152   -0.0024076427926934233
-0.0042348177321385625   -0.07455192191156022   -0.0022615914614170876
-0.0069499755917925435   -0.07444803803094611   -0.0023772536912932372
-0.0031362017164895113   -0.0672094411470292   -0.0023775539480815205
-0.006808469770173132   -0.06729817191832152   -0.0024076427926934233
-0.006785760280182713   -0.07447487078110555   -0.002365022033182493
-0.0030133015557614693   -0.06723073758568254   -0.0022974944003665804
-0.006689340284066586   -0.0673862049112843   -0.002407115829253471
-0.006785760280182713   -0.07447487078110555   -0.002365022033182493
-0.0042348177321385625   -0.07455192191156022   -0.0022615914614170876
-0.0030133015557614693   -0.06723073758568254   -0.0022974944003665804
-0.004085967424031238   -0.07461623939671679   -0.0021698641593902957
-0.006689340284066586   -0.0673862049112843   -0.002407115829253471
-0.0029022659745132702   -0.06729128939168494   -0.002228080390501755
-0.004085967424031238   -0.07461623939671679   -0.0021698641593902957
-0.0030133015557614693   -0.06723073758568254   -0.0022974944003665804
-0.006689340284066586   -0.0673862049112843   -0.002407115829253471
-0.004085967424031238   -0.07461623939671679   -0.0021698641593902957
-0.0066346647524116314   -0.0745559876303391   -0.0023663142474877005
-0.006785760280182713   -0.07447487078110555   -0.002365022033182493
-0.006689340284066586   -0.0673862049112843   -0.002407115829253471
-0.004085967424031238   -0.07461623939671679   -0.0021698641593902957
-0.006785760280182713   -0.07447487078110555   -0.002365022033182493
-0.0030133015557614693   -0.06723073758568254   -0.0022974944003665804
-0.003262836433705152   -0.06722242606609671   -0.0024692683550904936
-0.004601561348692258   -0.07457988440788606   -0.0024870479759380696
0.0006949145277325396   -0.06708397946046336   -0.002537552911777182
-0.0031362017164895113   -0.0672094411470292   -0.0023775539480815205
-0.004601561348692258   -0.07457988440788606   -0.0024870479759380696
-0.0019270252478075425   -0.07455320035524413   -0.002588788437476977
0.0006949145277325396   -0.06708397946046336   -0.002537552911777182
-0.0016859544179895335   -0.07449507484185257   -0.002380950263117106
-0.0031362017164895113   -0.0672094411470292   -0.0023775539480815205
0.0008489658184311585   -0.06704183455179182   -0.0023766169343060334
-0.0016859544179895335   -0.07449507484185257   -0.002380950263117106
0.0006949145277325396   -0.06708397946046336   -0.002537552911777182
-0.0031362017164895113   -0.0672094411470292   -0.0023775539480815205
-0.0016859544179895335   -0.07449507484185257   -0.002380950263117106
-0.004413799296565781   -0.07454280623075685   -0.002369378776611886
-0.004601561348692258   -0.07457988440788606   -0.0024870479759380696
-0.0031362017164895113   -0.0672094411470292   -0.0023775539480815205
-0.0016859544179895335   -0.07449507484185257   -0.002380950263117106
-0.004601561348692258   -0.07457988440788606   -0.0024870479759380696
0.0006949145277325396   -0.06708397946046336   -0.002537552911777182
-0.0031362017164895113   -0.0672094411470292   -0.0023775539480815205
-0.004413799296565781   -0.07454280623075685   -0.002369378776611886
0.0008489658184311585   -0.06704183455179182   -0.0023766169343060334
-0.0030133015557614693   -0.06723073758568254   -0.0022974944003665804
-0.004413799296565781   -0.07454280623075685   -0.002369378776611886
-0.0016859544179895335   -0.07449507484185257   -0.002380950263117106
0.0008489658184311585   -0.06704183455179182   -0.0023766169343060334
-0.001439496781535639   -0.0744848133713685   -0.002183684411065257
-0.0030133015557614693   -0.06723073758568254   -0.0022974944003665804
0.0010113110545407478   -0.06703801808892416   -0.002230455017225414
-0.001439496781535639   -0.0744848133713685   -0.002183684411065257
0.0008489658184311585   -0.06704183455179182   -0.0023766169343060334
-0.0030133015557614693   -0.06723073758568254   -0.0022974944003665804
-0.001439496781535639   -0.0744848133713685   -0.002183684411065257
-0.0042348177321385625   -0.07455192191156022   -0.0022615914614170876
-0.004413799296565781   -0.07454280623075685   -0.002369378776611886
-0.0030133015557614693   -0.06723073758568254   -0.0022974944003665804
-0.001439496781535639   -0.0744848133713685   -0.002183684411065257
-0.004413799296565781   -0.07454280623075685   -0.002369378776611886
0.0008489658184311585   -0.06704183455179182   -0.0023766169343060334
-0.0030133015557614693   -0.06723073758568254   -0.0022974944003665804
-0.0042348177321385625   -0.07455192191156022   -0.0022615914614170876
0.0010113110545407478   -0.06703801808892416   -0.002230455017225414
-0.0029022659745132702   -0.06729128939168494   -0.002228080390501755
-0.0042348177321385625   -0.07455192191156022   -0.0022615914614170876
-0.001439496781535639   -0.0744848133713685   -0.002183684411065257
0.0010113110545407478   -0.06703801808892416   -0.002230455017225414
-0.0012569449256033774   -0.07453273607935078   -0.002004529800830154
-0.0029022659745132702   -0.06729128939168494   -0.002228080390501755
0.0011300448579502252   -0.06707078615104098   -0.0020944658647061506
-0.0012569449256033774   -0.07453273607935078   -0.002004529800830154
0.0010113110545407478   -0.06703801808892416   -0.002230455017225414
-0.0029022659745132702   -0.06729128939168494   -0.002228080390501755
-0.0012569449256033774   -0.07453273607935078   -0.002004529800830154
-0.004085967424031238   -0.07461623939671679   -0.0021698641593902957
-0.0042348177321385625   -0.07455192191156022   -0.0022615914614170876
-0.0029022659745132702   -0.06729128939168494   -0.002228080390501755
-0.0012569449256033774   -0.07453273607935078   -0.002004529800830154
-0.0042348177321385625   -0.07455192191156022   -0.0022615914614170876
0.0010113110545407478   -0.06703801808892416   -0.002230455017225414
0.0006949145277325396   -0.06708397946046336   -0.002537552911777182
-0.0019270252478075425   -0.07455320035524413   -0.002588788437476977
0.004914379215997934   -0.06681184095681175   -0.0026835563215470803
0.0008489658184311585   -0.06704183455179182   -0.0023766169343060334
-0.0019270252478075425   -0.07455320035524413   -0.002588788437476977
0.00095182863109114   -0.07429632970479293   -0.0027973266004972263
0.004914379215997934   -0.06681184095681175   -0.0026835563215470803
0.0015135875922276084   -0.07416983029095511   -0.002457340310002343
0.0008489658184311585   -0.06704183455179182   -0.0023766169343060334
0.005304540239810937   -0.06673095214601851   -0.002437249365384902
0.0015135875922276084   -0.07416983029095511   -0.002457340310002343
0.004914379215997934   -0.06681184095681175   -0.0026835563215470803
0.0008489658184311585   -0.06704183455179182   -0.0023766169343060334
0.0015135875922276084   -0.07416983029095511   -0.002457340310002343
-0.0016859544179895335   -0.07449507484185257   -0.002380950263117106
-0.0019270252478075425   -0.07455320035524413   -0.002588788437476977
0.0008489658184311585   -0.06704183455179182   -0.0023766169343060334
0.0015135875922276084   -0.07416983029095511   -0.002457340310002343
-0.0019270252478075425   -0.07455320035524413   -0.002588788437476977
0.004914379215997934   -0.06681184095681175   -0.0026835563215470803
0.0008489658184311585   -0.06704183455179182   -0.0023766169343060334
-0.0016859544179895335   -0.07449507484185257   -0.002380950263117106
0.005304540239810937   -0.06673095214601851   -0.002437249365384902
0.0010113110545407478   -0.06703801808892416   -0.002230455017225414
-0.0016859544179895335   -0.07449507484185257   -0.002380950263117106
0.0015135875922276084   -0.07416983029095511   -0.002457340310002343
0.005304540239810937   -0.06673095214601851   -0.002437249365384902
0.001955064478309579   -0.07414420541450246   -0.0021381218564323103
0.0010113110545407478   -0.06703801808892416   -0.002230455017225414
0.005603684406124667   -0.06671694579401412   -0.00220926355863362
0.001955064478309579   -0.07414420541450246   -0.0021381218564323103
0.005304540239810937   -0.06673095214601851   -0.002437249365384902
0.0010113110545407478   -0.06703801808892416   -0.002230455017225414
0.001955064478309579   -0.07414420541450246   -0.0021381218564323103
-0.001439496781535639   -0.0744848133713685   -0.002183684411065257
-0.0016859544179895335   -0.07449507484185257   -0.002380950263117106
0.0010113110545407478   -0.06703801808892416   -0.002230455017225414
0.001955064478309579   -0.07414420541450246   -0.0021381218564323103
-0.0016859544179895335   -0.07449507484185257   -0.002380950263117106
0.005304540239810937   -0.06673095214601851   -0.002437249365384902
0.0010113110545407478   -0.06703801808892416   -0.002230455017225414
-0.001439496781535639   -0.0744848133713685   -0.002183684411065257
0.005603684406124667   -0.06671694579401412   -0.00220926355863362
0.0011300448579502252   -0.06707078615104098   -0.0020944658647061506
-0.001439496781535639   -0.0744848133713685   -0.002183684411065257
0.001955064478309579   -0.07414420541450246   -0.0021381218564323103
0.005603684406124667   -0.06671694579401412   -0.00220926355863362
0.002413827965958441   -0.07416572315235694   -0.0018465961243937464
0.0011300448579502252   -0.06707078615104098   -0.0020944658647061506
0.005913599420774449   -0.0667409309510035   -0.0020014617962605084
0.002413827965958441   -0.07416572315235694   -0.0018465961243937464
0.005603684406124667   -0.06671694579401412   -0.00220926355863362
0.0011300448579502252   -0.06707078615104098   -0.0020944658647061506
0.002413827965958441   -0.07416572315235694   -0.0018465961243937464
-0.0012569449256033774   -0.07453273607935078   -0.002004529800830154
-0.001439496781535639   -0.0744848133713685   -0.002183684411065257
0.0011300448579502252   -0.06707078615104098   -0.0020944658647061506
0.002413827965958441   -0.07416572315235694   -0.0018465961243937464
-0.001439496781535639   -0.0744848133713685   -0.002183684411065257
0.005603684406124667   -0.06671694579401412   -0.00220926355863362
-0.012956280140125072   -0.07396037974014627   -0.0022341339640047832
-0.009500537417319597   -0.07813832233552587   -0.0019660245346555675
-0.009742351930197839   -0.07427183304641287   -0.0023275559498045517
-0.012606401560036132   -0.07395160876675781   -0.0024404962354376484
-0.009500537417319597   -0.07813832233552587   -0.0019660245346555675
-0.00800518462711428   -0.07853223452846597   -0.002202759325526627
-0.009742351930197839   -0.07427183304641287   -0.0023275559498045517
-0.007800393038331437   -0.07845438375456697   -0.0022841912988100514
-0.012606401560036132   -0.07395160876675781   -0.0024404962354376484
-0.009580039328621047   -0.07425578418268425   -0.002404092504459811
-0.007800393038331437   -0.07845438375456697   -0.0022841912988100514
-0.009742351930197839   -0.07427183304641287   -0.0023275559498045517
-0.012606401560036132   -0.07395160876675781   -0.0024404962354376484
-0.007800393038331437   -0.07845438375456697   -0.0022841912988100514
-0.009064500621607602   -0.07805061763783352   -0.0022136068993687244
-0.009500537417319597   -0.07813832233552587   -0.0019660245346555675
-0.012606401560036132   -0.07395160876675781   -0.0024404962354376484
-0.007800393038331437   -0.07845438375456697   -0.0022841912988100514
-0.009500537417319597   -0.07813832233552587   -0.0019660245346555675
-0.009742351930197839   -0.07427183304641287   -0.0023275559498045517
-0.012606401560036132   -0.07395160876675781   -0.0024404962354376484
-0.009064500621607602   -0.07805061763783352   -0.0022136068993687244
-0.009580039328621047   -0.07425578418268425   -0.002404092504459811
-0.01228388464130583   -0.0740069847500698   -0.0026630715245792107
-0.009064500621607602   -0.07805061763783352   -0.0022136068993687244
-0.007800393038331437   -0.07845438375456697   -0.0022841912988100514
-0.009580039328621047   -0.07425578418268425   -0.002404092504459811
-0.007573584805601802   -0.07845821149766137   -0.00236644823035938
-0.01228388464130583   -0.0740069847500698   -0.0026630715245792107
-0.009389137135386486   -0.07430060152447922   -0.0024921412237936683
-0.007573584805601802   -0.07845821149766137   -0.00236644823035938
-0.009580039328621047   -0.07425578418268425   -0.002404092504459811
-0.01228388464130583   -0.0740069847500698   -0.0026630715245792107
-0.007573584805601802   -0.07845821149766137   -0.00236644823035938
-0.008688285485636873   -0.07805809918504981   -0.0024602340227605356
-0.009064500621607602   -0.07805061763783352   -0.0022136068993687244
-0.01228388464130583   -0.0740069847500698   -0.0026630715245792107
-0.007573584805601802   -0.07845821149766137   -0.00236644823035938
-0.009064500621607602   -0.07805061763783352   -0.0022136068993687244
-0.009580039328621047   -0.07425578418268425   -0.002404092504459811
-0.01228388464130583   -0.0740069847500698   -0.0026630715245792107
-0.008688285485636873   -0.07805809918504981   -0.0024602340227605356
-0.009389137135386486   -0.07430060152447922   -0.0024921412237936683
-0.011890524655884104   -0.07415487799695285   -0.0029009043784084154
-0.008688285485636873   -0.07805809918504981   -0.0024602340227605356
-0.007573584805601802   -0.07845821149766137   -0.00236644823035938
-0.009389137135386486   -0.07430060152447922   -0.0024921412237936683
-0.007362880235369353   -0.07854409616939771   -0.002449874573198779
-0.011890524655884104   -0.07415487799695285   -0.0029009043784084154
-0.009215951241088156   -0.07440730577803538   -0.0025909657268564767
-0.007362880235369353   -0.07854409616939771   -0.002449874573198779
-0.009389137135386486   -0.07430060152447922   -0.0024921412237936683
-0.011890524655884104   -0.07415487799695285   -0.0029009043784084154
-0.007362880235369353   -0.07854409616939771   -0.002449874573198779
-0.00824205165553545   -0.07816623059819315   -0.0027121739527350645
-0.008688285485636873   -0.07805809918504981   -0.0024602340227605356
-0.011890524655884104   -0.07415487799695285   -0.0029009043784084154
-0.007362880235369353   -0.07854409616939771   -0.002449874573198779
-0.008688285485636873   -0.07805809918504981   -0.0024602340227605356
-0.009389137135386486   -0.07430060152447922   -0.0024921412237936683
-0.009742351930197839   -0.07427183304641287   -0.0023275559498045517
-0.00800518462711428   -0.07853223452846597   -0.002202759325526627
-0.007116535664061036   -0.07447374263950246   -0.0024006665542455423
-0.009580039328621047   -0.07425578418268425   -0.002404092504459811
-0.00800518462711428   -0.07853223452846597   -0.002202759325526627
-0.006910127419160201   -0.07892761825221212   -0.0024119895085868513
-0.007116535664061036   -0.07447374263950246   -0.0024006665542455423
-0.006694054815880988   -0.07884774326557575   -0.002354921741612583
-0.009580039328621047   -0.07425578418268425   -0.002404092504459811
-0.0069499755917925435   -0.07444803803094611   -0.0023772536912932372
-0.006694054815880988   -0.07884774326557575   -0.002354921741612583
-0.007116535664061036   -0.07447374263950246   -0.0024006665542455423
-0.009580039328621047   -0.07425578418268425   -0.002404092504459811
-0.006694054815880988   -0.07884774326557575   -0.002354921741612583
-0.007800393038331437   -0.07845438375456697   -0.0022841912988100514
-0.00800518462711428   -0.07853223452846597   -0.002202759325526627
-0.009580039328621047   -0.07425578418268425   -0.002404092504459811
-0.006694054815880988   -0.07884774326557575   -0.002354921741612583
-0.00800518462711428   -0.07853223452846597   -0.002202759325526627
-0.007116535664061036   -0.07447374263950246   -0.0024006665542455423
-0.009580039328621047   -0.07425578418268425   -0.002404092504459811
-0.007800393038331437   -0.07845438375456697   -0.0022841912988100514
-0.0069499755917925435   -0.07444803803094611   -0.0023772536912932372
-0.009389137135386486   -0.07430060152447922   -0.0024921412237936683
-0.007800393038331437   -0.07845438375456697   -0.0022841912988100514
-0.006694054815880988   -0.07884774326557575   -0.002354921741612583
-0.0069499755917925435   -0.07444803803094611   -0.0023772536912932372
-0.006485145849660321   -0.07884629644059402   -0.002297144087055167
-0.009389137135386486   -0.07430060152447922   -0.0024921412237936683
-0.006785760280182713   -0.07447487078110555   -0.002365022033182493
-0.006485145849660321   -0.07884629644059402   -0.002297144087055167
-0.0069499755917925435   -0.07444803803094611   -0.0023772536912932372
-0.009389137135386486   -0.07430060152447922   -0.0024921412237936683
-0.006485145849660321   -0.07884629644059402   -0.002297144087055167
-0.007573584805601802   -0.07845821149766137   -0.00236644823035938
-0.007800393038331437   -0.07845438375456697   -0.0022841912988100514
-0.009389137135386486   -0.07430060152447922   -0.0024921412237936683
-0.006485145849660321   -0.07884629644059402   -0.002297144087055167
-0.007800393038331437   -0.07845438375456697   -0.0022841912988100514
-0.0069499755917925435   -0.07444803803094611   -0.0023772536912932372
-0.009389137135386486   -0.07430060152447922   -0.0024921412237936683
-0.007573584805601802   -0.07845821149766137   -0.00236644823035938
-0.006785760280182713   -0.07447487078110555   -0.002365022033182493
-0.009215951241088156   -0.07440730577803538   -0.0025909657268564767
-0.007573584805601802   -0.07845821149766137   -0.00236644823035938
-0.006485145849660321   -0.07884629644059402   -0.002297144087055167
-0.006785760280182713   -0.07447487078110555   -0.002365022033182493
-0.006267349077596425   -0.0789216397616504   -0.0022416477009332583
-0.009215951241088156   -0.07440730577803538   -0.0025909657268564767
-0.0066346647524116314   -0.0745559876303391   -0.0023663142474877005
-0.006267349077596425   -0.0789216397616504   -0.0022416477009332583
-0.006785760280182713   -0.07447487078110555   -0.002365022033182493
-0.009215951241088156   -0.07440730577803538   -0.0025909657268564767
-0.006267349077596425   -0.0789216397616504   -0.0022416477009332583
-0.007362880235369353   -0.07854409616939771   -0.002449874573198779
-0.007573584805601802   -0.07845821149766137   -0.00236644823035938
-0.009215951241088156   -0.07440730577803538   -0.0025909657268564767
-0.006267349077596425   -0.0789216397616504   -0.0022416477009332583
-0.007573584805601802   -0.07845821149766137   -0.00236644823035938
-0.006785760280182713   -0.07447487078110555   -0.002365022033182493
-0.007116535664061036   -0.07447374263950246   -0.0024006665542455423
-0.006910127419160201   -0.07892761825221212   -0.0024119895085868513
-0.004601561348692258   -0.07457988440788606   -0.0024870479759380696
-0.0069499755917925435   -0.07444803803094611   -0.0023772536912932372
-0.006910127419160201   -0.07892761825221212   -0.0024119895085868513
-0.005910096518611558   -0.0794048065224379   -0.002642391723931116
-0.004601561348692258   -0.07457988440788606   -0.0024870479759380696
-0.005645212354406968   -0.0793354933297638   -0.0024390542377995005
-0.0069499755917925435   -0.07444803803094611   -0.0023772536912932372
-0.004413799296565781   -0.07454280623075685   -0.002369378776611886
-0.005645212354406968   -0.0793354933297638   -0.0024390542377995005
-0.004601561348692258   -0.07457988440788606   -0.0024870479759380696
-0.0069499755917925435   -0.07444803803094611   -0.0023772536912932372
-0.005645212354406968   -0.0793354933297638   -0.0024390542377995005
-0.006694054815880988   -0.07884774326557575   -0.002354921741612583
-0.006910127419160201   -0.07892761825221212   -0.0024119895085868513
-0.0069499755917925435   -0.07444803803094611   -0.0023772536912932372
-0.005645212354406968   -0.0793354933297638   -0.0024390542377995005
-0.006910127419160201   -0.07892761825221212   -0.0024119895085868513
-0.004601561348692258   -0.07457988440788606   -0.0024870479759380696
-0.0069499755917925435   -0.07444803803094611   -0.0023772536912932372
-0.006694054815880988   -0.07884774326557575   -0.002354921741612583
-0.004413799296565781   -0.07454280623075685   -0.002369378776611886
-0.006785760280182713   -0.07447487078110555   -0.002365022033182493
-0.006694054815880988   -0.07884774326557575   -0.002354921741612583
-0.005645212354406968   -0.0793354933297638   -0.0024390542377995005
-0.004413799296565781   -0.07454280623075685   -0.002369378776611886
-0.005399776524147741   -0.07933177513260355   -0.0022364055780997104
-0.006785760280182713   -0.07447487078110555   -0.002365022033182493
-0.0042348177321385625   -0.07455192191156022   -0.0022615914614170876
-0.005399776524147741   -0.07933177513260355   -0.0022364055780997104
-0.004413799296565781   -0.07454280623075685   -0.002369378776611886
-0.006785760280182713   -0.07447487078110555   -0.002365022033182493
-0.005399776524147741   -0.07933177513260355   -0.0022364055780997104
-0.006485145849660321   -0.07884629644059402   -0.002297144087055167
-0.006694054815880988   -0.07884774326557575   -0.002354921741612583
-0.006785760280182713   -0.07447487078110555   -0.002365022033182493
-0.005399776524147741   -0.07933177513260355   -0.0022364055780997104
-0.006694054815880988   -0.07884774326557575   -0.002354921741612583
-0.004413799296565781   -0.07454280623075685   -0.002369378776611886
-0.006785760280182713   -0.07447487078110555   -0.002365022033182493
-0.006485145849660321   -0.07884629644059402   -0.002297144087055167
-0.0042348177321385625   -0.07455192191156022   -0.0022615914614170876
-0.0066346647524116314   -0.0745559876303391   -0.0023663142474877005
-0.006485145849660321   -0.07884629644059402   -0.002297144087055167
-0.005399776524147741   -0.07933177513260355   -0.0022364055780997104
-0.0042348177321385625   -0.07455192191156022   -0.0022615914614170876
-0.005136270465087106   -0.07939010719773597   -0.0020333024756036895
-0.0066346647524116314   -0.0745559876303391   -0.0023663142474877005
-0.004085967424031238   -0.07461623939671679   -0.0021698641593902957
-0.005136270465087106   -0.07939010719773597   -0.0020333024756036895
-0.0042348177321385625   -0.07455192191156022   -0.0022615914614170876
-0.0066346647524116314   -0.0745559876303391   -0.0023663142474877005
-0.005136270465087106   -0.07939010719773597   -0.0020333024756036895
-0.006267349077596425   -0.0789216397616504   -0.0022416477009332583
-0.006485145849660321   -0.07884629644059402   -0.002297144087055167
-0.0066346647524116314   -0.0745559876303391   -0.0023663142474877005
-0.005136270465087106   -0.07939010719773597   -0.0020333024756036895
-0.006485145849660321   -0.07884629644059402   -0.002297144087055167
-0.0042348177321385625   -0.07455192191156022   -0.0022615914614170876
-0.004601561348692258   -0.07457988440788606   -0.0024870479759380696
-0.005910096518611558   -0.0794048065224379   -0.002642391723931116
-0.0019270252478075425   -0.07455320035524413   -0.002588788437476977
-0.004413799296565781   -0.07454280623075685   -0.002369378776611886
-0.005910096518611558   -0.0794048065224379   -0.002642391723931116
-0.004925890637174144   -0.08   -0.002819366698106064
-0.0019270252478075425   -0.07455320035524413   -0.002588788437476977
-0.0045927434822604805   -0.08   -0.00251055642668356
-0.004413799296565781   -0.07454280623075685   -0.002369378776611886
-0.0016859544179895335   -0.07449507484185257   -0.002380950263117106
-0.0045927434822604805   -0.08   -0.00251055642668356
-0.0019270252478075425   -0.07455320035524413   -0.002588788437476977
-0.004413799296565781   -0.07454280623075685   -0.002369378776611886
-0.0045927434822604805   -0.08   -0.00251055642668356
-0.005645212354406968   -0.0793354933297638   -0.0024390542377995005
-0.005910096518611558   -0.0794048065224379   -0.002642391723931116
-0.004413799296565781   -0.07454280623075685   -0.002369378776611886
-0.0045927434822604805   -0.08   -0.00251055642668356
-0.005910096518611558   -0.0794048065224379   -0.002642391723931116
-0.0019270252478075425   -0.07455320035524413   -0.002588788437476977
-0.004413799296565781   -0.07454280623075685   -0.002369378776611886
-0.005645212354406968   -0.0793354933297638   -0.0024390542377995005
-0.0016859544179895335   -0.07449507484185257   -0.002380950263117106
-0.0042348177321385625   -0.07455192191156022   -0.0022615914614170876
-0.005645212354406968   -0.0793354933297638   -0.0024390542377995005
-0.0045927434822604805   -0.08   -0.00251055642668356
-0.0016859544179895335   -0.07449507484185257   -0.002380950263117106
-0.004258019280598641   -0.08   -0.0021980836990037143
-0.0042348177321385625   -0.07455192191156022   -0.0022615914614170876
-0.001439496781535639   -0.0744848133713685   -0.002183684411065257
-0.004258019280598641   -0.08   -0.0021980836990037143
-0.0016859544179895335   -0.07449507484185257   -0.002380950263117106
-0.0042348177321385625   -0.07455192191156022   -0.0022615914614170876
-0.004258019280598641   -0.08   -0.0021980836990037143
-0.005399776524147741   -0.07933177513260355   -0.0022364055780997104
-0.005645212354406968   -0.0793354933297638   -0.0024390542377995005
-0.0042348177321385625   -0.07455192191156022   -0.0022615914614170876
-0.004258019280598641   -0.08   -0.0021980836990037143
-0.005645212354406968   -0.0793354933297638   -0.0024390542377995005
-0.0016859544179895335   -0.07449507484185257   -0.002380950263117106
-0.0042348177321385625   -0.07455192191156022   -0.0022615914614170876
-0.005399776524147741   -0.07933177513260355   -0.0022364055780997104
-0.001439496781535639   -0.0744848133713685   -0.002183684411065257
-0.004085967424031238   -0.07461623939671679   -0.0021698641593902957
-0.005399776524147741   -0.07933177513260355   -0.0022364055780997104
-0.004258019280598641   -0.08   -0.0021980836990037143
-0.001439496781535639   -0.0744848133713685   -0.002183684411065257
-0.00393081037637739   -0.08   -0.0018897414335388892
-0.004085967424031238   -0.07461623939671679   -0.0021698641593902957
-0.0012569449256033774   -0.07453273607935078   -0.002004529800830154
-0.00393081037637739   -0.08   -0.0018897414335388892
-0.001439496781535639   -0.0744848133713685   -0.002183684411065257
-0.004085967424031238   -0.07461623939671679   -0.0021698641593902957
-0.00393081037637739   -0.08   -0.0018897414335388892
-0.005136270465087106   -0.07939010719773597   -0.0020333024756036895
-0.005399776524147741   -0.07933177513260355   -0.0022364055780997104
-0.004085967424031238   -0.07461623939671679   -0.0021698641593902957
-0.00393081037637739   -0.08   -0.0018897414335388892
-0.005399776524147741   -0.07933177513260355   -0.0022364055780997104
-0.001439496781535639   -0.0744848133713685   -0.002183684411065257
-0.0019270252478075425   -0.07455320035524413   -0.002588788437476977
-0.004925890637174144   -0.08   -0.002819366698106064
0.00095182863109114   -0.07429632970479293   -0.0027973266004972263
-0.0016859544179895335   -0.07449507484185257   -0.002380950263117106
-0.004925890637174144   -0.08   -0.002819366698106064
-0.0042120355450450024   -0.08   -0.0030337011723027296
0.00095182863109114   -0.07429632970479293   -0.0027973266004972263
-0.003515531487588808   -0.08   -0.0025869596198384807
-0.0016859544179895335   -0.07449507484185257   -0.002380950263117106
0.0015135875922276084   -0.07416983029095511   -0.002457340310002343
-0.003515531487588808   -0.08   -0.0025869596198384807
0.00095182863109114   -0.07429632970479293   -0.0027973266004972263
-0.0016859544179895335   -0.07449507484185257   -0.002380950263117106
-0.003515531487588808   -0.08   -0.0025869596198384807
-0.0045927434822604805   -0.08   -0.00251055642668356
-0.004925890637174144   -0.08   -0.002819366698106064
-0.0016859544179895335   -0.07449507484185257   -0.002380950263117106
-0.003515531487588808   -0.08   -0.0025869596198384807
-0.004925890637174144   -0.08   -0.002819366698106064
0.00095182863109114   -0.07429632970479293   -0.0027973266004972263
-0.0016859544179895335   -0.07449507484185257   -0.002380950263117106
-0.0045927434822604805   -0.08   -0.00251055642668356
0.0015135875922276084   -0.07416983029095511   -0.002457340310002343
-0.001439496781535639   -0.0744848133713685   -0.002183684411065257
-0.0045927434822604805   -0.08   -0.00251055642668356
-0.003515531487588808   -0.08   -0.0025869596198384807
0.0015135875922276084   -0.07416983029095511   -0.002457340310002343
-0.002960079183293416   -0.08   -0.0021595947169002288
-0.001439496781535639   -0.0744848133713685   -0.002183684411065257
0.001955064478309579   -0.07414420541450246   -0.0021381218564323103
-0.002960079183293416   -0.08   -0.0021595947169002288
0.0015135875922276084   -0.07416983029095511   -0.002457340310002343
-0.001439496781535639   -0.0744848133713685   -0.002183684411065257
-0.002960079183293416   -0.08   -0.0021595947169002288
-0.004258019280598641   -0.08   -0.0021980836990037143
-0.0045927434822604805   -0.08   -0.00251055642668356
-0.001439496781535639   -0.0744848133713685   -0.002183684411065257
-0.002960079183293416   -0.08   -0.0021595947169002288
-0.0045927434822604805   -0.08   -0.00251055642668356
0.0015135875922276084   -0.07416983029095511   -0.002457340310002343
-0.001439496781535639   -0.0744848133713685   -0.002183684411065257
-0.004258019280598641   -0.08   -0.0021980836990037143
0.001955064478309579   -0.07414420541450246   -0.0021381218564323103
-0.0012569449256033774   -0.07453273607935078   -0.002004529800830154
-0.004258019280598641   -0.08   -0.0021980836990037143
-0.002960079183293416   -0.08   -0.0021595947169002288
0.001955064478309579   -0.07414420541450246   -0.0021381218564323103
-0.002273924005737336   -0.08   -0.0017159426889620216
-0.0012569449256033774   -0.07453273607935078   -0.002004529800830154
0.002413827965958441   -0.07416572315235694   -0.0018465961243937464
-0.002273924005737336   -0.08   -0.0017159426889620216
0.001955064478309579   -0.07414420541450246   -0.0021381218564323103
-0.0012569449256033774   -0.07453273607935078   -0.002004529800830154
-0.002273924005737336   -0.08   -0.0017159426889620216
-0.00393081037637739   -0.08   -0.0018897414335388892
-0.004258019280598641   -0.08   -0.0021980836990037143
-0.0012569449256033774   -0.07453273607935078   -0.002004529800830154
-0.002273924005737336   -0.08   -0.0017159426889620216
-0.004258019280598641   -0.08   -0.0021980836990037143
0.001955064478309579   -0.07414420541450246   -0.0021381218564323103
-0.009500537417319597   -0.07813832233552587   -0.0019660245346555675
-0.005677305747135724   -0.07834837623202764   -0.001682730188432971
-0.00800518462711428   -0.07853223452846597   -0.002202759325526627
-0.009064500621607602   -0.07805061763783352   -0.0022136068993687244
-0.005677305747135724   -0.07834837623202764   -0.001682730188432971
-0.0060215160645289536   -0.07865189812502223   -0.0019875434166584374
-0.00800518462711428   -0.07853223452846597   -0.002202759325526627
-0.005866638020098537   -0.0785455869816795   -0.0020986601422200287
-0.009064500621607602   -0.07805061763783352   -0.0022136068993687244
-0.007800393038331437   -0.07845438375456697   -0.0022841912988100514
-0.005866638020098537   -0.0785455869816795   -0.0020986601422200287
-0.00800518462711428   -0.07853223452846597   -0.002202759325526627
-0.009064500621607602   -0.07805061763783352   -0.0022136068993687244
-0.005866638020098537   -0.0785455869816795   -0.0020986601422200287
-0.005282172501777173   -0.07821187234173836   -0.0019428551029169465
-0.005677305747135724   -0.07834837623202764   -0.001682730188432971
-0.009064500621607602   -0.07805061763783352   -0.0022136068993687244
-0.005866638020098537   -0.0785455869816795   -0.0020986601422200287
-0.005677305747135724   -0.07834837623202764   -0.001682730188432971
-0.00800518462711428   -0.07853223452846597   -0.002202759325526627
-0.009064500621607602   -0.07805061763783352   -0.0022136068993687244
-0.005282172501777173   -0.07821187234173836   -0.0019428551029169465
-0.007800393038331437   -0.07845438375456697   -0.0022841912988100514
-0.008688285485636873   -0.07805809918504981   -0.0024602340227605356
-0.005282172501777173   -0.07821187234173836   -0.0019428551029169465
-0.005866638020098537   -0.0785455869816795   -0.0020986601422200287
-0.007800393038331437   -0.07845438375456697   -0.0022841912988100514
-0.00568498202049246   -0.07850632066735076   -0.002201171873040268
-0.008688285485636873   -0.07805809918504981   -0.0024602340227605356
-0.007573584805601802   -0.07845821149766137   -0.00236644823035938
-0.00568498202049246   -0.07850632066735076   -0.002201171873040268
-0.007800393038331437   -0.07845438375456697   -0.0022841912988100514
-0.008688285485636873   -0.07805809918504981   -0.0024602340227605356
-0.00568498202049246   -0.07850632066735076   -0.002201171873040268
-0.004953260565640104   -0.07816982702533405   -0.0021923015040157465
-0.005282172501777173   -0.07821187234173836   -0.0019428551029169465
-0.008688285485636873   -0.07805809918504981   -0.0024602340227605356
-0.00568498202049246   -0.07850632066735076   -0.002201171873040268
-0.005282172501777173   -0.07821187234173836   -0.0019428551029169465
-0.007800393038331437   -0.07845438375456697   -0.0022841912988100514
-0.008688285485636873   -0.07805809918504981   -0.0024602340227605356
-0.004953260565640104   -0.07816982702533405   -0.0021923015040157465
-0.007573584805601802   -0.07845821149766137   -0.00236644823035938
-0.00824205165553545   -0.07816623059819315   -0.0027121739527350645
-0.004953260565640104   -0.07816982702533405   -0.0021923015040157465
-0.00568498202049246   -0.07850632066735076   -0.002201171873040268
-0.007573584805601802   -0.07845821149766137   -0.00236644823035938
-0.005529363978324067   -0.0785346657890169   -0.0022945418714296244
-0.00824205165553545   -0.07816623059819315   -0.0027121739527350645
-0.007362880235369353   -0.07854409616939771   -0.002449874573198779
-0.005529363978324067   -0.0785346657890169   -0.0022945418714296244
-0.007573584805601802   -0.07845821149766137   -0.00236644823035938
-0.00824205165553545   -0.07816623059819315   -0.0027121739527350645
-0.005529363978324067   -0.0785346657890169   -0.0022945418714296244
-0.004581142228358869   -0.07820519077371907   -0.0024299598625732916
-0.004953260565640104   -0.07816982702533405   -0.0021923015040157465
-0.00824205165553545   -0.07816623059819315   -0.0027121739527350645
-0.005529363978324067   -0.0785346657890169   -0.0022945418714296244
-0.004953260565640104   -0.07816982702533405   -0.0021923015040157465
-0.007573584805601802   -0.07845821149766137   -0.00236644823035938
-0.00800518462711428   -0.07853223452846597   -0.002202759325526627
-0.0060215160645289536   -0.07865189812502223   -0.0019875434166584374
-0.006910127419160201   -0.07892761825221212   -0.0024119895085868513
-0.007800393038331437   -0.07845438375456697   -0.0022841912988100514
-0.0060215160645289536   -0.07865189812502223   -0.0019875434166584374
-0.006487473506437899   -0.07883959336768905   -0.0022312641080580067
-0.006910127419160201   -0.07892761825221212   -0.0024119895085868513
-0.006350396067208392   -0.07874466554244812   -0.002234180597282996
-0.007800393038331437   -0.07845438375456697   -0.0022841912988100514
-0.006694054815880988   -0.07884774326557575   -0.002354921741612583
-0.006350396067208392   -0.07874466554244812   -0.002234180597282996
-0.006910127419160201   -0.07892761825221212   -0.0024119895085868513
-0.007800393038331437   -0.07845438375456697   -0.0022841912988100514
-0.006350396067208392   -0.07874466554244812   -0.002234180597282996
-0.005866638020098537   -0.0785455869816795   -0.0020986601422200287
-0.0060215160645289536   -0.07865189812502223   -0.0019875434166584374
-0.007800393038331437   -0.07845438375456697   -0.0022841912988100514
-0.006350396067208392   -0.07874466554244812   -0.002234180597282996
-0.0060215160645289536   -0.07865189812502223   -0.0019875434166584374
-0.006910127419160201   -0.07892761825221212   -0.0024119895085868513
-0.007800393038331437   -0.07845438375456697   -0.0022841912988100514
-0.005866638020098537   -0.0785455869816795   -0.0020986601422200287
-0.006694054815880988   -0.07884774326557575   -0.002354921741612583
-0.007573584805601802   -0.07845821149766137   -0.00236644823035938
-0.005866638020098537   -0.0785455869816795   -0.0020986601422200287
-0.006350396067208392   -0.07874466554244812   -0.002234180597282996
-0.006694054815880988   -0.07884774326557575   -0.002354921741612583
-0.006197818183965975   -0.0787104614824841   -0.0022259408519726305
-0.007573584805601802   -0.07845821149766137   -0.00236644823035938
-0.006485145849660321   -0.07884629644059402   -0.002297144087055167
-0.006197818183965975   -0.0787104614824841   -0.0022259408519726305
-0.006694054815880988   -0.07884774326557575   -0.002354921741612583
-0.007573584805601802   -0.07845821149766137   -0.00236644823035938
-0.006197818183965975   -0.0787104614824841   -0.0022259408519726305
-0.00568498202049246   -0.07850632066735076   -0.002201171873040268
-0.005866638020098537   -0.0785455869816795   -0.0020986601422200287
-0.007573584805601802   -0.07845821149766137   -0.00236644823035938
-0.006197818183965975   -0.0787104614824841   -0.0022259408519726305
-0.005866638020098537   -0.0785455869816795   -0.0020986601422200287
-0.006694054815880988   -0.07884774326557575   -0.002354921741612583
-0.007573584805601802   -0.07845821149766137   -0.00236644823035938
-0.00568498202049246   -0.07850632066735076   -0.002201171873040268
-0.006485145849660321   -0.07884629644059402   -0.002297144087055167
-0.007362880235369353   -0.07854409616939771   -0.002449874573198779
-0.00568498202049246   -0.07850632066735076   -0.002201171873040268
-0.006197818183965975   -0.0787104614824841   -0.0022259408519726305
-0.006485145849660321   -0.07884629644059402   -0.002297144087055167
-0.006042684822236144   -0.07873420434352246   -0.0022089470352008142
-0.007362880235369353   -0.07854409616939771   -0.002449874573198779
-0.006267349077596425   -0.0789216397616504   -0.0022416477009332583
-0.006042684822236144   -0.07873420434352246   -0.0022089470352008142
-0.006485145849660321   -0.07884629644059402   -0.002297144087055167
-0.007362880235369353   -0.07854409616939771   -0.002449874573198779
-0.006042684822236144   -0.07873420434352246   -0.0022089470352008142
-0.005529363978324067   -0.0785346657890169   -0.0022945418714296244
-0.00568498202049246   -0.07850632066735076   -0.002201171873040268
-0.007362880235369353   -0.07854409616939771   -0.002449874573198779
-0.006042684822236144   -0.07873420434352246   -0.0022089470352008142
-0.00568498202049246   -0.07850632066735076   -0.002201171873040268
-0.006485145849660321   -0.07884629644059402   -0.002297144087055167
-0.006910127419160201   -0.07892761825221212   -0.0024119895085868513
-0.006487473506437899   -0.07883959336768905   -0.0022312641080580067
-0.005910096518611558   -0.0794048065224379   -0.002642391723931116
-0.006694054815880988   -0.07884774326557575   -0.002354921741612583
-0.006487473506437899   -0.07883959336768905   -0.0022312641080580067
-0.006986985364890863   -0.07891855167181017   -0.0024711341113799836
-0.005910096518611558   -0.0794048065224379   -0.002642391723931116
-0.006844988313158563   -0.07882804222097786   -0.0023700098162462518
-0.006694054815880988   -0.07884774326557575   -0.002354921741612583
-0.005645212354406968   -0.0793354933297638   -0.0024390542377995005
-0.006844988313158563   -0.07882804222097786   -0.0023700098162462518
-0.005910096518611558   -0.0794048065224379   -0.002642391723931116
-0.006694054815880988   -0.07884774326557575   -0.002354921741612583
-0.006844988313158563   -0.07882804222097786   -0.0023700098162462518
-0.006350396067208392   -0.07874466554244812   -0.002234180597282996
-0.006487473506437899   -0.07883959336768905   -0.0022312641080580067
-0.006694054815880988   -0.07884774326557575   -0.002354921741612583
-0.006844988313158563   -0.07882804222097786   -0.0023700098162462518
-0.006487473506437899   -0.07883959336768905   -0.0022312641080580067
-0.005910096518611558   -0.0794048065224379   -0.002642391723931116
-0.006694054815880988   -0.07884774326557575   -0.002354921741612583
-0.006350396067208392   -0.07874466554244812   -0.002234180597282996
-0.005645212354406968   -0.0793354933297638   -0.0024390542377995005
-0.006485145849660321   -0.07884629644059402   -0.002297144087055167
-0.006350396067208392   -0.07874466554244812   -0.002234180597282996
-0.006844988313158563   -0.07882804222097786   -0.0023700098162462518
-0.005645212354406968   -0.0793354933297638   -0.0024390542377995005
-0.006674660066546056   -0.07879924972403311   -0.002255298518506661
-0.006485145849660321   -0.07884629644059402   -0.002297144087055167
-0.005399776524147741   -0.07933177513260355   -0.0022364055780997104
-0.006674660066546056   -0.07879924972403311   -0.002255298518506661
-0.005645212354406968   -0.0793354933297638   -0.0024390542377995005
-0.006485145849660321   -0.07884629644059402   -0.002297144087055167
-0.006674660066546056   -0.07879924972403311   -0.002255298518506661
-0.006197818183965975   -0.0787104614824841   -0.0022259408519726305
-0.006350396067208392   -0.07874466554244812   -0.002234180597282996
-0.006485145849660321   -0.07884629644059402   -0.002297144087055167
-0.006674660066546056   -0.07879924972403311   -0.002255298518506661
-0.006350396067208392   -0.07874466554244812   -0.002234180597282996
-0.005645212354406968   -0.0793354933297638   -0.0024390542377995005
-0.006485145849660321   -0.07884629644059402   -0.002297144087055167
-0.006197818183965975   -0.0787104614824841   -0.0022259408519726305
-0.005399776524147741   -0.07933177513260355   -0.0022364055780997104
-0.006267349077596425   -0.0789216397616504   -0.0022416477009332583
-0.006197818183965975   -0.0787104614824841   -0.0022259408519726305
-0.006674660066546056   -0.07879924972403311   -0.002255298518506661
-0.005399776524147741   -0.07933177513260355   -0.0022364055780997104
-0.006499493173730343   -0.0788224697705051   -0.0021331129010349415
-0.006267349077596425   -0.0789216397616504   -0.0022416477009332583
-0.005136270465087106   -0.07939010719773597   -0.0020333024756036895
-0.006499493173730343   -0.0788224697705051   -0.0021331129010349415
-0.005399776524147741   -0.07933177513260355   -0.0022364055780997104
-0.006267349077596425   -0.0789216397616504   -0.0022416477009332583
-0.006499493173730343   -0.0788224697705051   -0.0021331129010349415
-0.006042684822236144   -0.07873420434352246   -0.0022089470352008142
-0.006197818183965975   -0.0787104614824841   -0.0022259408519726305
-0.006267349077596425   -0.0789216397616504   -0.0022416477009332583
-0.006499493173730343   -0.0788224697705051   -0.0021331129010349415
-0.006197818183965975   -0.0787104614824841   -0.0022259408519726305
-0.005399776524147741   -0.07933177513260355   -0.0022364055780997104
-0.005910096518611558   -0.0794048065224379   -0.002642391723931116
-0.006986985364890863   -0.07891855167181017   -0.0024711341113799836
-0.004925890637174144   -0.08   -0.002819366698106064
-0.005645212354406968   -0.0793354933297638   -0.0024390542377995005
-0.006986985364890863   -0.07891855167181017   -0.0024711341113799836
-0.007710412878723647   -0.07883373359903277   -0.002699013735459013
-0.004925890637174144   -0.08   -0.002819366698106064
-0.007524931228862559   -0.07874829654964693   -0.0024988387987979503
-0.005645212354406968   -0.0793354933297638   -0.0024390542377995005
-0.0045927434822604805   -0.08   -0.00251055642668356
-0.007524931228862559   -0.07874829654964693   -0.0024988387987979503
-0.004925890637174144   -0.08   -0.002819366698106064
-0.005645212354406968   -0.0793354933297638   -0.0024390542377995005
-0.007524931228862559   -0.07874829654964693   -0.0024988387987979503
-0.006844988313158563   -0.07882804222097786   -0.0023700098162462518
-0.006986985364890863   -0.07891855167181017   -0.0024711341113799836
-0.005645212354406968   -0.0793354933297638   -0.0024390542377995005
-0.007524931228862559   -0.07874829654964693   -0.0024988387987979503
-0.006986985364890863   -0.07891855167181017   -0.0024711341113799836
-0.004925890637174144   -0.08   -0.002819366698106064
-0.005645212354406968   -0.0793354933297638   -0.0024390542377995005
-0.006844988313158563   -0.07882804222097786   -0.0023700098162462518
-0.0045927434822604805   -0.08   -0.00251055642668356
-0.005399776524147741   -0.07933177513260355   -0.0022364055780997104
-0.006844988313158563   -0.07882804222097786   -0.0023700098162462518
-0.007524931228862559   -0.07874829654964693   -0.0024988387987979503
-0.0045927434822604805   -0.08   -0.00251055642668356
-0.007280211986818154   -0.07872884846492542   -0.002283536510346753
-0.005399776524147741   -0.07933177513260355   -0.0022364055780997104
-0.004258019280598641   -0.08   -0.0021980836990037143
-0.007280211986818154   -0.07872884846492542   -0.002283536510346753
-0.0045927434822604805   -0.08   -0.00251055642668356
-0.005399776524147741   -0.07933177513260355   -0.0022364055780997104
-0.007280211986818154   -0.07872884846492542   -0.002283536510346753
-0.006674660066546056   -0.07879924972403311   -0.002255298518506661
-0.006844988313158563   -0.07882804222097786   -0.0023700098162462518
-0.005399776524147741   -0.07933177513260355   -0.0022364055780997104
-0.007280211986818154   -0.07872884846492542   -0.002283536510346753
-0.006844988313158563   -0.07882804222097786   -0.0023700098162462518
-0.0045927434822604805   -0.08   -0.00251055642668356
-0.005399776524147741   -0.07933177513260355   -0.0022364055780997104
-0.006674660066546056   -0.07879924972403311   -0.002255298518506661
-0.004258019280598641   -0.08   -0.0021980836990037143
-0.005136270465087106   -0.07939010719773597   -0.0020333024756036895
-0.006674660066546056   -0.07879924972403311   -0.002255298518506661
-0.007280211986818154   -0.07872884846492542   -0.002283536510346753
-0.004258019280598641   -0.08   -0.0021980836990037143
-0.007049977961086109   -0.07876264770277654   -0.002059915293461859
-0.005136270465087106   -0.07939010719773597   -0.0020333024756036895
-0.00393081037637739   -0.08   -0.0018897414335388892
-0.007049977961086109   -0.07876264770277654   -0.002059915293461859
-0.004258019280598641   -0.08   -0.0021980836990037143
-0.005136270465087106   -0.07939010719773597   -0.0020333024756036895
-0.007049977961086109   -0.07876264770277654   -0.002059915293461859
-0.006499493173730343   -0.0788224697705051   -0.0021331129010349415
-0.006674660066546056   -0.07879924972403311   -0.002255298518506661
-0.005136270465087106   -0.07939010719773597   -0.0020333024756036895
-0.007049977961086109   -0.07876264770277654   -0.002059915293461859
-0.006674660066546056   -0.07879924972403311   -0.002255298518506661
-0.004258019280598641   -0.08   -0.0021980836990037143
-0.004925890637174144   -0.08   -0.002819366698106064
-0.007710412878723647   -0.07883373359903277   -0.002699013735459013
-0.0042120355450450024   -0.08   -0.0030337011723027296
-0.0045927434822604805   -0.08   -0.00251055642668356
-0.007710412878723647   -0.07883373359903277   -0.002699013735459013
-0.00911635079119332   -0.07844791245492938   -0.0029406049285999832
-0.0042120355450450024   -0.08   -0.0030337011723027296
-0.008623504987316512   -0.07837592447624289   -0.002612186930831413
-0.0045927434822604805   -0.08   -0.00251055642668356
-0.003515531487588808   -0.08   -0.0025869596198384807
-0.008623504987316512   -0.07837592447624289   -0.002612186930831413
-0.0042120355450450024   -0.08   -0.0030337011723027296
-0.0045927434822604805   -0.08   -0.00251055642668356
-0.008623504987316512   -0.07837592447624289   -0.002612186930831413
-0.007524931228862559   -0.07874829654964693   -0.0024988387987979503
-0.007710412878723647   -0.07883373359903277   -0.002699013735459013
-0.0045927434822604805   -0.08   -0.00251055642668356
-0.008623504987316512   -0.07837592447624289   -0.002612186930831413
-0.007710412878723647   -0.07883373359903277   -0.002699013735459013
-0.0042120355450450024   -0.08   -0.0030337011723027296
-0.0045927434822604805   -0.08   -0.00251055642668356
-0.007524931228862559   -0.07874829654964693   -0.0024988387987979503
-0.003515531487588808   -0.08   -0.0025869596198384807
-0.004258019280598641   -0.08   -0.0021980836990037143
-0.007524931228862559   -0.07874829654964693   -0.0024988387987979503
-0.008623504987316512   -0.07837592447624289   -0.002612186930831413
-0.003515531487588808   -0.08   -0.0025869596198384807
-0.008170622976379754   -0.07836602845794824   -0.002261613451056892
-0.004258019280598641   -0.08   -0.0021980836990037143
-0.002960079183293416   -0.08   -0.0021595947169002288
-0.008170622976379754   -0.07836602845794824   -0.002261613451056892
-0.003515531487588808   -0.08   -0.0025869596198384807
-0.004258019280598641   -0.08   -0.0021980836990037143
-0.008170622976379754   -0.07836602845794824   -0.002261613451056892
-0.007280211986818154   -0.07872884846492542   -0.002283536510346753
-0.007524931228862559   -0.07874829654964693   -0.0024988387987979503
-0.004258019280598641   -0.08   -0.0021980836990037143
-0.008170622976379754   -0.07836602845794824   -0.002261613451056892
-0.007524931228862559   -0.07874829654964693   -0.0024988387987979503
-0.003515531487588808   -0.08   -0.0025869596198384807
-0.004258019280598641   -0.08   -0.0021980836990037143
-0.007280211986818154   -0.07872884846492542   -0.002283536510346753
-0.002960079183293416   -0.08   -0.0021595947169002288
-0.00393081037637739   -0.08   -0.0018897414335388892
-0.007280211986818154   -0.07872884846492542   -0.002283536510346753
-0.008170622976379754   -0.07836602845794824   -0.002261613451056892
-0.002960079183293416   -0.08   -0.0021595947169002288
-0.007598691864163934   -0.07846051126438866   -0.0018949458355247142
-0.00393081037637739   -0.08   -0.0018897414335388892
-0.002273924005737336   -0.08   -0.0017159426889620216
-0.007598691864163934   -0.07846051126438866   -0.0018949458355247142
-0.002960079183293416   -0.08   -0.0021595947169002288
-0.00393081037637739   -0.08   -0.0018897414335388892
-0.007598691864163934   -0.07846051126438866   -0.0018949458355247142
-0.007049977961086109   -0.07876264770277654   -0.002059915293461859
-0.007280211986818154   -0.07872884846492542   -0.002283536510346753
-0.00393081037637739   -0.08   -0.0018897414335388892
-0.007598691864163934   -0.07846051126438866   -0.0018949458355247142
-0.007280211986818154   -0.07872884846492542   -0.002283536510346753
-0.002960079183293416   -0.08   -0.0021595947169002288
-0.005677305747135724   -0.07834837623202764   -0.001682730188432971
-0.002314706208651327   -0.07538727039177891   -0.0014540483201702986
-0.0060215160645289536   -0.07865189812502223   -0.0019875434166584374
-0.005282172501777173   -0.07821187234173836   -0.0019428551029169465
-0.002314706208651327   -0.07538727039177891   -0.0014540483201702986
-0.00432082276063563   -0.07561617211994746   -0.0017777964268815556
-0.0060215160645289536   -0.07865189812502223   -0.0019875434166584374
-0.004210833712679868   -0.07548753586363006   -0.0018768524089636564
-0.005282172501777173   -0.07821187234173836   -0.0019428551029169465
-0.005866638020098537   -0.0785455869816795   -0.0020986601422200287
-0.004210833712679868   -0.07548753586363006   -0.0018768524089636564
-0.0060215160645289536   -0.07865189812502223   -0.0019875434166584374
-0.005282172501777173   -0.07821187234173836   -0.0019428551029169465
-0.004210833712679868   -0.07548753586363006   -0.0018768524089636564
-0.0019997195124287106   -0.07522809812677396   -0.001678827598268691
-0.002314706208651327   -0.07538727039177891   -0.0014540483201702986
-0.005282172501777173   -0.07821187234173836   -0.0019428551029169465
-0.004210833712679868   -0.07548753586363006   -0.0018768524089636564
-0.002314706208651327   -0.07538727039177891   -0.0014540483201702986
-0.0060215160645289536   -0.07865189812502223   -0.0019875434166584374
-0.005282172501777173   -0.07821187234173836   -0.0019428551029169465
-0.0019997195124287106   -0.07522809812677396   -0.001678827598268691
-0.005866638020098537   -0.0785455869816795   -0.0020986601422200287
-0.004953260565640104   -0.07816982702533405   -0.0021923015040157465
-0.0019997195124287106   -0.07522809812677396   -0.001678827598268691
-0.004210833712679868   -0.07548753586363006   -0.0018768524089636564
-0.005866638020098537   -0.0785455869816795   -0.0020986601422200287
-0.00408702006474447   -0.0754162238148638   -0.001966971190846788
-0.004953260565640104   -0.07816982702533405   -0.0021923015040157465
-0.00568498202049246   -0.07850632066735076   -0.002201171873040268
-0.00408702006474447   -0.0754162238148638   -0.001966971190846788
-0.005866638020098537   -0.0785455869816795   -0.0020986601422200287
-0.004953260565640104   -0.07816982702533405   -0.0021923015040157465
-0.00408702006474447   -0.0754162238148638   -0.001966971190846788
-0.001751863500431779   -0.0751522459508881   -0.0018903591543830318
-0.0019997195124287106   -0.07522809812677396   -0.001678827598268691
-0.004953260565640104   -0.07816982702533405   -0.0021923015040157465
-0.00408702006474447   -0.0754162238148638   -0.001966971190846788
-0.0019997195124287106   -0.07522809812677396   -0.001678827598268691
-0.005866638020098537   -0.0785455869816795   -0.0020986601422200287
-0.004953260565640104   -0.07816982702533405   -0.0021923015040157465
-0.001751863500431779   -0.0751522459508881   -0.0018903591543830318
-0.00568498202049246   -0.07850632066735076   -0.002201171873040268
-0.004581142228358869   -0.07820519077371907   -0.0024299598625732916
-0.001751863500431779   -0.0751522459508881   -0.0018903591543830318
-0.00408702006474447   -0.0754162238148638   -0.001966971190846788
-0.00568498202049246   -0.07850632066735076   -0.002201171873040268
-0.003992088307883037   -0.07540024428409413   -0.0020484378481760235
-0.004581142228358869   -0.07820519077371907   -0.0024299598625732916
-0.005529363978324067   -0.0785346657890169   -0.0022945418714296244
-0.003992088307883037   -0.07540024428409413   -0.0020484378481760235
-0.00568498202049246   -0.07850632066735076   -0.002201171873040268
-0.004581142228358869   -0.07820519077371907   -0.0024299598625732916
-0.003992088307883037   -0.07540024428409413   -0.0020484378481760235
-0.0014812093337495586   -0.07513793058086932   -0.002088082404334372
-0.001751863500431779   -0.0751522459508881   -0.0018903591543830318
-0.004581142228358869   -0.07820519077371907   -0.0024299598625732916
-0.003992088307883037   -0.07540024428409413   -0.0020484378481760235
-0.001751863500431779   -0.0751522459508881   -0.0018903591543830318
-0.00568498202049246   -0.07850632066735076   -0.002201171873040268
-0.0060215160645289536   -0.07865189812502223   -0.0019875434166584374
-0.00432082276063563   -0.07561617211994746   -0.0017777964268815556
-0.006487473506437899   -0.07883959336768905   -0.0022312641080580067
-0.005866638020098537   -0.0785455869816795   -0.0020986601422200287
-0.00432082276063563   -0.07561617211994746   -0.0017777964268815556
-0.006300947998909241   -0.07569694365282265   -0.0020418851170768454
-0.006487473506437899   -0.07883959336768905   -0.0022312641080580067
-0.006208461832660024   -0.07558471745821542   -0.0020473512097399105
-0.005866638020098537   -0.0785455869816795   -0.0020986601422200287
-0.006350396067208392   -0.07874466554244812   -0.002234180597282996
-0.006208461832660024   -0.07558471745821542   -0.0020473512097399105
-0.006487473506437899   -0.07883959336768905   -0.0022312641080580067
-0.005866638020098537   -0.0785455869816795   -0.0020986601422200287
-0.006208461832660024   -0.07558471745821542   -0.0020473512097399105
-0.004210833712679868   -0.07548753586363006   -0.0018768524089636564
-0.00432082276063563   -0.07561617211994746   -0.0017777964268815556
-0.005866638020098537   -0.0785455869816795   -0.0020986601422200287
-0.006208461832660024   -0.07558471745821542   -0.0020473512097399105
-0.00432082276063563   -0.07561617211994746   -0.0017777964268815556
-0.006487473506437899   -0.07883959336768905   -0.0022312641080580067
-0.005866638020098537   -0.0785455869816795   -0.0020986601422200287
-0.004210833712679868   -0.07548753586363006   -0.0018768524089636564
-0.006350396067208392   -0.07874466554244812   -0.002234180597282996
-0.00568498202049246   -0.07850632066735076   -0.002201171873040268
-0.004210833712679868   -0.07548753586363006   -0.0018768524089636564
-0.006208461832660024   -0.07558471745821542   -0.0020473512097399105
-0.006350396067208392   -0.07874466554244812   -0.002234180597282996
-0.006112806973345732   -0.07552416723671748   -0.002044540611842659
-0.00568498202049246   -0.07850632066735076   -0.002201171873040268
-0.006197818183965975   -0.0787104614824841   -0.0022259408519726305
-0.006112806973345732   -0.07552416723671748   -0.002044540611842659
-0.006350396067208392   -0.07874466554244812   -0.002234180597282996
-0.00568498202049246   -0.07850632066735076   -0.002201171873040268
-0.006112806973345732   -0.07552416723671748   -0.002044540611842659
-0.00408702006474447   -0.0754162238148638   -0.001966971190846788
-0.004210833712679868   -0.07548753586363006   -0.0018768524089636564
-0.00568498202049246   -0.07850632066735076   -0.002201171873040268
-0.006112806973345732   -0.07552416723671748   -0.002044540611842659
-0.004210833712679868   -0.07548753586363006   -0.0018768524089636564
-0.006350396067208392   -0.07874466554244812   -0.002234180597282996
-0.00568498202049246   -0.07850632066735076   -0.002201171873040268
-0.00408702006474447   -0.0754162238148638   -0.001966971190846788
-0.006197818183965975   -0.0787104614824841   -0.0022259408519726305
-0.005529363978324067   -0.0785346657890169   -0.0022945418714296244
-0.00408702006474447   -0.0754162238148638   -0.001966971190846788
-0.006112806973345732   -0.07552416723671748   -0.002044540611842659
-0.006197818183965975   -0.0787104614824841   -0.0022259408519726305
-0.006020555827330277   -0.0755127997625962   -0.0020333748223336973
-0.005529363978324067   -0.0785346657890169   -0.0022945418714296244
-0.006042684822236144   -0.07873420434352246   -0.0022089470352008142
-0.006020555827330277   -0.0755127997625962   -0.0020333748223336973
-0.006197818183965975   -0.0787104614824841   -0.0022259408519726305
-0.005529363978324067   -0.0785346657890169   -0.0022945418714296244
-0.006020555827330277   -0.0755127997625962   -0.0020333748223336973
-0.003992088307883037   -0.07540024428409413   -0.0020484378481760235
-0.00408702006474447   -0.0754162238148638   -0.001966971190846788
-0.005529363978324067   -0.0785346657890169   -0.0022945418714296244
-0.006020555827330277   -0.0755127997625962   -0.0020333748223336973
-0.00408702006474447   -0.0754162238148638   -0.001966971190846788
-0.006197818183965975   -0.0787104614824841   -0.0022259408519726305
-0.006487473506437899   -0.07883959336768905   -0.0022312641080580067
-0.006300947998909241   -0.07569694365282265   -0.0020418851170768454
-0.006986985364890863   -0.07891855167181017   -0.0024711341113799836
-0.006350396067208392   -0.07874466554244812   -0.002234180597282996
-0.006300947998909241   -0.07569694365282265   -0.0020418851170768454
-0.008267350775970867   -0.07562516798791612   -0.002289041081998461
-0.006986985364890863   -0.07891855167181017   -0.0024711341113799836
-0.008175595193881016   -0.07552550158116608   -0.0022047692941855853
-0.006350396067208392   -0.07874466554244812   -0.002234180597282996
-0.006844988313158563   -0.07882804222097786   -0.0023700098162462518
-0.008175595193881016   -0.07552550158116608   -0.0022047692941855853
-0.006986985364890863   -0.07891855167181017   -0.0024711341113799836
-0.006350396067208392   -0.07874466554244812   -0.002234180597282996
-0.008175595193881016   -0.07552550158116608   -0.0022047692941855853
-0.006208461832660024   -0.07558471745821542   -0.0020473512097399105
-0.006300947998909241   -0.07569694365282265   -0.0020418851170768454
-0.006350396067208392   -0.07874466554244812   -0.002234180597282996
-0.008175595193881016   -0.07552550158116608   -0.0022047692941855853
-0.006300947998909241   -0.07569694365282265   -0.0020418851170768454
-0.006986985364890863   -0.07891855167181017   -0.0024711341113799836
-0.006350396067208392   -0.07874466554244812   -0.002234180597282996
-0.006208461832660024   -0.07558471745821542   -0.0020473512097399105
-0.006844988313158563   -0.07882804222097786   -0.0023700098162462518
-0.006197818183965975   -0.0787104614824841   -0.0022259408519726305
-0.006208461832660024   -0.07558471745821542   -0.0020473512097399105
-0.008175595193881016   -0.07552550158116608   -0.0022047692941855853
-0.006844988313158563   -0.07882804222097786   -0.0023700098162462518
-0.008072624394535382   -0.07547664308290415   -0.002112342963814779
-0.006197818183965975   -0.0787104614824841   -0.0022259408519726305
-0.006674660066546056   -0.07879924972403311   -0.002255298518506661
-0.008072624394535382   -0.07547664308290415   -0.002112342963814779
-0.006844988313158563   -0.07882804222097786   -0.0023700098162462518
-0.006197818183965975   -0.0787104614824841   -0.0022259408519726305
-0.008072624394535382   -0.07547664308290415   -0.002112342963814779
-0.006112806973345732   -0.07552416723671748   -0.002044540611842659
-0.006208461832660024   -0.07558471745821542   -0.0020473512097399105
-0.006197818183965975   -0.0787104614824841   -0.0022259408519726305
-0.008072624394535382   -0.07547664308290415   -0.002112342963814779
-0.006208461832660024   -0.07558471745821542   -0.0020473512097399105
-0.006844988313158563   -0.07882804222097786   -0.0023700098162462518
-0.006197818183965975   -0.0787104614824841   -0.0022259408519726305
-0.006112806973345732   -0.07552416723671748   -0.002044540611842659
-0.006674660066546056   -0.07879924972403311   -0.002255298518506661
-0.006042684822236144   -0.07873420434352246   -0.0022089470352008142
-0.006112806973345732   -0.07552416723671748   -0.002044540611842659
-0.008072624394535382   -0.07547664308290415   -0.002112342963814779
-0.006674660066546056   -0.07879924972403311   -0.002255298518506661
-0.007969222032871544   -0.07547369703547382   -0.002010768499385409
-0.006042684822236144   -0.07873420434352246   -0.0022089470352008142
-0.006499493173730343   -0.0788224697705051   -0.0021331129010349415
-0.007969222032871544   -0.07547369703547382   -0.002010768499385409
-0.006674660066546056   -0.07879924972403311   -0.002255298518506661
-0.006042684822236144   -0.07873420434352246   -0.0022089470352008142
-0.007969222032871544   -0.07547369703547382   -0.002010768499385409
-0.006020555827330277   -0.0755127997625962   -0.0020333748223336973
-0.006112806973345732   -0.07552416723671748   -0.002044540611842659
-0.006042684822236144   -0.07873420434352246   -0.0022089470352008142
-0.007969222032871544   -0.07547369703547382   -0.002010768499385409
-0.006112806973345732   -0.07552416723671748   -0.002044540611842659
-0.006674660066546056   -0.07879924972403311   -0.002255298518506661
-0.006986985364890863   -0.07891855167181017   -0.0024711341113799836
-0.008267350775970867   -0.07562516798791612   -0.002289041081998461
-0.007710412878723647   -0.07883373359903277   -0.002699013735459013
-0.006844988313158563   -0.07882804222097786   -0.0023700098162462518
-0.008267350775970867   -0.07562516798791612   -0.002289041081998461
-0.010427836908589583   -0.07539133389874392   -0.0025160423391471036
-0.007710412878723647   -0.07883373359903277   -0.002699013735459013
-0.010315530322965498   -0.0753042587602239   -0.0023440369939462715
-0.006844988313158563   -0.07882804222097786   -0.0023700098162462518
-0.007524931228862559   -0.07874829654964693   -0.0024988387987979503
-0.010315530322965498   -0.0753042587602239   -0.0023440369939462715
-0.007710412878723647   -0.07883373359903277   -0.002699013735459013
-0.006844988313158563   -0.07882804222097786   -0.0023700098162462518
-0.010315530322965498   -0.0753042587602239   -0.0023440369939462715
-0.008175595193881016   -0.07552550158116608   -0.0022047692941855853
-0.008267350775970867   -0.07562516798791612   -0.002289041081998461
-0.006844988313158563   -0.07882804222097786   -0.0023700098162462518
-0.010315530322965498   -0.0753042587602239   -0.0023440369939462715
-0.008267350775970867   -0.07562516798791612   -0.002289041081998461
-0.007710412878723647   -0.07883373359903277   -0.002699013735459013
-0.006844988313158563   -0.07882804222097786   -0.0023700098162462518
-0.008175595193881016   -0.07552550158116608   -0.0022047692941855853
-0.007524931228862559   -0.07874829654964693   -0.0024988387987979503
-0.006674660066546056   -0.07879924972403311   -0.002255298518506661
-0.008175595193881016   -0.07552550158116608   -0.0022047692941855853
-0.010315530322965498   -0.0753042587602239   -0.0023440369939462715
-0.007524931228862559   -0.07874829654964693   -0.0024988387987979503
-0.010160486862298689   -0.0752670453590691   -0.002164474160588874
-0.006674660066546056   -0.07879924972403311   -0.002255298518506661
-0.007280211986818154   -0.07872884846492542   -0.002283536510346753
-0.010160486862298689   -0.0752670453590691   -0.002164474160588874
-0.007524931228862559   -0.07874829654964693   -0.0024988387987979503
-0.006674660066546056   -0.07879924972403311   -0.002255298518506661
-0.010160486862298689   -0.0752670453590691   -0.002164474160588874
-0.008072624394535382   -0.07547664308290415   -0.002112342963814779
-0.008175595193881016   -0.07552550158116608   -0.0022047692941855853
-0.006674660066546056   -0.07879924972403311   -0.002255298518506661
-0.010160486862298689   -0.0752670453590691   -0.002164474160588874
-0.008175595193881016   -0.07552550158116608   -0.0022047692941855853
-0.007524931228862559   -0.07874829654964693   -0.0024988387987979503
-0.006674660066546056   -0.07879924972403311   -0.002255298518506661
-0.008072624394535382   -0.07547664308290415   -0.002112342963814779
-0.007280211986818154   -0.07872884846492542   -0.002283536510346753
-0.006499493173730343   -0.0788224697705051   -0.0021331129010349415
-0.008072624394535382   -0.07547664308290415   -0.002112342963814779
-0.010160486862298689   -0.0752670453590691   -0.002164474160588874
-0.007280211986818154   -0.07872884846492542   -0.002283536510346753
-0.01002513797872024   -0.07527975400366624   -0.001972346680964044
-0.006499493173730343   -0.0788224697705051   -0.0021331129010349415
-0.007049977961086109   -0.07876264770277654   -0.002059915293461859
-0.01002513797872024   -0.07527975400366624   -0.001972346680964044
-0.007280211986818154   -0.07872884846492542   -0.002283536510346753
-0.006499493173730343   -0.0788224697705051   -0.0021331129010349415
-0.01002513797872024   -0.07527975400366624   -0.001972346680964044
-0.007969222032871544   -0.07547369703547382   -0.002010768499385409
-0.008072624394535382   -0.07547664308290415   -0.002112342963814779
-0.006499493173730343   -0.0788224697705051   -0.0021331129010349415
-0.01002513797872024   -0.07527975400366624   -0.001972346680964044
-0.008072624394535382   -0.07547664308290415   -0.002112342963814779
-0.007280211986818154   -0.07872884846492542   -0.002283536510346753
-0.007710412878723647   -0.07883373359903277   -0.002699013735459013
-0.010427836908589583   -0.07539133389874392   -0.0025160423391471036
-0.00911635079119332   -0.07844791245492938   -0.0029406049285999832
-0.007524931228862559   -0.07874829654964693   -0.0024988387987979503
-0.010427836908589583   -0.07539133389874392   -0.0025160423391471036
-0.013210042731156484   -0.07501104386259283   -0.002733846334965657
-0.00911635079119332   -0.07844791245492938   -0.0029406049285999832
-0.012848553480127955   -0.07491667314403595   -0.002462287231024041
-0.007524931228862559   -0.07874829654964693   -0.0024988387987979503
-0.008623504987316512   -0.07837592447624289   -0.002612186930831413
-0.012848553480127955   -0.07491667314403595   -0.002462287231024041
-0.00911635079119332   -0.07844791245492938   -0.0029406049285999832
-0.007524931228862559   -0.07874829654964693   -0.0024988387987979503
-0.012848553480127955   -0.07491667314403595   -0.002462287231024041
-0.010315530322965498   -0.0753042587602239   -0.0023440369939462715
-0.010427836908589583   -0.07539133389874392   -0.0025160423391471036
-0.007524931228862559   -0.07874829654964693   -0.0024988387987979503
-0.012848553480127955   -0.07491667314403595   -0.002462287231024041
-0.010427836908589583   -0.07539133389874392   -0.0025160423391471036
-0.00911635079119332   -0.07844791245492938   -0.0029406049285999832
-0.007524931228862559   -0.07874829654964693   -0.0024988387987979503
-0.010315530322965498   -0.0753042587602239   -0.0023440369939462715
-0.008623504987316512   -0.07837592447624289   -0.002612186930831413
-0.007280211986818154   -0.07872884846492542   -0.002283536510346753
-0.010315530322965498   -0.0753042587602239   -0.0023440369939462715
-0.012848553480127955   -0.07491667314403595   -0.002462287231024041
-0.008623504987316512   -0.07837592447624289   -0.002612186930831413
-0.01252448634255451   -0.0748822518856804   -0.0021748827823928874
-0.007280211986818154   -0.07872884846492542   -0.002283536510346753
-0.008170622976379754   -0.07836602845794824   -0.002261613451056892
-0.01252448634255451   -0.0748822518856804   -0.0021748827823928874
-0.008623504987316512   -0.07837592447624289   -0.002612186930831413
-0.007280211986818154   -0.07872884846492542   -0.002283536510346753
-0.01252448634255451   -0.0748822518856804   -0.0021748827823928874
-0.010160486862298689   -0.0752670453590691   -0.002164474160588874
-0.010315530322965498   -0.0753042587602239   -0.0023440369939462715
-0.007280211986818154   -0.07872884846492542   -0.002283536510346753
-0.01252448634255451   -0.0748822518856804   -0.0021748827823928874
-0.010315530322965498   -0.0753042587602239   -0.0023440369939462715
-0.008623504987316512   -0.07837592447624289   -0.002612186930831413
-0.007280211986818154   -0.07872884846492542   -0.002283536510346753
-0.010160486862298689   -0.0752670453590691   -0.002164474160588874
-0.008170622976379754   -0.07836602845794824   -0.002261613451056892
-0.007049977961086109   -0.07876264770277654   -0.002059915293461859
-0.010160486862298689   -0.0752670453590691   -0.002164474160588874
-0.01252448634255451   -0.0748822518856804   -0.0021748827823928874
-0.008170622976379754   -0.07836602845794824   -0.002261613451056892
-0.012104473517597672   -0.07492552499638944   -0.0018743656658029382
-0.007049977961086109   -0.07876264770277654   -0.002059915293461859
-0.007598691864163934   -0.07846051126438866   -0.0018949458355247142
-0.012104473517597672   -0.07492552499638944   -0.0018743656658029382
-0.008170622976379754   -0.07836602845794824   -0.002261613451056892
-0.007049977961086109   -0.07876264770277654   -0.002059915293461859
-0.012104473517597672   -0.07492552499638944   -0.0018743656658029382
-0.01002513797872024   -0.07527975400366624   -0.001972346680964044
-0.010160486862298689   -0.0752670453590691   -0.002164474160588874
-0.007049977961086109   -0.07876264770277654   -0.002059915293461859
-0.012104473517597672   -0.07492552499638944   -0.0018743656658029382
-0.010160486862298689   -0.0752670453590691   -0.002164474160588874
-0.008170622976379754   -0.07836602845794824   -0.002261613451056892
-0.002314706208651327   -0.07538727039177891   -0.0014540483201702986
0.00041227865559740847   -0.06993932150204626   -0.0012028476708771268
-0.00432082276063563   -0.07561617211994746   -0.0017777964268815556
-0.0019997195124287106   -0.07522809812677396   -0.001678827598268691
0.00041227865559740847   -0.06993932150204626   -0.0012028476708771268
-0.002970684391103089   -0.07010713266824019   -0.0015206726018508236
-0.00432082276063563   -0.07561617211994746   -0.0017777964268815556
-0.0029124032414877764   -0.0699723259972572   -0.0015992373193883718
-0.0019997195124287106   -0.07522809812677396   -0.001678827598268691
-0.004210833712679868   -0.07548753586363006   -0.0018768524089636564
-0.0029124032414877764   -0.0699723259972572   -0.0015992373193883718
-0.00432082276063563   -0.07561617211994746   -0.0017777964268815556
-0.0019997195124287106   -0.07522809812677396   -0.001678827598268691
-0.0029124032414877764   -0.0699723259972572   -0.0015992373193883718
0.0006321673917815921   -0.06977761386730988   -0.0013817865555572821
0.00041227865559740847   -0.06993932150204626   -0.0012028476708771268
-0.0019997195124287106   -0.07522809812677396   -0.001678827598268691
-0.0029124032414877764   -0.0699723259972572   -0.0015992373193883718
0.00041227865559740847   -0.06993932150204626   -0.0012028476708771268
-0.00432082276063563   -0.07561617211994746   -0.0017777964268815556
-0.0019997195124287106   -0.07522809812677396   -0.001678827598268691
0.0006321673917815921   -0.06977761386730988   -0.0013817865555572821
-0.004210833712679868   -0.07548753586363006   -0.0018768524089636564
-0.001751863500431779   -0.0751522459508881   -0.0018903591543830318
0.0006321673917815921   -0.06977761386730988   -0.0013817865555572821
-0.0029124032414877764   -0.0699723259972572   -0.0015992373193883718
-0.004210833712679868   -0.07548753586363006   -0.0018768524089636564
-0.0028460459001218956   -0.06988425211467228   -0.001668643220402895
-0.001751863500431779   -0.0751522459508881   -0.0018903591543830318
-0.00408702006474447   -0.0754162238148638   -0.001966971190846788
-0.0028460459001218956   -0.06988425211467228   -0.001668643220402895
-0.004210833712679868   -0.07548753586363006   -0.0018768524089636564
-0.001751863500431779   -0.0751522459508881   -0.0018903591543830318
-0.0028460459001218956   -0.06988425211467228   -0.001668643220402895
0.0007939113681517804   -0.06968413454165695   -0.0015479061814402035
0.0006321673917815921   -0.06977761386730988   -0.0013817865555572821
-0.001751863500431779   -0.0751522459508881   -0.0018903591543830318
-0.0028460459001218956   -0.06988425211467228   -0.001668643220402895
0.0006321673917815921   -0.06977761386730988   -0.0013817865555572821
-0.004210833712679868   -0.07548753586363006   -0.0018768524089636564
-0.001751863500431779   -0.0751522459508881   -0.0018903591543830318
0.0007939113681517804   -0.06968413454165695   -0.0015479061814402035
-0.00408702006474447   -0.0754162238148638   -0.001966971190846788
-0.0014812093337495586   -0.07513793058086932   -0.002088082404334372
0.0007939113681517804   -0.06968413454165695   -0.0015479061814402035
-0.0028460459001218956   -0.06988425211467228   -0.001668643220402895
-0.00408702006474447   -0.0754162238148638   -0.001966971190846788
-0.002806374658237829   -0.0698403058219357   -0.0017297945228323184
-0.0014812093337495586   -0.07513793058086932   -0.002088082404334372
-0.003992088307883037   -0.07540024428409413   -0.0020484378481760235
-0.002806374658237829   -0.0698403058219357   -0.0017297945228323184
-0.00408702006474447   -0.0754162238148638   -0.001966971190846788
-0.0014812093337495586   -0.07513793058086932   -0.002088082404334372
-0.002806374658237829   -0.0698403058219357   -0.0017297945228323184
0.0009670385312207003   -0.06963799738432333   -0.001701143451635221
0.0007939113681517804   -0.06968413454165695   -0.0015479061814402035
-0.0014812093337495586   -0.07513793058086932   -0.002088082404334372
-0.002806374658237829   -0.0698403058219357   -0.0017297945228323184
0.0007939113681517804   -0.06968413454165695   -0.0015479061814402035
-0.00408702006474447   -0.0754162238148638   -0.001966971190846788
-0.00432082276063563   -0.07561617211994746   -0.0017777964268815556
-0.002970684391103089   -0.07010713266824019   -0.0015206726018508236
-0.006300947998909241   -0.07569694365282265   -0.0020418851170768454
-0.004210833712679868   -0.07548753586363006   -0.0018768524089636564
-0.002970684391103089   -0.07010713266824019   -0.0015206726018508236
-0.0062431867905036065   -0.07013922740593966   -0.0017825824070688402
-0.006300947998909241   -0.07569694365282265   -0.0020418851170768454
-0.006200337611120431   -0.07002349737934445   -0.0017846118575099742
-0.004210833712679868   -0.07548753586363006   -0.0018768524089636564
-0.006208461832660024   -0.07558471745821542   -0.0020473512097399105
-0.006200337611120431   -0.07002349737934445   -0.0017846118575099742
-0.006300947998909241   -0.07569694365282265   -0.0020418851170768454
-0.004210833712679868   -0.07548753586363006   -0.0018768524089636564
-0.006200337611120431   -0.07002349737934445   -0.0017846118575099742
-0.0029124032414877764   -0.0699723259972572   -0.0015992373193883718
-0.002970684391103089   -0.07010713266824019   -0.0015206726018508236
-0.004210833712679868   -0.07548753586363006   -0.0018768524089636564
-0.006200337611120431   -0.07002349737934445   -0.0017846118575099742
-0.002970684391103089   -0.07010713266824019   -0.0015206726018508236
-0.006300947998909241   -0.07569694365282265   -0.0020418851170768454
-0.004210833712679868   -0.07548753586363006   -0.0018768524089636564
-0.0029124032414877764   -0.0699723259972572   -0.0015992373193883718
-0.006208461832660024   -0.07558471745821542   -0.0020473512097399105
-0.00408702006474447   -0.0754162238148638   -0.001966971190846788
-0.0029124032414877764   -0.0699723259972572   -0.0015992373193883718
-0.006200337611120431   -0.07002349737934445   -0.0017846118575099742
-0.006208461832660024   -0.07558471745821542   -0.0020473512097399105
-0.006156277160128519   -0.06994959632793585   -0.001777866848312494
-0.00408702006474447   -0.0754162238148638   -0.001966971190846788
-0.006112806973345732   -0.07552416723671748   -0.002044540611842659
-0.006156277160128519   -0.06994959632793585   -0.001777866848312494
-0.006208461832660024   -0.07558471745821542   -0.0020473512097399105
-0.00408702006474447   -0.0754162238148638   -0.001966971190846788
-0.006156277160128519   -0.06994959632793585   -0.001777866848312494
-0.0028460459001218956   -0.06988425211467228   -0.001668643220402895
-0.0029124032414877764   -0.0699723259972572   -0.0015992373193883718
-0.00408702006474447   -0.0754162238148638   -0.001966971190846788
-0.006156277160128519   -0.06994959632793585   -0.001777866848312494
-0.0029124032414877764   -0.0699723259972572   -0.0015992373193883718
-0.006208461832660024   -0.07558471745821542   -0.0020473512097399105
-0.00408702006474447   -0.0754162238148638   -0.001966971190846788
-0.0028460459001218956   -0.06988425211467228   -0.001668643220402895
-0.006112806973345732   -0.07552416723671748   -0.002044540611842659
-0.003992088307883037   -0.07540024428409413   -0.0020484378481760235
-0.0028460459001218956   -0.06988425211467228   -0.001668643220402895
-0.006156277160128519   -0.06994959632793585   -0.001777866848312494
-0.006112806973345732   -0.07552416723671748   -0.002044540611842659
-0.006117739375563739   -0.06991683244830903   -0.0017629307185406595
-0.003992088307883037   -0.07540024428409413   -0.0020484378481760235
-0.006020555827330277   -0.0755127997625962   -0.0020333748223336973
-0.006117739375563739   -0.06991683244830903   -0.0017629307185406595
-0.006112806973345732   -0.07552416723671748   -0.002044540611842659
-0.003992088307883037   -0.07540024428409413   -0.0020484378481760235
-0.006117739375563739   -0.06991683244830903   -0.0017629307185406595
-0.002806374658237829   -0.0698403058219357   -0.0017297945228323184
-0.0028460459001218956   -0.06988425211467228   -0.001668643220402895
-0.003992088307883037   -0.07540024428409413   -0.0020484378481760235
-0.006117739375563739   -0.06991683244830903   -0.0017629307185406595
-0.0028460459001218956   -0.06988425211467228   -0.001668643220402895
-0.006112806973345732   -0.07552416723671748   -0.002044540611842659
-0.006300947998909241   -0.07569694365282265   -0.0020418851170768454
-0.0062431867905036065   -0.07013922740593966   -0.0017825824070688402
-0.008267350775970867   -0.07562516798791612   -0.002289041081998461
-0.006208461832660024   -0.07558471745821542   -0.0020473512097399105
-0.0062431867905036065   -0.07013922740593966   -0.0017825824070688402
-0.00946421125879885   -0.07003502926828305   -0.002019003486880024
-0.008267350775970867   -0.07562516798791612   -0.002289041081998461
-0.009424318010445413   -0.0699351753922276   -0.0019463439019279762
-0.006208461832660024   -0.07558471745821542   -0.0020473512097399105
-0.008175595193881016   -0.07552550158116608   -0.0022047692941855853
-0.009424318010445413   -0.0699351753922276   -0.0019463439019279762
-0.008267350775970867   -0.07562516798791612   -0.002289041081998461
-0.006208461832660024   -0.07558471745821542   -0.0020473512097399105
-0.009424318010445413   -0.0699351753922276   -0.0019463439019279762
-0.006200337611120431   -0.07002349737934445   -0.0017846118575099742
-0.0062431867905036065   -0.07013922740593966   -0.0017825824070688402
-0.006208461832660024   -0.07558471745821542   -0.0020473512097399105
-0.009424318010445413   -0.0699351753922276   -0.0019463439019279762
-0.0062431867905036065   -0.07013922740593966   -0.0017825824070688402
-0.008267350775970867   -0.07562516798791612   -0.002289041081998461
-0.006208461832660024   -0.07558471745821542   -0.0020473512097399105
-0.006200337611120431   -0.07002349737934445   -0.0017846118575099742
-0.008175595193881016   -0.07552550158116608   -0.0022047692941855853
-0.006112806973345732   -0.07552416723671748   -0.002044540611842659
-0.006200337611120431   -0.07002349737934445   -0.0017846118575099742
-0.009424318010445413   -0.0699351753922276   -0.0019463439019279762
-0.008175595193881016   -0.07552550158116608   -0.0022047692941855853
-0.009376113262604601   -0.06987669016043051   -0.0018650997335013391
-0.006112806973345732   -0.07552416723671748   -0.002044540611842659
-0.008072624394535382   -0.07547664308290415   -0.002112342963814779
-0.009376113262604601   -0.06987669016043051   -0.0018650997335013391
-0.008175595193881016   -0.07552550158116608   -0.0022047692941855853
-0.006112806973345732   -0.07552416723671748   -0.002044540611842659
-0.009376113262604601   -0.06987669016043051   -0.0018650997335013391
-0.006156277160128519   -0.06994959632793585   -0.001777866848312494
-0.006200337611120431   -0.07002349737934445   -0.0017846118575099742
-0.006112806973345732   -0.07552416723671748   -0.002044540611842659
-0.009376113262604601   -0.06987669016043051   -0.0018650997335013391
-0.006200337611120431   -0.07002349737934445   -0.0017846118575099742
-0.008175595193881016   -0.07552550158116608   -0.0022047692941855853
-0.006112806973345732   -0.07552416723671748   -0.002044540611842659
-0.006156277160128519   -0.06994959632793585   -0.001777866848312494
-0.008072624394535382   -0.07547664308290415   -0.002112342963814779
-0.006020555827330277   -0.0755127997625962   -0.0020333748223336973
-0.006156277160128519   -0.06994959632793585   -0.001777866848312494
-0.009376113262604601   -0.06987669016043051   -0.0018650997335013391
-0.008072624394535382   -0.07547664308290415   -0.002112342963814779
-0.009329225305747695   -0.06985764832695049   -0.0017755354639297039
-0.006020555827330277   -0.0755127997625962   -0.0020333748223336973
-0.007969222032871544   -0.07547369703547382   -0.002010768499385409
-0.009329225305747695   -0.06985764832695049   -0.0017755354639297039
-0.008072624394535382   -0.07547664308290415   -0.002112342963814779
-0.006020555827330277   -0.0755127997625962   -0.0020333748223336973
-0.009329225305747695   -0.06985764832695049   -0.0017755354639297039
-0.006117739375563739   -0.06991683244830903   -0.0017629307185406595
-0.006156277160128519   -0.06994959632793585   -0.001777866848312494
-0.006020555827330277   -0.0755127997625962   -0.0020333748223336973
-0.009329225305747695   -0.06985764832695049   -0.0017755354639297039
-0.006156277160128519   -0.06994959632793585   -0.001777866848312494
-0.008072624394535382   -0.07547664308290415   -0.002112342963814779
-0.008267350775970867   -0.07562516798791612   -0.002289041081998461
-0.00946421125879885   -0.07003502926828305   -0.002019003486880024
-0.010427836908589583   -0.07539133389874392   -0.0025160423391471036
-0.008175595193881016   -0.07552550158116608   -0.0022047692941855853
-0.00946421125879885   -0.07003502926828305   -0.002019003486880024
-0.012839769532690583   -0.06979823607802471   -0.0022290212565374105
-0.010427836908589583   -0.07539133389874392   -0.0025160423391471036
-0.012787672057027376   -0.06971354476550877   -0.0020815810065774286
-0.008175595193881016   -0.07552550158116608   -0.0022047692941855853
-0.010315530322965498   -0.0753042587602239   -0.0023440369939462715
-0.012787672057027376   -0.06971354476550877   -0.0020815810065774286
-0.010427836908589583   -0.07539133389874392   -0.0025160423391471036
-0.008175595193881016   -0.07552550158116608   -0.0022047692941855853
-0.012787672057027376   -0.06971354476550877   -0.0020815810065774286
-0.009424318010445413   -0.0699351753922276   -0.0019463439019279762
-0.00946421125879885   -0.07003502926828305   -0.002019003486880024
-0.008175595193881016   -0.07552550158116608   -0.0022047692941855853
-0.012787672057027376   -0.06971354476550877   -0.0020815810065774286
-0.00946421125879885   -0.07003502926828305   -0.002019003486880024
-0.010427836908589583   -0.07539133389874392   -0.0025160423391471036
-0.008175595193881016   -0.07552550158116608   -0.0022047692941855853
-0.009424318010445413   -0.0699351753922276   -0.0019463439019279762
-0.010315530322965498   -0.0753042587602239   -0.0023440369939462715
-0.008072624394535382   -0.07547664308290415   -0.002112342963814779
-0.009424318010445413   -0.0699351753922276   -0.0019463439019279762
-0.012787672057027376   -0.06971354476550877   -0.0020815810065774286
-0.010315530322965498   -0.0753042587602239   -0.0023440369939462715
-0.012699360877167337   -0.06966903595564793   -0.001926874616313876
-0.008072624394535382   -0.07547664308290415   -0.002112342963814779
-0.010160486862298689   -0.0752670453590691   -0.002164474160588874
-0.012699360877167337   -0.06966903595564793   -0.001926874616313876
-0.010315530322965498   -0.0753042587602239   -0.0023440369939462715
-0.008072624394535382   -0.07547664308290415   -0.002112342963814779
-0.012699360877167337   -0.06966903595564793   -0.001926874616313876
-0.009376113262604601   -0.06987669016043051   -0.0018650997335013391
-0.009424318010445413   -0.0699351753922276   -0.0019463439019279762
-0.008072624394535382   -0.07547664308290415   -0.002112342963814779
-0.012699360877167337   -0.06966903595564793   -0.001926874616313876
-0.009424318010445413   -0.0699351753922276   -0.0019463439019279762
-0.010315530322965498   -0.0753042587602239   -0.0023440369939462715
-0.008072624394535382   -0.07547664308290415   -0.002112342963814779
-0.009376113262604601   -0.06987669016043051   -0.0018650997335013391
-0.010160486862298689   -0.0752670453590691   -0.002164474160588874
-0.007969222032871544   -0.07547369703547382   -0.002010768499385409
-0.009376113262604601   -0.06987669016043051   -0.0018650997335013391
-0.012699360877167337   -0.06966903595564793   -0.001926874616313876
-0.010160486862298689   -0.0752670453590691   -0.002164474160588874
-0.012627611693906204   -0.0696670609882682   -0.0017626379904239354
-0.007969222032871544   -0.07547369703547382   -0.002010768499385409
-0.01002513797872024   -0.07527975400366624   -0.001972346680964044
-0.012627611693906204   -0.0696670609882682   -0.0017626379904239354
-0.010160486862298689   -0.0752670453590691   -0.002164474160588874
-0.007969222032871544   -0.07547369703547382   -0.002010768499385409
-0.012627611693906204   -0.0696670609882682   -0.0017626379904239354
-0.009329225305747695   -0.06985764832695049   -0.0017755354639297039
-0.009376113262604601   -0.06987669016043051   -0.0018650997335013391
-0.007969222032871544   -0.07547369703547382   -0.002010768499385409
-0.012627611693906204   -0.0696670609882682   -0.0017626379904239354
-0.009376113262604601   -0.06987669016043051   -0.0018650997335013391
-0.010160486862298689   -0.0752670453590691   -0.002164474160588874
-0.010427836908589583   -0.07539133389874392   -0.0025160423391471036
-0.012839769532690583   -0.06979823607802471   -0.0022290212565374105
-0.013210042731156484   -0.07501104386259283   -0.002733846334965657
-0.010315530322965498   -0.0753042587602239   -0.0023440369939462715
-0.012839769532690583   -0.06979823607802471   -0.0022290212565374105
-0.016776475547548485   -0.06945733444823313   -0.0024247805637426915
-0.013210042731156484   -0.07501104386259283   -0.002733846334965657
-0.016509801219376476   -0.0693690355083381   -0.00219401285915951
-0.010315530322965498   -0.0753042587602239   -0.0023440369939462715
-0.012848553480127955   -0.07491667314403595   -0.002462287231024041
-0.016509801219376476   -0.0693690355083381   -0.00219401285915951
-0.013210042731156484   -0.07501104386259283   -0.002733846334965657
-0.010315530322965498   -0.0753042587602239   -0.0023440369939462715
-0.016509801219376476   -0.0693690355083381   -0.00219401285915951
-0.012787672057027376   -0.06971354476550877   -0.0020815810065774286
-0.012839769532690583   -0.06979823607802471   -0.0022290212565374105
-0.010315530322965498   -0.0753042587602239   -0.0023440369939462715
-0.016509801219376476   -0.0693690355083381   -0.00219401285915951
-0.012839769532690583   -0.06979823607802471   -0.0022290212565374105
-0.013210042731156484   -0.07501104386259283   -0.002733846334965657
-0.010315530322965498   -0.0753042587602239   -0.0023440369939462715
-0.012787672057027376   -0.06971354476550877   -0.0020815810065774286
-0.012848553480127955   -0.07491667314403595   -0.002462287231024041
-0.010160486862298689   -0.0752670453590691   -0.002164474160588874
-0.012787672057027376   -0.06971354476550877   -0.0020815810065774286
-0.016509801219376476   -0.0693690355083381   -0.00219401285915951
-0.012848553480127955   -0.07491667314403595   -0.002462287231024041
-0.016278318270500112   -0.06932832073236776   -0.0019512669718682765
-0.010160486862298689   -0.0752670453590691   -0.002164474160588874
-0.01252448634255451   -0.0748822518856804   -0.0021748827823928874
-0.016278318270500112   -0.06932832073236776   -0.0019512669718682765
-0.012848553480127955   -0.07491667314403595   -0.002462287231024041
-0.010160486862298689   -0.0752670453590691   -0.002164474160588874
-0.016278318270500112   -0.06932832073236776   -0.0019512669718682765
-0.012699360877167337   -0.06966903595564793   -0.001926874616313876
-0.012787672057027376   -0.06971354476550877   -0.0020815810065774286
-0.010160486862298689   -0.0752670453590691   -0.002164474160588874
-0.016278318270500112   -0.06932832073236776   -0.0019512669718682765
-0.012787672057027376   -0.06971354476550877   -0.0020815810065774286
-0.012848553480127955   -0.07491667314403595   -0.002462287231024041
-0.010160486862298689   -0.0752670453590691   -0.002164474160588874
-0.012699360877167337   -0.06966903595564793   -0.001926874616313876
-0.01252448634255451   -0.0748822518856804   -0.0021748827823928874
-0.01002513797872024   -0.07527975400366624   -0.001972346680964044
-0.012699360877167337   -0.06966903595564793   -0.001926874616313876
-0.016278318270500112   -0.06932832073236776   -0.0019512669718682765
-0.01252448634255451   -0.0748822518856804   -0.0021748827823928874
-0.01596643494139442   -0.06935262345972222   -0.0016980901584658756
-0.01002513797872024   -0.07527975400366624   -0.001972346680964044
-0.012104473517597672   -0.07492552499638944   -0.0018743656658029382
-0.01596643494139442   -0.06935262345972222   -0.0016980901584658756
-0.01252448634255451   -0.0748822518856804   -0.0021748827823928874
-0.01002513797872024   -0.07527975400366624   -0.001972346680964044
-0.01596643494139442   -0.06935262345972222   -0.0016980901584658756
-0.012627611693906204   -0.0696670609882682   -0.0017626379904239354
-0.012699360877167337   -0.06966903595564793   -0.001926874616313876
-0.01002513797872024   -0.07527975400366624   -0.001972346680964044
-0.01596643494139442   -0.06935262345972222   -0.0016980901584658756
-0.012699360877167337   -0.06966903595564793   -0.001926874616313876
-0.01252448634255451   -0.0748822518856804   -0.0021748827823928874
0.00041227865559740847   -0.06993932150204626   -0.0012028476708771268
0.0024821641060697418   -0.06254422639785084   -0.0009166425503207835
-0.002970684391103089   -0.07010713266824019   -0.0015206726018508236
0.0006321673917815921   -0.06977761386730988   -0.0013817865555572821
0.0024821641060697418   -0.06254422639785084   -0.0009166425503207835
-0.0019962065558090094   -0.06265510748155145   -0.0012199991627677702
-0.002970684391103089   -0.07010713266824019   -0.0015206726018508236
-0.0019841047057997225   -0.0625210235017647   -0.0012744460508644024
0.0006321673917815921   -0.06977761386730988   -0.0013817865555572821
-0.0029124032414877764   -0.0699723259972572   -0.0015992373193883718
-0.0019841047057997225   -0.0625210235017647   -0.0012744460508644024
-0.002970684391103089   -0.07010713266824019   -0.0015206726018508236
0.0006321673917815921   -0.06977761386730988   -0.0013817865555572821
-0.0019841047057997225   -0.0625210235017647   -0.0012744460508644024
0.0026127082861989504   -0.06238643481671525   -0.0010489502268788925
0.0024821641060697418   -0.06254422639785084   -0.0009166425503207835
0.0006321673917815921   -0.06977761386730988   -0.0013817865555572821
-0.0019841047057997225   -0.0625210235017647   -0.0012744460508644024
0.0024821641060697418   -0.06254422639785084   -0.0009166425503207835
-0.002970684391103089   -0.07010713266824019   -0.0015206726018508236
0.0006321673917815921   -0.06977761386730988   -0.0013817865555572821
0.0026127082861989504   -0.06238643481671525   -0.0010489502268788925
-0.0029124032414877764   -0.0699723259972572   -0.0015992373193883718
0.0007939113681517804   -0.06968413454165695   -0.0015479061814402035
0.0026127082861989504   -0.06238643481671525   -0.0010489502268788925
-0.0019841047057997225   -0.0625210235017647   -0.0012744460508644024
-0.0029124032414877764   -0.0699723259972572   -0.0015992373193883718
-0.00196871482634103   -0.06242379517027858   -0.0013205251550613304
0.0007939113681517804   -0.06968413454165695   -0.0015479061814402035
-0.0028460459001218956   -0.06988425211467228   -0.001668643220402895
-0.00196871482634103   -0.06242379517027858   -0.0013205251550613304
-0.0029124032414877764   -0.0699723259972572   -0.0015992373193883718
0.0007939113681517804   -0.06968413454165695   -0.0015479061814402035
-0.00196871482634103   -0.06242379517027858   -0.0013205251550613304
0.0026961553048655026   -0.062282871607149695   -0.001169433417814704
0.0026127082861989504   -0.06238643481671525   -0.0010489502268788925
0.0007939113681517804   -0.06968413454165695   -0.0015479061814402035
-0.00196871482634103   -0.06242379517027858   -0.0013205251550613304
0.0026127082861989504   -0.06238643481671525   -0.0010489502268788925
-0.0029124032414877764   -0.0699723259972572   -0.0015992373193883718
0.0007939113681517804   -0.06968413454165695   -0.0015479061814402035
0.0026961553048655026   -0.062282871607149695   -0.001169433417814704
-0.0028460459001218956   -0.06988425211467228   -0.001668643220402895
0.0009670385312207003   -0.06963799738432333   -0.001701143451635221
0.0026961553048655026   -0.062282871607149695   -0.001169433417814704
-0.00196871482634103   -0.06242379517027858   -0.0013205251550613304
-0.0028460459001218956   -0.06988425211467228   -0.001668643220402895
-0.0019761033538161555   -0.06236031262793961   -0.0013588469340037172
0.0009670385312207003   -0.06963799738432333   -0.001701143451635221
-0.002806374658237829   -0.0698403058219357   -0.0017297945228323184
-0.0019761033538161555   -0.06236031262793961   -0.0013588469340037172
-0.0028460459001218956   -0.06988425211467228   -0.001668643220402895
0.0009670385312207003   -0.06963799738432333   -0.001701143451635221
-0.0019761033538161555   -0.06236031262793961   -0.0013588469340037172
0.002781807647108394   -0.062213462181113614   -0.0012783396131395698
0.0026961553048655026   -0.062282871607149695   -0.001169433417814704
0.0009670385312207003   -0.06963799738432333   -0.001701143451635221
-0.0019761033538161555   -0.06236031262793961   -0.0013588469340037172
0.0026961553048655026   -0.062282871607149695   -0.001169433417814704
-0.0028460459001218956   -0.06988425211467228   -0.001668643220402895
-0.002970684391103089   -0.07010713266824019   -0.0015206726018508236
-0.0019962065558090094   -0.06265510748155145   -0.0012199991627677702
-0.0062431867905036065   -0.07013922740593966   -0.0017825824070688402
-0.0029124032414877764   -0.0699723259972572   -0.0015992373193883718
-0.0019962065558090094   -0.06265510748155145   -0.0012199991627677702
-0.006305548239661907   -0.0626556638559403   -0.0014702329324514456
-0.0062431867905036065   -0.07013922740593966   -0.0017825824070688402
-0.006306112230384896   -0.06254220400466437   -0.001465095169989238
-0.0029124032414877764   -0.0699723259972572   -0.0015992373193883718
-0.006200337611120431   -0.07002349737934445   -0.0017846118575099742
-0.006306112230384896   -0.06254220400466437   -0.001465095169989238
-0.0062431867905036065   -0.07013922740593966   -0.0017825824070688402
-0.0029124032414877764   -0.0699723259972572   -0.0015992373193883718
-0.006306112230384896   -0.06254220400466437   -0.001465095169989238
-0.0019841047057997225   -0.0625210235017647   -0.0012744460508644024
-0.0019962065558090094   -0.06265510748155145   -0.0012199991627677702
-0.0029124032414877764   -0.0699723259972572   -0.0015992373193883718
-0.006306112230384896   -0.06254220400466437   -0.001465095169989238
-0.0019962065558090094   -0.06265510748155145   -0.0012199991627677702
-0.0062431867905036065   -0.07013922740593966   -0.0017825824070688402
-0.0029124032414877764   -0.0699723259972572   -0.0015992373193883718
-0.0019841047057997225   -0.0625210235017647   -0.0012744460508644024
-0.006200337611120431   -0.07002349737934445   -0.0017846118575099742
-0.0028460459001218956   -0.06988425211467228   -0.001668643220402895
-0.0019841047057997225   -0.0625210235017647   -0.0012744460508644024
-0.006306112230384896   -0.06254220400466437   -0.001465095169989238
-0.006200337611120431   -0.07002349737934445   -0.0017846118575099742
-0.006306387869348964   -0.06246123559114296   -0.0014516228725483186
-0.0028460459001218956   -0.06988425211467228   -0.001668643220402895
-0.006156277160128519   -0.06994959632793585   -0.001777866848312494
-0.006306387869348964   -0.06246123559114296   -0.0014516228725483186
-0.006200337611120431   -0.07002349737934445   -0.0017846118575099742
-0.0028460459001218956   -0.06988425211467228   -0.001668643220402895
-0.006306387869348964   -0.06246123559114296   -0.0014516228725483186
-0.00196871482634103   -0.06242379517027858   -0.0013205251550613304
-0.0019841047057997225   -0.0625210235017647   -0.0012744460508644024
-0.0028460459001218956   -0.06988425211467228   -0.001668643220402895
-0.006306387869348964   -0.06246123559114296   -0.0014516228725483186
-0.0019841047057997225   -0.0625210235017647   -0.0012744460508644024
-0.006200337611120431   -0.07002349737934445   -0.0017846118575099742
-0.0028460459001218956   -0.06988425211467228   -0.001668643220402895
-0.00196871482634103   -0.06242379517027858   -0.0013205251550613304
-0.006156277160128519   -0.06994959632793585   -0.001777866848312494
-0.002806374658237829   -0.0698403058219357   -0.0017297945228323184
-0.00196871482634103   -0.06242379517027858   -0.0013205251550613304
-0.006306387869348964   -0.06246123559114296   -0.0014516228725483186
-0.006156277160128519   -0.06994959632793585   -0.001777866848312494
-0.0063124262487657705   -0.06241281575746769   -0.0014302475399083263
-0.002806374658237829   -0.0698403058219357   -0.0017297945228323184
-0.006117739375563739   -0.06991683244830903   -0.0017629307185406595
-0.0063124262487657705   -0.06241281575746769   -0.0014302475399083263
-0.006156277160128519   -0.06994959632793585   -0.001777866848312494
-0.002806374658237829   -0.0698403058219357   -0.0017297945228323184
-0.0063124262487657705   -0.06241281575746769   -0.0014302475399083263
-0.0019761033538161555   -0.06236031262793961   -0.0013588469340037172
-0.00196871482634103   -0.06242379517027858   -0.0013205251550613304
-0.002806374658237829   -0.0698403058219357   -0.0017297945228323184
-0.0063124262487657705   -0.06241281575746769   -0.0014302475399083263
-0.00196871482634103   -0.06242379517027858   -0.0013205251550613304
-0.006156277160128519   -0.06994959632793585   -0.001777866848312494
-0.0062431867905036065   -0.07013922740593966   -0.0017825824070688402
-0.006305548239661907   -0.0626556638559403   -0.0014702329324514456
-0.00946421125879885   -0.07003502926828305   -0.002019003486880024
-0.006200337611120431   -0.07002349737934445   -0.0017846118575099742
-0.006305548239661907   -0.0626556638559403   -0.0014702329324514456
-0.010541659447102994   -0.06254841937510176   -0.0016894454184061024
-0.00946421125879885   -0.07003502926828305   -0.002019003486880024
-0.010545411314807018   -0.062453084985305725   -0.0016254413107338979
-0.006200337611120431   -0.07002349737934445   -0.0017846118575099742
-0.009424318010445413   -0.0699351753922276   -0.0019463439019279762
-0.010545411314807018   -0.062453084985305725   -0.0016254413107338979
-0.00946421125879885   -0.07003502926828305   -0.002019003486880024
-0.006200337611120431   -0.07002349737934445   -0.0017846118575099742
-0.010545411314807018   -0.062453084985305725   -0.0016254413107338979
-0.006306112230384896   -0.06254220400466437   -0.001465095169989238
-0.006305548239661907   -0.0626556638559403   -0.0014702329324514456
-0.006200337611120431   -0.07002349737934445   -0.0017846118575099742
-0.010545411314807018   -0.062453084985305725   -0.0016254413107338979
-0.006305548239661907   -0.0626556638559403   -0.0014702329324514456
-0.00946421125879885   -0.07003502926828305   -0.002019003486880024
-0.006200337611120431   -0.07002349737934445   -0.0017846118575099742
-0.006306112230384896   -0.06254220400466437   -0.001465095169989238
-0.009424318010445413   -0.0699351753922276   -0.0019463439019279762
-0.006156277160128519   -0.06994959632793585   -0.001777866848312494
-0.006306112230384896   -0.06254220400466437   -0.001465095169989238
-0.010545411314807018   -0.062453084985305725   -0.0016254413107338979
-0.009424318010445413   -0.0699351753922276   -0.0019463439019279762
-0.010541942539823492   -0.062389954518413934   -0.001553263967885104
-0.006156277160128519   -0.06994959632793585   -0.001777866848312494
-0.009376113262604601   -0.06987669016043051   -0.0018650997335013391
-0.010541942539823492   -0.062389954518413934   -0.001553263967885104
-0.009424318010445413   -0.0699351753922276   -0.0019463439019279762
-0.006156277160128519   -0.06994959632793585   -0.001777866848312494
-0.010541942539823492   -0.062389954518413934   -0.001553263967885104
-0.006306387869348964   -0.06246123559114296   -0.0014516228725483186
-0.006306112230384896   -0.06254220400466437   -0.001465095169989238
-0.006156277160128519   -0.06994959632793585   -0.001777866848312494
-0.010541942539823492   -0.062389954518413934   -0.001553263967885104
-0.006306112230384896   -0.06254220400466437   -0.001465095169989238
-0.009424318010445413   -0.0699351753922276   -0.0019463439019279762
-0.006156277160128519   -0.06994959632793585   -0.001777866848312494
-0.006306387869348964   -0.06246123559114296   -0.0014516228725483186
-0.009376113262604601   -0.06987669016043051   -0.0018650997335013391
-0.006117739375563739   -0.06991683244830903   -0.0017629307185406595
-0.006306387869348964   -0.06246123559114296   -0.0014516228725483186
-0.010541942539823492   -0.062389954518413934   -0.001553263967885104
-0.009376113262604601   -0.06987669016043051   -0.0018650997335013391
-0.010539773624694706   -0.06235846166874126   -0.0014731519427897345
-0.006117739375563739   -0.06991683244830903   -0.0017629307185406595
-0.009329225305747695   -0.06985764832695049   -0.0017755354639297039
-0.010539773624694706   -0.06235846166874126   -0.0014731519427897345
-0.009376113262604601   -0.06987669016043051   -0.0018650997335013391
-0.006117739375563739   -0.06991683244830903   -0.0017629307185406595
-0.010539773624694706   -0.06235846166874126   -0.0014731519427897345
-0.0063124262487657705   -0.06241281575746769   -0.0014302475399083263
-0.006306387869348964   -0.06246123559114296   -0.0014516228725483186
-0.006117739375563739   -0.06991683244830903   -0.0017629307185406595
-0.010539773624694706   -0.06235846166874126   -0.0014731519427897345
-0.006306387869348964   -0.06246123559114296   -0.0014516228725483186
-0.009376113262604601   -0.06987669016043051   -0.0018650997335013391
-0.00946421125879885   -0.07003502926828305   -0.002019003486880024
-0.010541659447102994   -0.06254841937510176   -0.0016894454184061024
-0.012839769532690583   -0.06979823607802471   -0.0022290212565374105
-0.009424318010445413   -0.0699351753922276   -0.0019463439019279762
-0.010541659447102994   -0.06254841937510176   -0.0016894454184061024
-0.014909833639612078   -0.06233743968216509   -0.0018780413804641103
-0.012839769532690583   -0.06979823607802471   -0.0022290212565374105
-0.014904697707761644   -0.06225946718296083   -0.0017544752061172202
-0.009424318010445413   -0.0699351753922276   -0.0019463439019279762
-0.012787672057027376   -0.06971354476550877   -0.0020815810065774286
-0.014904697707761644   -0.06225946718296083   -0.0017544752061172202
-0.012839769532690583   -0.06979823607802471   -0.0022290212565374105
-0.009424318010445413   -0.0699351753922276   -0.0019463439019279762
-0.014904697707761644   -0.06225946718296083   -0.0017544752061172202
-0.010545411314807018   -0.062453084985305725   -0.0016254413107338979
-0.010541659447102994   -0.06254841937510176   -0.0016894454184061024
-0.009424318010445413   -0.0699351753922276   -0.0019463439019279762
-0.014904697707761644   -0.06225946718296083   -0.0017544752061172202
-0.010541659447102994   -0.06254841937510176   -0.0016894454184061024
-0.012839769532690583   -0.06979823607802471   -0.0022290212565374105
-0.009424318010445413   -0.0699351753922276   -0.0019463439019279762
-0.010545411314807018   -0.062453084985305725   -0.0016254413107338979
-0.012787672057027376   -0.06971354476550877   -0.0020815810065774286
-0.009376113262604601   -0.06987669016043051   -0.0018650997335013391
-0.010545411314807018   -0.062453084985305725   -0.0016254413107338979
-0.014904697707761644   -0.06225946718296083   -0.0017544752061172202
-0.012787672057027376   -0.06971354476550877   -0.0020815810065774286
-0.014868086605525565   -0.06221251057756855   -0.001623967525490838
-0.009376113262604601   -0.06987669016043051   -0.0018650997335013391
-0.012699360877167337   -0.06966903595564793   -0.001926874616313876
-0.014868086605525565   -0.06221251057756855   -0.001623967525490838
-0.012787672057027376   -0.06971354476550877   -0.0020815810065774286
-0.009376113262604601   -0.06987669016043051   -0.0018650997335013391
-0.014868086605525565   -0.06221251057756855   -0.001623967525490838
-0.010541942539823492   -0.062389954518413934   -0.001553263967885104
-0.010545411314807018   -0.062453084985305725   -0.0016254413107338979
-0.009376113262604601   -0.06987669016043051   -0.0018650997335013391
-0.014868086605525565   -0.06221251057756855   -0.001623967525490838
-0.010545411314807018   -0.062453084985305725   -0.0016254413107338979
-0.012787672057027376   -0.06971354476550877   -0.0020815810065774286
-0.009376113262604601   -0.06987669016043051   -0.0018650997335013391
-0.010541942539823492   -0.062389954518413934   -0.001553263967885104
-0.012699360877167337   -0.06966903595564793   -0.001926874616313876
-0.009329225305747695   -0.06985764832695049   -0.0017755354639297039
-0.010541942539823492   -0.062389954518413934   -0.001553263967885104
-0.014868086605525565   -0.06221251057756855   -0.001623967525490838
-0.012699360877167337   -0.06966903595564793   -0.001926874616313876
-0.014843612934340954   -0.062199849447025474   -0.0014848880670077442
-0.009329225305747695   -0.06985764832695049   -0.0017755354639297039
-0.012627611693906204   -0.0696670609882682   -0.0017626379904239354
-0.014843612934340954   -0.062199849447025474   -0.0014848880670077442
-0.012699360877167337   -0.06966903595564793   -0.001926874616313876
-0.009329225305747695   -0.06985764832695049   -0.0017755354639297039
-0.014843612934340954   -0.062199849447025474   -0.0014848880670077442
-0.010539773624694706   -0.06235846166874126   -0.0014731519427897345
-0.010541942539823492   -0.062389954518413934   -0.001553263967885104
-0.009329225305747695   -0.06985764832695049   -0.0017755354639297039
-0.014843612934340954   -0.062199849447025474   -0.0014848880670077442
-0.010541942539823492   -0.062389954518413934   -0.001553263967885104
-0.012699360877167337   -0.06966903595564793   -0.001926874616313876
-0.012839769532690583   -0.06979823607802471   -0.0022290212565374105
-0.014909833639612078   -0.06233743968216509   -0.0018780413804641103
-0.016776475547548485   -0.06945733444823313   -0.0024247805637426915
-0.012787672057027376   -0.06971354476550877   -0.0020815810065774286
-0.014909833639612078   -0.06233743968216509   -0.0018780413804641103
-0.01978900703182111   -0.06204671909367835   -0.0020480692691868954
-0.016776475547548485   -0.06945733444823313   -0.0024247805637426915
-0.01960672444626307   -0.06197021336028496   -0.0018590595858235673
-0.012787672057027376   -0.06971354476550877   -0.0020815810065774286
-0.016509801219376476   -0.0693690355083381   -0.00219401285915951
-0.01960672444626307   -0.06197021336028496   -0.0018590595858235673
-0.016776475547548485   -0.06945733444823313   -0.0024247805637426915
-0.012787672057027376   -0.06971354476550877   -0.0020815810065774286
-0.01960672444626307   -0.06197021336028496   -0.0018590595858235673
-0.014904697707761644   -0.06225946718296083   -0.0017544752061172202
-0.014909833639612078   -0.06233743968216509   -0.0018780413804641103
-0.012787672057027376   -0.06971354476550877   -0.0020815810065774286
-0.01960672444626307   -0.06197021336028496   -0.0018590595858235673
-0.014909833639612078   -0.06233743968216509   -0.0018780413804641103
-0.016776475547548485   -0.06945733444823313   -0.0024247805637426915
-0.012787672057027376   -0.06971354476550877   -0.0020815810065774286
-0.014904697707761644   -0.06225946718296083   -0.0017544752061172202
-0.016509801219376476   -0.0693690355083381   -0.00219401285915951
-0.012699360877167337   -0.06966903595564793   -0.001926874616313876
-0.014904697707761644   -0.06225946718296083   -0.0017544752061172202
-0.01960672444626307   -0.06197021336028496   -0.0018590595858235673
-0.016509801219376476   -0.0693690355083381   -0.00219401285915951
-0.01945080812688079   -0.06192915556165412   -0.0016583848573421419
-0.012699360877167337   -0.06966903595564793   -0.001926874616313876
-0.016278318270500112   -0.06932832073236776   -0.0019512669718682765
-0.01945080812688079   -0.06192915556165412   -0.0016583848573421419
-0.016509801219376476   -0.0693690355083381   -0.00219401285915951
-0.012699360877167337   -0.06966903595564793   -0.001926874616313876
-0.01945080812688079   -0.06192915556165412   -0.0016583848573421419
-0.014868086605525565   -0.06221251057756855   -0.001623967525490838
-0.014904697707761644   -0.06225946718296083   -0.0017544752061172202
-0.012699360877167337   -0.06966903595564793   -0.001926874616313876
-0.01945080812688079   -0.06192915556165412   -0.0016583848573421419
-0.014904697707761644   -0.06225946718296083   -0.0017544752061172202
-0.016509801219376476   -0.0693690355083381   -0.00219401285915951
-0.012699360877167337   -0.06966903595564793   -0.001926874616313876
-0.014868086605525565   -0.06221251057756855   -0.001623967525490838
-0.016278318270500112   -0.06932832073236776   -0.0019512669718682765
-0.012627611693906204   -0.0696670609882682   -0.0017626379904239354
-0.014868086605525565   -0.06221251057756855   -0.001623967525490838
-0.01945080812688079   -0.06192915556165412   -0.0016583848573421419
-0.016278318270500112   -0.06932832073236776   -0.0019512669718682765
-0.019225760663242636   -0.06194250464232214   -0.0014476429541811758
-0.012627611693906204   -0.0696670609882682   -0.0017626379904239354
-0.01596643494139442   -0.06935262345972222   -0.0016980901584658756
-0.019225760663242636   -0.06194250464232214   -0.0014476429541811758
-0.016278318270500112   -0.06932832073236776   -0.0019512669718682765
-0.012627611693906204   -0.0696670609882682   -0.0017626379904239354
-0.019225760663242636   -0.06194250464232214   -0.0014476429541811758
-0.014843612934340954   -0.062199849447025474   -0.0014848880670077442
-0.014868086605525565   -0.06221251057756855   -0.001623967525490838
-0.012627611693906204   -0.0696670609882682   -0.0017626379904239354
-0.019225760663242636   -0.06194250464232214   -0.0014476429541811758
-0.014868086605525565   -0.06221251057756855   -0.001623967525490838
-0.016278318270500112   -0.06932832073236776   -0.0019512669718682765
0.0024821641060697418   -0.06254422639785084   -0.0009166425503207835
0.003907964897301387   -0.0536502892856708   -0.0006105877422199356
-0.0019962065558090094   -0.06265510748155145   -0.0012199991627677702
0.0026127082861989504   -0.06238643481671525   -0.0010489502268788925
0.003907964897301387   -0.0536502892856708   -0.0006105877422199356
-0.0014046043945302434   -0.053704769965774675   -0.0008959983000966166
-0.0019962065558090094   -0.06265510748155145   -0.0012199991627677702
-0.0014296395890003105   -0.053573949608439635   -0.0009253227826514528
0.0026127082861989504   -0.06238643481671525   -0.0010489502268788925
-0.0019841047057997225   -0.0625210235017647   -0.0012744460508644024
-0.0014296395890003105   -0.053573949608439635   -0.0009253227826514528
-0.0019962065558090094   -0.06265510748155145   -0.0012199991627677702
0.0026127082861989504   -0.06238643481671525   -0.0010489502268788925
-0.0014296395890003105   -0.053573949608439635   -0.0009253227826514528
0.003959464721748887   -0.053498267805644345   -0.0006972305550218727
0.003907964897301387   -0.0536502892856708   -0.0006105877422199356
0.0026127082861989504   -0.06238643481671525   -0.0010489502268788925
-0.0014296395890003105   -0.053573949608439635   -0.0009253227826514528
0.003907964897301387   -0.0536502892856708   -0.0006105877422199356
-0.0019962065558090094   -0.06265510748155145   -0.0012199991627677702
0.0026127082861989504   -0.06238643481671525   -0.0010489502268788925
0.003959464721748887   -0.053498267805644345   -0.0006972305550218727
-0.0019841047057997225   -0.0625210235017647   -0.0012744460508644024
0.0026961553048655026   -0.062282871607149695   -0.001169433417814704
0.003959464721748887   -0.053498267805644345   -0.0006972305550218727
-0.0014296395890003105   -0.053573949608439635   -0.0009253227826514528
-0.0019841047057997225   -0.0625210235017647   -0.0012744460508644024
-0.0014559562306189196   -0.053470432398485465   -0.000947179575735592
0.0026961553048655026   -0.062282871607149695   -0.001169433417814704
-0.00196871482634103   -0.06242379517027858   -0.0013205251550613304
-0.0014559562306189196   -0.053470432398485465   -0.000947179575735592
-0.0019841047057997225   -0.0625210235017647   -0.0012744460508644024
0.0026961553048655026   -0.062282871607149695   -0.001169433417814704
-0.0014559562306189196   -0.053470432398485465   -0.000947179575735592
0.003975061455640134   -0.05338744933192603   -0.0007728568595671076
0.003959464721748887   -0.053498267805644345   -0.0006972305550218727
0.0026961553048655026   -0.062282871607149695   -0.001169433417814704
-0.0014559562306189196   -0.053470432398485465   -0.000947179575735592
0.003959464721748887   -0.053498267805644345   -0.0006972305550218727
-0.0019841047057997225   -0.0625210235017647   -0.0012744460508644024
0.0026961553048655026   -0.062282871607149695   -0.001169433417814704
0.003975061455640134   -0.05338744933192603   -0.0007728568595671076
-0.00196871482634103   -0.06242379517027858   -0.0013205251550613304
0.002781807647108394   -0.062213462181113614   -0.0012783396131395698
0.003975061455640134   -0.05338744933192603   -0.0007728568595671076
-0.0014559562306189196   -0.053470432398485465   -0.000947179575735592
-0.00196871482634103   -0.06242379517027858   -0.0013205251550613304
-0.0015007287325306204   -0.05339096932919234   -0.0009618213141716471
0.002781807647108394   -0.062213462181113614   -0.0012783396131395698
-0.0019761033538161555   -0.06236031262793961   -0.0013588469340037172
-0.0015007287325306204   -0.05339096932919234   -0.0009618213141716471
-0.00196871482634103   -0.06242379517027858   -0.0013205251550613304
0.002781807647108394   -0.062213462181113614   -0.0012783396131395698
-0.0015007287325306204   -0.05339096932919234   -0.0009618213141716471
0.003983763864635556   -0.0532983255697893   -0.0008379877021624707
0.003975061455640134   -0.05338744933192603   -0.0007728568595671076
0.002781807647108394   -0.062213462181113614   -0.0012783396131395698
-0.0015007287325306204   -0.05339096932919234   -0.0009618213141716471
0.003975061455640134   -0.05338744933192603   -0.0007728568595671076
-0.00196871482634103   -0.06242379517027858   -0.0013205251550613304
-0.0019962065558090094   -0.06265510748155145   -0.0012199991627677702
-0.0014046043945302434   -0.053704769965774675   -0.0008959983000966166
-0.006305548239661907   -0.0626556638559403   -0.0014702329324514456
-0.0019841047057997225   -0.0625210235017647   -0.0012744460508644024
-0.0014046043945302434   -0.053704769965774675   -0.0008959983000966166
-0.0064967832203288245   -0.05367670074780856   -0.0011310813293806024
-0.006305548239661907   -0.0626556638559403   -0.0014702329324514456
-0.006531469320314165   -0.053567348529306426   -0.0011173502154488808
-0.0019841047057997225   -0.0625210235017647   -0.0012744460508644024
-0.006306112230384896   -0.06254220400466437   -0.001465095169989238
-0.006531469320314165   -0.053567348529306426   -0.0011173502154488808
-0.006305548239661907   -0.0626556638559403   -0.0014702329324514456
-0.0019841047057997225   -0.0625210235017647   -0.0012744460508644024
-0.006531469320314165   -0.053567348529306426   -0.0011173502154488808
-0.0014296395890003105   -0.053573949608439635   -0.0009253227826514528
-0.0014046043945302434   -0.053704769965774675   -0.0008959983000966166
-0.0019841047057997225   -0.0625210235017647   -0.0012744460508644024
-0.006531469320314165   -0.053567348529306426   -0.0011173502154488808
-0.0014046043945302434   -0.053704769965774675   -0.0008959983000966166
-0.006305548239661907   -0.0626556638559403   -0.0014702329324514456
-0.0019841047057997225   -0.0625210235017647   -0.0012744460508644024
-0.0014296395890003105   -0.053573949608439635   -0.0009253227826514528
-0.006306112230384896   -0.06254220400466437   -0.001465095169989238
-0.00196871482634103   -0.06242379517027858   -0.0013205251550613304
-0.0014296395890003105   -0.053573949608439635   -0.0009253227826514528
-0.006531469320314165   -0.053567348529306426   -0.0011173502154488808
-0.006306112230384896   -0.06254220400466437   -0.001465095169989238
-0.006566631426911231   -0.05348140139440422   -0.0010959319562604433
-0.00196871482634103   -0.06242379517027858   -0.0013205251550613304
-0.006306387869348964   -0.06246123559114296   -0.0014516228725483186
-0.006566631426911231   -0.05348140139440422   -0.0010959319562604433
-0.006306112230384896   -0.06254220400466437   -0.001465095169989238
-0.00196871482634103   -0.06242379517027858   -0.0013205251550613304
-0.006566631426911231   -0.05348140139440422   -0.0010959319562604433
-0.0014559562306189196   -0.053470432398485465   -0.000947179575735592
-0.0014296395890003105   -0.053573949608439635   -0.0009253227826514528
-0.00196871482634103   -0.06242379517027858   -0.0013205251550613304
-0.006566631426911231   -0.05348140139440422   -0.0010959319562604433
-0.0014296395890003105   -0.053573949608439635   -0.0009253227826514528
-0.006306112230384896   -0.06254220400466437   -0.001465095169989238
-0.00196871482634103   -0.06242379517027858   -0.0013205251550613304
-0.0014559562306189196   -0.053470432398485465   -0.000947179575735592
-0.006306387869348964   -0.06246123559114296   -0.0014516228725483186
-0.0019761033538161555   -0.06236031262793961   -0.0013588469340037172
-0.0014559562306189196   -0.053470432398485465   -0.000947179575735592
-0.006566631426911231   -0.05348140139440422   -0.0010959319562604433
-0.006306387869348964   -0.06246123559114296   -0.0014516228725483186
-0.006607262479739657   -0.053419257147835485   -0.0010671963247606401
-0.0019761033538161555   -0.06236031262793961   -0.0013588469340037172
-0.0063124262487657705   -0.06241281575746769   -0.0014302475399083263
-0.006607262479739657   -0.053419257147835485   -0.0010671963247606401
-0.006306387869348964   -0.06246123559114296   -0.0014516228725483186
-0.0019761033538161555   -0.06236031262793961   -0.0013588469340037172
-0.006607262479739657   -0.053419257147835485   -0.0010671963247606401
-0.0015007287325306204   -0.05339096932919234   -0.0009618213141716471
-0.0014559562306189196   -0.053470432398485465   -0.000947179575735592
-0.0019761033538161555   -0.06236031262793961   -0.0013588469340037172
-0.006607262479739657   -0.053419257147835485   -0.0010671963247606401
-0.0014559562306189196   -0.053470432398485465   -0.000947179575735592
-0.006306387869348964   -0.06246123559114296   -0.0014516228725483186
-0.006305548239661907   -0.0626556638559403   -0.0014702329324514456
-0.0064967832203288245   -0.05367670074780856   -0.0011310813293806024
-0.010541659447102994   -0.06254841937510176   -0.0016894454184061024
-0.006306112230384896   -0.06254220400466437   -0.001465095169989238
-0.0064967832203288245   -0.05367670074780856   -0.0011310813293806024
-0.011502849796828583   -0.05357117451803282   -0.0013322570644572996
-0.010541659447102994   -0.06254841937510176   -0.0016894454184061024
-0.011540263891325498   -0.05348133409458027   -0.001275676876657994
-0.006306112230384896   -0.06254220400466437   -0.001465095169989238
-0.010545411314807018   -0.062453084985305725   -0.0016254413107338979
-0.011540263891325498   -0.05348133409458027   -0.001275676876657994
-0.010541659447102994   -0.06254841937510176   -0.0016894454184061024
-0.006306112230384896   -0.06254220400466437   -0.001465095169989238
-0.011540263891325498   -0.05348133409458027   -0.001275676876657994
-0.006531469320314165   -0.053567348529306426   -0.0011173502154488808
-0.0064967832203288245   -0.05367670074780856   -0.0011310813293806024
-0.006306112230384896   -0.06254220400466437   -0.001465095169989238
-0.011540263891325498   -0.05348133409458027   -0.001275676876657994
-0.0064967832203288245   -0.05367670074780856   -0.0011310813293806024
-0.010541659447102994   -0.06254841937510176   -0.0016894454184061024
-0.006306112230384896   -0.06254220400466437   -0.001465095169989238
-0.006531469320314165   -0.053567348529306426   -0.0011173502154488808
-0.010545411314807018   -0.062453084985305725   -0.0016254413107338979
-0.006306387869348964   -0.06246123559114296   -0.0014516228725483186
-0.006531469320314165   -0.053567348529306426   -0.0011173502154488808
-0.011540263891325498   -0.05348133409458027   -0.001275676876657994
-0.010545411314807018   -0.062453084985305725   -0.0016254413107338979
-0.0115712678628052   -0.05341467505625603   -0.0012115450897579128
-0.006306387869348964   -0.06246123559114296   -0.0014516228725483186
-0.010541942539823492   -0.062389954518413934   -0.001553263967885104
-0.0115712678628052   -0.05341467505625603   -0.0012115450897579128
-0.010545411314807018   -0.062453084985305725   -0.0016254413107338979
-0.006306387869348964   -0.06246123559114296   -0.0014516228725483186
-0.0115712678628052   -0.05341467505625603   -0.0012115450897579128
-0.006566631426911231   -0.05348140139440422   -0.0010959319562604433
-0.006531469320314165   -0.053567348529306426   -0.0011173502154488808
-0.006306387869348964   -0.06246123559114296   -0.0014516228725483186
-0.0115712678628052   -0.05341467505625603   -0.0012115450897579128
-0.006531469320314165   -0.053567348529306426   -0.0011173502154488808
-0.010545411314807018   -0.062453084985305725   -0.0016254413107338979
-0.006306387869348964   -0.06246123559114296   -0.0014516228725483186
-0.006566631426911231   -0.05348140139440422   -0.0010959319562604433
-0.010541942539823492   -0.062389954518413934   -0.001553263967885104
-0.0063124262487657705   -0.06241281575746769   -0.0014302475399083263
-0.006566631426911231   -0.05348140139440422   -0.0010959319562604433
-0.0115712678628052   -0.05341467505625603   -0.0012115450897579128
-0.010541942539823492   -0.062389954518413934   -0.001553263967885104
-0.011603171299324587   -0.05337110062562754   -0.0011400843058979634
-0.0063124262487657705   -0.06241281575746769   -0.0014302475399083263
-0.010539773624694706   -0.06235846166874126   -0.0014731519427897345
-0.011603171299324587   -0.05337110062562754   -0.0011400843058979634
-0.010541942539823492   -0.062389954518413934   -0.001553263967885104
-0.0063124262487657705   -0.06241281575746769   -0.0014302475399083263
-0.011603171299324587   -0.05337110062562754   -0.0011400843058979634
-0.006607262479739657   -0.053419257147835485   -0.0010671963247606401
-0.006566631426911231   -0.05348140139440422   -0.0010959319562604433
-0.0063124262487657705   -0.06241281575746769   -0.0014302475399083263
-0.011603171299324587   -0.05337110062562754   -0.0011400843058979634
-0.006566631426911231   -0.05348140139440422   -0.0010959319562604433
-0.010541942539823492   -0.062389954518413934   -0.001553263967885104
-0.010541659447102994   -0.06254841937510176   -0.0016894454184061024
-0.011502849796828583   -0.05357117451803282   -0.0013322570644572996
-0.014909833639612078   -0.06233743968216509   -0.0018780413804641103
-0.010545411314807018   -0.062453084985305725   -0.0016254413107338979
-0.011502849796828583   -0.05357117451803282   -0.0013322570644572996
-0.0166279905040142   -0.053390298252118634   -0.0015002848785131764
-0.014909833639612078   -0.06233743968216509   -0.0018780413804641103
-0.0166589605416382   -0.053319521810438315   -0.001400273123430451
-0.010545411314807018   -0.062453084985305725   -0.0016254413107338979
-0.014904697707761644   -0.06225946718296083   -0.0017544752061172202
-0.0166589605416382   -0.053319521810438315   -0.001400273123430451
-0.014909833639612078   -0.06233743968216509   -0.0018780413804641103
-0.010545411314807018   -0.062453084985305725   -0.0016254413107338979
-0.0166589605416382   -0.053319521810438315   -0.001400273123430451
-0.011540263891325498   -0.05348133409458027   -0.001275676876657994
-0.011502849796828583   -0.05357117451803282   -0.0013322570644572996
-0.010545411314807018   -0.062453084985305725   -0.0016254413107338979
-0.0166589605416382   -0.053319521810438315   -0.001400273123430451
-0.011502849796828583   -0.05357117451803282   -0.0013322570644572996
-0.014909833639612078   -0.06233743968216509   -0.0018780413804641103
-0.010545411314807018   -0.062453084985305725   -0.0016254413107338979
-0.011540263891325498   -0.05348133409458027   -0.001275676876657994
-0.014904697707761644   -0.06225946718296083   -0.0017544752061172202
-0.010541942539823492   -0.062389954518413934   -0.001553263967885104
-0.011540263891325498   -0.05348133409458027   -0.001275676876657994
-0.0166589605416382   -0.053319521810438315   -0.001400273123430451
-0.014904697707761644   -0.06225946718296083   -0.0017544752061172202
-0.016662986755395556   -0.05327049913440913   -0.001293754865617552
-0.010541942539823492   -0.062389954518413934   -0.001553263967885104
-0.014868086605525565   -0.06221251057756855   -0.001623967525490838
-0.016662986755395556   -0.05327049913440913   -0.001293754865617552
-0.014904697707761644   -0.06225946718296083   -0.0017544752061172202
-0.010541942539823492   -0.062389954518413934   -0.001553263967885104
-0.016662986755395556   -0.05327049913440913   -0.001293754865617552
-0.0115712678628052   -0.05341467505625603   -0.0012115450897579128
-0.011540263891325498   -0.05348133409458027   -0.001275676876657994
-0.010541942539823492   -0.062389954518413934   -0.001553263967885104
-0.016662986755395556   -0.05327049913440913   -0.001293754865617552
-0.011540263891325498   -0.05348133409458027   -0.001275676876657994
-0.014904697707761644   -0.06225946718296083   -0.0017544752061172202
-0.010541942539823492   -0.062389954518413934   -0.001553263967885104
-0.0115712678628052   -0.05341467505625603   -0.0012115450897579128
-0.014868086605525565   -0.06221251057756855   -0.001623967525490838
-0.010539773624694706   -0.06235846166874126   -0.0014731519427897345
-0.0115712678628052   -0.05341467505625603   -0.0012115450897579128
-0.016662986755395556   -0.05327049913440913   -0.001293754865617552
-0.014868086605525565   -0.06221251057756855   -0.001623967525490838
-0.016674647597890203   -0.05324663643408541   -0.0011793525575931954
-0.010539773624694706   -0.06235846166874126   -0.0014731519427897345
-0.014843612934340954   -0.062199849447025474   -0.0014848880670077442
-0.016674647597890203   -0.05324663643408541   -0.0011793525575931954
-0.014868086605525565   -0.06221251057756855   -0.001623967525490838
-0.010539773624694706   -0.06235846166874126   -0.0014731519427897345
-0.016674647597890203   -0.05324663643408541   -0.0011793525575931954
-0.011603171299324587   -0.05337110062562754   -0.0011400843058979634
-0.0115712678628052   -0.05341467505625603   -0.0012115450897579128
-0.010539773624694706   -0.06235846166874126   -0.0014731519427897345
-0.016674647597890203   -0.05324663643408541   -0.0011793525575931954
-0.0115712678628052   -0.05341467505625603   -0.0012115450897579128
-0.014868086605525565   -0.06221251057756855   -0.001623967525490838
-0.014909833639612078   -0.06233743968216509   -0.0018780413804641103
-0.0166279905040142   -0.053390298252118634   -0.0015002848785131764
-0.01978900703182111   -0.06204671909367835   -0.0020480692691868954
-0.014904697707761644   -0.06225946718296083   -0.0017544752061172202
-0.0166279905040142   -0.053390298252118634   -0.0015002848785131764
-0.022216770651063755   -0.05315309535403576   -0.0016438175457884013
-0.01978900703182111   -0.06204671909367835   -0.0020480692691868954
-0.02210996841499962   -0.05308844446189973   -0.001497900208527018
-0.014904697707761644   -0.06225946718296083   -0.0017544752061172202
-0.01960672444626307   -0.06197021336028496   -0.0018590595858235673
-0.02210996841499962   -0.05308844446189973   -0.001497900208527018
-0.01978900703182111   -0.06204671909367835   -0.0020480692691868954
-0.014904697707761644   -0.06225946718296083   -0.0017544752061172202
-0.02210996841499962   -0.05308844446189973   -0.001497900208527018
-0.0166589605416382   -0.053319521810438315   -0.001400273123430451
-0.0166279905040142   -0.053390298252118634   -0.0015002848785131764
-0.014904697707761644   -0.06225946718296083   -0.0017544752061172202
-0.02210996841499962   -0.05308844446189973   -0.001497900208527018
-0.0166279905040142   -0.053390298252118634   -0.0015002848785131764
-0.01978900703182111   -0.06204671909367835   -0.0020480692691868954
-0.014904697707761644   -0.06225946718296083   -0.0017544752061172202
-0.0166589605416382   -0.053319521810438315   -0.001400273123430451
-0.01960672444626307   -0.06197021336028496   -0.0018590595858235673
-0.014868086605525565   -0.06221251057756855   -0.001623967525490838
-0.0166589605416382   -0.053319521810438315   -0.001400273123430451
-0.02210996841499962   -0.05308844446189973   -0.001497900208527018
-0.01960672444626307   -0.06197021336028496   -0.0018590595858235673
-0.022019915538687745   -0.05304689762113515   -0.0013406242174342968
-0.014868086605525565   -0.06221251057756855   -0.001623967525490838
-0.01945080812688079   -0.06192915556165412   -0.0016583848573421419
-0.022019915538687745   -0.05304689762113515   -0.0013406242174342968
-0.01960672444626307   -0.06197021336028496   -0.0018590595858235673
-0.014868086605525565   -0.06221251057756855   -0.001623967525490838
-0.022019915538687745   -0.05304689762113515   -0.0013406242174342968
-0.016662986755395556   -0.05327049913440913   -0.001293754865617552
-0.0166589605416382   -0.053319521810438315   -0.001400273123430451
-0.014868086605525565   -0.06221251057756855   -0.001623967525490838
-0.022019915538687745   -0.05304689762113515   -0.0013406242174342968
-0.0166589605416382   -0.053319521810438315   -0.001400273123430451
-0.01960672444626307   -0.06197021336028496   -0.0018590595858235673
-0.014868086605525565   -0.06221251057756855   -0.001623967525490838
-0.016662986755395556   -0.05327049913440913   -0.001293754865617552
-0.01945080812688079   -0.06192915556165412   -0.0016583848573421419
-0.014843612934340954   -0.062199849447025474   -0.0014848880670077442
-0.016662986755395556   -0.05327049913440913   -0.001293754865617552
-0.022019915538687745   -0.05304689762113515   -0.0013406242174342968
-0.01945080812688079   -0.06192915556165412   -0.0016583848573421419
-0.021871276653009343   -0.05304811294102066   -0.00117340514241253
-0.014843612934340954   -0.062199849447025474   -0.0014848880670077442
-0.019225760663242636   -0.06194250464232214   -0.0014476429541811758
-0.021871276653009343   -0.05304811294102066   -0.00117340514241253
-0.01945080812688079   -0.06192915556165412   -0.0016583848573421419
-0.014843612934340954   -0.062199849447025474   -0.0014848880670077442
-0.021871276653009343   -0.05304811294102066   -0.00117340514241253
-0.016674647597890203   -0.05324663643408541   -0.0011793525575931954
-0.016662986755395556   -0.05327049913440913   -0.001293754865617552
-0.014843612934340954   -0.062199849447025474   -0.0014848880670077442
-0.021871276653009343   -0.05304811294102066   -0.00117340514241253
-0.016662986755395556   -0.05327049913440913   -0.001293754865617552
-0.01945080812688079   -0.06192915556165412   -0.0016583848573421419
0.003907964897301387   -0.0536502892856708   -0.0006105877422199356
0.004699341583607606   -0.043671113500007   -0.0003109123958449802
-0.0014046043945302434   -0.053704769965774675   -0.0008959983000966166
0.003959464721748887   -0.053498267805644345   -0.0006972305550218727
0.004699341583607606   -0.043671113500007   -0.0003109123958449802
-0.0011978435742265054   -0.043669787363632494   -0.0005755959163007727
-0.0014046043945302434   -0.053704769965774675   -0.0008959983000966166
-0.0012506494663127728   -0.043543241934282134   -0.0005794859356974802
0.003959464721748887   -0.053498267805644345   -0.0006972305550218727
-0.0014296395890003105   -0.053573949608439635   -0.0009253227826514528
-0.0012506494663127728   -0.043543241934282134   -0.0005794859356974802
-0.0014046043945302434   -0.053704769965774675   -0.0008959983000966166
0.003959464721748887   -0.053498267805644345   -0.0006972305550218727
-0.0012506494663127728   -0.043543241934282134   -0.0005794859356974802
0.004682202808248381   -0.04352557291313482   -0.00035241403168239163
0.004699341583607606   -0.043671113500007   -0.0003109123958449802
0.003959464721748887   -0.053498267805644345   -0.0006972305550218727
-0.0012506494663127728   -0.043543241934282134   -0.0005794859356974802
0.004699341583607606   -0.043671113500007   -0.0003109123958449802
-0.0014046043945302434   -0.053704769965774675   -0.0008959983000966166
0.003959464721748887   -0.053498267805644345   -0.0006972305550218727
0.004682202808248381   -0.04352557291313482   -0.00035241403168239163
-0.0014296395890003105   -0.053573949608439635   -0.0009253227826514528
0.003975061455640134   -0.05338744933192603   -0.0007728568595671076
0.004682202808248381   -0.04352557291313482   -0.00035241403168239163
-0.0012506494663127728   -0.043543241934282134   -0.0005794859356974802
-0.0014296395890003105   -0.053573949608439635   -0.0009253227826514528
-0.001309325225668889   -0.0434342853077776   -0.0005767566706980793
0.003975061455640134   -0.05338744933192603   -0.0007728568595671076
-0.0014559562306189196   -0.053470432398485465   -0.000947179575735592
-0.001309325225668889   -0.0434342853077776   -0.0005767566706980793
-0.0014296395890003105   -0.053573949608439635   -0.0009253227826514528
0.003975061455640134   -0.05338744933192603   -0.0007728568595671076
-0.001309325225668889   -0.0434342853077776   -0.0005767566706980793
0.004639690341615846   -0.04340842202651684   -0.00038330614194094476
0.004682202808248381   -0.04352557291313482   -0.00035241403168239163
0.003975061455640134   -0.05338744933192603   -0.0007728568595671076
-0.001309325225668889   -0.0434342853077776   -0.0005767566706980793
0.004682202808248381   -0.04352557291313482   -0.00035241403168239163
-0.0014296395890003105   -0.053573949608439635   -0.0009253227826514528
0.003975061455640134   -0.05338744933192603   -0.0007728568595671076
0.004639690341615846   -0.04340842202651684   -0.00038330614194094476
-0.0014559562306189196   -0.053470432398485465   -0.000947179575735592
0.003983763864635556   -0.0532983255697893   -0.0008379877021624707
0.004639690341615846   -0.04340842202651684   -0.00038330614194094476
-0.001309325225668889   -0.0434342853077776   -0.0005767566706980793
-0.0014559562306189196   -0.053470432398485465   -0.000947179575735592
-0.0013821313155321785   -0.0433400980121224   -0.0005671471679369866
0.003983763864635556   -0.0532983255697893   -0.0008379877021624707
-0.0015007287325306204   -0.05339096932919234   -0.0009618213141716471
-0.0013821313155321785   -0.0433400980121224   -0.0005671471679369866
-0.0014559562306189196   -0.053470432398485465   -0.000947179575735592
0.003983763864635556   -0.0532983255697893   -0.0008379877021624707
-0.0013821313155321785   -0.0433400980121224   -0.0005671471679369866
0.0045803560133486545   -0.04330057722789395   -0.0004043296209478885
0.004639690341615846   -0.04340842202651684   -0.00038330614194094476
0.003983763864635556   -0.0532983255697893   -0.0008379877021624707
-0.0013821313155321785   -0.0433400980121224   -0.0005671471679369866
0.004639690341615846   -0.04340842202651684   -0.00038330614194094476
-0.0014559562306189196   -0.053470432398485465   -0.000947179575735592
-0.0014046043945302434   -0.053704769965774675   -0.0008959983000966166
-0.0011978435742265054   -0.043669787363632494   -0.0005755959163007727
-0.0064967832203288245   -0.05367670074780856   -0.0011310813293806024
-0.0014296395890003105   -0.053573949608439635   -0.0009253227826514528
-0.0011978435742265054   -0.043669787363632494   -0.0005755959163007727
-0.006822661925250858   -0.04361645767736636   -0.0007941090145593896
-0.0064967832203288245   -0.05367670074780856   -0.0011310813293806024
-0.006881740762762191   -0.04351138262511784   -0.0007710706478336176
-0.0014296395890003105   -0.053573949608439635   -0.0009253227826514528
-0.006531469320314165   -0.053567348529306426   -0.0011173502154488808
-0.006881740762762191   -0.04351138262511784   -0.0007710706478336176
-0.0064967832203288245   -0.05367670074780856   -0.0011310813293806024
-0.0014296395890003105   -0.053573949608439635   -0.0009253227826514528
-0.006881740762762191   -0.04351138262511784   -0.0007710706478336176
-0.0012506494663127728   -0.043543241934282134   -0.0005794859356974802
-0.0011978435742265054   -0.043669787363632494   -0.0005755959163007727
-0.0014296395890003105   -0.053573949608439635   -0.0009253227826514528
-0.006881740762762191   -0.04351138262511784   -0.0007710706478336176
-0.0011978435742265054   -0.043669787363632494   -0.0005755959163007727
-0.0064967832203288245   -0.05367670074780856   -0.0011310813293806024
-0.0014296395890003105   -0.053573949608439635   -0.0009253227826514528
-0.0012506494663127728   -0.043543241934282134   -0.0005794859356974802
-0.006531469320314165   -0.053567348529306426   -0.0011173502154488808
-0.0014559562306189196   -0.053470432398485465   -0.000947179575735592
-0.0012506494663127728   -0.043543241934282134   -0.0005794859356974802
-0.006881740762762191   -0.04351138262511784   -0.0007710706478336176
-0.006531469320314165   -0.053567348529306426   -0.0011173502154488808
-0.006942006580911835   -0.04342062625114252   -0.0007411379890146844
-0.0014559562306189196   -0.053470432398485465   -0.000947179575735592
-0.006566631426911231   -0.05348140139440422   -0.0010959319562604433
-0.006942006580911835   -0.04342062625114252   -0.0007411379890146844
-0.006531469320314165   -0.053567348529306426   -0.0011173502154488808
-0.0014559562306189196   -0.053470432398485465   -0.000947179575735592
-0.006942006580911835   -0.04342062625114252   -0.0007411379890146844
-0.001309325225668889   -0.0434342853077776   -0.0005767566706980793
-0.0012506494663127728   -0.043543241934282134   -0.0005794859356974802
-0.0014559562306189196   -0.053470432398485465   -0.000947179575735592
-0.006942006580911835   -0.04342062625114252   -0.0007411379890146844
-0.0012506494663127728   -0.043543241934282134   -0.0005794859356974802
-0.006531469320314165   -0.053567348529306426   -0.0011173502154488808
-0.0014559562306189196   -0.053470432398485465   -0.000947179575735592
-0.001309325225668889   -0.0434342853077776   -0.0005767566706980793
-0.006566631426911231   -0.05348140139440422   -0.0010959319562604433
-0.0015007287325306204   -0.05339096932919234   -0.0009618213141716471
-0.001309325225668889   -0.0434342853077776   -0.0005767566706980793
-0.006942006580911835   -0.04342062625114252   -0.0007411379890146844
-0.006566631426911231   -0.05348140139440422   -0.0010959319562604433
-0.007007365306995591   -0.043345043267625255   -0.0007046334626440576
-0.0015007287325306204   -0.05339096932919234   -0.0009618213141716471
-0.006607262479739657   -0.053419257147835485   -0.0010671963247606401
-0.007007365306995591   -0.043345043267625255   -0.0007046334626440576
-0.006566631426911231   -0.05348140139440422   -0.0010959319562604433
-0.0015007287325306204   -0.05339096932919234   -0.0009618213141716471
-0.007007365306995591   -0.043345043267625255   -0.0007046334626440576
-0.0013821313155321785   -0.0433400980121224   -0.0005671471679369866
-0.001309325225668889   -0.0434342853077776   -0.0005767566706980793
-0.0015007287325306204   -0.05339096932919234   -0.0009618213141716471
-0.007007365306995591   -0.043345043267625255   -0.0007046334626440576
-0.001309325225668889   -0.0434342853077776   -0.0005767566706980793
-0.006566631426911231   -0.05348140139440422   -0.0010959319562604433
-0.0064967832203288245   -0.05367670074780856   -0.0011310813293806024
-0.006822661925250858   -0.04361645767736636   -0.0007941090145593896
-0.011502849796828583   -0.05357117451803282   -0.0013322570644572996
-0.006531469320314165   -0.053567348529306426   -0.0011173502154488808
-0.006822661925250858   -0.04361645767736636   -0.0007941090145593896
-0.01235237034030757   -0.043516994215556624   -0.000978492430244743
-0.011502849796828583   -0.05357117451803282   -0.0013322570644572996
-0.01241318612317169   -0.04343171758058269   -0.0009285717922590315
-0.006531469320314165   -0.053567348529306426   -0.0011173502154488808
-0.011540263891325498   -0.05348133409458027   -0.001275676876657994
-0.01241318612317169   -0.04343171758058269   -0.0009285717922590315
-0.011502849796828583   -0.05357117451803282   -0.0013322570644572996
-0.006531469320314165   -0.053567348529306426   -0.0011173502154488808
-0.01241318612317169   -0.04343171758058269   -0.0009285717922590315
-0.006881740762762191   -0.04351138262511784   -0.0007710706478336176
-0.006822661925250858   -0.04361645767736636   -0.0007941090145593896
-0.006531469320314165   -0.053567348529306426   -0.0011173502154488808
-0.01241318612317169   -0.04343171758058269   -0.0009285717922590315
-0.006822661925250858   -0.04361645767736636   -0.0007941090145593896
-0.011502849796828583   -0.05357117451803282   -0.0013322570644572996
-0.006531469320314165   -0.053567348529306426   -0.0011173502154488808
-0.006881740762762191   -0.04351138262511784   -0.0007710706478336176
-0.011540263891325498   -0.05348133409458027   -0.001275676876657994
-0.006566631426911231   -0.05348140139440422   -0.0010959319562604433
-0.006881740762762191   -0.04351138262511784   -0.0007710706478336176
-0.01241318612317169   -0.04343171758058269   -0.0009285717922590315
-0.011540263891325498   -0.05348133409458027   -0.001275676876657994
-0.012468360184288468   -0.04336065837489474   -0.0008719172705632282
-0.006566631426911231   -0.05348140139440422   -0.0010959319562604433
-0.0115712678628052   -0.05341467505625603   -0.0012115450897579128
-0.012468360184288468   -0.04336065837489474   -0.0008719172705632282
-0.011540263891325498   -0.05348133409458027   -0.001275676876657994
-0.006566631426911231   -0.05348140139440422   -0.0010959319562604433
-0.012468360184288468   -0.04336065837489474   -0.0008719172705632282
-0.006942006580911835   -0.04342062625114252   -0.0007411379890146844
-0.006881740762762191   -0.04351138262511784   -0.0007710706478336176
-0.006566631426911231   -0.05348140139440422   -0.0010959319562604433
-0.012468360184288468   -0.04336065837489474   -0.0008719172705632282
-0.006881740762762191   -0.04351138262511784   -0.0007710706478336176
-0.011540263891325498   -0.05348133409458027   -0.001275676876657994
-0.006566631426911231   -0.05348140139440422   -0.0010959319562604433
-0.006942006580911835   -0.04342062625114252   -0.0007411379890146844
-0.0115712678628052   -0.05341467505625603   -0.0012115450897579128
-0.006607262479739657   -0.053419257147835485   -0.0010671963247606401
-0.006942006580911835   -0.04342062625114252   -0.0007411379890146844
-0.012468360184288468   -0.04336065837489474   -0.0008719172705632282
-0.0115712678628052   -0.05341467505625603   -0.0012115450897579128
-0.012524056982182742   -0.04330393715991033   -0.0008087859519819939
-0.006607262479739657   -0.053419257147835485   -0.0010671963247606401
-0.011603171299324587   -0.05337110062562754   -0.0011400843058979634
-0.012524056982182742   -0.04330393715991033   -0.0008087859519819939
-0.0115712678628052   -0.05341467505625603   -0.0012115450897579128
-0.006607262479739657   -0.053419257147835485   -0.0010671963247606401
-0.012524056982182742   -0.04330393715991033   -0.0008087859519819939
-0.007007365306995591   -0.043345043267625255   -0.0007046334626440576
-0.006942006580911835   -0.04342062625114252   -0.0007411379890146844
-0.006607262479739657   -0.053419257147835485   -0.0010671963247606401
-0.012524056982182742   -0.04330393715991033   -0.0008087859519819939
-0.006942006580911835   -0.04342062625114252   -0.0007411379890146844
-0.0115712678628052   -0.05341467505625603   -0.0012115450897579128
-0.011502849796828583   -0.05357117451803282   -0.0013322570644572996
-0.01235237034030757   -0.043516994215556624   -0.000978492430244743
-0.0166279905040142   -0.053390298252118634   -0.0015002848785131764
-0.011540263891325498   -0.05348133409458027   -0.001275676876657994
-0.01235237034030757   -0.043516994215556624   -0.000978492430244743
-0.017991585092212225   -0.04336928026084329   -0.0011291558604784133
-0.0166279905040142   -0.053390298252118634   -0.0015002848785131764
-0.01804805906891781   -0.04330397228084804   -0.0010521478828016586
-0.011540263891325498   -0.05348133409458027   -0.001275676876657994
-0.0166589605416382   -0.053319521810438315   -0.001400273123430451
-0.01804805906891781   -0.04330397228084804   -0.0010521478828016586
-0.0166279905040142   -0.053390298252118634   -0.0015002848785131764
-0.011540263891325498   -0.05348133409458027   -0.001275676876657994
-0.01804805906891781   -0.04330397228084804   -0.0010521478828016586
-0.01241318612317169   -0.04343171758058269   -0.0009285717922590315
-0.01235237034030757   -0.043516994215556624   -0.000978492430244743
-0.011540263891325498   -0.05348133409458027   -0.001275676876657994
-0.01804805906891781   -0.04330397228084804   -0.0010521478828016586
-0.01235237034030757   -0.043516994215556624   -0.000978492430244743
-0.0166279905040142   -0.053390298252118634   -0.0015002848785131764
-0.011540263891325498   -0.05348133409458027   -0.001275676876657994
-0.01241318612317169   -0.04343171758058269   -0.0009285717922590315
-0.0166589605416382   -0.053319521810438315   -0.001400273123430451
-0.0115712678628052   -0.05341467505625603   -0.0012115450897579128
-0.01241318612317169   -0.04343171758058269   -0.0009285717922590315
-0.01804805906891781   -0.04330397228084804   -0.0010521478828016586
-0.0166589605416382   -0.053319521810438315   -0.001400273123430451
-0.018082293282943335   -0.04325106411456504   -0.0009693154147050702
-0.0115712678628052   -0.05341467505625603   -0.0012115450897579128
-0.016662986755395556   -0.05327049913440913   -0.001293754865617552
-0.018082293282943335   -0.04325106411456504   -0.0009693154147050702
-0.0166589605416382   -0.053319521810438315   -0.001400273123430451
-0.0115712678628052   -0.05341467505625603   -0.0012115450897579128
-0.018082293282943335   -0.04325106411456504   -0.0009693154147050702
-0.012468360184288468   -0.04336065837489474   -0.0008719172705632282
-0.01241318612317169   -0.04343171758058269   -0.0009285717922590315
-0.0115712678628052   -0.05341467505625603   -0.0012115450897579128
-0.018082293282943335   -0.04325106411456504   -0.0009693154147050702
-0.01241318612317169   -0.04343171758058269   -0.0009285717922590315
-0.0166589605416382   -0.053319521810438315   -0.001400273123430451
-0.0115712678628052   -0.05341467505625603   -0.0012115450897579128
-0.012468360184288468   -0.04336065837489474   -0.0008719172705632282
-0.016662986755395556   -0.05327049913440913   -0.001293754865617552
-0.011603171299324587   -0.05337110062562754   -0.0011400843058979634
-0.012468360184288468   -0.04336065837489474   -0.0008719172705632282
-0.018082293282943335   -0.04325106411456504   -0.0009693154147050702
-0.016662986755395556   -0.05327049913440913   -0.001293754865617552
-0.018119881575069774   -0.04321373617928452   -0.0008794538180483572
-0.011603171299324587   -0.05337110062562754   -0.0011400843058979634
-0.016674647597890203   -0.05324663643408541   -0.0011793525575931954
-0.018119881575069774   -0.04321373617928452   -0.0008794538180483572
-0.016662986755395556   -0.05327049913440913   -0.001293754865617552
-0.011603171299324587   -0.05337110062562754   -0.0011400843058979634
-0.018119881575069774   -0.04321373617928452   -0.0008794538180483572
-0.012524056982182742   -0.04330393715991033   -0.0008087859519819939
-0.012468360184288468   -0.04336065837489474   -0.0008719172705632282
-0.011603171299324587   -0.05337110062562754   -0.0011400843058979634
-0.018119881575069774   -0.04321373617928452   -0.0008794538180483572
-0.012468360184288468   -0.04336065837489474   -0.0008719172705632282
-0.016662986755395556   -0.05327049913440913   -0.001293754865617552
-0.0166279905040142   -0.053390298252118634   -0.0015002848785131764
-0.017991585092212225   -0.04336928026084329   -0.0011291558604784133
-0.022216770651063755   -0.05315309535403576   -0.0016438175457884013
-0.0166589605416382   -0.053319521810438315   -0.001400273123430451
-0.017991585092212225   -0.04336928026084329   -0.0011291558604784133
-0.024043773742158457   -0.04318761003310405   -0.0012489659744833461
-0.022216770651063755   -0.05315309535403576   -0.0016438175457884013
-0.02400234391155669   -0.04313254516330053   -0.001146405252460356
-0.0166589605416382   -0.053319521810438315   -0.001400273123430451
-0.02210996841499962   -0.05308844446189973   -0.001497900208527018
-0.02400234391155669   -0.04313254516330053   -0.001146405252460356
-0.022216770651063755   -0.05315309535403576   -0.0016438175457884013
-0.0166589605416382   -0.053319521810438315   -0.001400273123430451
-0.02400234391155669   -0.04313254516330053   -0.001146405252460356
-0.01804805906891781   -0.04330397228084804   -0.0010521478828016586
-0.017991585092212225   -0.04336928026084329   -0.0011291558604784133
-0.0166589605416382   -0.053319521810438315   -0.001400273123430451
-0.02400234391155669   -0.04313254516330053   -0.001146405252460356
-0.017991585092212225   -0.04336928026084329   -0.0011291558604784133
-0.022216770651063755   -0.05315309535403576   -0.0016438175457884013
-0.0166589605416382   -0.053319521810438315   -0.001400273123430451
-0.01804805906891781   -0.04330397228084804   -0.0010521478828016586
-0.02210996841499962   -0.05308844446189973   -0.001497900208527018
-0.016662986755395556   -0.05327049913440913   -0.001293754865617552
-0.01804805906891781   -0.04330397228084804   -0.0010521478828016586
-0.02400234391155669   -0.04313254516330053   -0.001146405252460356
-0.02210996841499962   -0.05308844446189973   -0.001497900208527018
-0.02396858466184573   -0.043088187179969935   -0.0010331570351630188
-0.016662986755395556   -0.05327049913440913   -0.001293754865617552
-0.022019915538687745   -0.05304689762113515   -0.0013406242174342968
-0.02396858466184573   -0.043088187179969935   -0.0010331570351630188
-0.02210996841499962   -0.05308844446189973   -0.001497900208527018
-0.016662986755395556   -0.05327049913440913   -0.001293754865617552
-0.02396858466184573   -0.043088187179969935   -0.0010331570351630188
-0.018082293282943335   -0.04325106411456504   -0.0009693154147050702
-0.01804805906891781   -0.04330397228084804   -0.0010521478828016586
-0.016662986755395556   -0.05327049913440913   -0.001293754865617552
-0.02396858466184573   -0.043088187179969935   -0.0010331570351630188
-0.01804805906891781   -0.04330397228084804   -0.0010521478828016586
-0.02210996841499962   -0.05308844446189973   -0.001497900208527018
-0.016662986755395556   -0.05327049913440913   -0.001293754865617552
-0.018082293282943335   -0.04325106411456504   -0.0009693154147050702
-0.022019915538687745   -0.05304689762113515   -0.0013406242174342968
-0.016674647597890203   -0.05324663643408541   -0.0011793525575931954
-0.018082293282943335   -0.04325106411456504   -0.0009693154147050702
-0.02396858466184573   -0.043088187179969935   -0.0010331570351630188
-0.022019915538687745   -0.05304689762113515   -0.0013406242174342968
-0.023887330121582628   -0.04307410157562725   -0.0009104405582437106
-0.016674647597890203   -0.05324663643408541   -0.0011793525575931954
-0.021871276653009343   -0.05304811294102066   -0.00117340514241253
-0.023887330121582628   -0.04307410157562725   -0.0009104405582437106
-0.022019915538687745   -0.05304689762113515   -0.0013406242174342968
-0.016674647597890203   -0.05324663643408541   -0.0011793525575931954
-0.023887330121582628   -0.04307410157562725   -0.0009104405582437106
-0.018119881575069774   -0.04321373617928452   -0.0008794538180483572
-0.018082293282943335   -0.04325106411456504   -0.0009693154147050702
-0.016674647597890203   -0.05324663643408541   -0.0011793525575931954
-0.023887330121582628   -0.04307410157562725   -0.0009104405582437106
-0.018082293282943335   -0.04325106411456504   -0.0009693154147050702
-0.022019915538687745   -0.05304689762113515   -0.0013406242174342968
0.004699341583607606   -0.043671113500007   -0.0003109123958449802
0.004856742380208455   -0.03300339314549091   -4.843838948404938e-05
-0.0011978435742265054   -0.043669787363632494   -0.0005755959163007727
0.004682202808248381   -0.04352557291313482   -0.00035241403168239163
0.004856742380208455   -0.03300339314549091   -4.843838948404938e-05
-0.0013746170971234554   -0.03294850493763843   -0.00028644194634129224
-0.0011978435742265054   -0.043669787363632494   -0.0005755959163007727
-0.0014470727391184461   -0.032827383145068306   -0.00026491231466819175
0.004682202808248381   -0.04352557291313482   -0.00035241403168239163
-0.0012506494663127728   -0.043543241934282134   -0.0005794859356974802
-0.0014470727391184461   -0.032827383145068306   -0.00026491231466819175
-0.0011978435742265054   -0.043669787363632494   -0.0005755959163007727
0.004682202808248381   -0.04352557291313482   -0.00035241403168239163
-0.0014470727391184461   -0.032827383145068306   -0.00026491231466819175
0.004779786646213604   -0.03286455202874394   -4.402522593808108e-05
0.004856742380208455   -0.03300339314549091   -4.843838948404938e-05
0.004682202808248381   -0.04352557291313482   -0.00035241403168239163
-0.0014470727391184461   -0.032827383145068306   -0.00026491231466819175
0.004856742380208455   -0.03300339314549091   -4.843838948404938e-05
-0.0011978435742265054   -0.043669787363632494   -0.0005755959163007727
0.004682202808248381   -0.04352557291313482   -0.00035241403168239163
0.004779786646213604   -0.03286455202874394   -4.402522593808108e-05
-0.0012506494663127728   -0.043543241934282134   -0.0005794859356974802
0.004639690341615846   -0.04340842202651684   -0.00038330614194094476
0.004779786646213604   -0.03286455202874394   -4.402522593808108e-05
-0.0014470727391184461   -0.032827383145068306   -0.00026491231466819175
-0.0012506494663127728   -0.043543241934282134   -0.0005794859356974802
-0.0015300191471365365   -0.03271303806872376   -0.00023738306112672976
0.004639690341615846   -0.04340842202651684   -0.00038330614194094476
-0.001309325225668889   -0.0434342853077776   -0.0005767566706980793
-0.0015300191471365365   -0.03271303806872376   -0.00023738306112672976
-0.0012506494663127728   -0.043543241934282134   -0.0005794859356974802
0.004639690341615846   -0.04340842202651684   -0.00038330614194094476
-0.0015300191471365365   -0.03271303806872376   -0.00023738306112672976
0.004685376368751518   -0.032740446688384474   -2.735150225103309e-05
0.004779786646213604   -0.03286455202874394   -4.402522593808108e-05
0.004639690341615846   -0.04340842202651684   -0.00038330614194094476
-0.0015300191471365365   -0.03271303806872376   -0.00023738306112672976
0.004779786646213604   -0.03286455202874394   -4.402522593808108e-05
-0.0012506494663127728   -0.043543241934282134   -0.0005794859356974802
0.004639690341615846   -0.04340842202651684   -0.00038330614194094476
0.004685376368751518   -0.032740446688384474   -2.735150225103309e-05
-0.001309325225668889   -0.0434342853077776   -0.0005767566706980793
0.0045803560133486545   -0.04330057722789395   -0.0004043296209478885
0.004685376368751518   -0.032740446688384474   -2.735150225103309e-05
-0.0015300191471365365   -0.03271303806872376   -0.00023738306112672976
-0.001309325225668889   -0.0434342853077776   -0.0005767566706980793
-0.0016231044775859111   -0.03260390619900294   -0.0002023499035443595
0.0045803560133486545   -0.04330057722789395   -0.0004043296209478885
-0.0013821313155321785   -0.0433400980121224   -0.0005671471679369866
-0.0016231044775859111   -0.03260390619900294   -0.0002023499035443595
-0.001309325225668889   -0.0434342853077776   -0.0005767566706980793
0.0045803560133486545   -0.04330057722789395   -0.0004043296209478885
-0.0016231044775859111   -0.03260390619900294   -0.0002023499035443595
0.004560939172993212   -0.03261060748876953   1.0274544949660358e-06
0.004685376368751518   -0.032740446688384474   -2.735150225103309e-05
0.0045803560133486545   -0.04330057722789395   -0.0004043296209478885
-0.0016231044775859111   -0.03260390619900294   -0.0002023499035443595
0.004685376368751518   -0.032740446688384474   -2.735150225103309e-05
-0.001309325225668889   -0.0434342853077776   -0.0005767566706980793
-0.0011978435742265054   -0.043669787363632494   -0.0005755959163007727
-0.0013746170971234554   -0.03294850493763843   -0.00028644194634129224
-0.006822661925250858   -0.04361645767736636   -0.0007941090145593896
-0.0012506494663127728   -0.043543241934282134   -0.0005794859356974802
-0.0013746170971234554   -0.03294850493763843   -0.00028644194634129224
-0.007279164799650139   -0.03288461981123737   -0.00048792552737039307
-0.006822661925250858   -0.04361645767736636   -0.0007941090145593896
-0.007353056106130284   -0.03278328942772991   -0.0004549944485670593
-0.0012506494663127728   -0.043543241934282134   -0.0005794859356974802
-0.006881740762762191   -0.04351138262511784   -0.0007710706478336176
-0.007353056106130284   -0.03278328942772991   -0.0004549944485670593
-0.006822661925250858   -0.04361645767736636   -0.0007941090145593896
-0.0012506494663127728   -0.043543241934282134   -0.0005794859356974802
-0.007353056106130284   -0.03278328942772991   -0.0004549944485670593
-0.0014470727391184461   -0.032827383145068306   -0.00026491231466819175
-0.0013746170971234554   -0.03294850493763843   -0.00028644194634129224
-0.0012506494663127728   -0.043543241934282134   -0.0005794859356974802
-0.007353056106130284   -0.03278328942772991   -0.0004549944485670593
-0.0013746170971234554   -0.03294850493763843   -0.00028644194634129224
-0.006822661925250858   -0.04361645767736636   -0.0007941090145593896
-0.0012506494663127728   -0.043543241934282134   -0.0005794859356974802
-0.0014470727391184461   -0.032827383145068306   -0.00026491231466819175
-0.006881740762762191   -0.04351138262511784   -0.0007710706478336176
-0.001309325225668889   -0.0434342853077776   -0.0005767566706980793
-0.0014470727391184461   -0.032827383145068306   -0.00026491231466819175
-0.007353056106130284   -0.03278328942772991   -0.0004549944485670593
-0.006881740762762191   -0.04351138262511784   -0.0007710706478336176
-0.007428599216478679   -0.03268721986842693   -0.0004163474142934015
-0.001309325225668889   -0.0434342853077776   -0.0005767566706980793
-0.006942006580911835   -0.04342062625114252   -0.0007411379890146844
-0.007428599216478679   -0.03268721986842693   -0.0004163474142934015
-0.006881740762762191   -0.04351138262511784   -0.0007710706478336176
-0.001309325225668889   -0.0434342853077776   -0.0005767566706980793
-0.007428599216478679   -0.03268721986842693   -0.0004163474142934015
-0.0015300191471365365   -0.03271303806872376   -0.00023738306112672976
-0.0014470727391184461   -0.032827383145068306   -0.00026491231466819175
-0.001309325225668889   -0.0434342853077776   -0.0005767566706980793
-0.007428599216478679   -0.03268721986842693   -0.0004163474142934015
-0.0014470727391184461   -0.032827383145068306   -0.00026491231466819175
-0.006881740762762191   -0.04351138262511784   -0.0007710706478336176
-0.001309325225668889   -0.0434342853077776   -0.0005767566706980793
-0.0015300191471365365   -0.03271303806872376   -0.00023738306112672976
-0.006942006580911835   -0.04342062625114252   -0.0007411379890146844
-0.0013821313155321785   -0.0433400980121224   -0.0005671471679369866
-0.0015300191471365365   -0.03271303806872376   -0.00023738306112672976
-0.007428599216478679   -0.03268721986842693   -0.0004163474142934015
-0.006942006580911835   -0.04342062625114252   -0.0007411379890146844
-0.007508941670229404   -0.032597893978882075   -0.00037192144070063326
-0.0013821313155321785   -0.0433400980121224   -0.0005671471679369866
-0.007007365306995591   -0.043345043267625255   -0.0007046334626440576
-0.007508941670229404   -0.032597893978882075   -0.00037192144070063326
-0.006942006580911835   -0.04342062625114252   -0.0007411379890146844
-0.0013821313155321785   -0.0433400980121224   -0.0005671471679369866
-0.007508941670229404   -0.032597893978882075   -0.00037192144070063326
-0.0016231044775859111   -0.03260390619900294   -0.0002023499035443595
-0.0015300191471365365   -0.03271303806872376   -0.00023738306112672976
-0.0013821313155321785   -0.0433400980121224   -0.0005671471679369866
-0.007508941670229404   -0.032597893978882075   -0.00037192144070063326
-0.0015300191471365365   -0.03271303806872376   -0.00023738306112672976
-0.006942006580911835   -0.04342062625114252   -0.0007411379890146844
-0.006822661925250858   -0.04361645767736636   -0.0007941090145593896
-0.007279164799650139   -0.03288461981123737   -0.00048792552737039307
-0.01235237034030757   -0.043516994215556624   -0.000978492430244743
-0.006881740762762191   -0.04351138262511784   -0.0007710706478336176
-0.007279164799650139   -0.03288461981123737   -0.00048792552737039307
-0.013087701731695227   -0.0328080499341811   -0.0006590716468976718
-0.01235237034030757   -0.043516994215556624   -0.000978492430244743
-0.013161049709300337   -0.032725065123807004   -0.0006147437337063615
-0.006881740762762191   -0.04351138262511784   -0.0007710706478336176
-0.01241318612317169   -0.04343171758058269   -0.0009285717922590315
-0.013161049709300337   -0.032725065123807004   -0.0006147437337063615
-0.01235237034030757   -0.043516994215556624   -0.000978492430244743
-0.006881740762762191   -0.04351138262511784   -0.0007710706478336176
-0.013161049709300337   -0.032725065123807004   -0.0006147437337063615
-0.007353056106130284   -0.03278328942772991   -0.0004549944485670593
-0.007279164799650139   -0.03288461981123737   -0.00048792552737039307
-0.006881740762762191   -0.04351138262511784   -0.0007710706478336176
-0.013161049709300337   -0.032725065123807004   -0.0006147437337063615
-0.007279164799650139   -0.03288461981123737   -0.00048792552737039307
-0.01235237034030757   -0.043516994215556624   -0.000978492430244743
-0.006881740762762191   -0.04351138262511784   -0.0007710706478336176
-0.007353056106130284   -0.03278328942772991   -0.0004549944485670593
-0.01241318612317169   -0.04343171758058269   -0.0009285717922590315
-0.006942006580911835   -0.04342062625114252   -0.0007411379890146844
-0.007353056106130284   -0.03278328942772991   -0.0004549944485670593
-0.013161049709300337   -0.032725065123807004   -0.0006147437337063615
-0.01241318612317169   -0.04343171758058269   -0.0009285717922590315
-0.013229654517389437   -0.0326476415545645   -0.0005648953751864074
-0.006942006580911835   -0.04342062625114252   -0.0007411379890146844
-0.012468360184288468   -0.04336065837489474   -0.0008719172705632282
-0.013229654517389437   -0.0326476415545645   -0.0005648953751864074
-0.01241318612317169   -0.04343171758058269   -0.0009285717922590315
-0.006942006580911835   -0.04342062625114252   -0.0007411379890146844
-0.013229654517389437   -0.0326476415545645   -0.0005648953751864074
-0.007428599216478679   -0.03268721986842693   -0.0004163474142934015
-0.007353056106130284   -0.03278328942772991   -0.0004549944485670593
-0.006942006580911835   -0.04342062625114252   -0.0007411379890146844
-0.013229654517389437   -0.0326476415545645   -0.0005648953751864074
-0.007353056106130284   -0.03278328942772991   -0.0004549944485670593
-0.01241318612317169   -0.04343171758058269   -0.0009285717922590315
-0.006942006580911835   -0.04342062625114252   -0.0007411379890146844
-0.007428599216478679   -0.03268721986842693   -0.0004163474142934015
-0.012468360184288468   -0.04336065837489474   -0.0008719172705632282
-0.007007365306995591   -0.043345043267625255   -0.0007046334626440576
-0.007428599216478679   -0.03268721986842693   -0.0004163474142934015
-0.013229654517389437   -0.0326476415545645   -0.0005648953751864074
-0.012468360184288468   -0.04336065837489474   -0.0008719172705632282
-0.013298504642733322   -0.0325759945116144   -0.0005098003660418313
-0.007007365306995591   -0.043345043267625255   -0.0007046334626440576
-0.012524056982182742   -0.04330393715991033   -0.0008087859519819939
-0.013298504642733322   -0.0325759945116144   -0.0005098003660418313
-0.012468360184288468   -0.04336065837489474   -0.0008719172705632282
-0.007007365306995591   -0.043345043267625255   -0.0007046334626440576
-0.013298504642733322   -0.0325759945116144   -0.0005098003660418313
-0.007508941670229404   -0.032597893978882075   -0.00037192144070063326
-0.007428599216478679   -0.03268721986842693   -0.0004163474142934015
-0.007007365306995591   -0.043345043267625255   -0.0007046334626440576
-0.013298504642733322   -0.0325759945116144   -0.0005098003660418313
-0.007428599216478679   -0.03268721986842693   -0.0004163474142934015
-0.012468360184288468   -0.04336065837489474   -0.0008719172705632282
-0.01235237034030757   -0.043516994215556624   -0.000978492430244743
-0.013087701731695227   -0.0328080499341811   -0.0006590716468976718
-0.017991585092212225   -0.04336928026084329   -0.0011291558604784133
-0.01241318612317169   -0.04343171758058269   -0.0009285717922590315
-0.013087701731695227   -0.0328080499341811   -0.0006590716468976718
-0.01900112747739316   -0.03270456149848644   -0.0007984182675554791
-0.017991585092212225   -0.04336928026084329   -0.0011291558604784133
-0.01907137008153654   -0.032640878377818996   -0.0007428288283525071
-0.01241318612317169   -0.04343171758058269   -0.0009285717922590315
-0.01804805906891781   -0.04330397228084804   -0.0010521478828016586
-0.01907137008153654   -0.032640878377818996   -0.0007428288283525071
-0.017991585092212225   -0.04336928026084329   -0.0011291558604784133
-0.01241318612317169   -0.04343171758058269   -0.0009285717922590315
-0.01907137008153654   -0.032640878377818996   -0.0007428288283525071
-0.013161049709300337   -0.032725065123807004   -0.0006147437337063615
-0.013087701731695227   -0.0328080499341811   -0.0006590716468976718
-0.01241318612317169   -0.04343171758058269   -0.0009285717922590315
-0.01907137008153654   -0.032640878377818996   -0.0007428288283525071
-0.013087701731695227   -0.0328080499341811   -0.0006590716468976718
-0.017991585092212225   -0.04336928026084329   -0.0011291558604784133
-0.01241318612317169   -0.04343171758058269   -0.0009285717922590315
-0.013161049709300337   -0.032725065123807004   -0.0006147437337063615
-0.01804805906891781   -0.04330397228084804   -0.0010521478828016586
-0.012468360184288468   -0.04336065837489474   -0.0008719172705632282
-0.013161049709300337   -0.032725065123807004   -0.0006147437337063615
-0.01907137008153654   -0.032640878377818996   -0.0007428288283525071
-0.01804805906891781   -0.04330397228084804   -0.0010521478828016586
-0.019124640212992275   -0.032580623309283345   -0.0006826316892183279
-0.012468360184288468   -0.04336065837489474   -0.0008719172705632282
-0.018082293282943335   -0.04325106411456504   -0.0009693154147050702
-0.019124640212992275   -0.032580623309283345   -0.0006826316892183279
-0.01804805906891781   -0.04330397228084804   -0.0010521478828016586
-0.012468360184288468   -0.04336065837489474   -0.0008719172705632282
-0.019124640212992275   -0.032580623309283345   -0.0006826316892183279
-0.013229654517389437   -0.0326476415545645   -0.0005648953751864074
-0.013161049709300337   -0.032725065123807004   -0.0006147437337063615
-0.012468360184288468   -0.04336065837489474   -0.0008719172705632282
-0.019124640212992275   -0.032580623309283345   -0.0006826316892183279
-0.013161049709300337   -0.032725065123807004   -0.0006147437337063615
-0.01804805906891781   -0.04330397228084804   -0.0010521478828016586
-0.012468360184288468   -0.04336065837489474   -0.0008719172705632282
-0.013229654517389437   -0.0326476415545645   -0.0005648953751864074
-0.018082293282943335   -0.04325106411456504   -0.0009693154147050702
-0.012524056982182742   -0.04330393715991033   -0.0008087859519819939
-0.013229654517389437   -0.0326476415545645   -0.0005648953751864074
-0.019124640212992275   -0.032580623309283345   -0.0006826316892183279
-0.018082293282943335   -0.04325106411456504   -0.0009693154147050702
-0.01917749099961636   -0.032526462766983295   -0.0006166232112536458
-0.012524056982182742   -0.04330393715991033   -0.0008087859519819939
-0.018119881575069774   -0.04321373617928452   -0.0008794538180483572
-0.01917749099961636   -0.032526462766983295   -0.0006166232112536458
-0.018082293282943335   -0.04325106411456504   -0.0009693154147050702
-0.012524056982182742   -0.04330393715991033   -0.0008087859519819939
-0.01917749099961636   -0.032526462766983295   -0.0006166232112536458
-0.013298504642733322   -0.0325759945116144   -0.0005098003660418313
-0.013229654517389437   -0.0326476415545645   -0.0005648953751864074
-0.012524056982182742   -0.04330393715991033   -0.0008087859519819939
-0.01917749099961636   -0.032526462766983295   -0.0006166232112536458
-0.013229654517389437   -0.0326476415545645   -0.0005648953751864074
-0.018082293282943335   -0.04325106411456504   -0.0009693154147050702
-0.017991585092212225   -0.04336928026084329   -0.0011291558604784133
-0.01900112747739316   -0.03270456149848644   -0.0007984182675554791
-0.024043773742158457   -0.04318761003310405   -0.0012489659744833461
-0.01804805906891781   -0.04330397228084804   -0.0010521478828016586
-0.01900112747739316   -0.03270456149848644   -0.0007984182675554791
-0.02526835596439743   -0.03258233911959679   -0.0009018531602107888
-0.024043773742158457   -0.04318761003310405   -0.0012489659744833461
-0.02527920143695783   -0.032531500588963196   -0.0008404727356334147
-0.01804805906891781   -0.04330397228084804   -0.0010521478828016586
-0.02400234391155669   -0.04313254516330053   -0.001146405252460356
-0.02527920143695783   -0.032531500588963196   -0.0008404727356334147
-0.024043773742158457   -0.04318761003310405   -0.0012489659744833461
-0.01804805906891781   -0.04330397228084804   -0.0010521478828016586
-0.02527920143695783   -0.032531500588963196   -0.0008404727356334147
-0.01907137008153654   -0.032640878377818996   -0.0007428288283525071
-0.01900112747739316   -0.03270456149848644   -0.0007984182675554791
-0.01804805906891781   -0.04330397228084804   -0.0010521478828016586
-0.02527920143695783   -0.032531500588963196   -0.0008404727356334147
-0.01900112747739316   -0.03270456149848644   -0.0007984182675554791
-0.024043773742158457   -0.04318761003310405   -0.0012489659744833461
-0.01804805906891781   -0.04330397228084804   -0.0010521478828016586
-0.01907137008153654   -0.032640878377818996   -0.0007428288283525071
-0.02400234391155669   -0.04313254516330053   -0.001146405252460356
-0.018082293282943335   -0.04325106411456504   -0.0009693154147050702
-0.01907137008153654   -0.032640878377818996   -0.0007428288283525071
-0.02527920143695783   -0.032531500588963196   -0.0008404727356334147
-0.02400234391155669   -0.04313254516330053   -0.001146405252460356
-0.025290329069555893   -0.03248006315067472   -0.000769813036838903
-0.018082293282943335   -0.04325106411456504   -0.0009693154147050702
-0.02396858466184573   -0.043088187179969935   -0.0010331570351630188
-0.025290329069555893   -0.03248006315067472   -0.000769813036838903
-0.02400234391155669   -0.04313254516330053   -0.001146405252460356
-0.018082293282943335   -0.04325106411456504   -0.0009693154147050702
-0.025290329069555893   -0.03248006315067472   -0.000769813036838903
-0.019124640212992275   -0.032580623309283345   -0.0006826316892183279
-0.01907137008153654   -0.032640878377818996   -0.0007428288283525071
-0.018082293282943335   -0.04325106411456504   -0.0009693154147050702
-0.025290329069555893   -0.03248006315067472   -0.000769813036838903
-0.01907137008153654   -0.032640878377818996   -0.0007428288283525071
-0.02400234391155669   -0.04313254516330053   -0.001146405252460356
-0.018082293282943335   -0.04325106411456504   -0.0009693154147050702
-0.019124640212992275   -0.032580623309283345   -0.0006826316892183279
-0.02396858466184573   -0.043088187179969935   -0.0010331570351630188
-0.018119881575069774   -0.04321373617928452   -0.0008794538180483572
-0.019124640212992275   -0.032580623309283345   -0.0006826316892183279
-0.025290329069555893   -0.03248006315067472   -0.000769813036838903
-0.02396858466184573   -0.043088187179969935   -0.0010331570351630188
-0.02526624452578939   -0.03244613231263861   -0.0006909760638466255
-0.018119881575069774   -0.04321373617928452   -0.0008794538180483572
-0.023887330121582628   -0.04307410157562725   -0.0009104405582437106
-0.02526624452578939   -0.03244613231263861   -0.0006909760638466255
-0.02396858466184573   -0.043088187179969935   -0.0010331570351630188
-0.018119881575069774   -0.04321373617928452   -0.0008794538180483572
-0.02526624452578939   -0.03244613231263861   -0.0006909760638466255
-0.01917749099961636   -0.032526462766983295   -0.0006166232112536458
-0.019124640212992275   -0.032580623309283345   -0.0006826316892183279
-0.018119881575069774   -0.04321373617928452   -0.0008794538180483572
-0.02526624452578939   -0.03244613231263861   -0.0006909760638466255
-0.019124640212992275   -0.032580623309283345   -0.0006826316892183279
-0.02396858466184573   -0.043088187179969935   -0.0010331570351630188
0.004856742380208455   -0.03300339314549091   -4.843838948404938e-05
0.004352889180447825   -0.022019548751326792   0.00013271378538218048
-0.0013746170971234554   -0.03294850493763843   -0.00028644194634129224
0.004779786646213604   -0.03286455202874394   -4.402522593808108e-05
0.004352889180447825   -0.022019548751326792   0.00013271378538218048
-0.0019245190327231451   -0.0219159979719226   -5.6469902414330684e-05
-0.0013746170971234554   -0.03294850493763843   -0.00028644194634129224
-0.0020110614961057417   -0.02180633390102883   -1.1554313380054606e-05
0.004779786646213604   -0.03286455202874394   -4.402522593808108e-05
-0.0014470727391184461   -0.032827383145068306   -0.00026491231466819175
-0.0020110614961057417   -0.02180633390102883   -1.1554313380054606e-05
-0.0013746170971234554   -0.03294850493763843   -0.00028644194634129224
0.004779786646213604   -0.03286455202874394   -4.402522593808108e-05
-0.0020110614961057417   -0.02180633390102883   -1.1554313380054606e-05
0.004216540854771547   -0.02188725884109998   0.00018865127315137196
0.004352889180447825   -0.022019548751326792   0.00013271378538218048
0.004779786646213604   -0.03286455202874394   -4.402522593808108e-05
-0.0020110614961057417   -0.02180633390102883   -1.1554313380054606e-05
0.004352889180447825   -0.022019548751326792   0.00013271378538218048
-0.0013746170971234554   -0.03294850493763843   -0.00028644194634129224
0.004779786646213604   -0.03286455202874394   -4.402522593808108e-05
0.004216540854771547   -0.02188725884109998   0.00018865127315137196
-0.0014470727391184461   -0.032827383145068306   -0.00026491231466819175
0.004685376368751518   -0.032740446688384474   -2.735150225103309e-05
0.004216540854771547   -0.02188725884109998   0.00018865127315137196
-0.0020110614961057417   -0.02180633390102883   -1.1554313380054606e-05
-0.0014470727391184461   -0.032827383145068306   -0.00026491231466819175
-0.002112293338138352   -0.021690584177689085   4.1346286595315913e-05
0.004685376368751518   -0.032740446688384474   -2.735150225103309e-05
-0.0015300191471365365   -0.03271303806872376   -0.00023738306112672976
-0.002112293338138352   -0.021690584177689085   4.1346286595315913e-05
-0.0014470727391184461   -0.032827383145068306   -0.00026491231466819175
0.004685376368751518   -0.032740446688384474   -2.735150225103309e-05
-0.002112293338138352   -0.021690584177689085   4.1346286595315913e-05
0.00406437862396862   -0.02175585846052506   0.0002689657826561162
0.004216540854771547   -0.02188725884109998   0.00018865127315137196
0.004685376368751518   -0.032740446688384474   -2.735150225103309e-05
-0.002112293338138352   -0.021690584177689085   4.1346286595315913e-05
0.004216540854771547   -0.02188725884109998   0.00018865127315137196
-0.0014470727391184461   -0.032827383145068306   -0.00026491231466819175
0.004685376368751518   -0.032740446688384474   -2.735150225103309e-05
0.00406437862396862   -0.02175585846052506   0.0002689657826561162
-0.0015300191471365365   -0.03271303806872376   -0.00023738306112672976
0.004560939172993212   -0.03261060748876953   1.0274544949660358e-06
0.00406437862396862   -0.02175585846052506   0.0002689657826561162
-0.002112293338138352   -0.021690584177689085   4.1346286595315913e-05
-0.0015300191471365365   -0.03271303806872376   -0.00023738306112672976
-0.0022169965161994844   -0.02156767468446589   0.0001021240788414514
0.004560939172993212   -0.03261060748876953   1.0274544949660358e-06
-0.0016231044775859111   -0.03260390619900294   -0.0002023499035443595
-0.0022169965161994844   -0.02156767468446589   0.0001021240788414514
-0.0015300191471365365   -0.03271303806872376   -0.00023738306112672976
0.004560939172993212   -0.03261060748876953   1.0274544949660358e-06
-0.0022169965161994844   -0.02156767468446589   0.0001021240788414514
0.0038784596105765857   -0.021594449513499737   0.0003573360269490775
0.00406437862396862   -0.02175585846052506   0.0002689657826561162
0.004560939172993212   -0.03261060748876953   1.0274544949660358e-06
-0.0022169965161994844   -0.02156767468446589   0.0001021240788414514
0.00406437862396862   -0.02175585846052506   0.0002689657826561162
-0.0015300191471365365   -0.03271303806872376   -0.00023738306112672976
-0.0013746170971234554   -0.03294850493763843   -0.00028644194634129224
-0.0019245190327231451   -0.0219159979719226   -5.6469902414330684e-05
-0.007279164799650139   -0.03288461981123737   -0.00048792552737039307
-0.0014470727391184461   -0.032827383145068306   -0.00026491231466819175
-0.0019245190327231451   -0.0219159979719226   -5.6469902414330684e-05
-0.00783588883225621   -0.02188920103264152   -0.00023883927908848143
-0.007279164799650139   -0.03288461981123737   -0.00048792552737039307
-0.007914104682124461   -0.021793473079973896   -0.0001970650824710366
-0.0014470727391184461   -0.032827383145068306   -0.00026491231466819175
-0.007353056106130284   -0.03278328942772991   -0.0004549944485670593
-0.007914104682124461   -0.021793473079973896   -0.0001970650824710366
-0.007279164799650139   -0.03288461981123737   -0.00048792552737039307
-0.0014470727391184461   -0.032827383145068306   -0.00026491231466819175
-0.007914104682124461   -0.021793473079973896   -0.0001970650824710366
-0.0020110614961057417   -0.02180633390102883   -1.1554313380054606e-05
-0.0019245190327231451   -0.0219159979719226   -5.6469902414330684e-05
-0.0014470727391184461   -0.032827383145068306   -0.00026491231466819175
-0.007914104682124461   -0.021793473079973896   -0.0001970650824710366
-0.0019245190327231451   -0.0219159979719226   -5.6469902414330684e-05
-0.007279164799650139   -0.03288461981123737   -0.00048792552737039307
-0.0014470727391184461   -0.032827383145068306   -0.00026491231466819175
-0.0020110614961057417   -0.02180633390102883   -1.1554313380054606e-05
-0.007353056106130284   -0.03278328942772991   -0.0004549944485670593
-0.0015300191471365365   -0.03271303806872376   -0.00023738306112672976
-0.0020110614961057417   -0.02180633390102883   -1.1554313380054606e-05
-0.007914104682124461   -0.021793473079973896   -0.0001970650824710366
-0.007353056106130284   -0.03278328942772991   -0.0004549944485670593
-0.007995011918867218   -0.02169389455696482   -0.0001511497573721329
-0.0015300191471365365   -0.03271303806872376   -0.00023738306112672976
-0.007428599216478679   -0.03268721986842693   -0.0004163474142934015
-0.007995011918867218   -0.02169389455696482   -0.0001511497573721329
-0.007353056106130284   -0.03278328942772991   -0.0004549944485670593
-0.0015300191471365365   -0.03271303806872376   -0.00023738306112672976
-0.007995011918867218   -0.02169389455696482   -0.0001511497573721329
-0.002112293338138352   -0.021690584177689085   4.1346286595315913e-05
-0.0020110614961057417   -0.02180633390102883   -1.1554313380054606e-05
-0.0015300191471365365   -0.03271303806872376   -0.00023738306112672976
-0.007995011918867218   -0.02169389455696482   -0.0001511497573721329
-0.0020110614961057417   -0.02180633390102883   -1.1554313380054606e-05
-0.007353056106130284   -0.03278328942772991   -0.0004549944485670593
-0.0015300191471365365   -0.03271303806872376   -0.00023738306112672976
-0.002112293338138352   -0.021690584177689085   4.1346286595315913e-05
-0.007428599216478679   -0.03268721986842693   -0.0004163474142934015
-0.0016231044775859111   -0.03260390619900294   -0.0002023499035443595
-0.002112293338138352   -0.021690584177689085   4.1346286595315913e-05
-0.007995011918867218   -0.02169389455696482   -0.0001511497573721329
-0.007428599216478679   -0.03268721986842693   -0.0004163474142934015
-0.008079239645554327   -0.021592242319366965   -0.00010026492664493516
-0.0016231044775859111   -0.03260390619900294   -0.0002023499035443595
-0.007508941670229404   -0.032597893978882075   -0.00037192144070063326
-0.008079239645554327   -0.021592242319366965   -0.00010026492664493516
-0.007428599216478679   -0.03268721986842693   -0.0004163474142934015
-0.0016231044775859111   -0.03260390619900294   -0.0002023499035443595
-0.008079239645554327   -0.021592242319366965   -0.00010026492664493516
-0.0022169965161994844   -0.02156767468446589   0.0001021240788414514
-0.002112293338138352   -0.021690584177689085   4.1346286595315913e-05
-0.0016231044775859111   -0.03260390619900294   -0.0002023499035443595
-0.008079239645554327   -0.021592242319366965   -0.00010026492664493516
-0.002112293338138352   -0.021690584177689085   4.1346286595315913e-05
-0.007428599216478679   -0.03268721986842693   -0.0004163474142934015
-0.007279164799650139   -0.03288461981123737   -0.00048792552737039307
-0.00783588883225621   -0.02188920103264152   -0.00023883927908848143
-0.013087701731695227   -0.0328080499341811   -0.0006590716468976718
-0.007353056106130284   -0.03278328942772991   -0.0004549944485670593
-0.00783588883225621   -0.02188920103264152   -0.00023883927908848143
-0.013686701135655425   -0.0218817542283972   -0.0004036933741818757
-0.013087701731695227   -0.0328080499341811   -0.0006590716468976718
-0.013761469426563934   -0.021797805181239846   -0.0003638557036467115
-0.007353056106130284   -0.03278328942772991   -0.0004549944485670593
-0.013161049709300337   -0.032725065123807004   -0.0006147437337063615
-0.013761469426563934   -0.021797805181239846   -0.0003638557036467115
-0.013087701731695227   -0.0328080499341811   -0.0006590716468976718
-0.007353056106130284   -0.03278328942772991   -0.0004549944485670593
-0.013761469426563934   -0.021797805181239846   -0.0003638557036467115
-0.007914104682124461   -0.021793473079973896   -0.0001970650824710366
-0.00783588883225621   -0.02188920103264152   -0.00023883927908848143
-0.007353056106130284   -0.03278328942772991   -0.0004549944485670593
-0.013761469426563934   -0.021797805181239846   -0.0003638557036467115
-0.00783588883225621   -0.02188920103264152   -0.00023883927908848143
-0.013087701731695227   -0.0328080499341811   -0.0006590716468976718
-0.007353056106130284   -0.03278328942772991   -0.0004549944485670593
-0.007914104682124461   -0.021793473079973896   -0.0001970650824710366
-0.013161049709300337   -0.032725065123807004   -0.0006147437337063615
-0.007428599216478679   -0.03268721986842693   -0.0004163474142934015
-0.007914104682124461   -0.021793473079973896   -0.0001970650824710366
-0.013761469426563934   -0.021797805181239846   -0.0003638557036467115
-0.013161049709300337   -0.032725065123807004   -0.0006147437337063615
-0.013832693799409778   -0.021712332057512045   -0.0003203975202712485
-0.007428599216478679   -0.03268721986842693   -0.0004163474142934015
-0.013229654517389437   -0.0326476415545645   -0.0005648953751864074
-0.013832693799409778   -0.021712332057512045   -0.0003203975202712485
-0.013161049709300337   -0.032725065123807004   -0.0006147437337063615
-0.007428599216478679   -0.03268721986842693   -0.0004163474142934015
-0.013832693799409778   -0.021712332057512045   -0.0003203975202712485
-0.007995011918867218   -0.02169389455696482   -0.0001511497573721329
-0.007914104682124461   -0.021793473079973896   -0.0001970650824710366
-0.007428599216478679   -0.03268721986842693   -0.0004163474142934015
-0.013832693799409778   -0.021712332057512045   -0.0003203975202712485
-0.007914104682124461   -0.021793473079973896   -0.0001970650824710366
-0.013161049709300337   -0.032725065123807004   -0.0006147437337063615
-0.007428599216478679   -0.03268721986842693   -0.0004163474142934015
-0.007995011918867218   -0.02169389455696482   -0.0001511497573721329
-0.013229654517389437   -0.0326476415545645   -0.0005648953751864074
-0.007508941670229404   -0.032597893978882075   -0.00037192144070063326
-0.007995011918867218   -0.02169389455696482   -0.0001511497573721329
-0.013832693799409778   -0.021712332057512045   -0.0003203975202712485
-0.013229654517389437   -0.0326476415545645   -0.0005648953751864074
-0.013903201318467071   -0.0216248482123304   -0.00027352463572583285
-0.007508941670229404   -0.032597893978882075   -0.00037192144070063326
-0.013298504642733322   -0.0325759945116144   -0.0005098003660418313
-0.013903201318467071   -0.0216248482123304   -0.00027352463572583285
-0.013229654517389437   -0.0326476415545645   -0.0005648953751864074
-0.007508941670229404   -0.032597893978882075   -0.00037192144070063326
-0.013903201318467071   -0.0216248482123304   -0.00027352463572583285
-0.008079239645554327   -0.021592242319366965   -0.00010026492664493516
-0.007995011918867218   -0.02169389455696482   -0.0001511497573721329
-0.007508941670229404   -0.032597893978882075   -0.00037192144070063326
-0.013903201318467071   -0.0216248482123304   -0.00027352463572583285
-0.007995011918867218   -0.02169389455696482   -0.0001511497573721329
-0.013229654517389437   -0.0326476415545645   -0.0005648953751864074
-0.013087701731695227   -0.0328080499341811   -0.0006590716468976718
-0.013686701135655425   -0.0218817542283972   -0.0004036933741818757
-0.01900112747739316   -0.03270456149848644   -0.0007984182675554791
-0.013161049709300337   -0.032725065123807004   -0.0006147437337063615
-0.013686701135655425   -0.0218817542283972   -0.0004036933741818757
-0.019661447984396847   -0.021847782791345086   -0.0005421876622108224
-0.01900112747739316   -0.03270456149848644   -0.0007984182675554791
-0.019732726435107543   -0.02177934977419994   -0.0005044857753256127
-0.013161049709300337   -0.032725065123807004   -0.0006147437337063615
-0.01907137008153654   -0.032640878377818996   -0.0007428288283525071
-0.019732726435107543   -0.02177934977419994   -0.0005044857753256127
-0.01900112747739316   -0.03270456149848644   -0.0007984182675554791
-0.013161049709300337   -0.032725065123807004   -0.0006147437337063615
-0.019732726435107543   -0.02177934977419994   -0.0005044857753256127
-0.013761469426563934   -0.021797805181239846   -0.0003638557036467115
-0.013686701135655425   -0.0218817542283972   -0.0004036933741818757
-0.013161049709300337   -0.032725065123807004   -0.0006147437337063615
-0.019732726435107543   -0.02177934977419994   -0.0005044857753256127
-0.013686701135655425   -0.0218817542283972   -0.0004036933741818757
-0.01900112747739316   -0.03270456149848644   -0.0007984182675554791
-0.013161049709300337   -0.032725065123807004   -0.0006147437337063615
-0.013761469426563934   -0.021797805181239846   -0.0003638557036467115
-0.01907137008153654   -0.032640878377818996   -0.0007428288283525071
-0.013229654517389437   -0.0326476415545645   -0.0005648953751864074
-0.013761469426563934   -0.021797805181239846   -0.0003638557036467115
-0.019732726435107543   -0.02177934977419994   -0.0005044857753256127
-0.01907137008153654   -0.032640878377818996   -0.0007428288283525071
-0.01979312848004213   -0.02170716120171075   -0.0004642147181056623
-0.013229654517389437   -0.0326476415545645   -0.0005648953751864074
-0.019124640212992275   -0.032580623309283345   -0.0006826316892183279
-0.01979312848004213   -0.02170716120171075   -0.0004642147181056623
-0.01907137008153654   -0.032640878377818996   -0.0007428288283525071
-0.013229654517389437   -0.0326476415545645   -0.0005648953751864074
-0.01979312848004213   -0.02170716120171075   -0.0004642147181056623
-0.013832693799409778   -0.021712332057512045   -0.0003203975202712485
-0.013761469426563934   -0.021797805181239846   -0.0003638557036467115
-0.013229654517389437   -0.0326476415545645   -0.0005648953751864074
-0.01979312848004213   -0.02170716120171075   -0.0004642147181056623
-0.013761469426563934   -0.021797805181239846   -0.0003638557036467115
-0.01907137008153654   -0.032640878377818996   -0.0007428288283525071
-0.013229654517389437   -0.0326476415545645   -0.0005648953751864074
-0.013832693799409778   -0.021712332057512045   -0.0003203975202712485
-0.019124640212992275   -0.032580623309283345   -0.0006826316892183279
-0.013298504642733322   -0.0325759945116144   -0.0005098003660418313
-0.013832693799409778   -0.021712332057512045   -0.0003203975202712485
-0.01979312848004213   -0.02170716120171075   -0.0004642147181056623
-0.019124640212992275   -0.032580623309283345   -0.0006826316892183279
-0.01985021772633277   -0.0216330680330877   -0.00042025372560995893
-0.013298504642733322   -0.0325759945116144   -0.0005098003660418313
-0.01917749099961636   -0.032526462766983295   -0.0006166232112536458
-0.01985021772633277   -0.0216330680330877   -0.00042025372560995893
-0.019124640212992275   -0.032580623309283345   -0.0006826316892183279
-0.013298504642733322   -0.0325759945116144   -0.0005098003660418313
-0.01985021772633277   -0.0216330680330877   -0.00042025372560995893
-0.013903201318467071   -0.0216248482123304   -0.00027352463572583285
-0.013832693799409778   -0.021712332057512045   -0.0003203975202712485
-0.013298504642733322   -0.0325759945116144   -0.0005098003660418313
-0.01985021772633277   -0.0216330680330877   -0.00042025372560995893
-0.013832693799409778   -0.021712332057512045   -0.0003203975202712485
-0.019124640212992275   -0.032580623309283345   -0.0006826316892183279
-0.01900112747739316   -0.03270456149848644   -0.0007984182675554791
-0.019661447984396847   -0.021847782791345086   -0.0005421876622108224
-0.02526835596439743   -0.03258233911959679   -0.0009018531602107888
-0.01907137008153654   -0.032640878377818996   -0.0007428288283525071
-0.019661447984396847   -0.021847782791345086   -0.0005421876622108224
-0.02591983325665258   -0.021791838599374065   -0.0006446869248950592
-0.02526835596439743   -0.03258233911959679   -0.0009018531602107888
-0.02596417574354446   -0.021734380308579472   -0.0006164334995088151
-0.01907137008153654   -0.032640878377818996   -0.0007428288283525071
-0.02527920143695783   -0.032531500588963196   -0.0008404727356334147
-0.02596417574354446   -0.021734380308579472   -0.0006164334995088151
-0.02526835596439743   -0.03258233911959679   -0.0009018531602107888
-0.01907137008153654   -0.032640878377818996   -0.0007428288283525071
-0.02596417574354446   -0.021734380308579472   -0.0006164334995088151
-0.019732726435107543   -0.02177934977419994   -0.0005044857753256127
-0.019661447984396847   -0.021847782791345086   -0.0005421876622108224
-0.01907137008153654   -0.032640878377818996   -0.0007428288283525071
-0.02596417574354446   -0.021734380308579472   -0.0006164334995088151
-0.019661447984396847   -0.021847782791345086   -0.0005421876622108224
-0.02526835596439743   -0.03258233911959679   -0.0009018531602107888
-0.01907137008153654   -0.032640878377818996   -0.0007428288283525071
-0.019732726435107543   -0.02177934977419994   -0.0005044857753256127
-0.02527920143695783   -0.032531500588963196   -0.0008404727356334147
-0.019124640212992275   -0.032580623309283345   -0.0006826316892183279
-0.019732726435107543   -0.02177934977419994   -0.0005044857753256127
-0.02596417574354446   -0.021734380308579472   -0.0006164334995088151
-0.02527920143695783   -0.032531500588963196   -0.0008404727356334147
-0.026004721810967846   -0.021669369339905743   -0.0005818736695248784
-0.019124640212992275   -0.032580623309283345   -0.0006826316892183279
-0.025290329069555893   -0.03248006315067472   -0.000769813036838903
-0.026004721810967846   -0.021669369339905743   -0.0005818736695248784
-0.02527920143695783   -0.032531500588963196   -0.0008404727356334147
-0.019124640212992275   -0.032580623309283345   -0.0006826316892183279
-0.026004721810967846   -0.021669369339905743   -0.0005818736695248784
-0.01979312848004213   -0.02170716120171075   -0.0004642147181056623
-0.019732726435107543   -0.02177934977419994   -0.0005044857753256127
-0.019124640212992275   -0.032580623309283345   -0.0006826316892183279
-0.026004721810967846   -0.021669369339905743   -0.0005818736695248784
-0.019732726435107543   -0.02177934977419994   -0.0005044857753256127
-0.02527920143695783   -0.032531500588963196   -0.0008404727356334147
-0.019124640212992275   -0.032580623309283345   -0.0006826316892183279
-0.01979312848004213   -0.02170716120171075   -0.0004642147181056623
-0.025290329069555893   -0.03248006315067472   -0.000769813036838903
-0.01917749099961636   -0.032526462766983295   -0.0006166232112536458
-0.01979312848004213   -0.02170716120171075   -0.0004642147181056623
-0.026004721810967846   -0.021669369339905743   -0.0005818736695248784
-0.025290329069555893   -0.03248006315067472   -0.000769813036838903
-0.026024419912762435   -0.021609695024465737   -0.000542586051506496
-0.01917749099961636   -0.032526462766983295   -0.0006166232112536458
-0.02526624452578939   -0.03244613231263861   -0.0006909760638466255
-0.026024419912762435   -0.021609695024465737   -0.000542586051506496
-0.025290329069555893   -0.03248006315067472   -0.000769813036838903
-0.01917749099961636   -0.032526462766983295   -0.0006166232112536458
-0.026024419912762435   -0.021609695024465737   -0.000542586051506496
-0.01985021772633277   -0.0216330680330877   -0.00042025372560995893
-0.01979312848004213   -0.02170716120171075   -0.0004642147181056623
-0.01917749099961636   -0.032526462766983295   -0.0006166232112536458
-0.026024419912762435   -0.021609695024465737   -0.000542586051506496
-0.01979312848004213   -0.02170716120171075   -0.0004642147181056623
-0.025290329069555893   -0.03248006315067472   -0.000769813036838903
0.004352889180447825   -0.022019548751326792   0.00013271378538218048
0.003049429755700648   -0.011057221975770365   0.00014254388121395548
-0.0019245190327231451   -0.0219159979719226   -5.6469902414330684e-05
0.004216540854771547   -0.02188725884109998   0.00018865127315137196
0.003049429755700648   -0.011057221975770365   0.00014254388121395548
-0.002803828685055309   -0.010913787075867628   7.238931158973627e-05
-0.0019245190327231451   -0.0219159979719226   -5.6469902414330684e-05
-0.0028899022123355443   -0.010858386630691334   0.00013477437880194515
0.004216540854771547   -0.02188725884109998   0.00018865127315137196
-0.0020110614961057417   -0.02180633390102883   -1.1554313380054606e-05
-0.0028899022123355443   -0.010858386630691334   0.00013477437880194515
-0.0019245190327231451   -0.0219159979719226   -5.6469902414330684e-05
0.004216540854771547   -0.02188725884109998   0.00018865127315137196
-0.0028899022123355443   -0.010858386630691334   0.00013477437880194515
0.0027811641286814835   -0.010916711945861614   0.00029699475048983355
0.003049429755700648   -0.011057221975770365   0.00014254388121395548
0.004216540854771547   -0.02188725884109998   0.00018865127315137196
-0.0028899022123355443   -0.010858386630691334   0.00013477437880194515
0.003049429755700648   -0.011057221975770365   0.00014254388121395548
-0.0019245190327231451   -0.0219159979719226   -5.6469902414330684e-05
0.004216540854771547   -0.02188725884109998   0.00018865127315137196
0.0027811641286814835   -0.010916711945861614   0.00029699475048983355
-0.0020110614961057417   -0.02180633390102883   -1.1554313380054606e-05
0.00406437862396862   -0.02175585846052506   0.0002689657826561162
0.0027811641286814835   -0.010916711945861614   0.00029699475048983355
-0.0028899022123355443   -0.010858386630691334   0.00013477437880194515
-0.0020110614961057417   -0.02180633390102883   -1.1554313380054606e-05
-0.0030029990230488663   -0.010759808871366811   0.00021052031167730813
0.00406437862396862   -0.02175585846052506   0.0002689657826561162
-0.002112293338138352   -0.021690584177689085   4.1346286595315913e-05
-0.0030029990230488663   -0.010759808871366811   0.00021052031167730813
-0.0020110614961057417   -0.02180633390102883   -1.1554313380054606e-05
0.00406437862396862   -0.02175585846052506   0.0002689657826561162
-0.0030029990230488663   -0.010759808871366811   0.00021052031167730813
0.0026240621704178963   -0.010801739627336741   0.00041227010160764
0.0027811641286814835   -0.010916711945861614   0.00029699475048983355
0.00406437862396862   -0.02175585846052506   0.0002689657826561162
-0.0030029990230488663   -0.010759808871366811   0.00021052031167730813
0.0027811641286814835   -0.010916711945861614   0.00029699475048983355
-0.0020110614961057417   -0.02180633390102883   -1.1554313380054606e-05
0.00406437862396862   -0.02175585846052506   0.0002689657826561162
0.0026240621704178963   -0.010801739627336741   0.00041227010160764
-0.002112293338138352   -0.021690584177689085   4.1346286595315913e-05
0.0038784596105765857   -0.021594449513499737   0.0003573360269490775
0.0026240621704178963   -0.010801739627336741   0.00041227010160764
-0.0030029990230488663   -0.010759808871366811   0.00021052031167730813
-0.002112293338138352   -0.021690584177689085   4.1346286595315913e-05
-0.0030980724068351826   -0.010653800338845413   0.0002772001155810194
0.0038784596105765857   -0.021594449513499737   0.0003573360269490775
-0.0022169965161994844   -0.02156767468446589   0.0001021240788414514
-0.0030980724068351826   -0.010653800338845413   0.0002772001155810194
-0.002112293338138352   -0.021690584177689085   4.1346286595315913e-05
0.0038784596105765857   -0.021594449513499737   0.0003573360269490775
-0.0030980724068351826   -0.010653800338845413   0.0002772001155810194
0.002422748327940184   -0.010626057110473652   0.0005442581436499019
0.0026240621704178963   -0.010801739627336741   0.00041227010160764
0.0038784596105765857   -0.021594449513499737   0.0003573360269490775
-0.0030980724068351826   -0.010653800338845413   0.0002772001155810194
0.0026240621704178963   -0.010801739627336741   0.00041227010160764
-0.002112293338138352   -0.021690584177689085   4.1346286595315913e-05
-0.0019245190327231451   -0.0219159979719226   -5.6469902414330684e-05
-0.002803828685055309   -0.010913787075867628   7.238931158973627e-05
-0.00783588883225621   -0.02188920103264152   -0.00023883927908848143
-0.0020110614961057417   -0.02180633390102883   -1.1554313380054606e-05
-0.002803828685055309   -0.010913787075867628   7.238931158973627e-05
-0.008375099988858969   -0.011075052385836727   -7.27624779464928e-05
-0.00783588883225621   -0.02188920103264152   -0.00023883927908848143
-0.00845433233265254   -0.010990394575498165   -2.858168620125298e-05
-0.0020110614961057417   -0.02180633390102883   -1.1554313380054606e-05
-0.007914104682124461   -0.021793473079973896   -0.0001970650824710366
-0.00845433233265254   -0.010990394575498165   -2.858168620125298e-05
-0.00783588883225621   -0.02188920103264152   -0.00023883927908848143
-0.0020110614961057417   -0.02180633390102883   -1.1554313380054606e-05
-0.00845433233265254   -0.010990394575498165   -2.858168620125298e-05
-0.0028899022123355443   -0.010858386630691334   0.00013477437880194515
-0.002803828685055309   -0.010913787075867628   7.238931158973627e-05
-0.0020110614961057417   -0.02180633390102883   -1.1554313380054606e-05
-0.00845433233265254   -0.010990394575498165   -2.858168620125298e-05
-0.002803828685055309   -0.010913787075867628   7.238931158973627e-05
-0.00783588883225621   -0.02188920103264152   -0.00023883927908848143
-0.0020110614961057417   -0.02180633390102883   -1.1554313380054606e-05
-0.0028899022123355443   -0.010858386630691334   0.00013477437880194515
-0.007914104682124461   -0.021793473079973896   -0.0001970650824710366
-0.002112293338138352   -0.021690584177689085   4.1346286595315913e-05
-0.0028899022123355443   -0.010858386630691334   0.00013477437880194515
-0.00845433233265254   -0.010990394575498165   -2.858168620125298e-05
-0.007914104682124461   -0.021793473079973896   -0.0001970650824710366
-0.008537254567797505   -0.010894823895835747   1.8169301500478082e-05
-0.002112293338138352   -0.021690584177689085   4.1346286595315913e-05
-0.007995011918867218   -0.02169389455696482   -0.0001511497573721329
-0.008537254567797505   -0.010894823895835747   1.8169301500478082e-05
-0.007914104682124461   -0.021793473079973896   -0.0001970650824710366
-0.002112293338138352   -0.021690584177689085   4.1346286595315913e-05
-0.008537254567797505   -0.010894823895835747   1.8169301500478082e-05
-0.0030029990230488663   -0.010759808871366811   0.00021052031167730813
-0.0028899022123355443   -0.010858386630691334   0.00013477437880194515
-0.002112293338138352   -0.021690584177689085   4.1346286595315913e-05
-0.008537254567797505   -0.010894823895835747   1.8169301500478082e-05
-0.0028899022123355443   -0.010858386630691334   0.00013477437880194515
-0.007914104682124461   -0.021793473079973896   -0.0001970650824710366
-0.002112293338138352   -0.021690584177689085   4.1346286595315913e-05
-0.0030029990230488663   -0.010759808871366811   0.00021052031167730813
-0.007995011918867218   -0.02169389455696482   -0.0001511497573721329
-0.0022169965161994844   -0.02156767468446589   0.0001021240788414514
-0.0030029990230488663   -0.010759808871366811   0.00021052031167730813
-0.008537254567797505   -0.010894823895835747   1.8169301500478082e-05
-0.007995011918867218   -0.02169389455696482   -0.0001511497573721329
-0.00861606096914417   -0.010790078669780412   6.972462104452243e-05
-0.0022169965161994844   -0.02156767468446589   0.0001021240788414514
-0.008079239645554327   -0.021592242319366965   -0.00010026492664493516
-0.00861606096914417   -0.010790078669780412   6.972462104452243e-05
-0.007995011918867218   -0.02169389455696482   -0.0001511497573721329
-0.0022169965161994844   -0.02156767468446589   0.0001021240788414514
-0.00861606096914417   -0.010790078669780412   6.972462104452243e-05
-0.0030980724068351826   -0.010653800338845413   0.0002772001155810194
-0.0030029990230488663   -0.010759808871366811   0.00021052031167730813
-0.0022169965161994844   -0.02156767468446589   0.0001021240788414514
-0.00861606096914417   -0.010790078669780412   6.972462104452243e-05
-0.0030029990230488663   -0.010759808871366811   0.00021052031167730813
-0.007995011918867218   -0.02169389455696482   -0.0001511497573721329
-0.00783588883225621   -0.02188920103264152   -0.00023883927908848143
-0.008375099988858969   -0.011075052385836727   -7.27624779464928e-05
-0.013686701135655425   -0.0218817542283972   -0.0004036933741818757
-0.007914104682124461   -0.021793473079973896   -0.0001970650824710366
-0.008375099988858969   -0.011075052385836727   -7.27624779464928e-05
-0.014083152012769926   -0.011201027692104827   -0.00023359687628526598
-0.013686701135655425   -0.0218817542283972   -0.0004036933741818757
-0.014154303975518133   -0.011114116842616185   -0.00019937052526015903
-0.007914104682124461   -0.021793473079973896   -0.0001970650824710366
-0.013761469426563934   -0.021797805181239846   -0.0003638557036467115
-0.014154303975518133   -0.011114116842616185   -0.00019937052526015903
-0.013686701135655425   -0.0218817542283972   -0.0004036933741818757
-0.007914104682124461   -0.021793473079973896   -0.0001970650824710366
-0.014154303975518133   -0.011114116842616185   -0.00019937052526015903
-0.00845433233265254   -0.010990394575498165   -2.858168620125298e-05
-0.008375099988858969   -0.011075052385836727   -7.27624779464928e-05
-0.007914104682124461   -0.021793473079973896   -0.0001970650824710366
-0.014154303975518133   -0.011114116842616185   -0.00019937052526015903
-0.008375099988858969   -0.011075052385836727   -7.27624779464928e-05
-0.013686701135655425   -0.0218817542283972   -0.0004036933741818757
-0.007914104682124461   -0.021793473079973896   -0.0001970650824710366
-0.00845433233265254   -0.010990394575498165   -2.858168620125298e-05
-0.013761469426563934   -0.021797805181239846   -0.0003638557036467115
-0.007995011918867218   -0.02169389455696482   -0.0001511497573721329
-0.00845433233265254   -0.010990394575498165   -2.858168620125298e-05
-0.014154303975518133   -0.011114116842616185   -0.00019937052526015903
-0.013761469426563934   -0.021797805181239846   -0.0003638557036467115
-0.014222401355585793   -0.011022331592263035   -0.00016526052388616213
-0.007995011918867218   -0.02169389455696482   -0.0001511497573721329
-0.013832693799409778   -0.021712332057512045   -0.0003203975202712485
-0.014222401355585793   -0.011022331592263035   -0.00016526052388616213
-0.013761469426563934   -0.021797805181239846   -0.0003638557036467115
-0.007995011918867218   -0.02169389455696482   -0.0001511497573721329
-0.014222401355585793   -0.011022331592263035   -0.00016526052388616213
-0.008537254567797505   -0.010894823895835747   1.8169301500478082e-05
-0.00845433233265254   -0.010990394575498165   -2.858168620125298e-05
-0.007995011918867218   -0.02169389455696482   -0.0001511497573721329
-0.014222401355585793   -0.011022331592263035   -0.00016526052388616213
-0.00845433233265254   -0.010990394575498165   -2.858168620125298e-05
-0.013761469426563934   -0.021797805181239846   -0.0003638557036467115
-0.007995011918867218   -0.02169389455696482   -0.0001511497573721329
-0.008537254567797505   -0.010894823895835747   1.8169301500478082e-05
-0.013832693799409778   -0.021712332057512045   -0.0003203975202712485
-0.008079239645554327   -0.021592242319366965   -0.00010026492664493516
-0.008537254567797505   -0.010894823895835747   1.8169301500478082e-05
-0.014222401355585793   -0.011022331592263035   -0.00016526052388616213
-0.013832693799409778   -0.021712332057512045   -0.0003203975202712485
-0.014285163580919243   -0.010922961495584063   -0.0001281304191946414
-0.008079239645554327   -0.021592242319366965   -0.00010026492664493516
-0.013903201318467071   -0.0216248482123304   -0.00027352463572583285
-0.014285163580919243   -0.010922961495584063   -0.0001281304191946414
-0.013832693799409778   -0.021712332057512045   -0.0003203975202712485
-0.008079239645554327   -0.021592242319366965   -0.00010026492664493516
-0.014285163580919243   -0.010922961495584063   -0.0001281304191946414
-0.00861606096914417   -0.010790078669780412   6.972462104452243e-05
-0.008537254567797505   -0.010894823895835747   1.8169301500478082e-05
-0.008079239645554327   -0.021592242319366965   -0.00010026492664493516
-0.014285163580919243   -0.010922961495584063   -0.0001281304191946414
-0.008537254567797505   -0.010894823895835747   1.8169301500478082e-05
-0.013832693799409778   -0.021712332057512045   -0.0003203975202712485
-0.013686701135655425   -0.0218817542283972   -0.0004036933741818757
-0.014083152012769926   -0.011201027692104827   -0.00023359687628526598
-0.019661447984396847   -0.021847782791345086   -0.0005421876622108224
-0.013761469426563934   -0.021797805181239846   -0.0003638557036467115
-0.014083152012769926   -0.011201027692104827   -0.00023359687628526598
-0.01999169955983738   -0.011252704832048642   -0.0003820875780546304
-0.019661447984396847   -0.021847782791345086   -0.0005421876622108224
-0.020055799236099323   -0.011174623704910515   -0.0003571470147863815
-0.013761469426563934   -0.021797805181239846   -0.0003638557036467115
-0.019732726435107543   -0.02177934977419994   -0.0005044857753256127
-0.020055799236099323   -0.011174623704910515   -0.0003571470147863815
-0.019661447984396847   -0.021847782791345086   -0.0005421876622108224
-0.013761469426563934   -0.021797805181239846   -0.0003638557036467115
-0.020055799236099323   -0.011174623704910515   -0.0003571470147863815
-0.014154303975518133   -0.011114116842616185   -0.00019937052526015903
-0.014083152012769926   -0.011201027692104827   -0.00023359687628526598
-0.013761469426563934   -0.021797805181239846   -0.0003638557036467115
-0.020055799236099323   -0.011174623704910515   -0.0003571470147863815
-0.014083152012769926   -0.011201027692104827   -0.00023359687628526598
-0.019661447984396847   -0.021847782791345086   -0.0005421876622108224
-0.013761469426563934   -0.021797805181239846   -0.0003638557036467115
-0.014154303975518133   -0.011114116842616185   -0.00019937052526015903
-0.019732726435107543   -0.02177934977419994   -0.0005044857753256127
-0.013832693799409778   -0.021712332057512045   -0.0003203975202712485
-0.014154303975518133   -0.011114116842616185   -0.00019937052526015903
-0.020055799236099323   -0.011174623704910515   -0.0003571470147863815
-0.019732726435107543   -0.02177934977419994   -0.0005044857753256127
-0.020112918472640344   -0.011089592825460156   -0.00033292266174320725
-0.013832693799409778   -0.021712332057512045   -0.0003203975202712485
-0.01979312848004213   -0.02170716120171075   -0.0004642147181056623
-0.020112918472640344   -0.011089592825460156   -0.00033292266174320725
-0.019732726435107543   -0.02177934977419994   -0.0005044857753256127
-0.013832693799409778   -0.021712332057512045   -0.0003203975202712485
-0.020112918472640344   -0.011089592825460156   -0.00033292266174320725
-0.014222401355585793   -0.011022331592263035   -0.00016526052388616213
-0.014154303975518133   -0.011114116842616185   -0.00019937052526015903
-0.013832693799409778   -0.021712332057512045   -0.0003203975202712485
-0.020112918472640344   -0.011089592825460156   -0.00033292266174320725
-0.014154303975518133   -0.011114116842616185   -0.00019937052526015903
-0.019732726435107543   -0.02177934977419994   -0.0005044857753256127
-0.013832693799409778   -0.021712332057512045   -0.0003203975202712485
-0.014222401355585793   -0.011022331592263035   -0.00016526052388616213
-0.01979312848004213   -0.02170716120171075   -0.0004642147181056623
-0.013903201318467071   -0.0216248482123304   -0.00027352463572583285
-0.014222401355585793   -0.011022331592263035   -0.00016526052388616213
-0.020112918472640344   -0.011089592825460156   -0.00033292266174320725
-0.01979312848004213   -0.02170716120171075   -0.0004642147181056623
-0.020164639271993644   -0.01099908465678467   -0.00030798509982952365
-0.013903201318467071   -0.0216248482123304   -0.00027352463572583285
-0.01985021772633277   -0.0216330680330877   -0.00042025372560995893
-0.020164639271993644   -0.01099908465678467   -0.00030798509982952365
-0.01979312848004213   -0.02170716120171075   -0.0004642147181056623
-0.013903201318467071   -0.0216248482123304   -0.00027352463572583285
-0.020164639271993644   -0.01099908465678467   -0.00030798509982952365
-0.014285163580919243   -0.010922961495584063   -0.0001281304191946414
-0.014222401355585793   -0.011022331592263035   -0.00016526052388616213
-0.013903201318467071   -0.0216248482123304   -0.00027352463572583285
-0.020164639271993644   -0.01099908465678467   -0.00030798509982952365
-0.014222401355585793   -0.011022331592263035   -0.00016526052388616213
-0.01979312848004213   -0.02170716120171075   -0.0004642147181056623
-0.019661447984396847   -0.021847782791345086   -0.0005421876622108224
-0.01999169955983738   -0.011252704832048642   -0.0003820875780546304
-0.02591983325665258   -0.021791838599374065   -0.0006446869248950592
-0.019732726435107543   -0.02177934977419994   -0.0005044857753256127
-0.01999169955983738   -0.011252704832048642   -0.0003820875780546304
-0.02611038564536963   -0.011258512522502774   -0.0005054043513363457
-0.02591983325665258   -0.021791838599374065   -0.0006446869248950592
-0.02616548435281343   -0.011182710628949752   -0.0004947165384085312
-0.019732726435107543   -0.02177934977419994   -0.0005044857753256127
-0.02596417574354446   -0.021734380308579472   -0.0006164334995088151
-0.02616548435281343   -0.011182710628949752   -0.0004947165384085312
-0.02591983325665258   -0.021791838599374065   -0.0006446869248950592
-0.019732726435107543   -0.02177934977419994   -0.0005044857753256127
-0.02616548435281343   -0.011182710628949752   -0.0004947165384085312
-0.020055799236099323   -0.011174623704910515   -0.0003571470147863815
-0.01999169955983738   -0.011252704832048642   -0.0003820875780546304
-0.019732726435107543   -0.02177934977419994   -0.0005044857753256127
-0.02616548435281343   -0.011182710628949752   -0.0004947165384085312
-0.01999169955983738   -0.011252704832048642   -0.0003820875780546304
-0.02591983325665258   -0.021791838599374065   -0.0006446869248950592
-0.019732726435107543   -0.02177934977419994   -0.0005044857753256127
-0.020055799236099323   -0.011174623704910515   -0.0003571470147863815
-0.02596417574354446   -0.021734380308579472   -0.0006164334995088151
-0.01979312848004213   -0.02170716120171075   -0.0004642147181056623
-0.020055799236099323   -0.011174623704910515   -0.0003571470147863815
-0.02616548435281343   -0.011182710628949752   -0.0004947165384085312
-0.02596417574354446   -0.021734380308579472   -0.0006164334995088151
-0.026214847938657467   -0.011100768699973831   -0.00048222021399197497
-0.01979312848004213   -0.02170716120171075   -0.0004642147181056623
-0.026004721810967846   -0.021669369339905743   -0.0005818736695248784
-0.026214847938657467   -0.011100768699973831   -0.00048222021399197497
-0.02596417574354446   -0.021734380308579472   -0.0006164334995088151
-0.01979312848004213   -0.02170716120171075   -0.0004642147181056623
-0.026214847938657467   -0.011100768699973831   -0.00048222021399197497
-0.020112918472640344   -0.011089592825460156   -0.00033292266174320725
-0.020055799236099323   -0.011174623704910515   -0.0003571470147863815
-0.01979312848004213   -0.02170716120171075   -0.0004642147181056623
-0.026214847938657467   -0.011100768699973831   -0.00048222021399197497
-0.020055799236099323   -0.011174623704910515   -0.0003571470147863815
-0.02596417574354446   -0.021734380308579472   -0.0006164334995088151
-0.01979312848004213   -0.02170716120171075   -0.0004642147181056623
-0.020112918472640344   -0.011089592825460156   -0.00033292266174320725
-0.026004721810967846   -0.021669369339905743   -0.0005818736695248784
-0.01985021772633277   -0.0216330680330877   -0.00042025372560995893
-0.020112918472640344   -0.011089592825460156   -0.00033292266174320725
-0.026214847938657467   -0.011100768699973831   -0.00048222021399197497
-0.026004721810967846   -0.021669369339905743   -0.0005818736695248784
-0.02625639006732332   -0.011013997169078835   -0.0004706106588004932
-0.01985021772633277   -0.0216330680330877   -0.00042025372560995893
-0.026024419912762435   -0.021609695024465737   -0.000542586051506496
-0.02625639006732332   -0.011013997169078835   -0.0004706106588004932
-0.026004721810967846   -0.021669369339905743   -0.0005818736695248784
-0.01985021772633277   -0.0216330680330877   -0.00042025372560995893
-0.02625639006732332   -0.011013997169078835   -0.0004706106588004932
-0.020164639271993644   -0.01099908465678467   -0.00030798509982952365
-0.020112918472640344   -0.011089592825460156   -0.00033292266174320725
-0.01985021772633277   -0.0216330680330877   -0.00042025372560995893
-0.02625639006732332   -0.011013997169078835   -0.0004706106588004932
-0.020112918472640344   -0.011089592825460156   -0.00033292266174320725
-0.026004721810967846   -0.021669369339905743   -0.0005818736695248784
0.003049429755700648   -0.011057221975770365   0.00014254388121395548
0.0   0.0   0.0
-0.002803828685055309   -0.010913787075867628   7.238931158973627e-05
0.0027811641286814835   -0.010916711945861614   0.00029699475048983355
0.0   0.0   0.0
-0.0035212899757673956   -0.0008904057877314475   -3.02401140525292e-05
-0.002803828685055309   -0.010913787075867628   7.238931158973627e-05
-0.0037316265742847288   -0.0006915141741442939   9.081377667570854e-05
0.0027811641286814835   -0.010916711945861614   0.00029699475048983355
-0.0028899022123355443   -0.010858386630691334   0.00013477437880194515
-0.0037316265742847288   -0.0006915141741442939   9.081377667570854e-05
-0.002803828685055309   -0.010913787075867628   7.238931158973627e-05
0.0027811641286814835   -0.010916711945861614   0.00029699475048983355
-0.0037316265742847288   -0.0006915141741442939   9.081377667570854e-05
0.0   0.0   0.0
0.0   0.0   0.0
0.0027811641286814835   -0.010916711945861614   0.00029699475048983355
-0.0037316265742847288   -0.0006915141741442939   9.081377667570854e-05
0.0   0.0   0.0
-0.002803828685055309   -0.010913787075867628   7.238931158973627e-05
0.0027811641286814835   -0.010916711945861614   0.00029699475048983355
0.0   0.0   0.0
-0.0028899022123355443   -0.010858386630691334   0.00013477437880194515
0.0026240621704178963   -0.010801739627336741   0.00041227010160764
0.0   0.0   0.0
-0.0037316265742847288   -0.0006915141741442939   9.081377667570854e-05
-0.0028899022123355443   -0.010858386630691334   0.00013477437880194515
-0.003863560501894191   -0.0005956034036261531   0.00016061270379322539
0.0026240621704178963   -0.010801739627336741   0.00041227010160764
-0.0030029990230488663   -0.010759808871366811   0.00021052031167730813
-0.003863560501894191   -0.0005956034036261531   0.00016061270379322539
-0.0028899022123355443   -0.010858386630691334   0.00013477437880194515
0.0026240621704178963   -0.010801739627336741   0.00041227010160764
-0.003863560501894191   -0.0005956034036261531   0.00016061270379322539
0.0   0.0   0.0
0.0   0.0   0.0
0.0026240621704178963   -0.010801739627336741   0.00041227010160764
-0.003863560501894191   -0.0005956034036261531   0.00016061270379322539
0.0   0.0   0.0
-0.0028899022123355443   -0.010858386630691334   0.00013477437880194515
0.0026240621704178963   -0.010801739627336741   0.00041227010160764
0.0   0.0   0.0
-0.0030029990230488663   -0.010759808871366811   0.00021052031167730813
0.002422748327940184   -0.010626057110473652   0.0005442581436499019
0.0   0.0   0.0
-0.003863560501894191   -0.0005956034036261531   0.00016061270379322539
-0.0030029990230488663   -0.010759808871366811   0.00021052031167730813
-0.0040403219591723894   -0.0004682818529258379   0.00024071493283904204
0.002422748327940184   -0.010626057110473652   0.0005442581436499019
-0.0030980724068351826   -0.010653800338845413   0.0002772001155810194
-0.0040403219591723894   -0.0004682818529258379   0.00024071493283904204
-0.0030029990230488663   -0.010759808871366811   0.00021052031167730813
0.002422748327940184   -0.010626057110473652   0.0005442581436499019
-0.0040403219591723894   -0.0004682818529258379   0.00024071493283904204
0.0   0.0   0.0
0.0   0.0   0.0
0.002422748327940184   -0.010626057110473652   0.0005442581436499019
-0.0040403219591723894   -0.0004682818529258379   0.00024071493283904204
0.0   0.0   0.0
-0.0030029990230488663   -0.010759808871366811   0.00021052031167730813
-0.002803828685055309   -0.010913787075867628   7.238931158973627e-05
-0.0035212899757673956   -0.0008904057877314475   -3.02401140525292e-05
-0.008375099988858969   -0.011075052385836727   -7.27624779464928e-05
-0.0028899022123355443   -0.010858386630691334   0.00013477437880194515
-0.0035212899757673956   -0.0008904057877314475   -3.02401140525292e-05
-0.008625189003697626   -0.0011654182350428464   -2.937792124208563e-05
-0.008375099988858969   -0.011075052385836727   -7.27624779464928e-05
-0.00873347697889078   -0.0010565561337145509   1.5275525628679124e-06
-0.0028899022123355443   -0.010858386630691334   0.00013477437880194515
-0.00845433233265254   -0.010990394575498165   -2.858168620125298e-05
-0.00873347697889078   -0.0010565561337145509   1.5275525628679124e-06
-0.008375099988858969   -0.011075052385836727   -7.27624779464928e-05
-0.0028899022123355443   -0.010858386630691334   0.00013477437880194515
-0.00873347697889078   -0.0010565561337145509   1.5275525628679124e-06
-0.0037316265742847288   -0.0006915141741442939   9.081377667570854e-05
-0.0035212899757673956   -0.0008904057877314475   -3.02401140525292e-05
-0.0028899022123355443   -0.010858386630691334   0.00013477437880194515
-0.00873347697889078   -0.0010565561337145509   1.5275525628679124e-06
-0.0035212899757673956   -0.0008904057877314475   -3.02401140525292e-05
-0.008375099988858969   -0.011075052385836727   -7.27624779464928e-05
-0.0028899022123355443   -0.010858386630691334   0.00013477437880194515
-0.0037316265742847288   -0.0006915141741442939   9.081377667570854e-05
-0.00845433233265254   -0.010990394575498165   -2.858168620125298e-05
-0.0030029990230488663   -0.010759808871366811   0.00021052031167730813
-0.0037316265742847288   -0.0006915141741442939   9.081377667570854e-05
-0.00873347697889078   -0.0010565561337145509   1.5275525628679124e-06
-0.00845433233265254   -0.010990394575498165   -2.858168620125298e-05
-0.008841274958901735   -0.0009292264326082006   5.6982806804570775e-05
-0.0030029990230488663   -0.010759808871366811   0.00021052031167730813
-0.008537254567797505   -0.010894823895835747   1.8169301500478082e-05
-0.008841274958901735   -0.0009292264326082006   5.6982806804570775e-05
-0.00845433233265254   -0.010990394575498165   -2.858168620125298e-05
-0.0030029990230488663   -0.010759808871366811   0.00021052031167730813
-0.008841274958901735   -0.0009292264326082006   5.6982806804570775e-05
-0.003863560501894191   -0.0005956034036261531   0.00016061270379322539
-0.0037316265742847288   -0.0006915141741442939   9.081377667570854e-05
-0.0030029990230488663   -0.010759808871366811   0.00021052031167730813
-0.008841274958901735   -0.0009292264326082006   5.6982806804570775e-05
-0.0037316265742847288   -0.0006915141741442939   9.081377667570854e-05
-0.00845433233265254   -0.010990394575498165   -2.858168620125298e-05
-0.0030029990230488663   -0.010759808871366811   0.00021052031167730813
-0.003863560501894191   -0.0005956034036261531   0.00016061270379322539
-0.008537254567797505   -0.010894823895835747   1.8169301500478082e-05
-0.0030980724068351826   -0.010653800338845413   0.0002772001155810194
-0.003863560501894191   -0.0005956034036261531   0.00016061270379322539
-0.008841274958901735   -0.0009292264326082006   5.6982806804570775e-05
-0.008537254567797505   -0.010894823895835747   1.8169301500478082e-05
-0.008960507467428538   -0.0007821128046151107   0.00011002132934426621
-0.0030980724068351826   -0.010653800338845413   0.0002772001155810194
-0.00861606096914417   -0.010790078669780412   6.972462104452243e-05
-0.008960507467428538   -0.0007821128046151107   0.00011002132934426621
-0.008537254567797505   -0.010894823895835747   1.8169301500478082e-05
-0.0030980724068351826   -0.010653800338845413   0.0002772001155810194
-0.008960507467428538   -0.0007821128046151107   0.00011002132934426621
-0.0040403219591723894   -0.0004682818529258379   0.00024071493283904204
-0.003863560501894191   -0.0005956034036261531   0.00016061270379322539
-0.0030980724068351826   -0.010653800338845413   0.0002772001155810194
-0.008960507467428538   -0.0007821128046151107   0.00011002132934426621
-0.003863560501894191   -0.0005956034036261531   0.00016061270379322539
-0.008537254567797505   -0.010894823895835747   1.8169301500478082e-05
-0.008375099988858969   -0.011075052385836727   -7.27624779464928e-05
-0.008625189003697626   -0.0011654182350428464   -2.937792124208563e-05
-0.014083152012769926   -0.011201027692104827   -0.00023359687628526598
-0.00845433233265254   -0.010990394575498165   -2.858168620125298e-05
-0.008625189003697626   -0.0011654182350428464   -2.937792124208563e-05
-0.014222579256765774   -0.0012416796798588859   -0.00013152277481296692
-0.014083152012769926   -0.011201027692104827   -0.00023359687628526598
-0.014288203770047633   -0.0011565670811334295   -0.00012305165077785768
-0.00845433233265254   -0.010990394575498165   -2.858168620125298e-05
-0.014154303975518133   -0.011114116842616185   -0.00019937052526015903
-0.014288203770047633   -0.0011565670811334295   -0.00012305165077785768
-0.014083152012769926   -0.011201027692104827   -0.00023359687628526598
-0.00845433233265254   -0.010990394575498165   -2.858168620125298e-05
-0.014288203770047633   -0.0011565670811334295   -0.00012305165077785768
-0.00873347697889078   -0.0010565561337145509   1.5275525628679124e-06
-0.008625189003697626   -0.0011654182350428464   -2.937792124208563e-05
-0.00845433233265254   -0.010990394575498165   -2.858168620125298e-05
-0.014288203770047633   -0.0011565670811334295   -0.00012305165077785768
-0.008625189003697626   -0.0011654182350428464   -2.937792124208563e-05
-0.014083152012769926   -0.011201027692104827   -0.00023359687628526598
-0.00845433233265254   -0.010990394575498165   -2.858168620125298e-05
-0.00873347697889078   -0.0010565561337145509   1.5275525628679124e-06
-0.014154303975518133   -0.011114116842616185   -0.00019937052526015903
-0.008537254567797505   -0.010894823895835747   1.8169301500478082e-05
-0.00873347697889078   -0.0010565561337145509   1.5275525628679124e-06
-0.014288203770047633   -0.0011565670811334295   -0.00012305165077785768
-0.014154303975518133   -0.011114116842616185   -0.00019937052526015903
-0.014356426673292125   -0.0010578924575404456   -0.00010813374412955022
-0.008537254567797505   -0.010894823895835747   1.8169301500478082e-05
-0.014222401355585793   -0.011022331592263035   -0.00016526052388616213
-0.014356426673292125   -0.0010578924575404456   -0.00010813374412955022
-0.014154303975518133   -0.011114116842616185   -0.00019937052526015903
-0.008537254567797505   -0.010894823895835747   1.8169301500478082e-05
-0.014356426673292125   -0.0010578924575404456   -0.00010813374412955022
-0.008841274958901735   -0.0009292264326082006   5.6982806804570775e-05
-0.00873347697889078   -0.0010565561337145509   1.5275525628679124e-06
-0.008537254567797505   -0.010894823895835747   1.8169301500478082e-05
-0.014356426673292125   -0.0010578924575404456   -0.00010813374412955022
-0.00873347697889078   -0.0010565561337145509   1.5275525628679124e-06
-0.014154303975518133   -0.011114116842616185   -0.00019937052526015903
-0.008537254567797505   -0.010894823895835747   1.8169301500478082e-05
-0.008841274958901735   -0.0009292264326082006   5.6982806804570775e-05
-0.014222401355585793   -0.011022331592263035   -0.00016526052388616213
-0.00861606096914417   -0.010790078669780412   6.972462104452243e-05
-0.008841274958901735   -0.0009292264326082006   5.6982806804570775e-05
-0.014356426673292125   -0.0010578924575404456   -0.00010813374412955022
-0.014222401355585793   -0.011022331592263035   -0.00016526052388616213
-0.014421045579170899   -0.0009380207840276212   -8.83959780222329e-05
-0.00861606096914417   -0.010790078669780412   6.972462104452243e-05
-0.014285163580919243   -0.010922961495584063   -0.0001281304191946414
-0.014421045579170899   -0.0009380207840276212   -8.83959780222329e-05
-0.014222401355585793   -0.011022331592263035   -0.00016526052388616213
-0.00861606096914417   -0.010790078669780412   6.972462104452243e-05
-0.014421045579170899   -0.0009380207840276212   -8.83959780222329e-05
-0.008960507467428538   -0.0007821128046151107   0.00011002132934426621
-0.008841274958901735   -0.0009292264326082006   5.6982806804570775e-05
-0.00861606096914417   -0.010790078669780412   6.972462104452243e-05
-0.014421045579170899   -0.0009380207840276212   -8.83959780222329e-05
-0.008841274958901735   -0.0009292264326082006   5.6982806804570775e-05
-0.014222401355585793   -0.011022331592263035   -0.00016526052388616213
-0.014083152012769926   -0.011201027692104827   -0.00023359687628526598
-0.014222579256765774   -0.0012416796798588859   -0.00013152277481296692
-0.01999169955983738   -0.011252704832048642   -0.0003820875780546304
-0.014154303975518133   -0.011114116842616185   -0.00019937052526015903
-0.014222579256765774   -0.0012416796798588859   -0.00013152277481296692
-0.020095043393081966   -0.0012279038017423693   -0.00027786291766625264
-0.01999169955983738   -0.011252704832048642   -0.0003820875780546304
-0.020139347032984294   -0.001151254040171248   -0.0002742496813370308
-0.014154303975518133   -0.011114116842616185   -0.00019937052526015903
-0.020055799236099323   -0.011174623704910515   -0.0003571470147863815
-0.020139347032984294   -0.001151254040171248   -0.0002742496813370308
-0.01999169955983738   -0.011252704832048642   -0.0003820875780546304
-0.014154303975518133   -0.011114116842616185   -0.00019937052526015903
-0.020139347032984294   -0.001151254040171248   -0.0002742496813370308
-0.014288203770047633   -0.0011565670811334295   -0.00012305165077785768
-0.014222579256765774   -0.0012416796798588859   -0.00013152277481296692
-0.014154303975518133   -0.011114116842616185   -0.00019937052526015903
-0.020139347032984294   -0.001151254040171248   -0.0002742496813370308
-0.014222579256765774   -0.0012416796798588859   -0.00013152277481296692
-0.01999169955983738   -0.011252704832048642   -0.0003820875780546304
-0.014154303975518133   -0.011114116842616185   -0.00019937052526015903
-0.014288203770047633   -0.0011565670811334295   -0.00012305165077785768
-0.020055799236099323   -0.011174623704910515   -0.0003571470147863815
-0.014222401355585793   -0.011022331592263035   -0.00016526052388616213
-0.014288203770047633   -0.0011565670811334295   -0.00012305165077785768
-0.020139347032984294   -0.001151254040171248   -0.0002742496813370308
-0.020055799236099323   -0.011174623704910515   -0.0003571470147863815
-0.02018557343281897   -0.0010660460816037157   -0.0002718118121812087
-0.014222401355585793   -0.011022331592263035   -0.00016526052388616213
-0.020112918472640344   -0.011089592825460156   -0.00033292266174320725
-0.02018557343281897   -0.0010660460816037157   -0.0002718118121812087
-0.020055799236099323   -0.011174623704910515   -0.0003571470147863815
-0.014222401355585793   -0.011022331592263035   -0.00016526052388616213
-0.02018557343281897   -0.0010660460816037157   -0.0002718118121812087
-0.014356426673292125   -0.0010578924575404456   -0.00010813374412955022
-0.014288203770047633   -0.0011565670811334295   -0.00012305165077785768
-0.014222401355585793   -0.011022331592263035   -0.00016526052388616213
-0.02018557343281897   -0.0010660460816037157   -0.0002718118121812087
-0.014288203770047633   -0.0011565670811334295   -0.00012305165077785768
-0.020055799236099323   -0.011174623704910515   -0.0003571470147863815
-0.014222401355585793   -0.011022331592263035   -0.00016526052388616213
-0.014356426673292125   -0.0010578924575404456   -0.00010813374412955022
-0.020112918472640344   -0.011089592825460156   -0.00033292266174320725
-0.014285163580919243   -0.010922961495584063   -0.0001281304191946414
-0.014356426673292125   -0.0010578924575404456   -0.00010813374412955022
-0.02018557343281897   -0.0010660460816037157   -0.0002718118121812087
-0.020112918472640344   -0.011089592825460156   -0.00033292266174320725
-0.020220581560831476   -0.0009738969580240767   -0.0002707532302513088
-0.014285163580919243   -0.010922961495584063   -0.0001281304191946414
-0.020164639271993644   -0.01099908465678467   -0.00030798509982952365
-0.020220581560831476   -0.0009738969580240767   -0.0002707532302513088
-0.020112918472640344   -0.011089592825460156   -0.00033292266174320725
-0.014285163580919243   -0.010922961495584063   -0.0001281304191946414
-0.020220581560831476   -0.0009738969580240767   -0.0002707532302513088
-0.014421045579170899   -0.0009380207840276212   -8.83959780222329e-05
-0.014356426673292125   -0.0010578924575404456   -0.00010813374412955022
-0.014285163580919243   -0.010922961495584063   -0.0001281304191946414
-0.020220581560831476   -0.0009738969580240767   -0.0002707532302513088
-0.014356426673292125   -0.0010578924575404456   -0.00010813374412955022
-0.020112918472640344   -0.011089592825460156   -0.00033292266174320725
-0.01999169955983738   -0.011252704832048642   -0.0003820875780546304
-0.020095043393081966   -0.0012279038017423693   -0.00027786291766625264
-0.02611038564536963   -0.011258512522502774   -0.0005054043513363457
-0.020055799236099323   -0.011174623704910515   -0.0003571470147863815
-0.020095043393081966   -0.0012279038017423693   -0.00027786291766625264
-0.026129402908433387   -0.0012189756076321863   -0.00042187468762943807
-0.02611038564536963   -0.011258512522502774   -0.0005054043513363457
-0.026165054807692437   -0.0011357883408992678   -0.00042184337578169784
-0.020055799236099323   -0.011174623704910515   -0.0003571470147863815
-0.02616548435281343   -0.011182710628949752   -0.0004947165384085312
-0.026165054807692437   -0.0011357883408992678   -0.00042184337578169784
-0.02611038564536963   -0.011258512522502774   -0.0005054043513363457
-0.020055799236099323   -0.011174623704910515   -0.0003571470147863815
-0.026165054807692437   -0.0011357883408992678   -0.00042184337578169784
-0.020139347032984294   -0.001151254040171248   -0.0002742496813370308
-0.020095043393081966   -0.0012279038017423693   -0.00027786291766625264
-0.020055799236099323   -0.011174623704910515   -0.0003571470147863815
-0.026165054807692437   -0.0011357883408992678   -0.00042184337578169784
-0.020095043393081966   -0.0012279038017423693   -0.00027786291766625264
-0.02611038564536963   -0.011258512522502774   -0.0005054043513363457
-0.020055799236099323   -0.011174623704910515   -0.0003571470147863815
-0.020139347032984294   -0.001151254040171248   -0.0002742496813370308
-0.02616548435281343   -0.011182710628949752   -0.0004947165384085312
-0.020112918472640344   -0.011089592825460156   -0.00033292266174320725
-0.020139347032984294   -0.001151254040171248   -0.0002742496813370308
-0.026165054807692437   -0.0011357883408992678   -0.00042184337578169784
-0.02616548435281343   -0.011182710628949752   -0.0004947165384085312
-0.026204200350122147   -0.0010527555326529596   -0.0004282992994412063
-0.020112918472640344   -0.011089592825460156   -0.00033292266174320725
-0.026214847938657467   -0.011100768699973831   -0.00048222021399197497
-0.026204200350122147   -0.0010527555326529596   -0.0004282992994412063
-0.02616548435281343   -0.011182710628949752   -0.0004947165384085312
-0.020112918472640344   -0.011089592825460156   -0.00033292266174320725
-0.026204200350122147   -0.0010527555326529596   -0.0004282992994412063
-0.02018557343281897   -0.0010660460816037157   -0.0002718118121812087
-0.020139347032984294   -0.001151254040171248   -0.0002742496813370308
-0.020112918472640344   -0.011089592825460156   -0.00033292266174320725
-0.026204200350122147   -0.0010527555326529596   -0.0004282992994412063
-0.020139347032984294   -0.001151254040171248   -0.0002742496813370308
-0.02616548435281343   -0.011182710628949752   -0.0004947165384085312
-0.020112918472640344   -0.011089592825460156   -0.00033292266174320725
-0.02018557343281897   -0.0010660460816037157   -0.0002718118121812087
-0.026214847938657467   -0.011100768699973831   -0.00048222021399197497
-0.020164639271993644   -0.01099908465678467   -0.00030798509982952365
-0.02018557343281897   -0.0010660460816037157   -0.0002718118121812087
-0.026204200350122147   -0.0010527555326529596   -0.0004282992994412063
-0.026214847938657467   -0.011100768699973831   -0.00048222021399197497
-0.026233006706622698   -0.0009624068314661658   -0.0004351805405076172
-0.020164639271993644   -0.01099908465678467   -0.00030798509982952365
-0.02625639006732332   -0.011013997169078835   -0.0004706106588004932
-0.026233006706622698   -0.0009624068314661658   -0.0004351805405076172
-0.026214847938657467   -0.011100768699973831   -0.00048222021399197497
-0.020164639271993644   -0.01099908465678467   -0.00030798509982952365
-0.026233006706622698   -0.0009624068314661658   -0.0004351805405076172
-0.020220581560831476   -0.0009738969580240767   -0.0002707532302513088
-0.02018557343281897   -0.0010660460816037157   -0.0002718118121812087
-0.020164639271993644   -0.01099908465678467   -0.00030798509982952365
-0.026233006706622698   -0.0009624068314661658   -0.0004351805405076172
-0.02018557343281897   -0.0010660460816037157   -0.0002718118121812087
-0.026214847938657467   -0.011100768699973831   -0.00048222021399197497
              </DataArray>   
          </PointData>  
       </Piece>  
   </UnstructuredGrid> 
</VTKFile> 
