<?xml version="1.0"?> 
<VTKFile type="UnstructuredGrid"> 
   <UnstructuredGrid> 
      <Piece NumberOfPoints="6000"  NumberOfCells="1500">  
          <Points>  
             <DataArray type="Float64" NumberOfComponents="3" format="ascii">   
-500.0   0.0   0.0
-450.0   0.0   0.0
-500.0   30.0   0.0
-500.0   0.0   16.666666666666668
-450.0   0.0   0.0
-450.0   30.0   0.0
-500.0   30.0   0.0
-450.0   30.0   16.666666666666668
-500.0   0.0   16.666666666666668
-500.0   30.0   16.666666666666668
-450.0   30.0   16.666666666666668
-500.0   30.0   0.0
-500.0   0.0   16.666666666666668
-450.0   30.0   16.666666666666668
-450.0   0.0   16.666666666666668
-450.0   0.0   0.0
-500.0   0.0   16.666666666666668
-450.0   30.0   16.666666666666668
-450.0   0.0   0.0
-500.0   30.0   0.0
-500.0   0.0   16.666666666666668
-450.0   0.0   16.666666666666668
-500.0   30.0   16.666666666666668
-500.0   0.0   33.333333333333336
-450.0   0.0   16.666666666666668
-450.0   30.0   16.666666666666668
-500.0   30.0   16.666666666666668
-450.0   30.0   33.333333333333336
-500.0   0.0   33.333333333333336
-500.0   30.0   33.333333333333336
-450.0   30.0   33.333333333333336
-500.0   30.0   16.666666666666668
-500.0   0.0   33.333333333333336
-450.0   30.0   33.333333333333336
-450.0   0.0   33.333333333333336
-450.0   0.0   16.666666666666668
-500.0   0.0   33.333333333333336
-450.0   30.0   33.333333333333336
-450.0   0.0   16.666666666666668
-500.0   30.0   16.666666666666668
-500.0   0.0   33.333333333333336
-450.0   0.0   33.333333333333336
-500.0   30.0   33.333333333333336
-500.0   0.0   50.0
-450.0   0.0   33.333333333333336
-450.0   30.0   33.333333333333336
-500.0   30.0   33.333333333333336
-450.0   30.0   50.0
-500.0   0.0   50.0
-500.0   30.0   50.0
-450.0   30.0   50.0
-500.0   30.0   33.333333333333336
-500.0   0.0   50.0
-450.0   30.0   50.0
-450.0   0.0   50.0
-450.0   0.0   33.333333333333336
-500.0   0.0   50.0
-450.0   30.0   50.0
-450.0   0.0   33.333333333333336
-500.0   30.0   33.333333333333336
-500.0   30.0   0.0
-450.0   30.0   0.0
-500.0   60.0   0.0
-500.0   30.0   16.666666666666668
-450.0   30.0   0.0
-450.0   60.0   0.0
-500.0   60.0   0.0
-450.0   60.0   16.666666666666668
-500.0   30.0   16.666666666666668
-500.0   60.0   16.666666666666668
-450.0   60.0   16.666666666666668
-500.0   60.0   0.0
-500.0   30.0   16.666666666666668
-450.0   60.0   16.666666666666668
-450.0   30.0   16.666666666666668
-450.0   30.0   0.0
-500.0   30.0   16.666666666666668
-450.0   60.0   16.666666666666668
-450.0   30.0   0.0
-500.0   60.0   0.0
-500.0   30.0   16.666666666666668
-450.0   30.0   16.666666666666668
-500.0   60.0   16.666666666666668
-500.0   30.0   33.333333333333336
-450.0   30.0   16.666666666666668
-450.0   60.0   16.666666666666668
-500.0   60.0   16.666666666666668
-450.0   60.0   33.333333333333336
-500.0   30.0   33.333333333333336
-500.0   60.0   33.333333333333336
-450.0   60.0   33.333333333333336
-500.0   60.0   16.666666666666668
-500.0   30.0   33.333333333333336
-450.0   60.0   33.333333333333336
-450.0   30.0   33.333333333333336
-450.0   30.0   16.666666666666668
-500.0   30.0   33.333333333333336
-450.0   60.0   33.333333333333336
-450.0   30.0   16.666666666666668
-500.0   60.0   16.666666666666668
-500.0   30.0   33.333333333333336
-450.0   30.0   33.333333333333336
-500.0   60.0   33.333333333333336
-500.0   30.0   50.0
-450.0   30.0   33.333333333333336
-450.0   60.0   33.333333333333336
-500.0   60.0   33.333333333333336
-450.0   60.0   50.0
-500.0   30.0   50.0
-500.0   60.0   50.0
-450.0   60.0   50.0
-500.0   60.0   33.333333333333336
-500.0   30.0   50.0
-450.0   60.0   50.0
-450.0   30.0   50.0
-450.0   30.0   33.333333333333336
-500.0   30.0   50.0
-450.0   60.0   50.0
-450.0   30.0   33.333333333333336
-500.0   60.0   33.333333333333336
-500.0   60.0   0.0
-450.0   60.0   0.0
-500.0   90.0   0.0
-500.0   60.0   16.666666666666668
-450.0   60.0   0.0
-450.0   90.0   0.0
-500.0   90.0   0.0
-450.0   90.0   16.666666666666668
-500.0   60.0   16.666666666666668
-500.0   90.0   16.666666666666668
-450.0   90.0   16.666666666666668
-500.0   90.0   0.0
-500.0   60.0   16.666666666666668
-450.0   90.0   16.666666666666668
-450.0   60.0   16.666666666666668
-450.0   60.0   0.0
-500.0   60.0   16.666666666666668
-450.0   90.0   16.666666666666668
-450.0   60.0   0.0
-500.0   90.0   0.0
-500.0   60.0   16.666666666666668
-450.0   60.0   16.666666666666668
-500.0   90.0   16.666666666666668
-500.0   60.0   33.333333333333336
-450.0   60.0   16.666666666666668
-450.0   90.0   16.666666666666668
-500.0   90.0   16.666666666666668
-450.0   90.0   33.333333333333336
-500.0   60.0   33.333333333333336
-500.0   90.0   33.333333333333336
-450.0   90.0   33.333333333333336
-500.0   90.0   16.666666666666668
-500.0   60.0   33.333333333333336
-450.0   90.0   33.333333333333336
-450.0   60.0   33.333333333333336
-450.0   60.0   16.666666666666668
-500.0   60.0   33.333333333333336
-450.0   90.0   33.333333333333336
-450.0   60.0   16.666666666666668
-500.0   90.0   16.666666666666668
-500.0   60.0   33.333333333333336
-450.0   60.0   33.333333333333336
-500.0   90.0   33.333333333333336
-500.0   60.0   50.0
-450.0   60.0   33.333333333333336
-450.0   90.0   33.333333333333336
-500.0   90.0   33.333333333333336
-450.0   90.0   50.0
-500.0   60.0   50.0
-500.0   90.0   50.0
-450.0   90.0   50.0
-500.0   90.0   33.333333333333336
-500.0   60.0   50.0
-450.0   90.0   50.0
-450.0   60.0   50.0
-450.0   60.0   33.333333333333336
-500.0   60.0   50.0
-450.0   90.0   50.0
-450.0   60.0   33.333333333333336
-500.0   90.0   33.333333333333336
-500.0   90.0   0.0
-450.0   90.0   0.0
-500.0   120.0   0.0
-500.0   90.0   16.666666666666668
-450.0   90.0   0.0
-450.0   120.0   0.0
-500.0   120.0   0.0
-450.0   120.0   16.666666666666668
-500.0   90.0   16.666666666666668
-500.0   120.0   16.666666666666668
-450.0   120.0   16.666666666666668
-500.0   120.0   0.0
-500.0   90.0   16.666666666666668
-450.0   120.0   16.666666666666668
-450.0   90.0   16.666666666666668
-450.0   90.0   0.0
-500.0   90.0   16.666666666666668
-450.0   120.0   16.666666666666668
-450.0   90.0   0.0
-500.0   120.0   0.0
-500.0   90.0   16.666666666666668
-450.0   90.0   16.666666666666668
-500.0   120.0   16.666666666666668
-500.0   90.0   33.333333333333336
-450.0   90.0   16.666666666666668
-450.0   120.0   16.666666666666668
-500.0   120.0   16.666666666666668
-450.0   120.0   33.333333333333336
-500.0   90.0   33.333333333333336
-500.0   120.0   33.333333333333336
-450.0   120.0   33.333333333333336
-500.0   120.0   16.666666666666668
-500.0   90.0   33.333333333333336
-450.0   120.0   33.333333333333336
-450.0   90.0   33.333333333333336
-450.0   90.0   16.666666666666668
-500.0   90.0   33.333333333333336
-450.0   120.0   33.333333333333336
-450.0   90.0   16.666666666666668
-500.0   120.0   16.666666666666668
-500.0   90.0   33.333333333333336
-450.0   90.0   33.333333333333336
-500.0   120.0   33.333333333333336
-500.0   90.0   50.0
-450.0   90.0   33.333333333333336
-450.0   120.0   33.333333333333336
-500.0   120.0   33.333333333333336
-450.0   120.0   50.0
-500.0   90.0   50.0
-500.0   120.0   50.0
-450.0   120.0   50.0
-500.0   120.0   33.333333333333336
-500.0   90.0   50.0
-450.0   120.0   50.0
-450.0   90.0   50.0
-450.0   90.0   33.333333333333336
-500.0   90.0   50.0
-450.0   120.0   50.0
-450.0   90.0   33.333333333333336
-500.0   120.0   33.333333333333336
-500.0   120.0   0.0
-450.0   120.0   0.0
-500.0   150.0   0.0
-500.0   120.0   16.666666666666668
-450.0   120.0   0.0
-450.0   150.0   0.0
-500.0   150.0   0.0
-450.0   150.0   16.666666666666668
-500.0   120.0   16.666666666666668
-500.0   150.0   16.666666666666668
-450.0   150.0   16.666666666666668
-500.0   150.0   0.0
-500.0   120.0   16.666666666666668
-450.0   150.0   16.666666666666668
-450.0   120.0   16.666666666666668
-450.0   120.0   0.0
-500.0   120.0   16.666666666666668
-450.0   150.0   16.666666666666668
-450.0   120.0   0.0
-500.0   150.0   0.0
-500.0   120.0   16.666666666666668
-450.0   120.0   16.666666666666668
-500.0   150.0   16.666666666666668
-500.0   120.0   33.333333333333336
-450.0   120.0   16.666666666666668
-450.0   150.0   16.666666666666668
-500.0   150.0   16.666666666666668
-450.0   150.0   33.333333333333336
-500.0   120.0   33.333333333333336
-500.0   150.0   33.333333333333336
-450.0   150.0   33.333333333333336
-500.0   150.0   16.666666666666668
-500.0   120.0   33.333333333333336
-450.0   150.0   33.333333333333336
-450.0   120.0   33.333333333333336
-450.0   120.0   16.666666666666668
-500.0   120.0   33.333333333333336
-450.0   150.0   33.333333333333336
-450.0   120.0   16.666666666666668
-500.0   150.0   16.666666666666668
-500.0   120.0   33.333333333333336
-450.0   120.0   33.333333333333336
-500.0   150.0   33.333333333333336
-500.0   120.0   50.0
-450.0   120.0   33.333333333333336
-450.0   150.0   33.333333333333336
-500.0   150.0   33.333333333333336
-450.0   150.0   50.0
-500.0   120.0   50.0
-500.0   150.0   50.0
-450.0   150.0   50.0
-500.0   150.0   33.333333333333336
-500.0   120.0   50.0
-450.0   150.0   50.0
-450.0   120.0   50.0
-450.0   120.0   33.333333333333336
-500.0   120.0   50.0
-450.0   150.0   50.0
-450.0   120.0   33.333333333333336
-500.0   150.0   33.333333333333336
-450.0   0.0   0.0
-400.0   0.0   0.0
-450.0   30.0   0.0
-450.0   0.0   16.666666666666668
-400.0   0.0   0.0
-400.0   30.0   0.0
-450.0   30.0   0.0
-400.0   30.0   16.666666666666668
-450.0   0.0   16.666666666666668
-450.0   30.0   16.666666666666668
-400.0   30.0   16.666666666666668
-450.0   30.0   0.0
-450.0   0.0   16.666666666666668
-400.0   30.0   16.666666666666668
-400.0   0.0   16.666666666666668
-400.0   0.0   0.0
-450.0   0.0   16.666666666666668
-400.0   30.0   16.666666666666668
-400.0   0.0   0.0
-450.0   30.0   0.0
-450.0   0.0   16.666666666666668
-400.0   0.0   16.666666666666668
-450.0   30.0   16.666666666666668
-450.0   0.0   33.333333333333336
-400.0   0.0   16.666666666666668
-400.0   30.0   16.666666666666668
-450.0   30.0   16.666666666666668
-400.0   30.0   33.333333333333336
-450.0   0.0   33.333333333333336
-450.0   30.0   33.333333333333336
-400.0   30.0   33.333333333333336
-450.0   30.0   16.666666666666668
-450.0   0.0   33.333333333333336
-400.0   30.0   33.333333333333336
-400.0   0.0   33.333333333333336
-400.0   0.0   16.666666666666668
-450.0   0.0   33.333333333333336
-400.0   30.0   33.333333333333336
-400.0   0.0   16.666666666666668
-450.0   30.0   16.666666666666668
-450.0   0.0   33.333333333333336
-400.0   0.0   33.333333333333336
-450.0   30.0   33.333333333333336
-450.0   0.0   50.0
-400.0   0.0   33.333333333333336
-400.0   30.0   33.333333333333336
-450.0   30.0   33.333333333333336
-400.0   30.0   50.0
-450.0   0.0   50.0
-450.0   30.0   50.0
-400.0   30.0   50.0
-450.0   30.0   33.333333333333336
-450.0   0.0   50.0
-400.0   30.0   50.0
-400.0   0.0   50.0
-400.0   0.0   33.333333333333336
-450.0   0.0   50.0
-400.0   30.0   50.0
-400.0   0.0   33.333333333333336
-450.0   30.0   33.333333333333336
-450.0   30.0   0.0
-400.0   30.0   0.0
-450.0   60.0   0.0
-450.0   30.0   16.666666666666668
-400.0   30.0   0.0
-400.0   60.0   0.0
-450.0   60.0   0.0
-400.0   60.0   16.666666666666668
-450.0   30.0   16.666666666666668
-450.0   60.0   16.666666666666668
-400.0   60.0   16.666666666666668
-450.0   60.0   0.0
-450.0   30.0   16.666666666666668
-400.0   60.0   16.666666666666668
-400.0   30.0   16.666666666666668
-400.0   30.0   0.0
-450.0   30.0   16.666666666666668
-400.0   60.0   16.666666666666668
-400.0   30.0   0.0
-450.0   60.0   0.0
-450.0   30.0   16.666666666666668
-400.0   30.0   16.666666666666668
-450.0   60.0   16.666666666666668
-450.0   30.0   33.333333333333336
-400.0   30.0   16.666666666666668
-400.0   60.0   16.666666666666668
-450.0   60.0   16.666666666666668
-400.0   60.0   33.333333333333336
-450.0   30.0   33.333333333333336
-450.0   60.0   33.333333333333336
-400.0   60.0   33.333333333333336
-450.0   60.0   16.666666666666668
-450.0   30.0   33.333333333333336
-400.0   60.0   33.333333333333336
-400.0   30.0   33.333333333333336
-400.0   30.0   16.666666666666668
-450.0   30.0   33.333333333333336
-400.0   60.0   33.333333333333336
-400.0   30.0   16.666666666666668
-450.0   60.0   16.666666666666668
-450.0   30.0   33.333333333333336
-400.0   30.0   33.333333333333336
-450.0   60.0   33.333333333333336
-450.0   30.0   50.0
-400.0   30.0   33.333333333333336
-400.0   60.0   33.333333333333336
-450.0   60.0   33.333333333333336
-400.0   60.0   50.0
-450.0   30.0   50.0
-450.0   60.0   50.0
-400.0   60.0   50.0
-450.0   60.0   33.333333333333336
-450.0   30.0   50.0
-400.0   60.0   50.0
-400.0   30.0   50.0
-400.0   30.0   33.333333333333336
-450.0   30.0   50.0
-400.0   60.0   50.0
-400.0   30.0   33.333333333333336
-450.0   60.0   33.333333333333336
-450.0   60.0   0.0
-400.0   60.0   0.0
-450.0   90.0   0.0
-450.0   60.0   16.666666666666668
-400.0   60.0   0.0
-400.0   90.0   0.0
-450.0   90.0   0.0
-400.0   90.0   16.666666666666668
-450.0   60.0   16.666666666666668
-450.0   90.0   16.666666666666668
-400.0   90.0   16.666666666666668
-450.0   90.0   0.0
-450.0   60.0   16.666666666666668
-400.0   90.0   16.666666666666668
-400.0   60.0   16.666666666666668
-400.0   60.0   0.0
-450.0   60.0   16.666666666666668
-400.0   90.0   16.666666666666668
-400.0   60.0   0.0
-450.0   90.0   0.0
-450.0   60.0   16.666666666666668
-400.0   60.0   16.666666666666668
-450.0   90.0   16.666666666666668
-450.0   60.0   33.333333333333336
-400.0   60.0   16.666666666666668
-400.0   90.0   16.666666666666668
-450.0   90.0   16.666666666666668
-400.0   90.0   33.333333333333336
-450.0   60.0   33.333333333333336
-450.0   90.0   33.333333333333336
-400.0   90.0   33.333333333333336
-450.0   90.0   16.666666666666668
-450.0   60.0   33.333333333333336
-400.0   90.0   33.333333333333336
-400.0   60.0   33.333333333333336
-400.0   60.0   16.666666666666668
-450.0   60.0   33.333333333333336
-400.0   90.0   33.333333333333336
-400.0   60.0   16.666666666666668
-450.0   90.0   16.666666666666668
-450.0   60.0   33.333333333333336
-400.0   60.0   33.333333333333336
-450.0   90.0   33.333333333333336
-450.0   60.0   50.0
-400.0   60.0   33.333333333333336
-400.0   90.0   33.333333333333336
-450.0   90.0   33.333333333333336
-400.0   90.0   50.0
-450.0   60.0   50.0
-450.0   90.0   50.0
-400.0   90.0   50.0
-450.0   90.0   33.333333333333336
-450.0   60.0   50.0
-400.0   90.0   50.0
-400.0   60.0   50.0
-400.0   60.0   33.333333333333336
-450.0   60.0   50.0
-400.0   90.0   50.0
-400.0   60.0   33.333333333333336
-450.0   90.0   33.333333333333336
-450.0   90.0   0.0
-400.0   90.0   0.0
-450.0   120.0   0.0
-450.0   90.0   16.666666666666668
-400.0   90.0   0.0
-400.0   120.0   0.0
-450.0   120.0   0.0
-400.0   120.0   16.666666666666668
-450.0   90.0   16.666666666666668
-450.0   120.0   16.666666666666668
-400.0   120.0   16.666666666666668
-450.0   120.0   0.0
-450.0   90.0   16.666666666666668
-400.0   120.0   16.666666666666668
-400.0   90.0   16.666666666666668
-400.0   90.0   0.0
-450.0   90.0   16.666666666666668
-400.0   120.0   16.666666666666668
-400.0   90.0   0.0
-450.0   120.0   0.0
-450.0   90.0   16.666666666666668
-400.0   90.0   16.666666666666668
-450.0   120.0   16.666666666666668
-450.0   90.0   33.333333333333336
-400.0   90.0   16.666666666666668
-400.0   120.0   16.666666666666668
-450.0   120.0   16.666666666666668
-400.0   120.0   33.333333333333336
-450.0   90.0   33.333333333333336
-450.0   120.0   33.333333333333336
-400.0   120.0   33.333333333333336
-450.0   120.0   16.666666666666668
-450.0   90.0   33.333333333333336
-400.0   120.0   33.333333333333336
-400.0   90.0   33.333333333333336
-400.0   90.0   16.666666666666668
-450.0   90.0   33.333333333333336
-400.0   120.0   33.333333333333336
-400.0   90.0   16.666666666666668
-450.0   120.0   16.666666666666668
-450.0   90.0   33.333333333333336
-400.0   90.0   33.333333333333336
-450.0   120.0   33.333333333333336
-450.0   90.0   50.0
-400.0   90.0   33.333333333333336
-400.0   120.0   33.333333333333336
-450.0   120.0   33.333333333333336
-400.0   120.0   50.0
-450.0   90.0   50.0
-450.0   120.0   50.0
-400.0   120.0   50.0
-450.0   120.0   33.333333333333336
-450.0   90.0   50.0
-400.0   120.0   50.0
-400.0   90.0   50.0
-400.0   90.0   33.333333333333336
-450.0   90.0   50.0
-400.0   120.0   50.0
-400.0   90.0   33.333333333333336
-450.0   120.0   33.333333333333336
-450.0   120.0   0.0
-400.0   120.0   0.0
-450.0   150.0   0.0
-450.0   120.0   16.666666666666668
-400.0   120.0   0.0
-400.0   150.0   0.0
-450.0   150.0   0.0
-400.0   150.0   16.666666666666668
-450.0   120.0   16.666666666666668
-450.0   150.0   16.666666666666668
-400.0   150.0   16.666666666666668
-450.0   150.0   0.0
-450.0   120.0   16.666666666666668
-400.0   150.0   16.666666666666668
-400.0   120.0   16.666666666666668
-400.0   120.0   0.0
-450.0   120.0   16.666666666666668
-400.0   150.0   16.666666666666668
-400.0   120.0   0.0
-450.0   150.0   0.0
-450.0   120.0   16.666666666666668
-400.0   120.0   16.666666666666668
-450.0   150.0   16.666666666666668
-450.0   120.0   33.333333333333336
-400.0   120.0   16.666666666666668
-400.0   150.0   16.666666666666668
-450.0   150.0   16.666666666666668
-400.0   150.0   33.333333333333336
-450.0   120.0   33.333333333333336
-450.0   150.0   33.333333333333336
-400.0   150.0   33.333333333333336
-450.0   150.0   16.666666666666668
-450.0   120.0   33.333333333333336
-400.0   150.0   33.333333333333336
-400.0   120.0   33.333333333333336
-400.0   120.0   16.666666666666668
-450.0   120.0   33.333333333333336
-400.0   150.0   33.333333333333336
-400.0   120.0   16.666666666666668
-450.0   150.0   16.666666666666668
-450.0   120.0   33.333333333333336
-400.0   120.0   33.333333333333336
-450.0   150.0   33.333333333333336
-450.0   120.0   50.0
-400.0   120.0   33.333333333333336
-400.0   150.0   33.333333333333336
-450.0   150.0   33.333333333333336
-400.0   150.0   50.0
-450.0   120.0   50.0
-450.0   150.0   50.0
-400.0   150.0   50.0
-450.0   150.0   33.333333333333336
-450.0   120.0   50.0
-400.0   150.0   50.0
-400.0   120.0   50.0
-400.0   120.0   33.333333333333336
-450.0   120.0   50.0
-400.0   150.0   50.0
-400.0   120.0   33.333333333333336
-450.0   150.0   33.333333333333336
-400.0   0.0   0.0
-350.0   0.0   0.0
-400.0   30.0   0.0
-400.0   0.0   16.666666666666668
-350.0   0.0   0.0
-350.0   30.0   0.0
-400.0   30.0   0.0
-350.0   30.0   16.666666666666668
-400.0   0.0   16.666666666666668
-400.0   30.0   16.666666666666668
-350.0   30.0   16.666666666666668
-400.0   30.0   0.0
-400.0   0.0   16.666666666666668
-350.0   30.0   16.666666666666668
-350.0   0.0   16.666666666666668
-350.0   0.0   0.0
-400.0   0.0   16.666666666666668
-350.0   30.0   16.666666666666668
-350.0   0.0   0.0
-400.0   30.0   0.0
-400.0   0.0   16.666666666666668
-350.0   0.0   16.666666666666668
-400.0   30.0   16.666666666666668
-400.0   0.0   33.333333333333336
-350.0   0.0   16.666666666666668
-350.0   30.0   16.666666666666668
-400.0   30.0   16.666666666666668
-350.0   30.0   33.333333333333336
-400.0   0.0   33.333333333333336
-400.0   30.0   33.333333333333336
-350.0   30.0   33.333333333333336
-400.0   30.0   16.666666666666668
-400.0   0.0   33.333333333333336
-350.0   30.0   33.333333333333336
-350.0   0.0   33.333333333333336
-350.0   0.0   16.666666666666668
-400.0   0.0   33.333333333333336
-350.0   30.0   33.333333333333336
-350.0   0.0   16.666666666666668
-400.0   30.0   16.666666666666668
-400.0   0.0   33.333333333333336
-350.0   0.0   33.333333333333336
-400.0   30.0   33.333333333333336
-400.0   0.0   50.0
-350.0   0.0   33.333333333333336
-350.0   30.0   33.333333333333336
-400.0   30.0   33.333333333333336
-350.0   30.0   50.0
-400.0   0.0   50.0
-400.0   30.0   50.0
-350.0   30.0   50.0
-400.0   30.0   33.333333333333336
-400.0   0.0   50.0
-350.0   30.0   50.0
-350.0   0.0   50.0
-350.0   0.0   33.333333333333336
-400.0   0.0   50.0
-350.0   30.0   50.0
-350.0   0.0   33.333333333333336
-400.0   30.0   33.333333333333336
-400.0   30.0   0.0
-350.0   30.0   0.0
-400.0   60.0   0.0
-400.0   30.0   16.666666666666668
-350.0   30.0   0.0
-350.0   60.0   0.0
-400.0   60.0   0.0
-350.0   60.0   16.666666666666668
-400.0   30.0   16.666666666666668
-400.0   60.0   16.666666666666668
-350.0   60.0   16.666666666666668
-400.0   60.0   0.0
-400.0   30.0   16.666666666666668
-350.0   60.0   16.666666666666668
-350.0   30.0   16.666666666666668
-350.0   30.0   0.0
-400.0   30.0   16.666666666666668
-350.0   60.0   16.666666666666668
-350.0   30.0   0.0
-400.0   60.0   0.0
-400.0   30.0   16.666666666666668
-350.0   30.0   16.666666666666668
-400.0   60.0   16.666666666666668
-400.0   30.0   33.333333333333336
-350.0   30.0   16.666666666666668
-350.0   60.0   16.666666666666668
-400.0   60.0   16.666666666666668
-350.0   60.0   33.333333333333336
-400.0   30.0   33.333333333333336
-400.0   60.0   33.333333333333336
-350.0   60.0   33.333333333333336
-400.0   60.0   16.666666666666668
-400.0   30.0   33.333333333333336
-350.0   60.0   33.333333333333336
-350.0   30.0   33.333333333333336
-350.0   30.0   16.666666666666668
-400.0   30.0   33.333333333333336
-350.0   60.0   33.333333333333336
-350.0   30.0   16.666666666666668
-400.0   60.0   16.666666666666668
-400.0   30.0   33.333333333333336
-350.0   30.0   33.333333333333336
-400.0   60.0   33.333333333333336
-400.0   30.0   50.0
-350.0   30.0   33.333333333333336
-350.0   60.0   33.333333333333336
-400.0   60.0   33.333333333333336
-350.0   60.0   50.0
-400.0   30.0   50.0
-400.0   60.0   50.0
-350.0   60.0   50.0
-400.0   60.0   33.333333333333336
-400.0   30.0   50.0
-350.0   60.0   50.0
-350.0   30.0   50.0
-350.0   30.0   33.333333333333336
-400.0   30.0   50.0
-350.0   60.0   50.0
-350.0   30.0   33.333333333333336
-400.0   60.0   33.333333333333336
-400.0   60.0   0.0
-350.0   60.0   0.0
-400.0   90.0   0.0
-400.0   60.0   16.666666666666668
-350.0   60.0   0.0
-350.0   90.0   0.0
-400.0   90.0   0.0
-350.0   90.0   16.666666666666668
-400.0   60.0   16.666666666666668
-400.0   90.0   16.666666666666668
-350.0   90.0   16.666666666666668
-400.0   90.0   0.0
-400.0   60.0   16.666666666666668
-350.0   90.0   16.666666666666668
-350.0   60.0   16.666666666666668
-350.0   60.0   0.0
-400.0   60.0   16.666666666666668
-350.0   90.0   16.666666666666668
-350.0   60.0   0.0
-400.0   90.0   0.0
-400.0   60.0   16.666666666666668
-350.0   60.0   16.666666666666668
-400.0   90.0   16.666666666666668
-400.0   60.0   33.333333333333336
-350.0   60.0   16.666666666666668
-350.0   90.0   16.666666666666668
-400.0   90.0   16.666666666666668
-350.0   90.0   33.333333333333336
-400.0   60.0   33.333333333333336
-400.0   90.0   33.333333333333336
-350.0   90.0   33.333333333333336
-400.0   90.0   16.666666666666668
-400.0   60.0   33.333333333333336
-350.0   90.0   33.333333333333336
-350.0   60.0   33.333333333333336
-350.0   60.0   16.666666666666668
-400.0   60.0   33.333333333333336
-350.0   90.0   33.333333333333336
-350.0   60.0   16.666666666666668
-400.0   90.0   16.666666666666668
-400.0   60.0   33.333333333333336
-350.0   60.0   33.333333333333336
-400.0   90.0   33.333333333333336
-400.0   60.0   50.0
-350.0   60.0   33.333333333333336
-350.0   90.0   33.333333333333336
-400.0   90.0   33.333333333333336
-350.0   90.0   50.0
-400.0   60.0   50.0
-400.0   90.0   50.0
-350.0   90.0   50.0
-400.0   90.0   33.333333333333336
-400.0   60.0   50.0
-350.0   90.0   50.0
-350.0   60.0   50.0
-350.0   60.0   33.333333333333336
-400.0   60.0   50.0
-350.0   90.0   50.0
-350.0   60.0   33.333333333333336
-400.0   90.0   33.333333333333336
-400.0   90.0   0.0
-350.0   90.0   0.0
-400.0   120.0   0.0
-400.0   90.0   16.666666666666668
-350.0   90.0   0.0
-350.0   120.0   0.0
-400.0   120.0   0.0
-350.0   120.0   16.666666666666668
-400.0   90.0   16.666666666666668
-400.0   120.0   16.666666666666668
-350.0   120.0   16.666666666666668
-400.0   120.0   0.0
-400.0   90.0   16.666666666666668
-350.0   120.0   16.666666666666668
-350.0   90.0   16.666666666666668
-350.0   90.0   0.0
-400.0   90.0   16.666666666666668
-350.0   120.0   16.666666666666668
-350.0   90.0   0.0
-400.0   120.0   0.0
-400.0   90.0   16.666666666666668
-350.0   90.0   16.666666666666668
-400.0   120.0   16.666666666666668
-400.0   90.0   33.333333333333336
-350.0   90.0   16.666666666666668
-350.0   120.0   16.666666666666668
-400.0   120.0   16.666666666666668
-350.0   120.0   33.333333333333336
-400.0   90.0   33.333333333333336
-400.0   120.0   33.333333333333336
-350.0   120.0   33.333333333333336
-400.0   120.0   16.666666666666668
-400.0   90.0   33.333333333333336
-350.0   120.0   33.333333333333336
-350.0   90.0   33.333333333333336
-350.0   90.0   16.666666666666668
-400.0   90.0   33.333333333333336
-350.0   120.0   33.333333333333336
-350.0   90.0   16.666666666666668
-400.0   120.0   16.666666666666668
-400.0   90.0   33.333333333333336
-350.0   90.0   33.333333333333336
-400.0   120.0   33.333333333333336
-400.0   90.0   50.0
-350.0   90.0   33.333333333333336
-350.0   120.0   33.333333333333336
-400.0   120.0   33.333333333333336
-350.0   120.0   50.0
-400.0   90.0   50.0
-400.0   120.0   50.0
-350.0   120.0   50.0
-400.0   120.0   33.333333333333336
-400.0   90.0   50.0
-350.0   120.0   50.0
-350.0   90.0   50.0
-350.0   90.0   33.333333333333336
-400.0   90.0   50.0
-350.0   120.0   50.0
-350.0   90.0   33.333333333333336
-400.0   120.0   33.333333333333336
-400.0   120.0   0.0
-350.0   120.0   0.0
-400.0   150.0   0.0
-400.0   120.0   16.666666666666668
-350.0   120.0   0.0
-350.0   150.0   0.0
-400.0   150.0   0.0
-350.0   150.0   16.666666666666668
-400.0   120.0   16.666666666666668
-400.0   150.0   16.666666666666668
-350.0   150.0   16.666666666666668
-400.0   150.0   0.0
-400.0   120.0   16.666666666666668
-350.0   150.0   16.666666666666668
-350.0   120.0   16.666666666666668
-350.0   120.0   0.0
-400.0   120.0   16.666666666666668
-350.0   150.0   16.666666666666668
-350.0   120.0   0.0
-400.0   150.0   0.0
-400.0   120.0   16.666666666666668
-350.0   120.0   16.666666666666668
-400.0   150.0   16.666666666666668
-400.0   120.0   33.333333333333336
-350.0   120.0   16.666666666666668
-350.0   150.0   16.666666666666668
-400.0   150.0   16.666666666666668
-350.0   150.0   33.333333333333336
-400.0   120.0   33.333333333333336
-400.0   150.0   33.333333333333336
-350.0   150.0   33.333333333333336
-400.0   150.0   16.666666666666668
-400.0   120.0   33.333333333333336
-350.0   150.0   33.333333333333336
-350.0   120.0   33.333333333333336
-350.0   120.0   16.666666666666668
-400.0   120.0   33.333333333333336
-350.0   150.0   33.333333333333336
-350.0   120.0   16.666666666666668
-400.0   150.0   16.666666666666668
-400.0   120.0   33.333333333333336
-350.0   120.0   33.333333333333336
-400.0   150.0   33.333333333333336
-400.0   120.0   50.0
-350.0   120.0   33.333333333333336
-350.0   150.0   33.333333333333336
-400.0   150.0   33.333333333333336
-350.0   150.0   50.0
-400.0   120.0   50.0
-400.0   150.0   50.0
-350.0   150.0   50.0
-400.0   150.0   33.333333333333336
-400.0   120.0   50.0
-350.0   150.0   50.0
-350.0   120.0   50.0
-350.0   120.0   33.333333333333336
-400.0   120.0   50.0
-350.0   150.0   50.0
-350.0   120.0   33.333333333333336
-400.0   150.0   33.333333333333336
-350.0   0.0   0.0
-300.0   0.0   0.0
-350.0   30.0   0.0
-350.0   0.0   16.666666666666668
-300.0   0.0   0.0
-300.0   30.0   0.0
-350.0   30.0   0.0
-300.0   30.0   16.666666666666668
-350.0   0.0   16.666666666666668
-350.0   30.0   16.666666666666668
-300.0   30.0   16.666666666666668
-350.0   30.0   0.0
-350.0   0.0   16.666666666666668
-300.0   30.0   16.666666666666668
-300.0   0.0   16.666666666666668
-300.0   0.0   0.0
-350.0   0.0   16.666666666666668
-300.0   30.0   16.666666666666668
-300.0   0.0   0.0
-350.0   30.0   0.0
-350.0   0.0   16.666666666666668
-300.0   0.0   16.666666666666668
-350.0   30.0   16.666666666666668
-350.0   0.0   33.333333333333336
-300.0   0.0   16.666666666666668
-300.0   30.0   16.666666666666668
-350.0   30.0   16.666666666666668
-300.0   30.0   33.333333333333336
-350.0   0.0   33.333333333333336
-350.0   30.0   33.333333333333336
-300.0   30.0   33.333333333333336
-350.0   30.0   16.666666666666668
-350.0   0.0   33.333333333333336
-300.0   30.0   33.333333333333336
-300.0   0.0   33.333333333333336
-300.0   0.0   16.666666666666668
-350.0   0.0   33.333333333333336
-300.0   30.0   33.333333333333336
-300.0   0.0   16.666666666666668
-350.0   30.0   16.666666666666668
-350.0   0.0   33.333333333333336
-300.0   0.0   33.333333333333336
-350.0   30.0   33.333333333333336
-350.0   0.0   50.0
-300.0   0.0   33.333333333333336
-300.0   30.0   33.333333333333336
-350.0   30.0   33.333333333333336
-300.0   30.0   50.0
-350.0   0.0   50.0
-350.0   30.0   50.0
-300.0   30.0   50.0
-350.0   30.0   33.333333333333336
-350.0   0.0   50.0
-300.0   30.0   50.0
-300.0   0.0   50.0
-300.0   0.0   33.333333333333336
-350.0   0.0   50.0
-300.0   30.0   50.0
-300.0   0.0   33.333333333333336
-350.0   30.0   33.333333333333336
-350.0   30.0   0.0
-300.0   30.0   0.0
-350.0   60.0   0.0
-350.0   30.0   16.666666666666668
-300.0   30.0   0.0
-300.0   60.0   0.0
-350.0   60.0   0.0
-300.0   60.0   16.666666666666668
-350.0   30.0   16.666666666666668
-350.0   60.0   16.666666666666668
-300.0   60.0   16.666666666666668
-350.0   60.0   0.0
-350.0   30.0   16.666666666666668
-300.0   60.0   16.666666666666668
-300.0   30.0   16.666666666666668
-300.0   30.0   0.0
-350.0   30.0   16.666666666666668
-300.0   60.0   16.666666666666668
-300.0   30.0   0.0
-350.0   60.0   0.0
-350.0   30.0   16.666666666666668
-300.0   30.0   16.666666666666668
-350.0   60.0   16.666666666666668
-350.0   30.0   33.333333333333336
-300.0   30.0   16.666666666666668
-300.0   60.0   16.666666666666668
-350.0   60.0   16.666666666666668
-300.0   60.0   33.333333333333336
-350.0   30.0   33.333333333333336
-350.0   60.0   33.333333333333336
-300.0   60.0   33.333333333333336
-350.0   60.0   16.666666666666668
-350.0   30.0   33.333333333333336
-300.0   60.0   33.333333333333336
-300.0   30.0   33.333333333333336
-300.0   30.0   16.666666666666668
-350.0   30.0   33.333333333333336
-300.0   60.0   33.333333333333336
-300.0   30.0   16.666666666666668
-350.0   60.0   16.666666666666668
-350.0   30.0   33.333333333333336
-300.0   30.0   33.333333333333336
-350.0   60.0   33.333333333333336
-350.0   30.0   50.0
-300.0   30.0   33.333333333333336
-300.0   60.0   33.333333333333336
-350.0   60.0   33.333333333333336
-300.0   60.0   50.0
-350.0   30.0   50.0
-350.0   60.0   50.0
-300.0   60.0   50.0
-350.0   60.0   33.333333333333336
-350.0   30.0   50.0
-300.0   60.0   50.0
-300.0   30.0   50.0
-300.0   30.0   33.333333333333336
-350.0   30.0   50.0
-300.0   60.0   50.0
-300.0   30.0   33.333333333333336
-350.0   60.0   33.333333333333336
-350.0   60.0   0.0
-300.0   60.0   0.0
-350.0   90.0   0.0
-350.0   60.0   16.666666666666668
-300.0   60.0   0.0
-300.0   90.0   0.0
-350.0   90.0   0.0
-300.0   90.0   16.666666666666668
-350.0   60.0   16.666666666666668
-350.0   90.0   16.666666666666668
-300.0   90.0   16.666666666666668
-350.0   90.0   0.0
-350.0   60.0   16.666666666666668
-300.0   90.0   16.666666666666668
-300.0   60.0   16.666666666666668
-300.0   60.0   0.0
-350.0   60.0   16.666666666666668
-300.0   90.0   16.666666666666668
-300.0   60.0   0.0
-350.0   90.0   0.0
-350.0   60.0   16.666666666666668
-300.0   60.0   16.666666666666668
-350.0   90.0   16.666666666666668
-350.0   60.0   33.333333333333336
-300.0   60.0   16.666666666666668
-300.0   90.0   16.666666666666668
-350.0   90.0   16.666666666666668
-300.0   90.0   33.333333333333336
-350.0   60.0   33.333333333333336
-350.0   90.0   33.333333333333336
-300.0   90.0   33.333333333333336
-350.0   90.0   16.666666666666668
-350.0   60.0   33.333333333333336
-300.0   90.0   33.333333333333336
-300.0   60.0   33.333333333333336
-300.0   60.0   16.666666666666668
-350.0   60.0   33.333333333333336
-300.0   90.0   33.333333333333336
-300.0   60.0   16.666666666666668
-350.0   90.0   16.666666666666668
-350.0   60.0   33.333333333333336
-300.0   60.0   33.333333333333336
-350.0   90.0   33.333333333333336
-350.0   60.0   50.0
-300.0   60.0   33.333333333333336
-300.0   90.0   33.333333333333336
-350.0   90.0   33.333333333333336
-300.0   90.0   50.0
-350.0   60.0   50.0
-350.0   90.0   50.0
-300.0   90.0   50.0
-350.0   90.0   33.333333333333336
-350.0   60.0   50.0
-300.0   90.0   50.0
-300.0   60.0   50.0
-300.0   60.0   33.333333333333336
-350.0   60.0   50.0
-300.0   90.0   50.0
-300.0   60.0   33.333333333333336
-350.0   90.0   33.333333333333336
-350.0   90.0   0.0
-300.0   90.0   0.0
-350.0   120.0   0.0
-350.0   90.0   16.666666666666668
-300.0   90.0   0.0
-300.0   120.0   0.0
-350.0   120.0   0.0
-300.0   120.0   16.666666666666668
-350.0   90.0   16.666666666666668
-350.0   120.0   16.666666666666668
-300.0   120.0   16.666666666666668
-350.0   120.0   0.0
-350.0   90.0   16.666666666666668
-300.0   120.0   16.666666666666668
-300.0   90.0   16.666666666666668
-300.0   90.0   0.0
-350.0   90.0   16.666666666666668
-300.0   120.0   16.666666666666668
-300.0   90.0   0.0
-350.0   120.0   0.0
-350.0   90.0   16.666666666666668
-300.0   90.0   16.666666666666668
-350.0   120.0   16.666666666666668
-350.0   90.0   33.333333333333336
-300.0   90.0   16.666666666666668
-300.0   120.0   16.666666666666668
-350.0   120.0   16.666666666666668
-300.0   120.0   33.333333333333336
-350.0   90.0   33.333333333333336
-350.0   120.0   33.333333333333336
-300.0   120.0   33.333333333333336
-350.0   120.0   16.666666666666668
-350.0   90.0   33.333333333333336
-300.0   120.0   33.333333333333336
-300.0   90.0   33.333333333333336
-300.0   90.0   16.666666666666668
-350.0   90.0   33.333333333333336
-300.0   120.0   33.333333333333336
-300.0   90.0   16.666666666666668
-350.0   120.0   16.666666666666668
-350.0   90.0   33.333333333333336
-300.0   90.0   33.333333333333336
-350.0   120.0   33.333333333333336
-350.0   90.0   50.0
-300.0   90.0   33.333333333333336
-300.0   120.0   33.333333333333336
-350.0   120.0   33.333333333333336
-300.0   120.0   50.0
-350.0   90.0   50.0
-350.0   120.0   50.0
-300.0   120.0   50.0
-350.0   120.0   33.333333333333336
-350.0   90.0   50.0
-300.0   120.0   50.0
-300.0   90.0   50.0
-300.0   90.0   33.333333333333336
-350.0   90.0   50.0
-300.0   120.0   50.0
-300.0   90.0   33.333333333333336
-350.0   120.0   33.333333333333336
-350.0   120.0   0.0
-300.0   120.0   0.0
-350.0   150.0   0.0
-350.0   120.0   16.666666666666668
-300.0   120.0   0.0
-300.0   150.0   0.0
-350.0   150.0   0.0
-300.0   150.0   16.666666666666668
-350.0   120.0   16.666666666666668
-350.0   150.0   16.666666666666668
-300.0   150.0   16.666666666666668
-350.0   150.0   0.0
-350.0   120.0   16.666666666666668
-300.0   150.0   16.666666666666668
-300.0   120.0   16.666666666666668
-300.0   120.0   0.0
-350.0   120.0   16.666666666666668
-300.0   150.0   16.666666666666668
-300.0   120.0   0.0
-350.0   150.0   0.0
-350.0   120.0   16.666666666666668
-300.0   120.0   16.666666666666668
-350.0   150.0   16.666666666666668
-350.0   120.0   33.333333333333336
-300.0   120.0   16.666666666666668
-300.0   150.0   16.666666666666668
-350.0   150.0   16.666666666666668
-300.0   150.0   33.333333333333336
-350.0   120.0   33.333333333333336
-350.0   150.0   33.333333333333336
-300.0   150.0   33.333333333333336
-350.0   150.0   16.666666666666668
-350.0   120.0   33.333333333333336
-300.0   150.0   33.333333333333336
-300.0   120.0   33.333333333333336
-300.0   120.0   16.666666666666668
-350.0   120.0   33.333333333333336
-300.0   150.0   33.333333333333336
-300.0   120.0   16.666666666666668
-350.0   150.0   16.666666666666668
-350.0   120.0   33.333333333333336
-300.0   120.0   33.333333333333336
-350.0   150.0   33.333333333333336
-350.0   120.0   50.0
-300.0   120.0   33.333333333333336
-300.0   150.0   33.333333333333336
-350.0   150.0   33.333333333333336
-300.0   150.0   50.0
-350.0   120.0   50.0
-350.0   150.0   50.0
-300.0   150.0   50.0
-350.0   150.0   33.333333333333336
-350.0   120.0   50.0
-300.0   150.0   50.0
-300.0   120.0   50.0
-300.0   120.0   33.333333333333336
-350.0   120.0   50.0
-300.0   150.0   50.0
-300.0   120.0   33.333333333333336
-350.0   150.0   33.333333333333336
-300.0   0.0   0.0
-250.0   0.0   0.0
-300.0   30.0   0.0
-300.0   0.0   16.666666666666668
-250.0   0.0   0.0
-250.0   30.0   0.0
-300.0   30.0   0.0
-250.0   30.0   16.666666666666668
-300.0   0.0   16.666666666666668
-300.0   30.0   16.666666666666668
-250.0   30.0   16.666666666666668
-300.0   30.0   0.0
-300.0   0.0   16.666666666666668
-250.0   30.0   16.666666666666668
-250.0   0.0   16.666666666666668
-250.0   0.0   0.0
-300.0   0.0   16.666666666666668
-250.0   30.0   16.666666666666668
-250.0   0.0   0.0
-300.0   30.0   0.0
-300.0   0.0   16.666666666666668
-250.0   0.0   16.666666666666668
-300.0   30.0   16.666666666666668
-300.0   0.0   33.333333333333336
-250.0   0.0   16.666666666666668
-250.0   30.0   16.666666666666668
-300.0   30.0   16.666666666666668
-250.0   30.0   33.333333333333336
-300.0   0.0   33.333333333333336
-300.0   30.0   33.333333333333336
-250.0   30.0   33.333333333333336
-300.0   30.0   16.666666666666668
-300.0   0.0   33.333333333333336
-250.0   30.0   33.333333333333336
-250.0   0.0   33.333333333333336
-250.0   0.0   16.666666666666668
-300.0   0.0   33.333333333333336
-250.0   30.0   33.333333333333336
-250.0   0.0   16.666666666666668
-300.0   30.0   16.666666666666668
-300.0   0.0   33.333333333333336
-250.0   0.0   33.333333333333336
-300.0   30.0   33.333333333333336
-300.0   0.0   50.0
-250.0   0.0   33.333333333333336
-250.0   30.0   33.333333333333336
-300.0   30.0   33.333333333333336
-250.0   30.0   50.0
-300.0   0.0   50.0
-300.0   30.0   50.0
-250.0   30.0   50.0
-300.0   30.0   33.333333333333336
-300.0   0.0   50.0
-250.0   30.0   50.0
-250.0   0.0   50.0
-250.0   0.0   33.333333333333336
-300.0   0.0   50.0
-250.0   30.0   50.0
-250.0   0.0   33.333333333333336
-300.0   30.0   33.333333333333336
-300.0   30.0   0.0
-250.0   30.0   0.0
-300.0   60.0   0.0
-300.0   30.0   16.666666666666668
-250.0   30.0   0.0
-250.0   60.0   0.0
-300.0   60.0   0.0
-250.0   60.0   16.666666666666668
-300.0   30.0   16.666666666666668
-300.0   60.0   16.666666666666668
-250.0   60.0   16.666666666666668
-300.0   60.0   0.0
-300.0   30.0   16.666666666666668
-250.0   60.0   16.666666666666668
-250.0   30.0   16.666666666666668
-250.0   30.0   0.0
-300.0   30.0   16.666666666666668
-250.0   60.0   16.666666666666668
-250.0   30.0   0.0
-300.0   60.0   0.0
-300.0   30.0   16.666666666666668
-250.0   30.0   16.666666666666668
-300.0   60.0   16.666666666666668
-300.0   30.0   33.333333333333336
-250.0   30.0   16.666666666666668
-250.0   60.0   16.666666666666668
-300.0   60.0   16.666666666666668
-250.0   60.0   33.333333333333336
-300.0   30.0   33.333333333333336
-300.0   60.0   33.333333333333336
-250.0   60.0   33.333333333333336
-300.0   60.0   16.666666666666668
-300.0   30.0   33.333333333333336
-250.0   60.0   33.333333333333336
-250.0   30.0   33.333333333333336
-250.0   30.0   16.666666666666668
-300.0   30.0   33.333333333333336
-250.0   60.0   33.333333333333336
-250.0   30.0   16.666666666666668
-300.0   60.0   16.666666666666668
-300.0   30.0   33.333333333333336
-250.0   30.0   33.333333333333336
-300.0   60.0   33.333333333333336
-300.0   30.0   50.0
-250.0   30.0   33.333333333333336
-250.0   60.0   33.333333333333336
-300.0   60.0   33.333333333333336
-250.0   60.0   50.0
-300.0   30.0   50.0
-300.0   60.0   50.0
-250.0   60.0   50.0
-300.0   60.0   33.333333333333336
-300.0   30.0   50.0
-250.0   60.0   50.0
-250.0   30.0   50.0
-250.0   30.0   33.333333333333336
-300.0   30.0   50.0
-250.0   60.0   50.0
-250.0   30.0   33.333333333333336
-300.0   60.0   33.333333333333336
-300.0   60.0   0.0
-250.0   60.0   0.0
-300.0   90.0   0.0
-300.0   60.0   16.666666666666668
-250.0   60.0   0.0
-250.0   90.0   0.0
-300.0   90.0   0.0
-250.0   90.0   16.666666666666668
-300.0   60.0   16.666666666666668
-300.0   90.0   16.666666666666668
-250.0   90.0   16.666666666666668
-300.0   90.0   0.0
-300.0   60.0   16.666666666666668
-250.0   90.0   16.666666666666668
-250.0   60.0   16.666666666666668
-250.0   60.0   0.0
-300.0   60.0   16.666666666666668
-250.0   90.0   16.666666666666668
-250.0   60.0   0.0
-300.0   90.0   0.0
-300.0   60.0   16.666666666666668
-250.0   60.0   16.666666666666668
-300.0   90.0   16.666666666666668
-300.0   60.0   33.333333333333336
-250.0   60.0   16.666666666666668
-250.0   90.0   16.666666666666668
-300.0   90.0   16.666666666666668
-250.0   90.0   33.333333333333336
-300.0   60.0   33.333333333333336
-300.0   90.0   33.333333333333336
-250.0   90.0   33.333333333333336
-300.0   90.0   16.666666666666668
-300.0   60.0   33.333333333333336
-250.0   90.0   33.333333333333336
-250.0   60.0   33.333333333333336
-250.0   60.0   16.666666666666668
-300.0   60.0   33.333333333333336
-250.0   90.0   33.333333333333336
-250.0   60.0   16.666666666666668
-300.0   90.0   16.666666666666668
-300.0   60.0   33.333333333333336
-250.0   60.0   33.333333333333336
-300.0   90.0   33.333333333333336
-300.0   60.0   50.0
-250.0   60.0   33.333333333333336
-250.0   90.0   33.333333333333336
-300.0   90.0   33.333333333333336
-250.0   90.0   50.0
-300.0   60.0   50.0
-300.0   90.0   50.0
-250.0   90.0   50.0
-300.0   90.0   33.333333333333336
-300.0   60.0   50.0
-250.0   90.0   50.0
-250.0   60.0   50.0
-250.0   60.0   33.333333333333336
-300.0   60.0   50.0
-250.0   90.0   50.0
-250.0   60.0   33.333333333333336
-300.0   90.0   33.333333333333336
-300.0   90.0   0.0
-250.0   90.0   0.0
-300.0   120.0   0.0
-300.0   90.0   16.666666666666668
-250.0   90.0   0.0
-250.0   120.0   0.0
-300.0   120.0   0.0
-250.0   120.0   16.666666666666668
-300.0   90.0   16.666666666666668
-300.0   120.0   16.666666666666668
-250.0   120.0   16.666666666666668
-300.0   120.0   0.0
-300.0   90.0   16.666666666666668
-250.0   120.0   16.666666666666668
-250.0   90.0   16.666666666666668
-250.0   90.0   0.0
-300.0   90.0   16.666666666666668
-250.0   120.0   16.666666666666668
-250.0   90.0   0.0
-300.0   120.0   0.0
-300.0   90.0   16.666666666666668
-250.0   90.0   16.666666666666668
-300.0   120.0   16.666666666666668
-300.0   90.0   33.333333333333336
-250.0   90.0   16.666666666666668
-250.0   120.0   16.666666666666668
-300.0   120.0   16.666666666666668
-250.0   120.0   33.333333333333336
-300.0   90.0   33.333333333333336
-300.0   120.0   33.333333333333336
-250.0   120.0   33.333333333333336
-300.0   120.0   16.666666666666668
-300.0   90.0   33.333333333333336
-250.0   120.0   33.333333333333336
-250.0   90.0   33.333333333333336
-250.0   90.0   16.666666666666668
-300.0   90.0   33.333333333333336
-250.0   120.0   33.333333333333336
-250.0   90.0   16.666666666666668
-300.0   120.0   16.666666666666668
-300.0   90.0   33.333333333333336
-250.0   90.0   33.333333333333336
-300.0   120.0   33.333333333333336
-300.0   90.0   50.0
-250.0   90.0   33.333333333333336
-250.0   120.0   33.333333333333336
-300.0   120.0   33.333333333333336
-250.0   120.0   50.0
-300.0   90.0   50.0
-300.0   120.0   50.0
-250.0   120.0   50.0
-300.0   120.0   33.333333333333336
-300.0   90.0   50.0
-250.0   120.0   50.0
-250.0   90.0   50.0
-250.0   90.0   33.333333333333336
-300.0   90.0   50.0
-250.0   120.0   50.0
-250.0   90.0   33.333333333333336
-300.0   120.0   33.333333333333336
-300.0   120.0   0.0
-250.0   120.0   0.0
-300.0   150.0   0.0
-300.0   120.0   16.666666666666668
-250.0   120.0   0.0
-250.0   150.0   0.0
-300.0   150.0   0.0
-250.0   150.0   16.666666666666668
-300.0   120.0   16.666666666666668
-300.0   150.0   16.666666666666668
-250.0   150.0   16.666666666666668
-300.0   150.0   0.0
-300.0   120.0   16.666666666666668
-250.0   150.0   16.666666666666668
-250.0   120.0   16.666666666666668
-250.0   120.0   0.0
-300.0   120.0   16.666666666666668
-250.0   150.0   16.666666666666668
-250.0   120.0   0.0
-300.0   150.0   0.0
-300.0   120.0   16.666666666666668
-250.0   120.0   16.666666666666668
-300.0   150.0   16.666666666666668
-300.0   120.0   33.333333333333336
-250.0   120.0   16.666666666666668
-250.0   150.0   16.666666666666668
-300.0   150.0   16.666666666666668
-250.0   150.0   33.333333333333336
-300.0   120.0   33.333333333333336
-300.0   150.0   33.333333333333336
-250.0   150.0   33.333333333333336
-300.0   150.0   16.666666666666668
-300.0   120.0   33.333333333333336
-250.0   150.0   33.333333333333336
-250.0   120.0   33.333333333333336
-250.0   120.0   16.666666666666668
-300.0   120.0   33.333333333333336
-250.0   150.0   33.333333333333336
-250.0   120.0   16.666666666666668
-300.0   150.0   16.666666666666668
-300.0   120.0   33.333333333333336
-250.0   120.0   33.333333333333336
-300.0   150.0   33.333333333333336
-300.0   120.0   50.0
-250.0   120.0   33.333333333333336
-250.0   150.0   33.333333333333336
-300.0   150.0   33.333333333333336
-250.0   150.0   50.0
-300.0   120.0   50.0
-300.0   150.0   50.0
-250.0   150.0   50.0
-300.0   150.0   33.333333333333336
-300.0   120.0   50.0
-250.0   150.0   50.0
-250.0   120.0   50.0
-250.0   120.0   33.333333333333336
-300.0   120.0   50.0
-250.0   150.0   50.0
-250.0   120.0   33.333333333333336
-300.0   150.0   33.333333333333336
-250.0   0.0   0.0
-200.0   0.0   0.0
-250.0   30.0   0.0
-250.0   0.0   16.666666666666668
-200.0   0.0   0.0
-200.0   30.0   0.0
-250.0   30.0   0.0
-200.0   30.0   16.666666666666668
-250.0   0.0   16.666666666666668
-250.0   30.0   16.666666666666668
-200.0   30.0   16.666666666666668
-250.0   30.0   0.0
-250.0   0.0   16.666666666666668
-200.0   30.0   16.666666666666668
-200.0   0.0   16.666666666666668
-200.0   0.0   0.0
-250.0   0.0   16.666666666666668
-200.0   30.0   16.666666666666668
-200.0   0.0   0.0
-250.0   30.0   0.0
-250.0   0.0   16.666666666666668
-200.0   0.0   16.666666666666668
-250.0   30.0   16.666666666666668
-250.0   0.0   33.333333333333336
-200.0   0.0   16.666666666666668
-200.0   30.0   16.666666666666668
-250.0   30.0   16.666666666666668
-200.0   30.0   33.333333333333336
-250.0   0.0   33.333333333333336
-250.0   30.0   33.333333333333336
-200.0   30.0   33.333333333333336
-250.0   30.0   16.666666666666668
-250.0   0.0   33.333333333333336
-200.0   30.0   33.333333333333336
-200.0   0.0   33.333333333333336
-200.0   0.0   16.666666666666668
-250.0   0.0   33.333333333333336
-200.0   30.0   33.333333333333336
-200.0   0.0   16.666666666666668
-250.0   30.0   16.666666666666668
-250.0   0.0   33.333333333333336
-200.0   0.0   33.333333333333336
-250.0   30.0   33.333333333333336
-250.0   0.0   50.0
-200.0   0.0   33.333333333333336
-200.0   30.0   33.333333333333336
-250.0   30.0   33.333333333333336
-200.0   30.0   50.0
-250.0   0.0   50.0
-250.0   30.0   50.0
-200.0   30.0   50.0
-250.0   30.0   33.333333333333336
-250.0   0.0   50.0
-200.0   30.0   50.0
-200.0   0.0   50.0
-200.0   0.0   33.333333333333336
-250.0   0.0   50.0
-200.0   30.0   50.0
-200.0   0.0   33.333333333333336
-250.0   30.0   33.333333333333336
-250.0   30.0   0.0
-200.0   30.0   0.0
-250.0   60.0   0.0
-250.0   30.0   16.666666666666668
-200.0   30.0   0.0
-200.0   60.0   0.0
-250.0   60.0   0.0
-200.0   60.0   16.666666666666668
-250.0   30.0   16.666666666666668
-250.0   60.0   16.666666666666668
-200.0   60.0   16.666666666666668
-250.0   60.0   0.0
-250.0   30.0   16.666666666666668
-200.0   60.0   16.666666666666668
-200.0   30.0   16.666666666666668
-200.0   30.0   0.0
-250.0   30.0   16.666666666666668
-200.0   60.0   16.666666666666668
-200.0   30.0   0.0
-250.0   60.0   0.0
-250.0   30.0   16.666666666666668
-200.0   30.0   16.666666666666668
-250.0   60.0   16.666666666666668
-250.0   30.0   33.333333333333336
-200.0   30.0   16.666666666666668
-200.0   60.0   16.666666666666668
-250.0   60.0   16.666666666666668
-200.0   60.0   33.333333333333336
-250.0   30.0   33.333333333333336
-250.0   60.0   33.333333333333336
-200.0   60.0   33.333333333333336
-250.0   60.0   16.666666666666668
-250.0   30.0   33.333333333333336
-200.0   60.0   33.333333333333336
-200.0   30.0   33.333333333333336
-200.0   30.0   16.666666666666668
-250.0   30.0   33.333333333333336
-200.0   60.0   33.333333333333336
-200.0   30.0   16.666666666666668
-250.0   60.0   16.666666666666668
-250.0   30.0   33.333333333333336
-200.0   30.0   33.333333333333336
-250.0   60.0   33.333333333333336
-250.0   30.0   50.0
-200.0   30.0   33.333333333333336
-200.0   60.0   33.333333333333336
-250.0   60.0   33.333333333333336
-200.0   60.0   50.0
-250.0   30.0   50.0
-250.0   60.0   50.0
-200.0   60.0   50.0
-250.0   60.0   33.333333333333336
-250.0   30.0   50.0
-200.0   60.0   50.0
-200.0   30.0   50.0
-200.0   30.0   33.333333333333336
-250.0   30.0   50.0
-200.0   60.0   50.0
-200.0   30.0   33.333333333333336
-250.0   60.0   33.333333333333336
-250.0   60.0   0.0
-200.0   60.0   0.0
-250.0   90.0   0.0
-250.0   60.0   16.666666666666668
-200.0   60.0   0.0
-200.0   90.0   0.0
-250.0   90.0   0.0
-200.0   90.0   16.666666666666668
-250.0   60.0   16.666666666666668
-250.0   90.0   16.666666666666668
-200.0   90.0   16.666666666666668
-250.0   90.0   0.0
-250.0   60.0   16.666666666666668
-200.0   90.0   16.666666666666668
-200.0   60.0   16.666666666666668
-200.0   60.0   0.0
-250.0   60.0   16.666666666666668
-200.0   90.0   16.666666666666668
-200.0   60.0   0.0
-250.0   90.0   0.0
-250.0   60.0   16.666666666666668
-200.0   60.0   16.666666666666668
-250.0   90.0   16.666666666666668
-250.0   60.0   33.333333333333336
-200.0   60.0   16.666666666666668
-200.0   90.0   16.666666666666668
-250.0   90.0   16.666666666666668
-200.0   90.0   33.333333333333336
-250.0   60.0   33.333333333333336
-250.0   90.0   33.333333333333336
-200.0   90.0   33.333333333333336
-250.0   90.0   16.666666666666668
-250.0   60.0   33.333333333333336
-200.0   90.0   33.333333333333336
-200.0   60.0   33.333333333333336
-200.0   60.0   16.666666666666668
-250.0   60.0   33.333333333333336
-200.0   90.0   33.333333333333336
-200.0   60.0   16.666666666666668
-250.0   90.0   16.666666666666668
-250.0   60.0   33.333333333333336
-200.0   60.0   33.333333333333336
-250.0   90.0   33.333333333333336
-250.0   60.0   50.0
-200.0   60.0   33.333333333333336
-200.0   90.0   33.333333333333336
-250.0   90.0   33.333333333333336
-200.0   90.0   50.0
-250.0   60.0   50.0
-250.0   90.0   50.0
-200.0   90.0   50.0
-250.0   90.0   33.333333333333336
-250.0   60.0   50.0
-200.0   90.0   50.0
-200.0   60.0   50.0
-200.0   60.0   33.333333333333336
-250.0   60.0   50.0
-200.0   90.0   50.0
-200.0   60.0   33.333333333333336
-250.0   90.0   33.333333333333336
-250.0   90.0   0.0
-200.0   90.0   0.0
-250.0   120.0   0.0
-250.0   90.0   16.666666666666668
-200.0   90.0   0.0
-200.0   120.0   0.0
-250.0   120.0   0.0
-200.0   120.0   16.666666666666668
-250.0   90.0   16.666666666666668
-250.0   120.0   16.666666666666668
-200.0   120.0   16.666666666666668
-250.0   120.0   0.0
-250.0   90.0   16.666666666666668
-200.0   120.0   16.666666666666668
-200.0   90.0   16.666666666666668
-200.0   90.0   0.0
-250.0   90.0   16.666666666666668
-200.0   120.0   16.666666666666668
-200.0   90.0   0.0
-250.0   120.0   0.0
-250.0   90.0   16.666666666666668
-200.0   90.0   16.666666666666668
-250.0   120.0   16.666666666666668
-250.0   90.0   33.333333333333336
-200.0   90.0   16.666666666666668
-200.0   120.0   16.666666666666668
-250.0   120.0   16.666666666666668
-200.0   120.0   33.333333333333336
-250.0   90.0   33.333333333333336
-250.0   120.0   33.333333333333336
-200.0   120.0   33.333333333333336
-250.0   120.0   16.666666666666668
-250.0   90.0   33.333333333333336
-200.0   120.0   33.333333333333336
-200.0   90.0   33.333333333333336
-200.0   90.0   16.666666666666668
-250.0   90.0   33.333333333333336
-200.0   120.0   33.333333333333336
-200.0   90.0   16.666666666666668
-250.0   120.0   16.666666666666668
-250.0   90.0   33.333333333333336
-200.0   90.0   33.333333333333336
-250.0   120.0   33.333333333333336
-250.0   90.0   50.0
-200.0   90.0   33.333333333333336
-200.0   120.0   33.333333333333336
-250.0   120.0   33.333333333333336
-200.0   120.0   50.0
-250.0   90.0   50.0
-250.0   120.0   50.0
-200.0   120.0   50.0
-250.0   120.0   33.333333333333336
-250.0   90.0   50.0
-200.0   120.0   50.0
-200.0   90.0   50.0
-200.0   90.0   33.333333333333336
-250.0   90.0   50.0
-200.0   120.0   50.0
-200.0   90.0   33.333333333333336
-250.0   120.0   33.333333333333336
-250.0   120.0   0.0
-200.0   120.0   0.0
-250.0   150.0   0.0
-250.0   120.0   16.666666666666668
-200.0   120.0   0.0
-200.0   150.0   0.0
-250.0   150.0   0.0
-200.0   150.0   16.666666666666668
-250.0   120.0   16.666666666666668
-250.0   150.0   16.666666666666668
-200.0   150.0   16.666666666666668
-250.0   150.0   0.0
-250.0   120.0   16.666666666666668
-200.0   150.0   16.666666666666668
-200.0   120.0   16.666666666666668
-200.0   120.0   0.0
-250.0   120.0   16.666666666666668
-200.0   150.0   16.666666666666668
-200.0   120.0   0.0
-250.0   150.0   0.0
-250.0   120.0   16.666666666666668
-200.0   120.0   16.666666666666668
-250.0   150.0   16.666666666666668
-250.0   120.0   33.333333333333336
-200.0   120.0   16.666666666666668
-200.0   150.0   16.666666666666668
-250.0   150.0   16.666666666666668
-200.0   150.0   33.333333333333336
-250.0   120.0   33.333333333333336
-250.0   150.0   33.333333333333336
-200.0   150.0   33.333333333333336
-250.0   150.0   16.666666666666668
-250.0   120.0   33.333333333333336
-200.0   150.0   33.333333333333336
-200.0   120.0   33.333333333333336
-200.0   120.0   16.666666666666668
-250.0   120.0   33.333333333333336
-200.0   150.0   33.333333333333336
-200.0   120.0   16.666666666666668
-250.0   150.0   16.666666666666668
-250.0   120.0   33.333333333333336
-200.0   120.0   33.333333333333336
-250.0   150.0   33.333333333333336
-250.0   120.0   50.0
-200.0   120.0   33.333333333333336
-200.0   150.0   33.333333333333336
-250.0   150.0   33.333333333333336
-200.0   150.0   50.0
-250.0   120.0   50.0
-250.0   150.0   50.0
-200.0   150.0   50.0
-250.0   150.0   33.333333333333336
-250.0   120.0   50.0
-200.0   150.0   50.0
-200.0   120.0   50.0
-200.0   120.0   33.333333333333336
-250.0   120.0   50.0
-200.0   150.0   50.0
-200.0   120.0   33.333333333333336
-250.0   150.0   33.333333333333336
-200.0   0.0   0.0
-150.0   0.0   0.0
-200.0   30.0   0.0
-200.0   0.0   16.666666666666668
-150.0   0.0   0.0
-150.0   30.0   0.0
-200.0   30.0   0.0
-150.0   30.0   16.666666666666668
-200.0   0.0   16.666666666666668
-200.0   30.0   16.666666666666668
-150.0   30.0   16.666666666666668
-200.0   30.0   0.0
-200.0   0.0   16.666666666666668
-150.0   30.0   16.666666666666668
-150.0   0.0   16.666666666666668
-150.0   0.0   0.0
-200.0   0.0   16.666666666666668
-150.0   30.0   16.666666666666668
-150.0   0.0   0.0
-200.0   30.0   0.0
-200.0   0.0   16.666666666666668
-150.0   0.0   16.666666666666668
-200.0   30.0   16.666666666666668
-200.0   0.0   33.333333333333336
-150.0   0.0   16.666666666666668
-150.0   30.0   16.666666666666668
-200.0   30.0   16.666666666666668
-150.0   30.0   33.333333333333336
-200.0   0.0   33.333333333333336
-200.0   30.0   33.333333333333336
-150.0   30.0   33.333333333333336
-200.0   30.0   16.666666666666668
-200.0   0.0   33.333333333333336
-150.0   30.0   33.333333333333336
-150.0   0.0   33.333333333333336
-150.0   0.0   16.666666666666668
-200.0   0.0   33.333333333333336
-150.0   30.0   33.333333333333336
-150.0   0.0   16.666666666666668
-200.0   30.0   16.666666666666668
-200.0   0.0   33.333333333333336
-150.0   0.0   33.333333333333336
-200.0   30.0   33.333333333333336
-200.0   0.0   50.0
-150.0   0.0   33.333333333333336
-150.0   30.0   33.333333333333336
-200.0   30.0   33.333333333333336
-150.0   30.0   50.0
-200.0   0.0   50.0
-200.0   30.0   50.0
-150.0   30.0   50.0
-200.0   30.0   33.333333333333336
-200.0   0.0   50.0
-150.0   30.0   50.0
-150.0   0.0   50.0
-150.0   0.0   33.333333333333336
-200.0   0.0   50.0
-150.0   30.0   50.0
-150.0   0.0   33.333333333333336
-200.0   30.0   33.333333333333336
-200.0   30.0   0.0
-150.0   30.0   0.0
-200.0   60.0   0.0
-200.0   30.0   16.666666666666668
-150.0   30.0   0.0
-150.0   60.0   0.0
-200.0   60.0   0.0
-150.0   60.0   16.666666666666668
-200.0   30.0   16.666666666666668
-200.0   60.0   16.666666666666668
-150.0   60.0   16.666666666666668
-200.0   60.0   0.0
-200.0   30.0   16.666666666666668
-150.0   60.0   16.666666666666668
-150.0   30.0   16.666666666666668
-150.0   30.0   0.0
-200.0   30.0   16.666666666666668
-150.0   60.0   16.666666666666668
-150.0   30.0   0.0
-200.0   60.0   0.0
-200.0   30.0   16.666666666666668
-150.0   30.0   16.666666666666668
-200.0   60.0   16.666666666666668
-200.0   30.0   33.333333333333336
-150.0   30.0   16.666666666666668
-150.0   60.0   16.666666666666668
-200.0   60.0   16.666666666666668
-150.0   60.0   33.333333333333336
-200.0   30.0   33.333333333333336
-200.0   60.0   33.333333333333336
-150.0   60.0   33.333333333333336
-200.0   60.0   16.666666666666668
-200.0   30.0   33.333333333333336
-150.0   60.0   33.333333333333336
-150.0   30.0   33.333333333333336
-150.0   30.0   16.666666666666668
-200.0   30.0   33.333333333333336
-150.0   60.0   33.333333333333336
-150.0   30.0   16.666666666666668
-200.0   60.0   16.666666666666668
-200.0   30.0   33.333333333333336
-150.0   30.0   33.333333333333336
-200.0   60.0   33.333333333333336
-200.0   30.0   50.0
-150.0   30.0   33.333333333333336
-150.0   60.0   33.333333333333336
-200.0   60.0   33.333333333333336
-150.0   60.0   50.0
-200.0   30.0   50.0
-200.0   60.0   50.0
-150.0   60.0   50.0
-200.0   60.0   33.333333333333336
-200.0   30.0   50.0
-150.0   60.0   50.0
-150.0   30.0   50.0
-150.0   30.0   33.333333333333336
-200.0   30.0   50.0
-150.0   60.0   50.0
-150.0   30.0   33.333333333333336
-200.0   60.0   33.333333333333336
-200.0   60.0   0.0
-150.0   60.0   0.0
-200.0   90.0   0.0
-200.0   60.0   16.666666666666668
-150.0   60.0   0.0
-150.0   90.0   0.0
-200.0   90.0   0.0
-150.0   90.0   16.666666666666668
-200.0   60.0   16.666666666666668
-200.0   90.0   16.666666666666668
-150.0   90.0   16.666666666666668
-200.0   90.0   0.0
-200.0   60.0   16.666666666666668
-150.0   90.0   16.666666666666668
-150.0   60.0   16.666666666666668
-150.0   60.0   0.0
-200.0   60.0   16.666666666666668
-150.0   90.0   16.666666666666668
-150.0   60.0   0.0
-200.0   90.0   0.0
-200.0   60.0   16.666666666666668
-150.0   60.0   16.666666666666668
-200.0   90.0   16.666666666666668
-200.0   60.0   33.333333333333336
-150.0   60.0   16.666666666666668
-150.0   90.0   16.666666666666668
-200.0   90.0   16.666666666666668
-150.0   90.0   33.333333333333336
-200.0   60.0   33.333333333333336
-200.0   90.0   33.333333333333336
-150.0   90.0   33.333333333333336
-200.0   90.0   16.666666666666668
-200.0   60.0   33.333333333333336
-150.0   90.0   33.333333333333336
-150.0   60.0   33.333333333333336
-150.0   60.0   16.666666666666668
-200.0   60.0   33.333333333333336
-150.0   90.0   33.333333333333336
-150.0   60.0   16.666666666666668
-200.0   90.0   16.666666666666668
-200.0   60.0   33.333333333333336
-150.0   60.0   33.333333333333336
-200.0   90.0   33.333333333333336
-200.0   60.0   50.0
-150.0   60.0   33.333333333333336
-150.0   90.0   33.333333333333336
-200.0   90.0   33.333333333333336
-150.0   90.0   50.0
-200.0   60.0   50.0
-200.0   90.0   50.0
-150.0   90.0   50.0
-200.0   90.0   33.333333333333336
-200.0   60.0   50.0
-150.0   90.0   50.0
-150.0   60.0   50.0
-150.0   60.0   33.333333333333336
-200.0   60.0   50.0
-150.0   90.0   50.0
-150.0   60.0   33.333333333333336
-200.0   90.0   33.333333333333336
-200.0   90.0   0.0
-150.0   90.0   0.0
-200.0   120.0   0.0
-200.0   90.0   16.666666666666668
-150.0   90.0   0.0
-150.0   120.0   0.0
-200.0   120.0   0.0
-150.0   120.0   16.666666666666668
-200.0   90.0   16.666666666666668
-200.0   120.0   16.666666666666668
-150.0   120.0   16.666666666666668
-200.0   120.0   0.0
-200.0   90.0   16.666666666666668
-150.0   120.0   16.666666666666668
-150.0   90.0   16.666666666666668
-150.0   90.0   0.0
-200.0   90.0   16.666666666666668
-150.0   120.0   16.666666666666668
-150.0   90.0   0.0
-200.0   120.0   0.0
-200.0   90.0   16.666666666666668
-150.0   90.0   16.666666666666668
-200.0   120.0   16.666666666666668
-200.0   90.0   33.333333333333336
-150.0   90.0   16.666666666666668
-150.0   120.0   16.666666666666668
-200.0   120.0   16.666666666666668
-150.0   120.0   33.333333333333336
-200.0   90.0   33.333333333333336
-200.0   120.0   33.333333333333336
-150.0   120.0   33.333333333333336
-200.0   120.0   16.666666666666668
-200.0   90.0   33.333333333333336
-150.0   120.0   33.333333333333336
-150.0   90.0   33.333333333333336
-150.0   90.0   16.666666666666668
-200.0   90.0   33.333333333333336
-150.0   120.0   33.333333333333336
-150.0   90.0   16.666666666666668
-200.0   120.0   16.666666666666668
-200.0   90.0   33.333333333333336
-150.0   90.0   33.333333333333336
-200.0   120.0   33.333333333333336
-200.0   90.0   50.0
-150.0   90.0   33.333333333333336
-150.0   120.0   33.333333333333336
-200.0   120.0   33.333333333333336
-150.0   120.0   50.0
-200.0   90.0   50.0
-200.0   120.0   50.0
-150.0   120.0   50.0
-200.0   120.0   33.333333333333336
-200.0   90.0   50.0
-150.0   120.0   50.0
-150.0   90.0   50.0
-150.0   90.0   33.333333333333336
-200.0   90.0   50.0
-150.0   120.0   50.0
-150.0   90.0   33.333333333333336
-200.0   120.0   33.333333333333336
-200.0   120.0   0.0
-150.0   120.0   0.0
-200.0   150.0   0.0
-200.0   120.0   16.666666666666668
-150.0   120.0   0.0
-150.0   150.0   0.0
-200.0   150.0   0.0
-150.0   150.0   16.666666666666668
-200.0   120.0   16.666666666666668
-200.0   150.0   16.666666666666668
-150.0   150.0   16.666666666666668
-200.0   150.0   0.0
-200.0   120.0   16.666666666666668
-150.0   150.0   16.666666666666668
-150.0   120.0   16.666666666666668
-150.0   120.0   0.0
-200.0   120.0   16.666666666666668
-150.0   150.0   16.666666666666668
-150.0   120.0   0.0
-200.0   150.0   0.0
-200.0   120.0   16.666666666666668
-150.0   120.0   16.666666666666668
-200.0   150.0   16.666666666666668
-200.0   120.0   33.333333333333336
-150.0   120.0   16.666666666666668
-150.0   150.0   16.666666666666668
-200.0   150.0   16.666666666666668
-150.0   150.0   33.333333333333336
-200.0   120.0   33.333333333333336
-200.0   150.0   33.333333333333336
-150.0   150.0   33.333333333333336
-200.0   150.0   16.666666666666668
-200.0   120.0   33.333333333333336
-150.0   150.0   33.333333333333336
-150.0   120.0   33.333333333333336
-150.0   120.0   16.666666666666668
-200.0   120.0   33.333333333333336
-150.0   150.0   33.333333333333336
-150.0   120.0   16.666666666666668
-200.0   150.0   16.666666666666668
-200.0   120.0   33.333333333333336
-150.0   120.0   33.333333333333336
-200.0   150.0   33.333333333333336
-200.0   120.0   50.0
-150.0   120.0   33.333333333333336
-150.0   150.0   33.333333333333336
-200.0   150.0   33.333333333333336
-150.0   150.0   50.0
-200.0   120.0   50.0
-200.0   150.0   50.0
-150.0   150.0   50.0
-200.0   150.0   33.333333333333336
-200.0   120.0   50.0
-150.0   150.0   50.0
-150.0   120.0   50.0
-150.0   120.0   33.333333333333336
-200.0   120.0   50.0
-150.0   150.0   50.0
-150.0   120.0   33.333333333333336
-200.0   150.0   33.333333333333336
-150.0   0.0   0.0
-100.0   0.0   0.0
-150.0   30.0   0.0
-150.0   0.0   16.666666666666668
-100.0   0.0   0.0
-100.0   30.0   0.0
-150.0   30.0   0.0
-100.0   30.0   16.666666666666668
-150.0   0.0   16.666666666666668
-150.0   30.0   16.666666666666668
-100.0   30.0   16.666666666666668
-150.0   30.0   0.0
-150.0   0.0   16.666666666666668
-100.0   30.0   16.666666666666668
-100.0   0.0   16.666666666666668
-100.0   0.0   0.0
-150.0   0.0   16.666666666666668
-100.0   30.0   16.666666666666668
-100.0   0.0   0.0
-150.0   30.0   0.0
-150.0   0.0   16.666666666666668
-100.0   0.0   16.666666666666668
-150.0   30.0   16.666666666666668
-150.0   0.0   33.333333333333336
-100.0   0.0   16.666666666666668
-100.0   30.0   16.666666666666668
-150.0   30.0   16.666666666666668
-100.0   30.0   33.333333333333336
-150.0   0.0   33.333333333333336
-150.0   30.0   33.333333333333336
-100.0   30.0   33.333333333333336
-150.0   30.0   16.666666666666668
-150.0   0.0   33.333333333333336
-100.0   30.0   33.333333333333336
-100.0   0.0   33.333333333333336
-100.0   0.0   16.666666666666668
-150.0   0.0   33.333333333333336
-100.0   30.0   33.333333333333336
-100.0   0.0   16.666666666666668
-150.0   30.0   16.666666666666668
-150.0   0.0   33.333333333333336
-100.0   0.0   33.333333333333336
-150.0   30.0   33.333333333333336
-150.0   0.0   50.0
-100.0   0.0   33.333333333333336
-100.0   30.0   33.333333333333336
-150.0   30.0   33.333333333333336
-100.0   30.0   50.0
-150.0   0.0   50.0
-150.0   30.0   50.0
-100.0   30.0   50.0
-150.0   30.0   33.333333333333336
-150.0   0.0   50.0
-100.0   30.0   50.0
-100.0   0.0   50.0
-100.0   0.0   33.333333333333336
-150.0   0.0   50.0
-100.0   30.0   50.0
-100.0   0.0   33.333333333333336
-150.0   30.0   33.333333333333336
-150.0   30.0   0.0
-100.0   30.0   0.0
-150.0   60.0   0.0
-150.0   30.0   16.666666666666668
-100.0   30.0   0.0
-100.0   60.0   0.0
-150.0   60.0   0.0
-100.0   60.0   16.666666666666668
-150.0   30.0   16.666666666666668
-150.0   60.0   16.666666666666668
-100.0   60.0   16.666666666666668
-150.0   60.0   0.0
-150.0   30.0   16.666666666666668
-100.0   60.0   16.666666666666668
-100.0   30.0   16.666666666666668
-100.0   30.0   0.0
-150.0   30.0   16.666666666666668
-100.0   60.0   16.666666666666668
-100.0   30.0   0.0
-150.0   60.0   0.0
-150.0   30.0   16.666666666666668
-100.0   30.0   16.666666666666668
-150.0   60.0   16.666666666666668
-150.0   30.0   33.333333333333336
-100.0   30.0   16.666666666666668
-100.0   60.0   16.666666666666668
-150.0   60.0   16.666666666666668
-100.0   60.0   33.333333333333336
-150.0   30.0   33.333333333333336
-150.0   60.0   33.333333333333336
-100.0   60.0   33.333333333333336
-150.0   60.0   16.666666666666668
-150.0   30.0   33.333333333333336
-100.0   60.0   33.333333333333336
-100.0   30.0   33.333333333333336
-100.0   30.0   16.666666666666668
-150.0   30.0   33.333333333333336
-100.0   60.0   33.333333333333336
-100.0   30.0   16.666666666666668
-150.0   60.0   16.666666666666668
-150.0   30.0   33.333333333333336
-100.0   30.0   33.333333333333336
-150.0   60.0   33.333333333333336
-150.0   30.0   50.0
-100.0   30.0   33.333333333333336
-100.0   60.0   33.333333333333336
-150.0   60.0   33.333333333333336
-100.0   60.0   50.0
-150.0   30.0   50.0
-150.0   60.0   50.0
-100.0   60.0   50.0
-150.0   60.0   33.333333333333336
-150.0   30.0   50.0
-100.0   60.0   50.0
-100.0   30.0   50.0
-100.0   30.0   33.333333333333336
-150.0   30.0   50.0
-100.0   60.0   50.0
-100.0   30.0   33.333333333333336
-150.0   60.0   33.333333333333336
-150.0   60.0   0.0
-100.0   60.0   0.0
-150.0   90.0   0.0
-150.0   60.0   16.666666666666668
-100.0   60.0   0.0
-100.0   90.0   0.0
-150.0   90.0   0.0
-100.0   90.0   16.666666666666668
-150.0   60.0   16.666666666666668
-150.0   90.0   16.666666666666668
-100.0   90.0   16.666666666666668
-150.0   90.0   0.0
-150.0   60.0   16.666666666666668
-100.0   90.0   16.666666666666668
-100.0   60.0   16.666666666666668
-100.0   60.0   0.0
-150.0   60.0   16.666666666666668
-100.0   90.0   16.666666666666668
-100.0   60.0   0.0
-150.0   90.0   0.0
-150.0   60.0   16.666666666666668
-100.0   60.0   16.666666666666668
-150.0   90.0   16.666666666666668
-150.0   60.0   33.333333333333336
-100.0   60.0   16.666666666666668
-100.0   90.0   16.666666666666668
-150.0   90.0   16.666666666666668
-100.0   90.0   33.333333333333336
-150.0   60.0   33.333333333333336
-150.0   90.0   33.333333333333336
-100.0   90.0   33.333333333333336
-150.0   90.0   16.666666666666668
-150.0   60.0   33.333333333333336
-100.0   90.0   33.333333333333336
-100.0   60.0   33.333333333333336
-100.0   60.0   16.666666666666668
-150.0   60.0   33.333333333333336
-100.0   90.0   33.333333333333336
-100.0   60.0   16.666666666666668
-150.0   90.0   16.666666666666668
-150.0   60.0   33.333333333333336
-100.0   60.0   33.333333333333336
-150.0   90.0   33.333333333333336
-150.0   60.0   50.0
-100.0   60.0   33.333333333333336
-100.0   90.0   33.333333333333336
-150.0   90.0   33.333333333333336
-100.0   90.0   50.0
-150.0   60.0   50.0
-150.0   90.0   50.0
-100.0   90.0   50.0
-150.0   90.0   33.333333333333336
-150.0   60.0   50.0
-100.0   90.0   50.0
-100.0   60.0   50.0
-100.0   60.0   33.333333333333336
-150.0   60.0   50.0
-100.0   90.0   50.0
-100.0   60.0   33.333333333333336
-150.0   90.0   33.333333333333336
-150.0   90.0   0.0
-100.0   90.0   0.0
-150.0   120.0   0.0
-150.0   90.0   16.666666666666668
-100.0   90.0   0.0
-100.0   120.0   0.0
-150.0   120.0   0.0
-100.0   120.0   16.666666666666668
-150.0   90.0   16.666666666666668
-150.0   120.0   16.666666666666668
-100.0   120.0   16.666666666666668
-150.0   120.0   0.0
-150.0   90.0   16.666666666666668
-100.0   120.0   16.666666666666668
-100.0   90.0   16.666666666666668
-100.0   90.0   0.0
-150.0   90.0   16.666666666666668
-100.0   120.0   16.666666666666668
-100.0   90.0   0.0
-150.0   120.0   0.0
-150.0   90.0   16.666666666666668
-100.0   90.0   16.666666666666668
-150.0   120.0   16.666666666666668
-150.0   90.0   33.333333333333336
-100.0   90.0   16.666666666666668
-100.0   120.0   16.666666666666668
-150.0   120.0   16.666666666666668
-100.0   120.0   33.333333333333336
-150.0   90.0   33.333333333333336
-150.0   120.0   33.333333333333336
-100.0   120.0   33.333333333333336
-150.0   120.0   16.666666666666668
-150.0   90.0   33.333333333333336
-100.0   120.0   33.333333333333336
-100.0   90.0   33.333333333333336
-100.0   90.0   16.666666666666668
-150.0   90.0   33.333333333333336
-100.0   120.0   33.333333333333336
-100.0   90.0   16.666666666666668
-150.0   120.0   16.666666666666668
-150.0   90.0   33.333333333333336
-100.0   90.0   33.333333333333336
-150.0   120.0   33.333333333333336
-150.0   90.0   50.0
-100.0   90.0   33.333333333333336
-100.0   120.0   33.333333333333336
-150.0   120.0   33.333333333333336
-100.0   120.0   50.0
-150.0   90.0   50.0
-150.0   120.0   50.0
-100.0   120.0   50.0
-150.0   120.0   33.333333333333336
-150.0   90.0   50.0
-100.0   120.0   50.0
-100.0   90.0   50.0
-100.0   90.0   33.333333333333336
-150.0   90.0   50.0
-100.0   120.0   50.0
-100.0   90.0   33.333333333333336
-150.0   120.0   33.333333333333336
-150.0   120.0   0.0
-100.0   120.0   0.0
-150.0   150.0   0.0
-150.0   120.0   16.666666666666668
-100.0   120.0   0.0
-100.0   150.0   0.0
-150.0   150.0   0.0
-100.0   150.0   16.666666666666668
-150.0   120.0   16.666666666666668
-150.0   150.0   16.666666666666668
-100.0   150.0   16.666666666666668
-150.0   150.0   0.0
-150.0   120.0   16.666666666666668
-100.0   150.0   16.666666666666668
-100.0   120.0   16.666666666666668
-100.0   120.0   0.0
-150.0   120.0   16.666666666666668
-100.0   150.0   16.666666666666668
-100.0   120.0   0.0
-150.0   150.0   0.0
-150.0   120.0   16.666666666666668
-100.0   120.0   16.666666666666668
-150.0   150.0   16.666666666666668
-150.0   120.0   33.333333333333336
-100.0   120.0   16.666666666666668
-100.0   150.0   16.666666666666668
-150.0   150.0   16.666666666666668
-100.0   150.0   33.333333333333336
-150.0   120.0   33.333333333333336
-150.0   150.0   33.333333333333336
-100.0   150.0   33.333333333333336
-150.0   150.0   16.666666666666668
-150.0   120.0   33.333333333333336
-100.0   150.0   33.333333333333336
-100.0   120.0   33.333333333333336
-100.0   120.0   16.666666666666668
-150.0   120.0   33.333333333333336
-100.0   150.0   33.333333333333336
-100.0   120.0   16.666666666666668
-150.0   150.0   16.666666666666668
-150.0   120.0   33.333333333333336
-100.0   120.0   33.333333333333336
-150.0   150.0   33.333333333333336
-150.0   120.0   50.0
-100.0   120.0   33.333333333333336
-100.0   150.0   33.333333333333336
-150.0   150.0   33.333333333333336
-100.0   150.0   50.0
-150.0   120.0   50.0
-150.0   150.0   50.0
-100.0   150.0   50.0
-150.0   150.0   33.333333333333336
-150.0   120.0   50.0
-100.0   150.0   50.0
-100.0   120.0   50.0
-100.0   120.0   33.333333333333336
-150.0   120.0   50.0
-100.0   150.0   50.0
-100.0   120.0   33.333333333333336
-150.0   150.0   33.333333333333336
-100.0   0.0   0.0
-50.0   0.0   0.0
-100.0   30.0   0.0
-100.0   0.0   16.666666666666668
-50.0   0.0   0.0
-50.0   30.0   0.0
-100.0   30.0   0.0
-50.0   30.0   16.666666666666668
-100.0   0.0   16.666666666666668
-100.0   30.0   16.666666666666668
-50.0   30.0   16.666666666666668
-100.0   30.0   0.0
-100.0   0.0   16.666666666666668
-50.0   30.0   16.666666666666668
-50.0   0.0   16.666666666666668
-50.0   0.0   0.0
-100.0   0.0   16.666666666666668
-50.0   30.0   16.666666666666668
-50.0   0.0   0.0
-100.0   30.0   0.0
-100.0   0.0   16.666666666666668
-50.0   0.0   16.666666666666668
-100.0   30.0   16.666666666666668
-100.0   0.0   33.333333333333336
-50.0   0.0   16.666666666666668
-50.0   30.0   16.666666666666668
-100.0   30.0   16.666666666666668
-50.0   30.0   33.333333333333336
-100.0   0.0   33.333333333333336
-100.0   30.0   33.333333333333336
-50.0   30.0   33.333333333333336
-100.0   30.0   16.666666666666668
-100.0   0.0   33.333333333333336
-50.0   30.0   33.333333333333336
-50.0   0.0   33.333333333333336
-50.0   0.0   16.666666666666668
-100.0   0.0   33.333333333333336
-50.0   30.0   33.333333333333336
-50.0   0.0   16.666666666666668
-100.0   30.0   16.666666666666668
-100.0   0.0   33.333333333333336
-50.0   0.0   33.333333333333336
-100.0   30.0   33.333333333333336
-100.0   0.0   50.0
-50.0   0.0   33.333333333333336
-50.0   30.0   33.333333333333336
-100.0   30.0   33.333333333333336
-50.0   30.0   50.0
-100.0   0.0   50.0
-100.0   30.0   50.0
-50.0   30.0   50.0
-100.0   30.0   33.333333333333336
-100.0   0.0   50.0
-50.0   30.0   50.0
-50.0   0.0   50.0
-50.0   0.0   33.333333333333336
-100.0   0.0   50.0
-50.0   30.0   50.0
-50.0   0.0   33.333333333333336
-100.0   30.0   33.333333333333336
-100.0   30.0   0.0
-50.0   30.0   0.0
-100.0   60.0   0.0
-100.0   30.0   16.666666666666668
-50.0   30.0   0.0
-50.0   60.0   0.0
-100.0   60.0   0.0
-50.0   60.0   16.666666666666668
-100.0   30.0   16.666666666666668
-100.0   60.0   16.666666666666668
-50.0   60.0   16.666666666666668
-100.0   60.0   0.0
-100.0   30.0   16.666666666666668
-50.0   60.0   16.666666666666668
-50.0   30.0   16.666666666666668
-50.0   30.0   0.0
-100.0   30.0   16.666666666666668
-50.0   60.0   16.666666666666668
-50.0   30.0   0.0
-100.0   60.0   0.0
-100.0   30.0   16.666666666666668
-50.0   30.0   16.666666666666668
-100.0   60.0   16.666666666666668
-100.0   30.0   33.333333333333336
-50.0   30.0   16.666666666666668
-50.0   60.0   16.666666666666668
-100.0   60.0   16.666666666666668
-50.0   60.0   33.333333333333336
-100.0   30.0   33.333333333333336
-100.0   60.0   33.333333333333336
-50.0   60.0   33.333333333333336
-100.0   60.0   16.666666666666668
-100.0   30.0   33.333333333333336
-50.0   60.0   33.333333333333336
-50.0   30.0   33.333333333333336
-50.0   30.0   16.666666666666668
-100.0   30.0   33.333333333333336
-50.0   60.0   33.333333333333336
-50.0   30.0   16.666666666666668
-100.0   60.0   16.666666666666668
-100.0   30.0   33.333333333333336
-50.0   30.0   33.333333333333336
-100.0   60.0   33.333333333333336
-100.0   30.0   50.0
-50.0   30.0   33.333333333333336
-50.0   60.0   33.333333333333336
-100.0   60.0   33.333333333333336
-50.0   60.0   50.0
-100.0   30.0   50.0
-100.0   60.0   50.0
-50.0   60.0   50.0
-100.0   60.0   33.333333333333336
-100.0   30.0   50.0
-50.0   60.0   50.0
-50.0   30.0   50.0
-50.0   30.0   33.333333333333336
-100.0   30.0   50.0
-50.0   60.0   50.0
-50.0   30.0   33.333333333333336
-100.0   60.0   33.333333333333336
-100.0   60.0   0.0
-50.0   60.0   0.0
-100.0   90.0   0.0
-100.0   60.0   16.666666666666668
-50.0   60.0   0.0
-50.0   90.0   0.0
-100.0   90.0   0.0
-50.0   90.0   16.666666666666668
-100.0   60.0   16.666666666666668
-100.0   90.0   16.666666666666668
-50.0   90.0   16.666666666666668
-100.0   90.0   0.0
-100.0   60.0   16.666666666666668
-50.0   90.0   16.666666666666668
-50.0   60.0   16.666666666666668
-50.0   60.0   0.0
-100.0   60.0   16.666666666666668
-50.0   90.0   16.666666666666668
-50.0   60.0   0.0
-100.0   90.0   0.0
-100.0   60.0   16.666666666666668
-50.0   60.0   16.666666666666668
-100.0   90.0   16.666666666666668
-100.0   60.0   33.333333333333336
-50.0   60.0   16.666666666666668
-50.0   90.0   16.666666666666668
-100.0   90.0   16.666666666666668
-50.0   90.0   33.333333333333336
-100.0   60.0   33.333333333333336
-100.0   90.0   33.333333333333336
-50.0   90.0   33.333333333333336
-100.0   90.0   16.666666666666668
-100.0   60.0   33.333333333333336
-50.0   90.0   33.333333333333336
-50.0   60.0   33.333333333333336
-50.0   60.0   16.666666666666668
-100.0   60.0   33.333333333333336
-50.0   90.0   33.333333333333336
-50.0   60.0   16.666666666666668
-100.0   90.0   16.666666666666668
-100.0   60.0   33.333333333333336
-50.0   60.0   33.333333333333336
-100.0   90.0   33.333333333333336
-100.0   60.0   50.0
-50.0   60.0   33.333333333333336
-50.0   90.0   33.333333333333336
-100.0   90.0   33.333333333333336
-50.0   90.0   50.0
-100.0   60.0   50.0
-100.0   90.0   50.0
-50.0   90.0   50.0
-100.0   90.0   33.333333333333336
-100.0   60.0   50.0
-50.0   90.0   50.0
-50.0   60.0   50.0
-50.0   60.0   33.333333333333336
-100.0   60.0   50.0
-50.0   90.0   50.0
-50.0   60.0   33.333333333333336
-100.0   90.0   33.333333333333336
-100.0   90.0   0.0
-50.0   90.0   0.0
-100.0   120.0   0.0
-100.0   90.0   16.666666666666668
-50.0   90.0   0.0
-50.0   120.0   0.0
-100.0   120.0   0.0
-50.0   120.0   16.666666666666668
-100.0   90.0   16.666666666666668
-100.0   120.0   16.666666666666668
-50.0   120.0   16.666666666666668
-100.0   120.0   0.0
-100.0   90.0   16.666666666666668
-50.0   120.0   16.666666666666668
-50.0   90.0   16.666666666666668
-50.0   90.0   0.0
-100.0   90.0   16.666666666666668
-50.0   120.0   16.666666666666668
-50.0   90.0   0.0
-100.0   120.0   0.0
-100.0   90.0   16.666666666666668
-50.0   90.0   16.666666666666668
-100.0   120.0   16.666666666666668
-100.0   90.0   33.333333333333336
-50.0   90.0   16.666666666666668
-50.0   120.0   16.666666666666668
-100.0   120.0   16.666666666666668
-50.0   120.0   33.333333333333336
-100.0   90.0   33.333333333333336
-100.0   120.0   33.333333333333336
-50.0   120.0   33.333333333333336
-100.0   120.0   16.666666666666668
-100.0   90.0   33.333333333333336
-50.0   120.0   33.333333333333336
-50.0   90.0   33.333333333333336
-50.0   90.0   16.666666666666668
-100.0   90.0   33.333333333333336
-50.0   120.0   33.333333333333336
-50.0   90.0   16.666666666666668
-100.0   120.0   16.666666666666668
-100.0   90.0   33.333333333333336
-50.0   90.0   33.333333333333336
-100.0   120.0   33.333333333333336
-100.0   90.0   50.0
-50.0   90.0   33.333333333333336
-50.0   120.0   33.333333333333336
-100.0   120.0   33.333333333333336
-50.0   120.0   50.0
-100.0   90.0   50.0
-100.0   120.0   50.0
-50.0   120.0   50.0
-100.0   120.0   33.333333333333336
-100.0   90.0   50.0
-50.0   120.0   50.0
-50.0   90.0   50.0
-50.0   90.0   33.333333333333336
-100.0   90.0   50.0
-50.0   120.0   50.0
-50.0   90.0   33.333333333333336
-100.0   120.0   33.333333333333336
-100.0   120.0   0.0
-50.0   120.0   0.0
-100.0   150.0   0.0
-100.0   120.0   16.666666666666668
-50.0   120.0   0.0
-50.0   150.0   0.0
-100.0   150.0   0.0
-50.0   150.0   16.666666666666668
-100.0   120.0   16.666666666666668
-100.0   150.0   16.666666666666668
-50.0   150.0   16.666666666666668
-100.0   150.0   0.0
-100.0   120.0   16.666666666666668
-50.0   150.0   16.666666666666668
-50.0   120.0   16.666666666666668
-50.0   120.0   0.0
-100.0   120.0   16.666666666666668
-50.0   150.0   16.666666666666668
-50.0   120.0   0.0
-100.0   150.0   0.0
-100.0   120.0   16.666666666666668
-50.0   120.0   16.666666666666668
-100.0   150.0   16.666666666666668
-100.0   120.0   33.333333333333336
-50.0   120.0   16.666666666666668
-50.0   150.0   16.666666666666668
-100.0   150.0   16.666666666666668
-50.0   150.0   33.333333333333336
-100.0   120.0   33.333333333333336
-100.0   150.0   33.333333333333336
-50.0   150.0   33.333333333333336
-100.0   150.0   16.666666666666668
-100.0   120.0   33.333333333333336
-50.0   150.0   33.333333333333336
-50.0   120.0   33.333333333333336
-50.0   120.0   16.666666666666668
-100.0   120.0   33.333333333333336
-50.0   150.0   33.333333333333336
-50.0   120.0   16.666666666666668
-100.0   150.0   16.666666666666668
-100.0   120.0   33.333333333333336
-50.0   120.0   33.333333333333336
-100.0   150.0   33.333333333333336
-100.0   120.0   50.0
-50.0   120.0   33.333333333333336
-50.0   150.0   33.333333333333336
-100.0   150.0   33.333333333333336
-50.0   150.0   50.0
-100.0   120.0   50.0
-100.0   150.0   50.0
-50.0   150.0   50.0
-100.0   150.0   33.333333333333336
-100.0   120.0   50.0
-50.0   150.0   50.0
-50.0   120.0   50.0
-50.0   120.0   33.333333333333336
-100.0   120.0   50.0
-50.0   150.0   50.0
-50.0   120.0   33.333333333333336
-100.0   150.0   33.333333333333336
-50.0   0.0   0.0
0.0   0.0   0.0
-50.0   30.0   0.0
-50.0   0.0   16.666666666666668
0.0   0.0   0.0
0.0   30.0   0.0
-50.0   30.0   0.0
0.0   30.0   16.666666666666668
-50.0   0.0   16.666666666666668
-50.0   30.0   16.666666666666668
0.0   30.0   16.666666666666668
-50.0   30.0   0.0
-50.0   0.0   16.666666666666668
0.0   30.0   16.666666666666668
0.0   0.0   16.666666666666668
0.0   0.0   0.0
-50.0   0.0   16.666666666666668
0.0   30.0   16.666666666666668
0.0   0.0   0.0
-50.0   30.0   0.0
-50.0   0.0   16.666666666666668
0.0   0.0   16.666666666666668
-50.0   30.0   16.666666666666668
-50.0   0.0   33.333333333333336
0.0   0.0   16.666666666666668
0.0   30.0   16.666666666666668
-50.0   30.0   16.666666666666668
0.0   30.0   33.333333333333336
-50.0   0.0   33.333333333333336
-50.0   30.0   33.333333333333336
0.0   30.0   33.333333333333336
-50.0   30.0   16.666666666666668
-50.0   0.0   33.333333333333336
0.0   30.0   33.333333333333336
0.0   0.0   33.333333333333336
0.0   0.0   16.666666666666668
-50.0   0.0   33.333333333333336
0.0   30.0   33.333333333333336
0.0   0.0   16.666666666666668
-50.0   30.0   16.666666666666668
-50.0   0.0   33.333333333333336
0.0   0.0   33.333333333333336
-50.0   30.0   33.333333333333336
-50.0   0.0   50.0
0.0   0.0   33.333333333333336
0.0   30.0   33.333333333333336
-50.0   30.0   33.333333333333336
0.0   30.0   50.0
-50.0   0.0   50.0
-50.0   30.0   50.0
0.0   30.0   50.0
-50.0   30.0   33.333333333333336
-50.0   0.0   50.0
0.0   30.0   50.0
0.0   0.0   50.0
0.0   0.0   33.333333333333336
-50.0   0.0   50.0
0.0   30.0   50.0
0.0   0.0   33.333333333333336
-50.0   30.0   33.333333333333336
-50.0   30.0   0.0
0.0   30.0   0.0
-50.0   60.0   0.0
-50.0   30.0   16.666666666666668
0.0   30.0   0.0
0.0   60.0   0.0
-50.0   60.0   0.0
0.0   60.0   16.666666666666668
-50.0   30.0   16.666666666666668
-50.0   60.0   16.666666666666668
0.0   60.0   16.666666666666668
-50.0   60.0   0.0
-50.0   30.0   16.666666666666668
0.0   60.0   16.666666666666668
0.0   30.0   16.666666666666668
0.0   30.0   0.0
-50.0   30.0   16.666666666666668
0.0   60.0   16.666666666666668
0.0   30.0   0.0
-50.0   60.0   0.0
-50.0   30.0   16.666666666666668
0.0   30.0   16.666666666666668
-50.0   60.0   16.666666666666668
-50.0   30.0   33.333333333333336
0.0   30.0   16.666666666666668
0.0   60.0   16.666666666666668
-50.0   60.0   16.666666666666668
0.0   60.0   33.333333333333336
-50.0   30.0   33.333333333333336
-50.0   60.0   33.333333333333336
0.0   60.0   33.333333333333336
-50.0   60.0   16.666666666666668
-50.0   30.0   33.333333333333336
0.0   60.0   33.333333333333336
0.0   30.0   33.333333333333336
0.0   30.0   16.666666666666668
-50.0   30.0   33.333333333333336
0.0   60.0   33.333333333333336
0.0   30.0   16.666666666666668
-50.0   60.0   16.666666666666668
-50.0   30.0   33.333333333333336
0.0   30.0   33.333333333333336
-50.0   60.0   33.333333333333336
-50.0   30.0   50.0
0.0   30.0   33.333333333333336
0.0   60.0   33.333333333333336
-50.0   60.0   33.333333333333336
0.0   60.0   50.0
-50.0   30.0   50.0
-50.0   60.0   50.0
0.0   60.0   50.0
-50.0   60.0   33.333333333333336
-50.0   30.0   50.0
0.0   60.0   50.0
0.0   30.0   50.0
0.0   30.0   33.333333333333336
-50.0   30.0   50.0
0.0   60.0   50.0
0.0   30.0   33.333333333333336
-50.0   60.0   33.333333333333336
-50.0   60.0   0.0
0.0   60.0   0.0
-50.0   90.0   0.0
-50.0   60.0   16.666666666666668
0.0   60.0   0.0
0.0   90.0   0.0
-50.0   90.0   0.0
0.0   90.0   16.666666666666668
-50.0   60.0   16.666666666666668
-50.0   90.0   16.666666666666668
0.0   90.0   16.666666666666668
-50.0   90.0   0.0
-50.0   60.0   16.666666666666668
0.0   90.0   16.666666666666668
0.0   60.0   16.666666666666668
0.0   60.0   0.0
-50.0   60.0   16.666666666666668
0.0   90.0   16.666666666666668
0.0   60.0   0.0
-50.0   90.0   0.0
-50.0   60.0   16.666666666666668
0.0   60.0   16.666666666666668
-50.0   90.0   16.666666666666668
-50.0   60.0   33.333333333333336
0.0   60.0   16.666666666666668
0.0   90.0   16.666666666666668
-50.0   90.0   16.666666666666668
0.0   90.0   33.333333333333336
-50.0   60.0   33.333333333333336
-50.0   90.0   33.333333333333336
0.0   90.0   33.333333333333336
-50.0   90.0   16.666666666666668
-50.0   60.0   33.333333333333336
0.0   90.0   33.333333333333336
0.0   60.0   33.333333333333336
0.0   60.0   16.666666666666668
-50.0   60.0   33.333333333333336
0.0   90.0   33.333333333333336
0.0   60.0   16.666666666666668
-50.0   90.0   16.666666666666668
-50.0   60.0   33.333333333333336
0.0   60.0   33.333333333333336
-50.0   90.0   33.333333333333336
-50.0   60.0   50.0
0.0   60.0   33.333333333333336
0.0   90.0   33.333333333333336
-50.0   90.0   33.333333333333336
0.0   90.0   50.0
-50.0   60.0   50.0
-50.0   90.0   50.0
0.0   90.0   50.0
-50.0   90.0   33.333333333333336
-50.0   60.0   50.0
0.0   90.0   50.0
0.0   60.0   50.0
0.0   60.0   33.333333333333336
-50.0   60.0   50.0
0.0   90.0   50.0
0.0   60.0   33.333333333333336
-50.0   90.0   33.333333333333336
-50.0   90.0   0.0
0.0   90.0   0.0
-50.0   120.0   0.0
-50.0   90.0   16.666666666666668
0.0   90.0   0.0
0.0   120.0   0.0
-50.0   120.0   0.0
0.0   120.0   16.666666666666668
-50.0   90.0   16.666666666666668
-50.0   120.0   16.666666666666668
0.0   120.0   16.666666666666668
-50.0   120.0   0.0
-50.0   90.0   16.666666666666668
0.0   120.0   16.666666666666668
0.0   90.0   16.666666666666668
0.0   90.0   0.0
-50.0   90.0   16.666666666666668
0.0   120.0   16.666666666666668
0.0   90.0   0.0
-50.0   120.0   0.0
-50.0   90.0   16.666666666666668
0.0   90.0   16.666666666666668
-50.0   120.0   16.666666666666668
-50.0   90.0   33.333333333333336
0.0   90.0   16.666666666666668
0.0   120.0   16.666666666666668
-50.0   120.0   16.666666666666668
0.0   120.0   33.333333333333336
-50.0   90.0   33.333333333333336
-50.0   120.0   33.333333333333336
0.0   120.0   33.333333333333336
-50.0   120.0   16.666666666666668
-50.0   90.0   33.333333333333336
0.0   120.0   33.333333333333336
0.0   90.0   33.333333333333336
0.0   90.0   16.666666666666668
-50.0   90.0   33.333333333333336
0.0   120.0   33.333333333333336
0.0   90.0   16.666666666666668
-50.0   120.0   16.666666666666668
-50.0   90.0   33.333333333333336
0.0   90.0   33.333333333333336
-50.0   120.0   33.333333333333336
-50.0   90.0   50.0
0.0   90.0   33.333333333333336
0.0   120.0   33.333333333333336
-50.0   120.0   33.333333333333336
0.0   120.0   50.0
-50.0   90.0   50.0
-50.0   120.0   50.0
0.0   120.0   50.0
-50.0   120.0   33.333333333333336
-50.0   90.0   50.0
0.0   120.0   50.0
0.0   90.0   50.0
0.0   90.0   33.333333333333336
-50.0   90.0   50.0
0.0   120.0   50.0
0.0   90.0   33.333333333333336
-50.0   120.0   33.333333333333336
-50.0   120.0   0.0
0.0   120.0   0.0
-50.0   150.0   0.0
-50.0   120.0   16.666666666666668
0.0   120.0   0.0
0.0   150.0   0.0
-50.0   150.0   0.0
0.0   150.0   16.666666666666668
-50.0   120.0   16.666666666666668
-50.0   150.0   16.666666666666668
0.0   150.0   16.666666666666668
-50.0   150.0   0.0
-50.0   120.0   16.666666666666668
0.0   150.0   16.666666666666668
0.0   120.0   16.666666666666668
0.0   120.0   0.0
-50.0   120.0   16.666666666666668
0.0   150.0   16.666666666666668
0.0   120.0   0.0
-50.0   150.0   0.0
-50.0   120.0   16.666666666666668
0.0   120.0   16.666666666666668
-50.0   150.0   16.666666666666668
-50.0   120.0   33.333333333333336
0.0   120.0   16.666666666666668
0.0   150.0   16.666666666666668
-50.0   150.0   16.666666666666668
0.0   150.0   33.333333333333336
-50.0   120.0   33.333333333333336
-50.0   150.0   33.333333333333336
0.0   150.0   33.333333333333336
-50.0   150.0   16.666666666666668
-50.0   120.0   33.333333333333336
0.0   150.0   33.333333333333336
0.0   120.0   33.333333333333336
0.0   120.0   16.666666666666668
-50.0   120.0   33.333333333333336
0.0   150.0   33.333333333333336
0.0   120.0   16.666666666666668
-50.0   150.0   16.666666666666668
-50.0   120.0   33.333333333333336
0.0   120.0   33.333333333333336
-50.0   150.0   33.333333333333336
-50.0   120.0   50.0
0.0   120.0   33.333333333333336
0.0   150.0   33.333333333333336
-50.0   150.0   33.333333333333336
0.0   150.0   50.0
-50.0   120.0   50.0
-50.0   150.0   50.0
0.0   150.0   50.0
-50.0   150.0   33.333333333333336
-50.0   120.0   50.0
0.0   150.0   50.0
0.0   120.0   50.0
0.0   120.0   33.333333333333336
-50.0   120.0   50.0
0.0   150.0   50.0
0.0   120.0   33.333333333333336
-50.0   150.0   33.333333333333336
0.0   0.0   0.0
50.0   0.0   0.0
0.0   30.0   0.0
0.0   0.0   16.666666666666668
50.0   0.0   0.0
50.0   30.0   0.0
0.0   30.0   0.0
50.0   30.0   16.666666666666668
0.0   0.0   16.666666666666668
0.0   30.0   16.666666666666668
50.0   30.0   16.666666666666668
0.0   30.0   0.0
0.0   0.0   16.666666666666668
50.0   30.0   16.666666666666668
50.0   0.0   16.666666666666668
50.0   0.0   0.0
0.0   0.0   16.666666666666668
50.0   30.0   16.666666666666668
50.0   0.0   0.0
0.0   30.0   0.0
0.0   0.0   16.666666666666668
50.0   0.0   16.666666666666668
0.0   30.0   16.666666666666668
0.0   0.0   33.333333333333336
50.0   0.0   16.666666666666668
50.0   30.0   16.666666666666668
0.0   30.0   16.666666666666668
50.0   30.0   33.333333333333336
0.0   0.0   33.333333333333336
0.0   30.0   33.333333333333336
50.0   30.0   33.333333333333336
0.0   30.0   16.666666666666668
0.0   0.0   33.333333333333336
50.0   30.0   33.333333333333336
50.0   0.0   33.333333333333336
50.0   0.0   16.666666666666668
0.0   0.0   33.333333333333336
50.0   30.0   33.333333333333336
50.0   0.0   16.666666666666668
0.0   30.0   16.666666666666668
0.0   0.0   33.333333333333336
50.0   0.0   33.333333333333336
0.0   30.0   33.333333333333336
0.0   0.0   50.0
50.0   0.0   33.333333333333336
50.0   30.0   33.333333333333336
0.0   30.0   33.333333333333336
50.0   30.0   50.0
0.0   0.0   50.0
0.0   30.0   50.0
50.0   30.0   50.0
0.0   30.0   33.333333333333336
0.0   0.0   50.0
50.0   30.0   50.0
50.0   0.0   50.0
50.0   0.0   33.333333333333336
0.0   0.0   50.0
50.0   30.0   50.0
50.0   0.0   33.333333333333336
0.0   30.0   33.333333333333336
0.0   30.0   0.0
50.0   30.0   0.0
0.0   60.0   0.0
0.0   30.0   16.666666666666668
50.0   30.0   0.0
50.0   60.0   0.0
0.0   60.0   0.0
50.0   60.0   16.666666666666668
0.0   30.0   16.666666666666668
0.0   60.0   16.666666666666668
50.0   60.0   16.666666666666668
0.0   60.0   0.0
0.0   30.0   16.666666666666668
50.0   60.0   16.666666666666668
50.0   30.0   16.666666666666668
50.0   30.0   0.0
0.0   30.0   16.666666666666668
50.0   60.0   16.666666666666668
50.0   30.0   0.0
0.0   60.0   0.0
0.0   30.0   16.666666666666668
50.0   30.0   16.666666666666668
0.0   60.0   16.666666666666668
0.0   30.0   33.333333333333336
50.0   30.0   16.666666666666668
50.0   60.0   16.666666666666668
0.0   60.0   16.666666666666668
50.0   60.0   33.333333333333336
0.0   30.0   33.333333333333336
0.0   60.0   33.333333333333336
50.0   60.0   33.333333333333336
0.0   60.0   16.666666666666668
0.0   30.0   33.333333333333336
50.0   60.0   33.333333333333336
50.0   30.0   33.333333333333336
50.0   30.0   16.666666666666668
0.0   30.0   33.333333333333336
50.0   60.0   33.333333333333336
50.0   30.0   16.666666666666668
0.0   60.0   16.666666666666668
0.0   30.0   33.333333333333336
50.0   30.0   33.333333333333336
0.0   60.0   33.333333333333336
0.0   30.0   50.0
50.0   30.0   33.333333333333336
50.0   60.0   33.333333333333336
0.0   60.0   33.333333333333336
50.0   60.0   50.0
0.0   30.0   50.0
0.0   60.0   50.0
50.0   60.0   50.0
0.0   60.0   33.333333333333336
0.0   30.0   50.0
50.0   60.0   50.0
50.0   30.0   50.0
50.0   30.0   33.333333333333336
0.0   30.0   50.0
50.0   60.0   50.0
50.0   30.0   33.333333333333336
0.0   60.0   33.333333333333336
0.0   60.0   0.0
50.0   60.0   0.0
0.0   90.0   0.0
0.0   60.0   16.666666666666668
50.0   60.0   0.0
50.0   90.0   0.0
0.0   90.0   0.0
50.0   90.0   16.666666666666668
0.0   60.0   16.666666666666668
0.0   90.0   16.666666666666668
50.0   90.0   16.666666666666668
0.0   90.0   0.0
0.0   60.0   16.666666666666668
50.0   90.0   16.666666666666668
50.0   60.0   16.666666666666668
50.0   60.0   0.0
0.0   60.0   16.666666666666668
50.0   90.0   16.666666666666668
50.0   60.0   0.0
0.0   90.0   0.0
0.0   60.0   16.666666666666668
50.0   60.0   16.666666666666668
0.0   90.0   16.666666666666668
0.0   60.0   33.333333333333336
50.0   60.0   16.666666666666668
50.0   90.0   16.666666666666668
0.0   90.0   16.666666666666668
50.0   90.0   33.333333333333336
0.0   60.0   33.333333333333336
0.0   90.0   33.333333333333336
50.0   90.0   33.333333333333336
0.0   90.0   16.666666666666668
0.0   60.0   33.333333333333336
50.0   90.0   33.333333333333336
50.0   60.0   33.333333333333336
50.0   60.0   16.666666666666668
0.0   60.0   33.333333333333336
50.0   90.0   33.333333333333336
50.0   60.0   16.666666666666668
0.0   90.0   16.666666666666668
0.0   60.0   33.333333333333336
50.0   60.0   33.333333333333336
0.0   90.0   33.333333333333336
0.0   60.0   50.0
50.0   60.0   33.333333333333336
50.0   90.0   33.333333333333336
0.0   90.0   33.333333333333336
50.0   90.0   50.0
0.0   60.0   50.0
0.0   90.0   50.0
50.0   90.0   50.0
0.0   90.0   33.333333333333336
0.0   60.0   50.0
50.0   90.0   50.0
50.0   60.0   50.0
50.0   60.0   33.333333333333336
0.0   60.0   50.0
50.0   90.0   50.0
50.0   60.0   33.333333333333336
0.0   90.0   33.333333333333336
0.0   90.0   0.0
50.0   90.0   0.0
0.0   120.0   0.0
0.0   90.0   16.666666666666668
50.0   90.0   0.0
50.0   120.0   0.0
0.0   120.0   0.0
50.0   120.0   16.666666666666668
0.0   90.0   16.666666666666668
0.0   120.0   16.666666666666668
50.0   120.0   16.666666666666668
0.0   120.0   0.0
0.0   90.0   16.666666666666668
50.0   120.0   16.666666666666668
50.0   90.0   16.666666666666668
50.0   90.0   0.0
0.0   90.0   16.666666666666668
50.0   120.0   16.666666666666668
50.0   90.0   0.0
0.0   120.0   0.0
0.0   90.0   16.666666666666668
50.0   90.0   16.666666666666668
0.0   120.0   16.666666666666668
0.0   90.0   33.333333333333336
50.0   90.0   16.666666666666668
50.0   120.0   16.666666666666668
0.0   120.0   16.666666666666668
50.0   120.0   33.333333333333336
0.0   90.0   33.333333333333336
0.0   120.0   33.333333333333336
50.0   120.0   33.333333333333336
0.0   120.0   16.666666666666668
0.0   90.0   33.333333333333336
50.0   120.0   33.333333333333336
50.0   90.0   33.333333333333336
50.0   90.0   16.666666666666668
0.0   90.0   33.333333333333336
50.0   120.0   33.333333333333336
50.0   90.0   16.666666666666668
0.0   120.0   16.666666666666668
0.0   90.0   33.333333333333336
50.0   90.0   33.333333333333336
0.0   120.0   33.333333333333336
0.0   90.0   50.0
50.0   90.0   33.333333333333336
50.0   120.0   33.333333333333336
0.0   120.0   33.333333333333336
50.0   120.0   50.0
0.0   90.0   50.0
0.0   120.0   50.0
50.0   120.0   50.0
0.0   120.0   33.333333333333336
0.0   90.0   50.0
50.0   120.0   50.0
50.0   90.0   50.0
50.0   90.0   33.333333333333336
0.0   90.0   50.0
50.0   120.0   50.0
50.0   90.0   33.333333333333336
0.0   120.0   33.333333333333336
0.0   120.0   0.0
50.0   120.0   0.0
0.0   150.0   0.0
0.0   120.0   16.666666666666668
50.0   120.0   0.0
50.0   150.0   0.0
0.0   150.0   0.0
50.0   150.0   16.666666666666668
0.0   120.0   16.666666666666668
0.0   150.0   16.666666666666668
50.0   150.0   16.666666666666668
0.0   150.0   0.0
0.0   120.0   16.666666666666668
50.0   150.0   16.666666666666668
50.0   120.0   16.666666666666668
50.0   120.0   0.0
0.0   120.0   16.666666666666668
50.0   150.0   16.666666666666668
50.0   120.0   0.0
0.0   150.0   0.0
0.0   120.0   16.666666666666668
50.0   120.0   16.666666666666668
0.0   150.0   16.666666666666668
0.0   120.0   33.333333333333336
50.0   120.0   16.666666666666668
50.0   150.0   16.666666666666668
0.0   150.0   16.666666666666668
50.0   150.0   33.333333333333336
0.0   120.0   33.333333333333336
0.0   150.0   33.333333333333336
50.0   150.0   33.333333333333336
0.0   150.0   16.666666666666668
0.0   120.0   33.333333333333336
50.0   150.0   33.333333333333336
50.0   120.0   33.333333333333336
50.0   120.0   16.666666666666668
0.0   120.0   33.333333333333336
50.0   150.0   33.333333333333336
50.0   120.0   16.666666666666668
0.0   150.0   16.666666666666668
0.0   120.0   33.333333333333336
50.0   120.0   33.333333333333336
0.0   150.0   33.333333333333336
0.0   120.0   50.0
50.0   120.0   33.333333333333336
50.0   150.0   33.333333333333336
0.0   150.0   33.333333333333336
50.0   150.0   50.0
0.0   120.0   50.0
0.0   150.0   50.0
50.0   150.0   50.0
0.0   150.0   33.333333333333336
0.0   120.0   50.0
50.0   150.0   50.0
50.0   120.0   50.0
50.0   120.0   33.333333333333336
0.0   120.0   50.0
50.0   150.0   50.0
50.0   120.0   33.333333333333336
0.0   150.0   33.333333333333336
50.0   0.0   0.0
100.0   0.0   0.0
50.0   30.0   0.0
50.0   0.0   16.666666666666668
100.0   0.0   0.0
100.0   30.0   0.0
50.0   30.0   0.0
100.0   30.0   16.666666666666668
50.0   0.0   16.666666666666668
50.0   30.0   16.666666666666668
100.0   30.0   16.666666666666668
50.0   30.0   0.0
50.0   0.0   16.666666666666668
100.0   30.0   16.666666666666668
100.0   0.0   16.666666666666668
100.0   0.0   0.0
50.0   0.0   16.666666666666668
100.0   30.0   16.666666666666668
100.0   0.0   0.0
50.0   30.0   0.0
50.0   0.0   16.666666666666668
100.0   0.0   16.666666666666668
50.0   30.0   16.666666666666668
50.0   0.0   33.333333333333336
100.0   0.0   16.666666666666668
100.0   30.0   16.666666666666668
50.0   30.0   16.666666666666668
100.0   30.0   33.333333333333336
50.0   0.0   33.333333333333336
50.0   30.0   33.333333333333336
100.0   30.0   33.333333333333336
50.0   30.0   16.666666666666668
50.0   0.0   33.333333333333336
100.0   30.0   33.333333333333336
100.0   0.0   33.333333333333336
100.0   0.0   16.666666666666668
50.0   0.0   33.333333333333336
100.0   30.0   33.333333333333336
100.0   0.0   16.666666666666668
50.0   30.0   16.666666666666668
50.0   0.0   33.333333333333336
100.0   0.0   33.333333333333336
50.0   30.0   33.333333333333336
50.0   0.0   50.0
100.0   0.0   33.333333333333336
100.0   30.0   33.333333333333336
50.0   30.0   33.333333333333336
100.0   30.0   50.0
50.0   0.0   50.0
50.0   30.0   50.0
100.0   30.0   50.0
50.0   30.0   33.333333333333336
50.0   0.0   50.0
100.0   30.0   50.0
100.0   0.0   50.0
100.0   0.0   33.333333333333336
50.0   0.0   50.0
100.0   30.0   50.0
100.0   0.0   33.333333333333336
50.0   30.0   33.333333333333336
50.0   30.0   0.0
100.0   30.0   0.0
50.0   60.0   0.0
50.0   30.0   16.666666666666668
100.0   30.0   0.0
100.0   60.0   0.0
50.0   60.0   0.0
100.0   60.0   16.666666666666668
50.0   30.0   16.666666666666668
50.0   60.0   16.666666666666668
100.0   60.0   16.666666666666668
50.0   60.0   0.0
50.0   30.0   16.666666666666668
100.0   60.0   16.666666666666668
100.0   30.0   16.666666666666668
100.0   30.0   0.0
50.0   30.0   16.666666666666668
100.0   60.0   16.666666666666668
100.0   30.0   0.0
50.0   60.0   0.0
50.0   30.0   16.666666666666668
100.0   30.0   16.666666666666668
50.0   60.0   16.666666666666668
50.0   30.0   33.333333333333336
100.0   30.0   16.666666666666668
100.0   60.0   16.666666666666668
50.0   60.0   16.666666666666668
100.0   60.0   33.333333333333336
50.0   30.0   33.333333333333336
50.0   60.0   33.333333333333336
100.0   60.0   33.333333333333336
50.0   60.0   16.666666666666668
50.0   30.0   33.333333333333336
100.0   60.0   33.333333333333336
100.0   30.0   33.333333333333336
100.0   30.0   16.666666666666668
50.0   30.0   33.333333333333336
100.0   60.0   33.333333333333336
100.0   30.0   16.666666666666668
50.0   60.0   16.666666666666668
50.0   30.0   33.333333333333336
100.0   30.0   33.333333333333336
50.0   60.0   33.333333333333336
50.0   30.0   50.0
100.0   30.0   33.333333333333336
100.0   60.0   33.333333333333336
50.0   60.0   33.333333333333336
100.0   60.0   50.0
50.0   30.0   50.0
50.0   60.0   50.0
100.0   60.0   50.0
50.0   60.0   33.333333333333336
50.0   30.0   50.0
100.0   60.0   50.0
100.0   30.0   50.0
100.0   30.0   33.333333333333336
50.0   30.0   50.0
100.0   60.0   50.0
100.0   30.0   33.333333333333336
50.0   60.0   33.333333333333336
50.0   60.0   0.0
100.0   60.0   0.0
50.0   90.0   0.0
50.0   60.0   16.666666666666668
100.0   60.0   0.0
100.0   90.0   0.0
50.0   90.0   0.0
100.0   90.0   16.666666666666668
50.0   60.0   16.666666666666668
50.0   90.0   16.666666666666668
100.0   90.0   16.666666666666668
50.0   90.0   0.0
50.0   60.0   16.666666666666668
100.0   90.0   16.666666666666668
100.0   60.0   16.666666666666668
100.0   60.0   0.0
50.0   60.0   16.666666666666668
100.0   90.0   16.666666666666668
100.0   60.0   0.0
50.0   90.0   0.0
50.0   60.0   16.666666666666668
100.0   60.0   16.666666666666668
50.0   90.0   16.666666666666668
50.0   60.0   33.333333333333336
100.0   60.0   16.666666666666668
100.0   90.0   16.666666666666668
50.0   90.0   16.666666666666668
100.0   90.0   33.333333333333336
50.0   60.0   33.333333333333336
50.0   90.0   33.333333333333336
100.0   90.0   33.333333333333336
50.0   90.0   16.666666666666668
50.0   60.0   33.333333333333336
100.0   90.0   33.333333333333336
100.0   60.0   33.333333333333336
100.0   60.0   16.666666666666668
50.0   60.0   33.333333333333336
100.0   90.0   33.333333333333336
100.0   60.0   16.666666666666668
50.0   90.0   16.666666666666668
50.0   60.0   33.333333333333336
100.0   60.0   33.333333333333336
50.0   90.0   33.333333333333336
50.0   60.0   50.0
100.0   60.0   33.333333333333336
100.0   90.0   33.333333333333336
50.0   90.0   33.333333333333336
100.0   90.0   50.0
50.0   60.0   50.0
50.0   90.0   50.0
100.0   90.0   50.0
50.0   90.0   33.333333333333336
50.0   60.0   50.0
100.0   90.0   50.0
100.0   60.0   50.0
100.0   60.0   33.333333333333336
50.0   60.0   50.0
100.0   90.0   50.0
100.0   60.0   33.333333333333336
50.0   90.0   33.333333333333336
50.0   90.0   0.0
100.0   90.0   0.0
50.0   120.0   0.0
50.0   90.0   16.666666666666668
100.0   90.0   0.0
100.0   120.0   0.0
50.0   120.0   0.0
100.0   120.0   16.666666666666668
50.0   90.0   16.666666666666668
50.0   120.0   16.666666666666668
100.0   120.0   16.666666666666668
50.0   120.0   0.0
50.0   90.0   16.666666666666668
100.0   120.0   16.666666666666668
100.0   90.0   16.666666666666668
100.0   90.0   0.0
50.0   90.0   16.666666666666668
100.0   120.0   16.666666666666668
100.0   90.0   0.0
50.0   120.0   0.0
50.0   90.0   16.666666666666668
100.0   90.0   16.666666666666668
50.0   120.0   16.666666666666668
50.0   90.0   33.333333333333336
100.0   90.0   16.666666666666668
100.0   120.0   16.666666666666668
50.0   120.0   16.666666666666668
100.0   120.0   33.333333333333336
50.0   90.0   33.333333333333336
50.0   120.0   33.333333333333336
100.0   120.0   33.333333333333336
50.0   120.0   16.666666666666668
50.0   90.0   33.333333333333336
100.0   120.0   33.333333333333336
100.0   90.0   33.333333333333336
100.0   90.0   16.666666666666668
50.0   90.0   33.333333333333336
100.0   120.0   33.333333333333336
100.0   90.0   16.666666666666668
50.0   120.0   16.666666666666668
50.0   90.0   33.333333333333336
100.0   90.0   33.333333333333336
50.0   120.0   33.333333333333336
50.0   90.0   50.0
100.0   90.0   33.333333333333336
100.0   120.0   33.333333333333336
50.0   120.0   33.333333333333336
100.0   120.0   50.0
50.0   90.0   50.0
50.0   120.0   50.0
100.0   120.0   50.0
50.0   120.0   33.333333333333336
50.0   90.0   50.0
100.0   120.0   50.0
100.0   90.0   50.0
100.0   90.0   33.333333333333336
50.0   90.0   50.0
100.0   120.0   50.0
100.0   90.0   33.333333333333336
50.0   120.0   33.333333333333336
50.0   120.0   0.0
100.0   120.0   0.0
50.0   150.0   0.0
50.0   120.0   16.666666666666668
100.0   120.0   0.0
100.0   150.0   0.0
50.0   150.0   0.0
100.0   150.0   16.666666666666668
50.0   120.0   16.666666666666668
50.0   150.0   16.666666666666668
100.0   150.0   16.666666666666668
50.0   150.0   0.0
50.0   120.0   16.666666666666668
100.0   150.0   16.666666666666668
100.0   120.0   16.666666666666668
100.0   120.0   0.0
50.0   120.0   16.666666666666668
100.0   150.0   16.666666666666668
100.0   120.0   0.0
50.0   150.0   0.0
50.0   120.0   16.666666666666668
100.0   120.0   16.666666666666668
50.0   150.0   16.666666666666668
50.0   120.0   33.333333333333336
100.0   120.0   16.666666666666668
100.0   150.0   16.666666666666668
50.0   150.0   16.666666666666668
100.0   150.0   33.333333333333336
50.0   120.0   33.333333333333336
50.0   150.0   33.333333333333336
100.0   150.0   33.333333333333336
50.0   150.0   16.666666666666668
50.0   120.0   33.333333333333336
100.0   150.0   33.333333333333336
100.0   120.0   33.333333333333336
100.0   120.0   16.666666666666668
50.0   120.0   33.333333333333336
100.0   150.0   33.333333333333336
100.0   120.0   16.666666666666668
50.0   150.0   16.666666666666668
50.0   120.0   33.333333333333336
100.0   120.0   33.333333333333336
50.0   150.0   33.333333333333336
50.0   120.0   50.0
100.0   120.0   33.333333333333336
100.0   150.0   33.333333333333336
50.0   150.0   33.333333333333336
100.0   150.0   50.0
50.0   120.0   50.0
50.0   150.0   50.0
100.0   150.0   50.0
50.0   150.0   33.333333333333336
50.0   120.0   50.0
100.0   150.0   50.0
100.0   120.0   50.0
100.0   120.0   33.333333333333336
50.0   120.0   50.0
100.0   150.0   50.0
100.0   120.0   33.333333333333336
50.0   150.0   33.333333333333336
100.0   0.0   0.0
150.0   0.0   0.0
100.0   30.0   0.0
100.0   0.0   16.666666666666668
150.0   0.0   0.0
150.0   30.0   0.0
100.0   30.0   0.0
150.0   30.0   16.666666666666668
100.0   0.0   16.666666666666668
100.0   30.0   16.666666666666668
150.0   30.0   16.666666666666668
100.0   30.0   0.0
100.0   0.0   16.666666666666668
150.0   30.0   16.666666666666668
150.0   0.0   16.666666666666668
150.0   0.0   0.0
100.0   0.0   16.666666666666668
150.0   30.0   16.666666666666668
150.0   0.0   0.0
100.0   30.0   0.0
100.0   0.0   16.666666666666668
150.0   0.0   16.666666666666668
100.0   30.0   16.666666666666668
100.0   0.0   33.333333333333336
150.0   0.0   16.666666666666668
150.0   30.0   16.666666666666668
100.0   30.0   16.666666666666668
150.0   30.0   33.333333333333336
100.0   0.0   33.333333333333336
100.0   30.0   33.333333333333336
150.0   30.0   33.333333333333336
100.0   30.0   16.666666666666668
100.0   0.0   33.333333333333336
150.0   30.0   33.333333333333336
150.0   0.0   33.333333333333336
150.0   0.0   16.666666666666668
100.0   0.0   33.333333333333336
150.0   30.0   33.333333333333336
150.0   0.0   16.666666666666668
100.0   30.0   16.666666666666668
100.0   0.0   33.333333333333336
150.0   0.0   33.333333333333336
100.0   30.0   33.333333333333336
100.0   0.0   50.0
150.0   0.0   33.333333333333336
150.0   30.0   33.333333333333336
100.0   30.0   33.333333333333336
150.0   30.0   50.0
100.0   0.0   50.0
100.0   30.0   50.0
150.0   30.0   50.0
100.0   30.0   33.333333333333336
100.0   0.0   50.0
150.0   30.0   50.0
150.0   0.0   50.0
150.0   0.0   33.333333333333336
100.0   0.0   50.0
150.0   30.0   50.0
150.0   0.0   33.333333333333336
100.0   30.0   33.333333333333336
100.0   30.0   0.0
150.0   30.0   0.0
100.0   60.0   0.0
100.0   30.0   16.666666666666668
150.0   30.0   0.0
150.0   60.0   0.0
100.0   60.0   0.0
150.0   60.0   16.666666666666668
100.0   30.0   16.666666666666668
100.0   60.0   16.666666666666668
150.0   60.0   16.666666666666668
100.0   60.0   0.0
100.0   30.0   16.666666666666668
150.0   60.0   16.666666666666668
150.0   30.0   16.666666666666668
150.0   30.0   0.0
100.0   30.0   16.666666666666668
150.0   60.0   16.666666666666668
150.0   30.0   0.0
100.0   60.0   0.0
100.0   30.0   16.666666666666668
150.0   30.0   16.666666666666668
100.0   60.0   16.666666666666668
100.0   30.0   33.333333333333336
150.0   30.0   16.666666666666668
150.0   60.0   16.666666666666668
100.0   60.0   16.666666666666668
150.0   60.0   33.333333333333336
100.0   30.0   33.333333333333336
100.0   60.0   33.333333333333336
150.0   60.0   33.333333333333336
100.0   60.0   16.666666666666668
100.0   30.0   33.333333333333336
150.0   60.0   33.333333333333336
150.0   30.0   33.333333333333336
150.0   30.0   16.666666666666668
100.0   30.0   33.333333333333336
150.0   60.0   33.333333333333336
150.0   30.0   16.666666666666668
100.0   60.0   16.666666666666668
100.0   30.0   33.333333333333336
150.0   30.0   33.333333333333336
100.0   60.0   33.333333333333336
100.0   30.0   50.0
150.0   30.0   33.333333333333336
150.0   60.0   33.333333333333336
100.0   60.0   33.333333333333336
150.0   60.0   50.0
100.0   30.0   50.0
100.0   60.0   50.0
150.0   60.0   50.0
100.0   60.0   33.333333333333336
100.0   30.0   50.0
150.0   60.0   50.0
150.0   30.0   50.0
150.0   30.0   33.333333333333336
100.0   30.0   50.0
150.0   60.0   50.0
150.0   30.0   33.333333333333336
100.0   60.0   33.333333333333336
100.0   60.0   0.0
150.0   60.0   0.0
100.0   90.0   0.0
100.0   60.0   16.666666666666668
150.0   60.0   0.0
150.0   90.0   0.0
100.0   90.0   0.0
150.0   90.0   16.666666666666668
100.0   60.0   16.666666666666668
100.0   90.0   16.666666666666668
150.0   90.0   16.666666666666668
100.0   90.0   0.0
100.0   60.0   16.666666666666668
150.0   90.0   16.666666666666668
150.0   60.0   16.666666666666668
150.0   60.0   0.0
100.0   60.0   16.666666666666668
150.0   90.0   16.666666666666668
150.0   60.0   0.0
100.0   90.0   0.0
100.0   60.0   16.666666666666668
150.0   60.0   16.666666666666668
100.0   90.0   16.666666666666668
100.0   60.0   33.333333333333336
150.0   60.0   16.666666666666668
150.0   90.0   16.666666666666668
100.0   90.0   16.666666666666668
150.0   90.0   33.333333333333336
100.0   60.0   33.333333333333336
100.0   90.0   33.333333333333336
150.0   90.0   33.333333333333336
100.0   90.0   16.666666666666668
100.0   60.0   33.333333333333336
150.0   90.0   33.333333333333336
150.0   60.0   33.333333333333336
150.0   60.0   16.666666666666668
100.0   60.0   33.333333333333336
150.0   90.0   33.333333333333336
150.0   60.0   16.666666666666668
100.0   90.0   16.666666666666668
100.0   60.0   33.333333333333336
150.0   60.0   33.333333333333336
100.0   90.0   33.333333333333336
100.0   60.0   50.0
150.0   60.0   33.333333333333336
150.0   90.0   33.333333333333336
100.0   90.0   33.333333333333336
150.0   90.0   50.0
100.0   60.0   50.0
100.0   90.0   50.0
150.0   90.0   50.0
100.0   90.0   33.333333333333336
100.0   60.0   50.0
150.0   90.0   50.0
150.0   60.0   50.0
150.0   60.0   33.333333333333336
100.0   60.0   50.0
150.0   90.0   50.0
150.0   60.0   33.333333333333336
100.0   90.0   33.333333333333336
100.0   90.0   0.0
150.0   90.0   0.0
100.0   120.0   0.0
100.0   90.0   16.666666666666668
150.0   90.0   0.0
150.0   120.0   0.0
100.0   120.0   0.0
150.0   120.0   16.666666666666668
100.0   90.0   16.666666666666668
100.0   120.0   16.666666666666668
150.0   120.0   16.666666666666668
100.0   120.0   0.0
100.0   90.0   16.666666666666668
150.0   120.0   16.666666666666668
150.0   90.0   16.666666666666668
150.0   90.0   0.0
100.0   90.0   16.666666666666668
150.0   120.0   16.666666666666668
150.0   90.0   0.0
100.0   120.0   0.0
100.0   90.0   16.666666666666668
150.0   90.0   16.666666666666668
100.0   120.0   16.666666666666668
100.0   90.0   33.333333333333336
150.0   90.0   16.666666666666668
150.0   120.0   16.666666666666668
100.0   120.0   16.666666666666668
150.0   120.0   33.333333333333336
100.0   90.0   33.333333333333336
100.0   120.0   33.333333333333336
150.0   120.0   33.333333333333336
100.0   120.0   16.666666666666668
100.0   90.0   33.333333333333336
150.0   120.0   33.333333333333336
150.0   90.0   33.333333333333336
150.0   90.0   16.666666666666668
100.0   90.0   33.333333333333336
150.0   120.0   33.333333333333336
150.0   90.0   16.666666666666668
100.0   120.0   16.666666666666668
100.0   90.0   33.333333333333336
150.0   90.0   33.333333333333336
100.0   120.0   33.333333333333336
100.0   90.0   50.0
150.0   90.0   33.333333333333336
150.0   120.0   33.333333333333336
100.0   120.0   33.333333333333336
150.0   120.0   50.0
100.0   90.0   50.0
100.0   120.0   50.0
150.0   120.0   50.0
100.0   120.0   33.333333333333336
100.0   90.0   50.0
150.0   120.0   50.0
150.0   90.0   50.0
150.0   90.0   33.333333333333336
100.0   90.0   50.0
150.0   120.0   50.0
150.0   90.0   33.333333333333336
100.0   120.0   33.333333333333336
100.0   120.0   0.0
150.0   120.0   0.0
100.0   150.0   0.0
100.0   120.0   16.666666666666668
150.0   120.0   0.0
150.0   150.0   0.0
100.0   150.0   0.0
150.0   150.0   16.666666666666668
100.0   120.0   16.666666666666668
100.0   150.0   16.666666666666668
150.0   150.0   16.666666666666668
100.0   150.0   0.0
100.0   120.0   16.666666666666668
150.0   150.0   16.666666666666668
150.0   120.0   16.666666666666668
150.0   120.0   0.0
100.0   120.0   16.666666666666668
150.0   150.0   16.666666666666668
150.0   120.0   0.0
100.0   150.0   0.0
100.0   120.0   16.666666666666668
150.0   120.0   16.666666666666668
100.0   150.0   16.666666666666668
100.0   120.0   33.333333333333336
150.0   120.0   16.666666666666668
150.0   150.0   16.666666666666668
100.0   150.0   16.666666666666668
150.0   150.0   33.333333333333336
100.0   120.0   33.333333333333336
100.0   150.0   33.333333333333336
150.0   150.0   33.333333333333336
100.0   150.0   16.666666666666668
100.0   120.0   33.333333333333336
150.0   150.0   33.333333333333336
150.0   120.0   33.333333333333336
150.0   120.0   16.666666666666668
100.0   120.0   33.333333333333336
150.0   150.0   33.333333333333336
150.0   120.0   16.666666666666668
100.0   150.0   16.666666666666668
100.0   120.0   33.333333333333336
150.0   120.0   33.333333333333336
100.0   150.0   33.333333333333336
100.0   120.0   50.0
150.0   120.0   33.333333333333336
150.0   150.0   33.333333333333336
100.0   150.0   33.333333333333336
150.0   150.0   50.0
100.0   120.0   50.0
100.0   150.0   50.0
150.0   150.0   50.0
100.0   150.0   33.333333333333336
100.0   120.0   50.0
150.0   150.0   50.0
150.0   120.0   50.0
150.0   120.0   33.333333333333336
100.0   120.0   50.0
150.0   150.0   50.0
150.0   120.0   33.333333333333336
100.0   150.0   33.333333333333336
150.0   0.0   0.0
200.0   0.0   0.0
150.0   30.0   0.0
150.0   0.0   16.666666666666668
200.0   0.0   0.0
200.0   30.0   0.0
150.0   30.0   0.0
200.0   30.0   16.666666666666668
150.0   0.0   16.666666666666668
150.0   30.0   16.666666666666668
200.0   30.0   16.666666666666668
150.0   30.0   0.0
150.0   0.0   16.666666666666668
200.0   30.0   16.666666666666668
200.0   0.0   16.666666666666668
200.0   0.0   0.0
150.0   0.0   16.666666666666668
200.0   30.0   16.666666666666668
200.0   0.0   0.0
150.0   30.0   0.0
150.0   0.0   16.666666666666668
200.0   0.0   16.666666666666668
150.0   30.0   16.666666666666668
150.0   0.0   33.333333333333336
200.0   0.0   16.666666666666668
200.0   30.0   16.666666666666668
150.0   30.0   16.666666666666668
200.0   30.0   33.333333333333336
150.0   0.0   33.333333333333336
150.0   30.0   33.333333333333336
200.0   30.0   33.333333333333336
150.0   30.0   16.666666666666668
150.0   0.0   33.333333333333336
200.0   30.0   33.333333333333336
200.0   0.0   33.333333333333336
200.0   0.0   16.666666666666668
150.0   0.0   33.333333333333336
200.0   30.0   33.333333333333336
200.0   0.0   16.666666666666668
150.0   30.0   16.666666666666668
150.0   0.0   33.333333333333336
200.0   0.0   33.333333333333336
150.0   30.0   33.333333333333336
150.0   0.0   50.0
200.0   0.0   33.333333333333336
200.0   30.0   33.333333333333336
150.0   30.0   33.333333333333336
200.0   30.0   50.0
150.0   0.0   50.0
150.0   30.0   50.0
200.0   30.0   50.0
150.0   30.0   33.333333333333336
150.0   0.0   50.0
200.0   30.0   50.0
200.0   0.0   50.0
200.0   0.0   33.333333333333336
150.0   0.0   50.0
200.0   30.0   50.0
200.0   0.0   33.333333333333336
150.0   30.0   33.333333333333336
150.0   30.0   0.0
200.0   30.0   0.0
150.0   60.0   0.0
150.0   30.0   16.666666666666668
200.0   30.0   0.0
200.0   60.0   0.0
150.0   60.0   0.0
200.0   60.0   16.666666666666668
150.0   30.0   16.666666666666668
150.0   60.0   16.666666666666668
200.0   60.0   16.666666666666668
150.0   60.0   0.0
150.0   30.0   16.666666666666668
200.0   60.0   16.666666666666668
200.0   30.0   16.666666666666668
200.0   30.0   0.0
150.0   30.0   16.666666666666668
200.0   60.0   16.666666666666668
200.0   30.0   0.0
150.0   60.0   0.0
150.0   30.0   16.666666666666668
200.0   30.0   16.666666666666668
150.0   60.0   16.666666666666668
150.0   30.0   33.333333333333336
200.0   30.0   16.666666666666668
200.0   60.0   16.666666666666668
150.0   60.0   16.666666666666668
200.0   60.0   33.333333333333336
150.0   30.0   33.333333333333336
150.0   60.0   33.333333333333336
200.0   60.0   33.333333333333336
150.0   60.0   16.666666666666668
150.0   30.0   33.333333333333336
200.0   60.0   33.333333333333336
200.0   30.0   33.333333333333336
200.0   30.0   16.666666666666668
150.0   30.0   33.333333333333336
200.0   60.0   33.333333333333336
200.0   30.0   16.666666666666668
150.0   60.0   16.666666666666668
150.0   30.0   33.333333333333336
200.0   30.0   33.333333333333336
150.0   60.0   33.333333333333336
150.0   30.0   50.0
200.0   30.0   33.333333333333336
200.0   60.0   33.333333333333336
150.0   60.0   33.333333333333336
200.0   60.0   50.0
150.0   30.0   50.0
150.0   60.0   50.0
200.0   60.0   50.0
150.0   60.0   33.333333333333336
150.0   30.0   50.0
200.0   60.0   50.0
200.0   30.0   50.0
200.0   30.0   33.333333333333336
150.0   30.0   50.0
200.0   60.0   50.0
200.0   30.0   33.333333333333336
150.0   60.0   33.333333333333336
150.0   60.0   0.0
200.0   60.0   0.0
150.0   90.0   0.0
150.0   60.0   16.666666666666668
200.0   60.0   0.0
200.0   90.0   0.0
150.0   90.0   0.0
200.0   90.0   16.666666666666668
150.0   60.0   16.666666666666668
150.0   90.0   16.666666666666668
200.0   90.0   16.666666666666668
150.0   90.0   0.0
150.0   60.0   16.666666666666668
200.0   90.0   16.666666666666668
200.0   60.0   16.666666666666668
200.0   60.0   0.0
150.0   60.0   16.666666666666668
200.0   90.0   16.666666666666668
200.0   60.0   0.0
150.0   90.0   0.0
150.0   60.0   16.666666666666668
200.0   60.0   16.666666666666668
150.0   90.0   16.666666666666668
150.0   60.0   33.333333333333336
200.0   60.0   16.666666666666668
200.0   90.0   16.666666666666668
150.0   90.0   16.666666666666668
200.0   90.0   33.333333333333336
150.0   60.0   33.333333333333336
150.0   90.0   33.333333333333336
200.0   90.0   33.333333333333336
150.0   90.0   16.666666666666668
150.0   60.0   33.333333333333336
200.0   90.0   33.333333333333336
200.0   60.0   33.333333333333336
200.0   60.0   16.666666666666668
150.0   60.0   33.333333333333336
200.0   90.0   33.333333333333336
200.0   60.0   16.666666666666668
150.0   90.0   16.666666666666668
150.0   60.0   33.333333333333336
200.0   60.0   33.333333333333336
150.0   90.0   33.333333333333336
150.0   60.0   50.0
200.0   60.0   33.333333333333336
200.0   90.0   33.333333333333336
150.0   90.0   33.333333333333336
200.0   90.0   50.0
150.0   60.0   50.0
150.0   90.0   50.0
200.0   90.0   50.0
150.0   90.0   33.333333333333336
150.0   60.0   50.0
200.0   90.0   50.0
200.0   60.0   50.0
200.0   60.0   33.333333333333336
150.0   60.0   50.0
200.0   90.0   50.0
200.0   60.0   33.333333333333336
150.0   90.0   33.333333333333336
150.0   90.0   0.0
200.0   90.0   0.0
150.0   120.0   0.0
150.0   90.0   16.666666666666668
200.0   90.0   0.0
200.0   120.0   0.0
150.0   120.0   0.0
200.0   120.0   16.666666666666668
150.0   90.0   16.666666666666668
150.0   120.0   16.666666666666668
200.0   120.0   16.666666666666668
150.0   120.0   0.0
150.0   90.0   16.666666666666668
200.0   120.0   16.666666666666668
200.0   90.0   16.666666666666668
200.0   90.0   0.0
150.0   90.0   16.666666666666668
200.0   120.0   16.666666666666668
200.0   90.0   0.0
150.0   120.0   0.0
150.0   90.0   16.666666666666668
200.0   90.0   16.666666666666668
150.0   120.0   16.666666666666668
150.0   90.0   33.333333333333336
200.0   90.0   16.666666666666668
200.0   120.0   16.666666666666668
150.0   120.0   16.666666666666668
200.0   120.0   33.333333333333336
150.0   90.0   33.333333333333336
150.0   120.0   33.333333333333336
200.0   120.0   33.333333333333336
150.0   120.0   16.666666666666668
150.0   90.0   33.333333333333336
200.0   120.0   33.333333333333336
200.0   90.0   33.333333333333336
200.0   90.0   16.666666666666668
150.0   90.0   33.333333333333336
200.0   120.0   33.333333333333336
200.0   90.0   16.666666666666668
150.0   120.0   16.666666666666668
150.0   90.0   33.333333333333336
200.0   90.0   33.333333333333336
150.0   120.0   33.333333333333336
150.0   90.0   50.0
200.0   90.0   33.333333333333336
200.0   120.0   33.333333333333336
150.0   120.0   33.333333333333336
200.0   120.0   50.0
150.0   90.0   50.0
150.0   120.0   50.0
200.0   120.0   50.0
150.0   120.0   33.333333333333336
150.0   90.0   50.0
200.0   120.0   50.0
200.0   90.0   50.0
200.0   90.0   33.333333333333336
150.0   90.0   50.0
200.0   120.0   50.0
200.0   90.0   33.333333333333336
150.0   120.0   33.333333333333336
150.0   120.0   0.0
200.0   120.0   0.0
150.0   150.0   0.0
150.0   120.0   16.666666666666668
200.0   120.0   0.0
200.0   150.0   0.0
150.0   150.0   0.0
200.0   150.0   16.666666666666668
150.0   120.0   16.666666666666668
150.0   150.0   16.666666666666668
200.0   150.0   16.666666666666668
150.0   150.0   0.0
150.0   120.0   16.666666666666668
200.0   150.0   16.666666666666668
200.0   120.0   16.666666666666668
200.0   120.0   0.0
150.0   120.0   16.666666666666668
200.0   150.0   16.666666666666668
200.0   120.0   0.0
150.0   150.0   0.0
150.0   120.0   16.666666666666668
200.0   120.0   16.666666666666668
150.0   150.0   16.666666666666668
150.0   120.0   33.333333333333336
200.0   120.0   16.666666666666668
200.0   150.0   16.666666666666668
150.0   150.0   16.666666666666668
200.0   150.0   33.333333333333336
150.0   120.0   33.333333333333336
150.0   150.0   33.333333333333336
200.0   150.0   33.333333333333336
150.0   150.0   16.666666666666668
150.0   120.0   33.333333333333336
200.0   150.0   33.333333333333336
200.0   120.0   33.333333333333336
200.0   120.0   16.666666666666668
150.0   120.0   33.333333333333336
200.0   150.0   33.333333333333336
200.0   120.0   16.666666666666668
150.0   150.0   16.666666666666668
150.0   120.0   33.333333333333336
200.0   120.0   33.333333333333336
150.0   150.0   33.333333333333336
150.0   120.0   50.0
200.0   120.0   33.333333333333336
200.0   150.0   33.333333333333336
150.0   150.0   33.333333333333336
200.0   150.0   50.0
150.0   120.0   50.0
150.0   150.0   50.0
200.0   150.0   50.0
150.0   150.0   33.333333333333336
150.0   120.0   50.0
200.0   150.0   50.0
200.0   120.0   50.0
200.0   120.0   33.333333333333336
150.0   120.0   50.0
200.0   150.0   50.0
200.0   120.0   33.333333333333336
150.0   150.0   33.333333333333336
200.0   0.0   0.0
250.0   0.0   0.0
200.0   30.0   0.0
200.0   0.0   16.666666666666668
250.0   0.0   0.0
250.0   30.0   0.0
200.0   30.0   0.0
250.0   30.0   16.666666666666668
200.0   0.0   16.666666666666668
200.0   30.0   16.666666666666668
250.0   30.0   16.666666666666668
200.0   30.0   0.0
200.0   0.0   16.666666666666668
250.0   30.0   16.666666666666668
250.0   0.0   16.666666666666668
250.0   0.0   0.0
200.0   0.0   16.666666666666668
250.0   30.0   16.666666666666668
250.0   0.0   0.0
200.0   30.0   0.0
200.0   0.0   16.666666666666668
250.0   0.0   16.666666666666668
200.0   30.0   16.666666666666668
200.0   0.0   33.333333333333336
250.0   0.0   16.666666666666668
250.0   30.0   16.666666666666668
200.0   30.0   16.666666666666668
250.0   30.0   33.333333333333336
200.0   0.0   33.333333333333336
200.0   30.0   33.333333333333336
250.0   30.0   33.333333333333336
200.0   30.0   16.666666666666668
200.0   0.0   33.333333333333336
250.0   30.0   33.333333333333336
250.0   0.0   33.333333333333336
250.0   0.0   16.666666666666668
200.0   0.0   33.333333333333336
250.0   30.0   33.333333333333336
250.0   0.0   16.666666666666668
200.0   30.0   16.666666666666668
200.0   0.0   33.333333333333336
250.0   0.0   33.333333333333336
200.0   30.0   33.333333333333336
200.0   0.0   50.0
250.0   0.0   33.333333333333336
250.0   30.0   33.333333333333336
200.0   30.0   33.333333333333336
250.0   30.0   50.0
200.0   0.0   50.0
200.0   30.0   50.0
250.0   30.0   50.0
200.0   30.0   33.333333333333336
200.0   0.0   50.0
250.0   30.0   50.0
250.0   0.0   50.0
250.0   0.0   33.333333333333336
200.0   0.0   50.0
250.0   30.0   50.0
250.0   0.0   33.333333333333336
200.0   30.0   33.333333333333336
200.0   30.0   0.0
250.0   30.0   0.0
200.0   60.0   0.0
200.0   30.0   16.666666666666668
250.0   30.0   0.0
250.0   60.0   0.0
200.0   60.0   0.0
250.0   60.0   16.666666666666668
200.0   30.0   16.666666666666668
200.0   60.0   16.666666666666668
250.0   60.0   16.666666666666668
200.0   60.0   0.0
200.0   30.0   16.666666666666668
250.0   60.0   16.666666666666668
250.0   30.0   16.666666666666668
250.0   30.0   0.0
200.0   30.0   16.666666666666668
250.0   60.0   16.666666666666668
250.0   30.0   0.0
200.0   60.0   0.0
200.0   30.0   16.666666666666668
250.0   30.0   16.666666666666668
200.0   60.0   16.666666666666668
200.0   30.0   33.333333333333336
250.0   30.0   16.666666666666668
250.0   60.0   16.666666666666668
200.0   60.0   16.666666666666668
250.0   60.0   33.333333333333336
200.0   30.0   33.333333333333336
200.0   60.0   33.333333333333336
250.0   60.0   33.333333333333336
200.0   60.0   16.666666666666668
200.0   30.0   33.333333333333336
250.0   60.0   33.333333333333336
250.0   30.0   33.333333333333336
250.0   30.0   16.666666666666668
200.0   30.0   33.333333333333336
250.0   60.0   33.333333333333336
250.0   30.0   16.666666666666668
200.0   60.0   16.666666666666668
200.0   30.0   33.333333333333336
250.0   30.0   33.333333333333336
200.0   60.0   33.333333333333336
200.0   30.0   50.0
250.0   30.0   33.333333333333336
250.0   60.0   33.333333333333336
200.0   60.0   33.333333333333336
250.0   60.0   50.0
200.0   30.0   50.0
200.0   60.0   50.0
250.0   60.0   50.0
200.0   60.0   33.333333333333336
200.0   30.0   50.0
250.0   60.0   50.0
250.0   30.0   50.0
250.0   30.0   33.333333333333336
200.0   30.0   50.0
250.0   60.0   50.0
250.0   30.0   33.333333333333336
200.0   60.0   33.333333333333336
200.0   60.0   0.0
250.0   60.0   0.0
200.0   90.0   0.0
200.0   60.0   16.666666666666668
250.0   60.0   0.0
250.0   90.0   0.0
200.0   90.0   0.0
250.0   90.0   16.666666666666668
200.0   60.0   16.666666666666668
200.0   90.0   16.666666666666668
250.0   90.0   16.666666666666668
200.0   90.0   0.0
200.0   60.0   16.666666666666668
250.0   90.0   16.666666666666668
250.0   60.0   16.666666666666668
250.0   60.0   0.0
200.0   60.0   16.666666666666668
250.0   90.0   16.666666666666668
250.0   60.0   0.0
200.0   90.0   0.0
200.0   60.0   16.666666666666668
250.0   60.0   16.666666666666668
200.0   90.0   16.666666666666668
200.0   60.0   33.333333333333336
250.0   60.0   16.666666666666668
250.0   90.0   16.666666666666668
200.0   90.0   16.666666666666668
250.0   90.0   33.333333333333336
200.0   60.0   33.333333333333336
200.0   90.0   33.333333333333336
250.0   90.0   33.333333333333336
200.0   90.0   16.666666666666668
200.0   60.0   33.333333333333336
250.0   90.0   33.333333333333336
250.0   60.0   33.333333333333336
250.0   60.0   16.666666666666668
200.0   60.0   33.333333333333336
250.0   90.0   33.333333333333336
250.0   60.0   16.666666666666668
200.0   90.0   16.666666666666668
200.0   60.0   33.333333333333336
250.0   60.0   33.333333333333336
200.0   90.0   33.333333333333336
200.0   60.0   50.0
250.0   60.0   33.333333333333336
250.0   90.0   33.333333333333336
200.0   90.0   33.333333333333336
250.0   90.0   50.0
200.0   60.0   50.0
200.0   90.0   50.0
250.0   90.0   50.0
200.0   90.0   33.333333333333336
200.0   60.0   50.0
250.0   90.0   50.0
250.0   60.0   50.0
250.0   60.0   33.333333333333336
200.0   60.0   50.0
250.0   90.0   50.0
250.0   60.0   33.333333333333336
200.0   90.0   33.333333333333336
200.0   90.0   0.0
250.0   90.0   0.0
200.0   120.0   0.0
200.0   90.0   16.666666666666668
250.0   90.0   0.0
250.0   120.0   0.0
200.0   120.0   0.0
250.0   120.0   16.666666666666668
200.0   90.0   16.666666666666668
200.0   120.0   16.666666666666668
250.0   120.0   16.666666666666668
200.0   120.0   0.0
200.0   90.0   16.666666666666668
250.0   120.0   16.666666666666668
250.0   90.0   16.666666666666668
250.0   90.0   0.0
200.0   90.0   16.666666666666668
250.0   120.0   16.666666666666668
250.0   90.0   0.0
200.0   120.0   0.0
200.0   90.0   16.666666666666668
250.0   90.0   16.666666666666668
200.0   120.0   16.666666666666668
200.0   90.0   33.333333333333336
250.0   90.0   16.666666666666668
250.0   120.0   16.666666666666668
200.0   120.0   16.666666666666668
250.0   120.0   33.333333333333336
200.0   90.0   33.333333333333336
200.0   120.0   33.333333333333336
250.0   120.0   33.333333333333336
200.0   120.0   16.666666666666668
200.0   90.0   33.333333333333336
250.0   120.0   33.333333333333336
250.0   90.0   33.333333333333336
250.0   90.0   16.666666666666668
200.0   90.0   33.333333333333336
250.0   120.0   33.333333333333336
250.0   90.0   16.666666666666668
200.0   120.0   16.666666666666668
200.0   90.0   33.333333333333336
250.0   90.0   33.333333333333336
200.0   120.0   33.333333333333336
200.0   90.0   50.0
250.0   90.0   33.333333333333336
250.0   120.0   33.333333333333336
200.0   120.0   33.333333333333336
250.0   120.0   50.0
200.0   90.0   50.0
200.0   120.0   50.0
250.0   120.0   50.0
200.0   120.0   33.333333333333336
200.0   90.0   50.0
250.0   120.0   50.0
250.0   90.0   50.0
250.0   90.0   33.333333333333336
200.0   90.0   50.0
250.0   120.0   50.0
250.0   90.0   33.333333333333336
200.0   120.0   33.333333333333336
200.0   120.0   0.0
250.0   120.0   0.0
200.0   150.0   0.0
200.0   120.0   16.666666666666668
250.0   120.0   0.0
250.0   150.0   0.0
200.0   150.0   0.0
250.0   150.0   16.666666666666668
200.0   120.0   16.666666666666668
200.0   150.0   16.666666666666668
250.0   150.0   16.666666666666668
200.0   150.0   0.0
200.0   120.0   16.666666666666668
250.0   150.0   16.666666666666668
250.0   120.0   16.666666666666668
250.0   120.0   0.0
200.0   120.0   16.666666666666668
250.0   150.0   16.666666666666668
250.0   120.0   0.0
200.0   150.0   0.0
200.0   120.0   16.666666666666668
250.0   120.0   16.666666666666668
200.0   150.0   16.666666666666668
200.0   120.0   33.333333333333336
250.0   120.0   16.666666666666668
250.0   150.0   16.666666666666668
200.0   150.0   16.666666666666668
250.0   150.0   33.333333333333336
200.0   120.0   33.333333333333336
200.0   150.0   33.333333333333336
250.0   150.0   33.333333333333336
200.0   150.0   16.666666666666668
200.0   120.0   33.333333333333336
250.0   150.0   33.333333333333336
250.0   120.0   33.333333333333336
250.0   120.0   16.666666666666668
200.0   120.0   33.333333333333336
250.0   150.0   33.333333333333336
250.0   120.0   16.666666666666668
200.0   150.0   16.666666666666668
200.0   120.0   33.333333333333336
250.0   120.0   33.333333333333336
200.0   150.0   33.333333333333336
200.0   120.0   50.0
250.0   120.0   33.333333333333336
250.0   150.0   33.333333333333336
200.0   150.0   33.333333333333336
250.0   150.0   50.0
200.0   120.0   50.0
200.0   150.0   50.0
250.0   150.0   50.0
200.0   150.0   33.333333333333336
200.0   120.0   50.0
250.0   150.0   50.0
250.0   120.0   50.0
250.0   120.0   33.333333333333336
200.0   120.0   50.0
250.0   150.0   50.0
250.0   120.0   33.333333333333336
200.0   150.0   33.333333333333336
250.0   0.0   0.0
300.0   0.0   0.0
250.0   30.0   0.0
250.0   0.0   16.666666666666668
300.0   0.0   0.0
300.0   30.0   0.0
250.0   30.0   0.0
300.0   30.0   16.666666666666668
250.0   0.0   16.666666666666668
250.0   30.0   16.666666666666668
300.0   30.0   16.666666666666668
250.0   30.0   0.0
250.0   0.0   16.666666666666668
300.0   30.0   16.666666666666668
300.0   0.0   16.666666666666668
300.0   0.0   0.0
250.0   0.0   16.666666666666668
300.0   30.0   16.666666666666668
300.0   0.0   0.0
250.0   30.0   0.0
250.0   0.0   16.666666666666668
300.0   0.0   16.666666666666668
250.0   30.0   16.666666666666668
250.0   0.0   33.333333333333336
300.0   0.0   16.666666666666668
300.0   30.0   16.666666666666668
250.0   30.0   16.666666666666668
300.0   30.0   33.333333333333336
250.0   0.0   33.333333333333336
250.0   30.0   33.333333333333336
300.0   30.0   33.333333333333336
250.0   30.0   16.666666666666668
250.0   0.0   33.333333333333336
300.0   30.0   33.333333333333336
300.0   0.0   33.333333333333336
300.0   0.0   16.666666666666668
250.0   0.0   33.333333333333336
300.0   30.0   33.333333333333336
300.0   0.0   16.666666666666668
250.0   30.0   16.666666666666668
250.0   0.0   33.333333333333336
300.0   0.0   33.333333333333336
250.0   30.0   33.333333333333336
250.0   0.0   50.0
300.0   0.0   33.333333333333336
300.0   30.0   33.333333333333336
250.0   30.0   33.333333333333336
300.0   30.0   50.0
250.0   0.0   50.0
250.0   30.0   50.0
300.0   30.0   50.0
250.0   30.0   33.333333333333336
250.0   0.0   50.0
300.0   30.0   50.0
300.0   0.0   50.0
300.0   0.0   33.333333333333336
250.0   0.0   50.0
300.0   30.0   50.0
300.0   0.0   33.333333333333336
250.0   30.0   33.333333333333336
250.0   30.0   0.0
300.0   30.0   0.0
250.0   60.0   0.0
250.0   30.0   16.666666666666668
300.0   30.0   0.0
300.0   60.0   0.0
250.0   60.0   0.0
300.0   60.0   16.666666666666668
250.0   30.0   16.666666666666668
250.0   60.0   16.666666666666668
300.0   60.0   16.666666666666668
250.0   60.0   0.0
250.0   30.0   16.666666666666668
300.0   60.0   16.666666666666668
300.0   30.0   16.666666666666668
300.0   30.0   0.0
250.0   30.0   16.666666666666668
300.0   60.0   16.666666666666668
300.0   30.0   0.0
250.0   60.0   0.0
250.0   30.0   16.666666666666668
300.0   30.0   16.666666666666668
250.0   60.0   16.666666666666668
250.0   30.0   33.333333333333336
300.0   30.0   16.666666666666668
300.0   60.0   16.666666666666668
250.0   60.0   16.666666666666668
300.0   60.0   33.333333333333336
250.0   30.0   33.333333333333336
250.0   60.0   33.333333333333336
300.0   60.0   33.333333333333336
250.0   60.0   16.666666666666668
250.0   30.0   33.333333333333336
300.0   60.0   33.333333333333336
300.0   30.0   33.333333333333336
300.0   30.0   16.666666666666668
250.0   30.0   33.333333333333336
300.0   60.0   33.333333333333336
300.0   30.0   16.666666666666668
250.0   60.0   16.666666666666668
250.0   30.0   33.333333333333336
300.0   30.0   33.333333333333336
250.0   60.0   33.333333333333336
250.0   30.0   50.0
300.0   30.0   33.333333333333336
300.0   60.0   33.333333333333336
250.0   60.0   33.333333333333336
300.0   60.0   50.0
250.0   30.0   50.0
250.0   60.0   50.0
300.0   60.0   50.0
250.0   60.0   33.333333333333336
250.0   30.0   50.0
300.0   60.0   50.0
300.0   30.0   50.0
300.0   30.0   33.333333333333336
250.0   30.0   50.0
300.0   60.0   50.0
300.0   30.0   33.333333333333336
250.0   60.0   33.333333333333336
250.0   60.0   0.0
300.0   60.0   0.0
250.0   90.0   0.0
250.0   60.0   16.666666666666668
300.0   60.0   0.0
300.0   90.0   0.0
250.0   90.0   0.0
300.0   90.0   16.666666666666668
250.0   60.0   16.666666666666668
250.0   90.0   16.666666666666668
300.0   90.0   16.666666666666668
250.0   90.0   0.0
250.0   60.0   16.666666666666668
300.0   90.0   16.666666666666668
300.0   60.0   16.666666666666668
300.0   60.0   0.0
250.0   60.0   16.666666666666668
300.0   90.0   16.666666666666668
300.0   60.0   0.0
250.0   90.0   0.0
250.0   60.0   16.666666666666668
300.0   60.0   16.666666666666668
250.0   90.0   16.666666666666668
250.0   60.0   33.333333333333336
300.0   60.0   16.666666666666668
300.0   90.0   16.666666666666668
250.0   90.0   16.666666666666668
300.0   90.0   33.333333333333336
250.0   60.0   33.333333333333336
250.0   90.0   33.333333333333336
300.0   90.0   33.333333333333336
250.0   90.0   16.666666666666668
250.0   60.0   33.333333333333336
300.0   90.0   33.333333333333336
300.0   60.0   33.333333333333336
300.0   60.0   16.666666666666668
250.0   60.0   33.333333333333336
300.0   90.0   33.333333333333336
300.0   60.0   16.666666666666668
250.0   90.0   16.666666666666668
250.0   60.0   33.333333333333336
300.0   60.0   33.333333333333336
250.0   90.0   33.333333333333336
250.0   60.0   50.0
300.0   60.0   33.333333333333336
300.0   90.0   33.333333333333336
250.0   90.0   33.333333333333336
300.0   90.0   50.0
250.0   60.0   50.0
250.0   90.0   50.0
300.0   90.0   50.0
250.0   90.0   33.333333333333336
250.0   60.0   50.0
300.0   90.0   50.0
300.0   60.0   50.0
300.0   60.0   33.333333333333336
250.0   60.0   50.0
300.0   90.0   50.0
300.0   60.0   33.333333333333336
250.0   90.0   33.333333333333336
250.0   90.0   0.0
300.0   90.0   0.0
250.0   120.0   0.0
250.0   90.0   16.666666666666668
300.0   90.0   0.0
300.0   120.0   0.0
250.0   120.0   0.0
300.0   120.0   16.666666666666668
250.0   90.0   16.666666666666668
250.0   120.0   16.666666666666668
300.0   120.0   16.666666666666668
250.0   120.0   0.0
250.0   90.0   16.666666666666668
300.0   120.0   16.666666666666668
300.0   90.0   16.666666666666668
300.0   90.0   0.0
250.0   90.0   16.666666666666668
300.0   120.0   16.666666666666668
300.0   90.0   0.0
250.0   120.0   0.0
250.0   90.0   16.666666666666668
300.0   90.0   16.666666666666668
250.0   120.0   16.666666666666668
250.0   90.0   33.333333333333336
300.0   90.0   16.666666666666668
300.0   120.0   16.666666666666668
250.0   120.0   16.666666666666668
300.0   120.0   33.333333333333336
250.0   90.0   33.333333333333336
250.0   120.0   33.333333333333336
300.0   120.0   33.333333333333336
250.0   120.0   16.666666666666668
250.0   90.0   33.333333333333336
300.0   120.0   33.333333333333336
300.0   90.0   33.333333333333336
300.0   90.0   16.666666666666668
250.0   90.0   33.333333333333336
300.0   120.0   33.333333333333336
300.0   90.0   16.666666666666668
250.0   120.0   16.666666666666668
250.0   90.0   33.333333333333336
300.0   90.0   33.333333333333336
250.0   120.0   33.333333333333336
250.0   90.0   50.0
300.0   90.0   33.333333333333336
300.0   120.0   33.333333333333336
250.0   120.0   33.333333333333336
300.0   120.0   50.0
250.0   90.0   50.0
250.0   120.0   50.0
300.0   120.0   50.0
250.0   120.0   33.333333333333336
250.0   90.0   50.0
300.0   120.0   50.0
300.0   90.0   50.0
300.0   90.0   33.333333333333336
250.0   90.0   50.0
300.0   120.0   50.0
300.0   90.0   33.333333333333336
250.0   120.0   33.333333333333336
250.0   120.0   0.0
300.0   120.0   0.0
250.0   150.0   0.0
250.0   120.0   16.666666666666668
300.0   120.0   0.0
300.0   150.0   0.0
250.0   150.0   0.0
300.0   150.0   16.666666666666668
250.0   120.0   16.666666666666668
250.0   150.0   16.666666666666668
300.0   150.0   16.666666666666668
250.0   150.0   0.0
250.0   120.0   16.666666666666668
300.0   150.0   16.666666666666668
300.0   120.0   16.666666666666668
300.0   120.0   0.0
250.0   120.0   16.666666666666668
300.0   150.0   16.666666666666668
300.0   120.0   0.0
250.0   150.0   0.0
250.0   120.0   16.666666666666668
300.0   120.0   16.666666666666668
250.0   150.0   16.666666666666668
250.0   120.0   33.333333333333336
300.0   120.0   16.666666666666668
300.0   150.0   16.666666666666668
250.0   150.0   16.666666666666668
300.0   150.0   33.333333333333336
250.0   120.0   33.333333333333336
250.0   150.0   33.333333333333336
300.0   150.0   33.333333333333336
250.0   150.0   16.666666666666668
250.0   120.0   33.333333333333336
300.0   150.0   33.333333333333336
300.0   120.0   33.333333333333336
300.0   120.0   16.666666666666668
250.0   120.0   33.333333333333336
300.0   150.0   33.333333333333336
300.0   120.0   16.666666666666668
250.0   150.0   16.666666666666668
250.0   120.0   33.333333333333336
300.0   120.0   33.333333333333336
250.0   150.0   33.333333333333336
250.0   120.0   50.0
300.0   120.0   33.333333333333336
300.0   150.0   33.333333333333336
250.0   150.0   33.333333333333336
300.0   150.0   50.0
250.0   120.0   50.0
250.0   150.0   50.0
300.0   150.0   50.0
250.0   150.0   33.333333333333336
250.0   120.0   50.0
300.0   150.0   50.0
300.0   120.0   50.0
300.0   120.0   33.333333333333336
250.0   120.0   50.0
300.0   150.0   50.0
300.0   120.0   33.333333333333336
250.0   150.0   33.333333333333336
300.0   0.0   0.0
350.0   0.0   0.0
300.0   30.0   0.0
300.0   0.0   16.666666666666668
350.0   0.0   0.0
350.0   30.0   0.0
300.0   30.0   0.0
350.0   30.0   16.666666666666668
300.0   0.0   16.666666666666668
300.0   30.0   16.666666666666668
350.0   30.0   16.666666666666668
300.0   30.0   0.0
300.0   0.0   16.666666666666668
350.0   30.0   16.666666666666668
350.0   0.0   16.666666666666668
350.0   0.0   0.0
300.0   0.0   16.666666666666668
350.0   30.0   16.666666666666668
350.0   0.0   0.0
300.0   30.0   0.0
300.0   0.0   16.666666666666668
350.0   0.0   16.666666666666668
300.0   30.0   16.666666666666668
300.0   0.0   33.333333333333336
350.0   0.0   16.666666666666668
350.0   30.0   16.666666666666668
300.0   30.0   16.666666666666668
350.0   30.0   33.333333333333336
300.0   0.0   33.333333333333336
300.0   30.0   33.333333333333336
350.0   30.0   33.333333333333336
300.0   30.0   16.666666666666668
300.0   0.0   33.333333333333336
350.0   30.0   33.333333333333336
350.0   0.0   33.333333333333336
350.0   0.0   16.666666666666668
300.0   0.0   33.333333333333336
350.0   30.0   33.333333333333336
350.0   0.0   16.666666666666668
300.0   30.0   16.666666666666668
300.0   0.0   33.333333333333336
350.0   0.0   33.333333333333336
300.0   30.0   33.333333333333336
300.0   0.0   50.0
350.0   0.0   33.333333333333336
350.0   30.0   33.333333333333336
300.0   30.0   33.333333333333336
350.0   30.0   50.0
300.0   0.0   50.0
300.0   30.0   50.0
350.0   30.0   50.0
300.0   30.0   33.333333333333336
300.0   0.0   50.0
350.0   30.0   50.0
350.0   0.0   50.0
350.0   0.0   33.333333333333336
300.0   0.0   50.0
350.0   30.0   50.0
350.0   0.0   33.333333333333336
300.0   30.0   33.333333333333336
300.0   30.0   0.0
350.0   30.0   0.0
300.0   60.0   0.0
300.0   30.0   16.666666666666668
350.0   30.0   0.0
350.0   60.0   0.0
300.0   60.0   0.0
350.0   60.0   16.666666666666668
300.0   30.0   16.666666666666668
300.0   60.0   16.666666666666668
350.0   60.0   16.666666666666668
300.0   60.0   0.0
300.0   30.0   16.666666666666668
350.0   60.0   16.666666666666668
350.0   30.0   16.666666666666668
350.0   30.0   0.0
300.0   30.0   16.666666666666668
350.0   60.0   16.666666666666668
350.0   30.0   0.0
300.0   60.0   0.0
300.0   30.0   16.666666666666668
350.0   30.0   16.666666666666668
300.0   60.0   16.666666666666668
300.0   30.0   33.333333333333336
350.0   30.0   16.666666666666668
350.0   60.0   16.666666666666668
300.0   60.0   16.666666666666668
350.0   60.0   33.333333333333336
300.0   30.0   33.333333333333336
300.0   60.0   33.333333333333336
350.0   60.0   33.333333333333336
300.0   60.0   16.666666666666668
300.0   30.0   33.333333333333336
350.0   60.0   33.333333333333336
350.0   30.0   33.333333333333336
350.0   30.0   16.666666666666668
300.0   30.0   33.333333333333336
350.0   60.0   33.333333333333336
350.0   30.0   16.666666666666668
300.0   60.0   16.666666666666668
300.0   30.0   33.333333333333336
350.0   30.0   33.333333333333336
300.0   60.0   33.333333333333336
300.0   30.0   50.0
350.0   30.0   33.333333333333336
350.0   60.0   33.333333333333336
300.0   60.0   33.333333333333336
350.0   60.0   50.0
300.0   30.0   50.0
300.0   60.0   50.0
350.0   60.0   50.0
300.0   60.0   33.333333333333336
300.0   30.0   50.0
350.0   60.0   50.0
350.0   30.0   50.0
350.0   30.0   33.333333333333336
300.0   30.0   50.0
350.0   60.0   50.0
350.0   30.0   33.333333333333336
300.0   60.0   33.333333333333336
300.0   60.0   0.0
350.0   60.0   0.0
300.0   90.0   0.0
300.0   60.0   16.666666666666668
350.0   60.0   0.0
350.0   90.0   0.0
300.0   90.0   0.0
350.0   90.0   16.666666666666668
300.0   60.0   16.666666666666668
300.0   90.0   16.666666666666668
350.0   90.0   16.666666666666668
300.0   90.0   0.0
300.0   60.0   16.666666666666668
350.0   90.0   16.666666666666668
350.0   60.0   16.666666666666668
350.0   60.0   0.0
300.0   60.0   16.666666666666668
350.0   90.0   16.666666666666668
350.0   60.0   0.0
300.0   90.0   0.0
300.0   60.0   16.666666666666668
350.0   60.0   16.666666666666668
300.0   90.0   16.666666666666668
300.0   60.0   33.333333333333336
350.0   60.0   16.666666666666668
350.0   90.0   16.666666666666668
300.0   90.0   16.666666666666668
350.0   90.0   33.333333333333336
300.0   60.0   33.333333333333336
300.0   90.0   33.333333333333336
350.0   90.0   33.333333333333336
300.0   90.0   16.666666666666668
300.0   60.0   33.333333333333336
350.0   90.0   33.333333333333336
350.0   60.0   33.333333333333336
350.0   60.0   16.666666666666668
300.0   60.0   33.333333333333336
350.0   90.0   33.333333333333336
350.0   60.0   16.666666666666668
300.0   90.0   16.666666666666668
300.0   60.0   33.333333333333336
350.0   60.0   33.333333333333336
300.0   90.0   33.333333333333336
300.0   60.0   50.0
350.0   60.0   33.333333333333336
350.0   90.0   33.333333333333336
300.0   90.0   33.333333333333336
350.0   90.0   50.0
300.0   60.0   50.0
300.0   90.0   50.0
350.0   90.0   50.0
300.0   90.0   33.333333333333336
300.0   60.0   50.0
350.0   90.0   50.0
350.0   60.0   50.0
350.0   60.0   33.333333333333336
300.0   60.0   50.0
350.0   90.0   50.0
350.0   60.0   33.333333333333336
300.0   90.0   33.333333333333336
300.0   90.0   0.0
350.0   90.0   0.0
300.0   120.0   0.0
300.0   90.0   16.666666666666668
350.0   90.0   0.0
350.0   120.0   0.0
300.0   120.0   0.0
350.0   120.0   16.666666666666668
300.0   90.0   16.666666666666668
300.0   120.0   16.666666666666668
350.0   120.0   16.666666666666668
300.0   120.0   0.0
300.0   90.0   16.666666666666668
350.0   120.0   16.666666666666668
350.0   90.0   16.666666666666668
350.0   90.0   0.0
300.0   90.0   16.666666666666668
350.0   120.0   16.666666666666668
350.0   90.0   0.0
300.0   120.0   0.0
300.0   90.0   16.666666666666668
350.0   90.0   16.666666666666668
300.0   120.0   16.666666666666668
300.0   90.0   33.333333333333336
350.0   90.0   16.666666666666668
350.0   120.0   16.666666666666668
300.0   120.0   16.666666666666668
350.0   120.0   33.333333333333336
300.0   90.0   33.333333333333336
300.0   120.0   33.333333333333336
350.0   120.0   33.333333333333336
300.0   120.0   16.666666666666668
300.0   90.0   33.333333333333336
350.0   120.0   33.333333333333336
350.0   90.0   33.333333333333336
350.0   90.0   16.666666666666668
300.0   90.0   33.333333333333336
350.0   120.0   33.333333333333336
350.0   90.0   16.666666666666668
300.0   120.0   16.666666666666668
300.0   90.0   33.333333333333336
350.0   90.0   33.333333333333336
300.0   120.0   33.333333333333336
300.0   90.0   50.0
350.0   90.0   33.333333333333336
350.0   120.0   33.333333333333336
300.0   120.0   33.333333333333336
350.0   120.0   50.0
300.0   90.0   50.0
300.0   120.0   50.0
350.0   120.0   50.0
300.0   120.0   33.333333333333336
300.0   90.0   50.0
350.0   120.0   50.0
350.0   90.0   50.0
350.0   90.0   33.333333333333336
300.0   90.0   50.0
350.0   120.0   50.0
350.0   90.0   33.333333333333336
300.0   120.0   33.333333333333336
300.0   120.0   0.0
350.0   120.0   0.0
300.0   150.0   0.0
300.0   120.0   16.666666666666668
350.0   120.0   0.0
350.0   150.0   0.0
300.0   150.0   0.0
350.0   150.0   16.666666666666668
300.0   120.0   16.666666666666668
300.0   150.0   16.666666666666668
350.0   150.0   16.666666666666668
300.0   150.0   0.0
300.0   120.0   16.666666666666668
350.0   150.0   16.666666666666668
350.0   120.0   16.666666666666668
350.0   120.0   0.0
300.0   120.0   16.666666666666668
350.0   150.0   16.666666666666668
350.0   120.0   0.0
300.0   150.0   0.0
300.0   120.0   16.666666666666668
350.0   120.0   16.666666666666668
300.0   150.0   16.666666666666668
300.0   120.0   33.333333333333336
350.0   120.0   16.666666666666668
350.0   150.0   16.666666666666668
300.0   150.0   16.666666666666668
350.0   150.0   33.333333333333336
300.0   120.0   33.333333333333336
300.0   150.0   33.333333333333336
350.0   150.0   33.333333333333336
300.0   150.0   16.666666666666668
300.0   120.0   33.333333333333336
350.0   150.0   33.333333333333336
350.0   120.0   33.333333333333336
350.0   120.0   16.666666666666668
300.0   120.0   33.333333333333336
350.0   150.0   33.333333333333336
350.0   120.0   16.666666666666668
300.0   150.0   16.666666666666668
300.0   120.0   33.333333333333336
350.0   120.0   33.333333333333336
300.0   150.0   33.333333333333336
300.0   120.0   50.0
350.0   120.0   33.333333333333336
350.0   150.0   33.333333333333336
300.0   150.0   33.333333333333336
350.0   150.0   50.0
300.0   120.0   50.0
300.0   150.0   50.0
350.0   150.0   50.0
300.0   150.0   33.333333333333336
300.0   120.0   50.0
350.0   150.0   50.0
350.0   120.0   50.0
350.0   120.0   33.333333333333336
300.0   120.0   50.0
350.0   150.0   50.0
350.0   120.0   33.333333333333336
300.0   150.0   33.333333333333336
350.0   0.0   0.0
400.0   0.0   0.0
350.0   30.0   0.0
350.0   0.0   16.666666666666668
400.0   0.0   0.0
400.0   30.0   0.0
350.0   30.0   0.0
400.0   30.0   16.666666666666668
350.0   0.0   16.666666666666668
350.0   30.0   16.666666666666668
400.0   30.0   16.666666666666668
350.0   30.0   0.0
350.0   0.0   16.666666666666668
400.0   30.0   16.666666666666668
400.0   0.0   16.666666666666668
400.0   0.0   0.0
350.0   0.0   16.666666666666668
400.0   30.0   16.666666666666668
400.0   0.0   0.0
350.0   30.0   0.0
350.0   0.0   16.666666666666668
400.0   0.0   16.666666666666668
350.0   30.0   16.666666666666668
350.0   0.0   33.333333333333336
400.0   0.0   16.666666666666668
400.0   30.0   16.666666666666668
350.0   30.0   16.666666666666668
400.0   30.0   33.333333333333336
350.0   0.0   33.333333333333336
350.0   30.0   33.333333333333336
400.0   30.0   33.333333333333336
350.0   30.0   16.666666666666668
350.0   0.0   33.333333333333336
400.0   30.0   33.333333333333336
400.0   0.0   33.333333333333336
400.0   0.0   16.666666666666668
350.0   0.0   33.333333333333336
400.0   30.0   33.333333333333336
400.0   0.0   16.666666666666668
350.0   30.0   16.666666666666668
350.0   0.0   33.333333333333336
400.0   0.0   33.333333333333336
350.0   30.0   33.333333333333336
350.0   0.0   50.0
400.0   0.0   33.333333333333336
400.0   30.0   33.333333333333336
350.0   30.0   33.333333333333336
400.0   30.0   50.0
350.0   0.0   50.0
350.0   30.0   50.0
400.0   30.0   50.0
350.0   30.0   33.333333333333336
350.0   0.0   50.0
400.0   30.0   50.0
400.0   0.0   50.0
400.0   0.0   33.333333333333336
350.0   0.0   50.0
400.0   30.0   50.0
400.0   0.0   33.333333333333336
350.0   30.0   33.333333333333336
350.0   30.0   0.0
400.0   30.0   0.0
350.0   60.0   0.0
350.0   30.0   16.666666666666668
400.0   30.0   0.0
400.0   60.0   0.0
350.0   60.0   0.0
400.0   60.0   16.666666666666668
350.0   30.0   16.666666666666668
350.0   60.0   16.666666666666668
400.0   60.0   16.666666666666668
350.0   60.0   0.0
350.0   30.0   16.666666666666668
400.0   60.0   16.666666666666668
400.0   30.0   16.666666666666668
400.0   30.0   0.0
350.0   30.0   16.666666666666668
400.0   60.0   16.666666666666668
400.0   30.0   0.0
350.0   60.0   0.0
350.0   30.0   16.666666666666668
400.0   30.0   16.666666666666668
350.0   60.0   16.666666666666668
350.0   30.0   33.333333333333336
400.0   30.0   16.666666666666668
400.0   60.0   16.666666666666668
350.0   60.0   16.666666666666668
400.0   60.0   33.333333333333336
350.0   30.0   33.333333333333336
350.0   60.0   33.333333333333336
400.0   60.0   33.333333333333336
350.0   60.0   16.666666666666668
350.0   30.0   33.333333333333336
400.0   60.0   33.333333333333336
400.0   30.0   33.333333333333336
400.0   30.0   16.666666666666668
350.0   30.0   33.333333333333336
400.0   60.0   33.333333333333336
400.0   30.0   16.666666666666668
350.0   60.0   16.666666666666668
350.0   30.0   33.333333333333336
400.0   30.0   33.333333333333336
350.0   60.0   33.333333333333336
350.0   30.0   50.0
400.0   30.0   33.333333333333336
400.0   60.0   33.333333333333336
350.0   60.0   33.333333333333336
400.0   60.0   50.0
350.0   30.0   50.0
350.0   60.0   50.0
400.0   60.0   50.0
350.0   60.0   33.333333333333336
350.0   30.0   50.0
400.0   60.0   50.0
400.0   30.0   50.0
400.0   30.0   33.333333333333336
350.0   30.0   50.0
400.0   60.0   50.0
400.0   30.0   33.333333333333336
350.0   60.0   33.333333333333336
350.0   60.0   0.0
400.0   60.0   0.0
350.0   90.0   0.0
350.0   60.0   16.666666666666668
400.0   60.0   0.0
400.0   90.0   0.0
350.0   90.0   0.0
400.0   90.0   16.666666666666668
350.0   60.0   16.666666666666668
350.0   90.0   16.666666666666668
400.0   90.0   16.666666666666668
350.0   90.0   0.0
350.0   60.0   16.666666666666668
400.0   90.0   16.666666666666668
400.0   60.0   16.666666666666668
400.0   60.0   0.0
350.0   60.0   16.666666666666668
400.0   90.0   16.666666666666668
400.0   60.0   0.0
350.0   90.0   0.0
350.0   60.0   16.666666666666668
400.0   60.0   16.666666666666668
350.0   90.0   16.666666666666668
350.0   60.0   33.333333333333336
400.0   60.0   16.666666666666668
400.0   90.0   16.666666666666668
350.0   90.0   16.666666666666668
400.0   90.0   33.333333333333336
350.0   60.0   33.333333333333336
350.0   90.0   33.333333333333336
400.0   90.0   33.333333333333336
350.0   90.0   16.666666666666668
350.0   60.0   33.333333333333336
400.0   90.0   33.333333333333336
400.0   60.0   33.333333333333336
400.0   60.0   16.666666666666668
350.0   60.0   33.333333333333336
400.0   90.0   33.333333333333336
400.0   60.0   16.666666666666668
350.0   90.0   16.666666666666668
350.0   60.0   33.333333333333336
400.0   60.0   33.333333333333336
350.0   90.0   33.333333333333336
350.0   60.0   50.0
400.0   60.0   33.333333333333336
400.0   90.0   33.333333333333336
350.0   90.0   33.333333333333336
400.0   90.0   50.0
350.0   60.0   50.0
350.0   90.0   50.0
400.0   90.0   50.0
350.0   90.0   33.333333333333336
350.0   60.0   50.0
400.0   90.0   50.0
400.0   60.0   50.0
400.0   60.0   33.333333333333336
350.0   60.0   50.0
400.0   90.0   50.0
400.0   60.0   33.333333333333336
350.0   90.0   33.333333333333336
350.0   90.0   0.0
400.0   90.0   0.0
350.0   120.0   0.0
350.0   90.0   16.666666666666668
400.0   90.0   0.0
400.0   120.0   0.0
350.0   120.0   0.0
400.0   120.0   16.666666666666668
350.0   90.0   16.666666666666668
350.0   120.0   16.666666666666668
400.0   120.0   16.666666666666668
350.0   120.0   0.0
350.0   90.0   16.666666666666668
400.0   120.0   16.666666666666668
400.0   90.0   16.666666666666668
400.0   90.0   0.0
350.0   90.0   16.666666666666668
400.0   120.0   16.666666666666668
400.0   90.0   0.0
350.0   120.0   0.0
350.0   90.0   16.666666666666668
400.0   90.0   16.666666666666668
350.0   120.0   16.666666666666668
350.0   90.0   33.333333333333336
400.0   90.0   16.666666666666668
400.0   120.0   16.666666666666668
350.0   120.0   16.666666666666668
400.0   120.0   33.333333333333336
350.0   90.0   33.333333333333336
350.0   120.0   33.333333333333336
400.0   120.0   33.333333333333336
350.0   120.0   16.666666666666668
350.0   90.0   33.333333333333336
400.0   120.0   33.333333333333336
400.0   90.0   33.333333333333336
400.0   90.0   16.666666666666668
350.0   90.0   33.333333333333336
400.0   120.0   33.333333333333336
400.0   90.0   16.666666666666668
350.0   120.0   16.666666666666668
350.0   90.0   33.333333333333336
400.0   90.0   33.333333333333336
350.0   120.0   33.333333333333336
350.0   90.0   50.0
400.0   90.0   33.333333333333336
400.0   120.0   33.333333333333336
350.0   120.0   33.333333333333336
400.0   120.0   50.0
350.0   90.0   50.0
350.0   120.0   50.0
400.0   120.0   50.0
350.0   120.0   33.333333333333336
350.0   90.0   50.0
400.0   120.0   50.0
400.0   90.0   50.0
400.0   90.0   33.333333333333336
350.0   90.0   50.0
400.0   120.0   50.0
400.0   90.0   33.333333333333336
350.0   120.0   33.333333333333336
350.0   120.0   0.0
400.0   120.0   0.0
350.0   150.0   0.0
350.0   120.0   16.666666666666668
400.0   120.0   0.0
400.0   150.0   0.0
350.0   150.0   0.0
400.0   150.0   16.666666666666668
350.0   120.0   16.666666666666668
350.0   150.0   16.666666666666668
400.0   150.0   16.666666666666668
350.0   150.0   0.0
350.0   120.0   16.666666666666668
400.0   150.0   16.666666666666668
400.0   120.0   16.666666666666668
400.0   120.0   0.0
350.0   120.0   16.666666666666668
400.0   150.0   16.666666666666668
400.0   120.0   0.0
350.0   150.0   0.0
350.0   120.0   16.666666666666668
400.0   120.0   16.666666666666668
350.0   150.0   16.666666666666668
350.0   120.0   33.333333333333336
400.0   120.0   16.666666666666668
400.0   150.0   16.666666666666668
350.0   150.0   16.666666666666668
400.0   150.0   33.333333333333336
350.0   120.0   33.333333333333336
350.0   150.0   33.333333333333336
400.0   150.0   33.333333333333336
350.0   150.0   16.666666666666668
350.0   120.0   33.333333333333336
400.0   150.0   33.333333333333336
400.0   120.0   33.333333333333336
400.0   120.0   16.666666666666668
350.0   120.0   33.333333333333336
400.0   150.0   33.333333333333336
400.0   120.0   16.666666666666668
350.0   150.0   16.666666666666668
350.0   120.0   33.333333333333336
400.0   120.0   33.333333333333336
350.0   150.0   33.333333333333336
350.0   120.0   50.0
400.0   120.0   33.333333333333336
400.0   150.0   33.333333333333336
350.0   150.0   33.333333333333336
400.0   150.0   50.0
350.0   120.0   50.0
350.0   150.0   50.0
400.0   150.0   50.0
350.0   150.0   33.333333333333336
350.0   120.0   50.0
400.0   150.0   50.0
400.0   120.0   50.0
400.0   120.0   33.333333333333336
350.0   120.0   50.0
400.0   150.0   50.0
400.0   120.0   33.333333333333336
350.0   150.0   33.333333333333336
400.0   0.0   0.0
450.0   0.0   0.0
400.0   30.0   0.0
400.0   0.0   16.666666666666668
450.0   0.0   0.0
450.0   30.0   0.0
400.0   30.0   0.0
450.0   30.0   16.666666666666668
400.0   0.0   16.666666666666668
400.0   30.0   16.666666666666668
450.0   30.0   16.666666666666668
400.0   30.0   0.0
400.0   0.0   16.666666666666668
450.0   30.0   16.666666666666668
450.0   0.0   16.666666666666668
450.0   0.0   0.0
400.0   0.0   16.666666666666668
450.0   30.0   16.666666666666668
450.0   0.0   0.0
400.0   30.0   0.0
400.0   0.0   16.666666666666668
450.0   0.0   16.666666666666668
400.0   30.0   16.666666666666668
400.0   0.0   33.333333333333336
450.0   0.0   16.666666666666668
450.0   30.0   16.666666666666668
400.0   30.0   16.666666666666668
450.0   30.0   33.333333333333336
400.0   0.0   33.333333333333336
400.0   30.0   33.333333333333336
450.0   30.0   33.333333333333336
400.0   30.0   16.666666666666668
400.0   0.0   33.333333333333336
450.0   30.0   33.333333333333336
450.0   0.0   33.333333333333336
450.0   0.0   16.666666666666668
400.0   0.0   33.333333333333336
450.0   30.0   33.333333333333336
450.0   0.0   16.666666666666668
400.0   30.0   16.666666666666668
400.0   0.0   33.333333333333336
450.0   0.0   33.333333333333336
400.0   30.0   33.333333333333336
400.0   0.0   50.0
450.0   0.0   33.333333333333336
450.0   30.0   33.333333333333336
400.0   30.0   33.333333333333336
450.0   30.0   50.0
400.0   0.0   50.0
400.0   30.0   50.0
450.0   30.0   50.0
400.0   30.0   33.333333333333336
400.0   0.0   50.0
450.0   30.0   50.0
450.0   0.0   50.0
450.0   0.0   33.333333333333336
400.0   0.0   50.0
450.0   30.0   50.0
450.0   0.0   33.333333333333336
400.0   30.0   33.333333333333336
400.0   30.0   0.0
450.0   30.0   0.0
400.0   60.0   0.0
400.0   30.0   16.666666666666668
450.0   30.0   0.0
450.0   60.0   0.0
400.0   60.0   0.0
450.0   60.0   16.666666666666668
400.0   30.0   16.666666666666668
400.0   60.0   16.666666666666668
450.0   60.0   16.666666666666668
400.0   60.0   0.0
400.0   30.0   16.666666666666668
450.0   60.0   16.666666666666668
450.0   30.0   16.666666666666668
450.0   30.0   0.0
400.0   30.0   16.666666666666668
450.0   60.0   16.666666666666668
450.0   30.0   0.0
400.0   60.0   0.0
400.0   30.0   16.666666666666668
450.0   30.0   16.666666666666668
400.0   60.0   16.666666666666668
400.0   30.0   33.333333333333336
450.0   30.0   16.666666666666668
450.0   60.0   16.666666666666668
400.0   60.0   16.666666666666668
450.0   60.0   33.333333333333336
400.0   30.0   33.333333333333336
400.0   60.0   33.333333333333336
450.0   60.0   33.333333333333336
400.0   60.0   16.666666666666668
400.0   30.0   33.333333333333336
450.0   60.0   33.333333333333336
450.0   30.0   33.333333333333336
450.0   30.0   16.666666666666668
400.0   30.0   33.333333333333336
450.0   60.0   33.333333333333336
450.0   30.0   16.666666666666668
400.0   60.0   16.666666666666668
400.0   30.0   33.333333333333336
450.0   30.0   33.333333333333336
400.0   60.0   33.333333333333336
400.0   30.0   50.0
450.0   30.0   33.333333333333336
450.0   60.0   33.333333333333336
400.0   60.0   33.333333333333336
450.0   60.0   50.0
400.0   30.0   50.0
400.0   60.0   50.0
450.0   60.0   50.0
400.0   60.0   33.333333333333336
400.0   30.0   50.0
450.0   60.0   50.0
450.0   30.0   50.0
450.0   30.0   33.333333333333336
400.0   30.0   50.0
450.0   60.0   50.0
450.0   30.0   33.333333333333336
400.0   60.0   33.333333333333336
400.0   60.0   0.0
450.0   60.0   0.0
400.0   90.0   0.0
400.0   60.0   16.666666666666668
450.0   60.0   0.0
450.0   90.0   0.0
400.0   90.0   0.0
450.0   90.0   16.666666666666668
400.0   60.0   16.666666666666668
400.0   90.0   16.666666666666668
450.0   90.0   16.666666666666668
400.0   90.0   0.0
400.0   60.0   16.666666666666668
450.0   90.0   16.666666666666668
450.0   60.0   16.666666666666668
450.0   60.0   0.0
400.0   60.0   16.666666666666668
450.0   90.0   16.666666666666668
450.0   60.0   0.0
400.0   90.0   0.0
400.0   60.0   16.666666666666668
450.0   60.0   16.666666666666668
400.0   90.0   16.666666666666668
400.0   60.0   33.333333333333336
450.0   60.0   16.666666666666668
450.0   90.0   16.666666666666668
400.0   90.0   16.666666666666668
450.0   90.0   33.333333333333336
400.0   60.0   33.333333333333336
400.0   90.0   33.333333333333336
450.0   90.0   33.333333333333336
400.0   90.0   16.666666666666668
400.0   60.0   33.333333333333336
450.0   90.0   33.333333333333336
450.0   60.0   33.333333333333336
450.0   60.0   16.666666666666668
400.0   60.0   33.333333333333336
450.0   90.0   33.333333333333336
450.0   60.0   16.666666666666668
400.0   90.0   16.666666666666668
400.0   60.0   33.333333333333336
450.0   60.0   33.333333333333336
400.0   90.0   33.333333333333336
400.0   60.0   50.0
450.0   60.0   33.333333333333336
450.0   90.0   33.333333333333336
400.0   90.0   33.333333333333336
450.0   90.0   50.0
400.0   60.0   50.0
400.0   90.0   50.0
450.0   90.0   50.0
400.0   90.0   33.333333333333336
400.0   60.0   50.0
450.0   90.0   50.0
450.0   60.0   50.0
450.0   60.0   33.333333333333336
400.0   60.0   50.0
450.0   90.0   50.0
450.0   60.0   33.333333333333336
400.0   90.0   33.333333333333336
400.0   90.0   0.0
450.0   90.0   0.0
400.0   120.0   0.0
400.0   90.0   16.666666666666668
450.0   90.0   0.0
450.0   120.0   0.0
400.0   120.0   0.0
450.0   120.0   16.666666666666668
400.0   90.0   16.666666666666668
400.0   120.0   16.666666666666668
450.0   120.0   16.666666666666668
400.0   120.0   0.0
400.0   90.0   16.666666666666668
450.0   120.0   16.666666666666668
450.0   90.0   16.666666666666668
450.0   90.0   0.0
400.0   90.0   16.666666666666668
450.0   120.0   16.666666666666668
450.0   90.0   0.0
400.0   120.0   0.0
400.0   90.0   16.666666666666668
450.0   90.0   16.666666666666668
400.0   120.0   16.666666666666668
400.0   90.0   33.333333333333336
450.0   90.0   16.666666666666668
450.0   120.0   16.666666666666668
400.0   120.0   16.666666666666668
450.0   120.0   33.333333333333336
400.0   90.0   33.333333333333336
400.0   120.0   33.333333333333336
450.0   120.0   33.333333333333336
400.0   120.0   16.666666666666668
400.0   90.0   33.333333333333336
450.0   120.0   33.333333333333336
450.0   90.0   33.333333333333336
450.0   90.0   16.666666666666668
400.0   90.0   33.333333333333336
450.0   120.0   33.333333333333336
450.0   90.0   16.666666666666668
400.0   120.0   16.666666666666668
400.0   90.0   33.333333333333336
450.0   90.0   33.333333333333336
400.0   120.0   33.333333333333336
400.0   90.0   50.0
450.0   90.0   33.333333333333336
450.0   120.0   33.333333333333336
400.0   120.0   33.333333333333336
450.0   120.0   50.0
400.0   90.0   50.0
400.0   120.0   50.0
450.0   120.0   50.0
400.0   120.0   33.333333333333336
400.0   90.0   50.0
450.0   120.0   50.0
450.0   90.0   50.0
450.0   90.0   33.333333333333336
400.0   90.0   50.0
450.0   120.0   50.0
450.0   90.0   33.333333333333336
400.0   120.0   33.333333333333336
400.0   120.0   0.0
450.0   120.0   0.0
400.0   150.0   0.0
400.0   120.0   16.666666666666668
450.0   120.0   0.0
450.0   150.0   0.0
400.0   150.0   0.0
450.0   150.0   16.666666666666668
400.0   120.0   16.666666666666668
400.0   150.0   16.666666666666668
450.0   150.0   16.666666666666668
400.0   150.0   0.0
400.0   120.0   16.666666666666668
450.0   150.0   16.666666666666668
450.0   120.0   16.666666666666668
450.0   120.0   0.0
400.0   120.0   16.666666666666668
450.0   150.0   16.666666666666668
450.0   120.0   0.0
400.0   150.0   0.0
400.0   120.0   16.666666666666668
450.0   120.0   16.666666666666668
400.0   150.0   16.666666666666668
400.0   120.0   33.333333333333336
450.0   120.0   16.666666666666668
450.0   150.0   16.666666666666668
400.0   150.0   16.666666666666668
450.0   150.0   33.333333333333336
400.0   120.0   33.333333333333336
400.0   150.0   33.333333333333336
450.0   150.0   33.333333333333336
400.0   150.0   16.666666666666668
400.0   120.0   33.333333333333336
450.0   150.0   33.333333333333336
450.0   120.0   33.333333333333336
450.0   120.0   16.666666666666668
400.0   120.0   33.333333333333336
450.0   150.0   33.333333333333336
450.0   120.0   16.666666666666668
400.0   150.0   16.666666666666668
400.0   120.0   33.333333333333336
450.0   120.0   33.333333333333336
400.0   150.0   33.333333333333336
400.0   120.0   50.0
450.0   120.0   33.333333333333336
450.0   150.0   33.333333333333336
400.0   150.0   33.333333333333336
450.0   150.0   50.0
400.0   120.0   50.0
400.0   150.0   50.0
450.0   150.0   50.0
400.0   150.0   33.333333333333336
400.0   120.0   50.0
450.0   150.0   50.0
450.0   120.0   50.0
450.0   120.0   33.333333333333336
400.0   120.0   50.0
450.0   150.0   50.0
450.0   120.0   33.333333333333336
400.0   150.0   33.333333333333336
450.0   0.0   0.0
500.0   0.0   0.0
450.0   30.0   0.0
450.0   0.0   16.666666666666668
500.0   0.0   0.0
500.0   30.0   0.0
450.0   30.0   0.0
500.0   30.0   16.666666666666668
450.0   0.0   16.666666666666668
450.0   30.0   16.666666666666668
500.0   30.0   16.666666666666668
450.0   30.0   0.0
450.0   0.0   16.666666666666668
500.0   30.0   16.666666666666668
500.0   0.0   16.666666666666668
500.0   0.0   0.0
450.0   0.0   16.666666666666668
500.0   30.0   16.666666666666668
500.0   0.0   0.0
450.0   30.0   0.0
450.0   0.0   16.666666666666668
500.0   0.0   16.666666666666668
450.0   30.0   16.666666666666668
450.0   0.0   33.333333333333336
500.0   0.0   16.666666666666668
500.0   30.0   16.666666666666668
450.0   30.0   16.666666666666668
500.0   30.0   33.333333333333336
450.0   0.0   33.333333333333336
450.0   30.0   33.333333333333336
500.0   30.0   33.333333333333336
450.0   30.0   16.666666666666668
450.0   0.0   33.333333333333336
500.0   30.0   33.333333333333336
500.0   0.0   33.333333333333336
500.0   0.0   16.666666666666668
450.0   0.0   33.333333333333336
500.0   30.0   33.333333333333336
500.0   0.0   16.666666666666668
450.0   30.0   16.666666666666668
450.0   0.0   33.333333333333336
500.0   0.0   33.333333333333336
450.0   30.0   33.333333333333336
450.0   0.0   50.0
500.0   0.0   33.333333333333336
500.0   30.0   33.333333333333336
450.0   30.0   33.333333333333336
500.0   30.0   50.0
450.0   0.0   50.0
450.0   30.0   50.0
500.0   30.0   50.0
450.0   30.0   33.333333333333336
450.0   0.0   50.0
500.0   30.0   50.0
500.0   0.0   50.0
500.0   0.0   33.333333333333336
450.0   0.0   50.0
500.0   30.0   50.0
500.0   0.0   33.333333333333336
450.0   30.0   33.333333333333336
450.0   30.0   0.0
500.0   30.0   0.0
450.0   60.0   0.0
450.0   30.0   16.666666666666668
500.0   30.0   0.0
500.0   60.0   0.0
450.0   60.0   0.0
500.0   60.0   16.666666666666668
450.0   30.0   16.666666666666668
450.0   60.0   16.666666666666668
500.0   60.0   16.666666666666668
450.0   60.0   0.0
450.0   30.0   16.666666666666668
500.0   60.0   16.666666666666668
500.0   30.0   16.666666666666668
500.0   30.0   0.0
450.0   30.0   16.666666666666668
500.0   60.0   16.666666666666668
500.0   30.0   0.0
450.0   60.0   0.0
450.0   30.0   16.666666666666668
500.0   30.0   16.666666666666668
450.0   60.0   16.666666666666668
450.0   30.0   33.333333333333336
500.0   30.0   16.666666666666668
500.0   60.0   16.666666666666668
450.0   60.0   16.666666666666668
500.0   60.0   33.333333333333336
450.0   30.0   33.333333333333336
450.0   60.0   33.333333333333336
500.0   60.0   33.333333333333336
450.0   60.0   16.666666666666668
450.0   30.0   33.333333333333336
500.0   60.0   33.333333333333336
500.0   30.0   33.333333333333336
500.0   30.0   16.666666666666668
450.0   30.0   33.333333333333336
500.0   60.0   33.333333333333336
500.0   30.0   16.666666666666668
450.0   60.0   16.666666666666668
450.0   30.0   33.333333333333336
500.0   30.0   33.333333333333336
450.0   60.0   33.333333333333336
450.0   30.0   50.0
500.0   30.0   33.333333333333336
500.0   60.0   33.333333333333336
450.0   60.0   33.333333333333336
500.0   60.0   50.0
450.0   30.0   50.0
450.0   60.0   50.0
500.0   60.0   50.0
450.0   60.0   33.333333333333336
450.0   30.0   50.0
500.0   60.0   50.0
500.0   30.0   50.0
500.0   30.0   33.333333333333336
450.0   30.0   50.0
500.0   60.0   50.0
500.0   30.0   33.333333333333336
450.0   60.0   33.333333333333336
450.0   60.0   0.0
500.0   60.0   0.0
450.0   90.0   0.0
450.0   60.0   16.666666666666668
500.0   60.0   0.0
500.0   90.0   0.0
450.0   90.0   0.0
500.0   90.0   16.666666666666668
450.0   60.0   16.666666666666668
450.0   90.0   16.666666666666668
500.0   90.0   16.666666666666668
450.0   90.0   0.0
450.0   60.0   16.666666666666668
500.0   90.0   16.666666666666668
500.0   60.0   16.666666666666668
500.0   60.0   0.0
450.0   60.0   16.666666666666668
500.0   90.0   16.666666666666668
500.0   60.0   0.0
450.0   90.0   0.0
450.0   60.0   16.666666666666668
500.0   60.0   16.666666666666668
450.0   90.0   16.666666666666668
450.0   60.0   33.333333333333336
500.0   60.0   16.666666666666668
500.0   90.0   16.666666666666668
450.0   90.0   16.666666666666668
500.0   90.0   33.333333333333336
450.0   60.0   33.333333333333336
450.0   90.0   33.333333333333336
500.0   90.0   33.333333333333336
450.0   90.0   16.666666666666668
450.0   60.0   33.333333333333336
500.0   90.0   33.333333333333336
500.0   60.0   33.333333333333336
500.0   60.0   16.666666666666668
450.0   60.0   33.333333333333336
500.0   90.0   33.333333333333336
500.0   60.0   16.666666666666668
450.0   90.0   16.666666666666668
450.0   60.0   33.333333333333336
500.0   60.0   33.333333333333336
450.0   90.0   33.333333333333336
450.0   60.0   50.0
500.0   60.0   33.333333333333336
500.0   90.0   33.333333333333336
450.0   90.0   33.333333333333336
500.0   90.0   50.0
450.0   60.0   50.0
450.0   90.0   50.0
500.0   90.0   50.0
450.0   90.0   33.333333333333336
450.0   60.0   50.0
500.0   90.0   50.0
500.0   60.0   50.0
500.0   60.0   33.333333333333336
450.0   60.0   50.0
500.0   90.0   50.0
500.0   60.0   33.333333333333336
450.0   90.0   33.333333333333336
450.0   90.0   0.0
500.0   90.0   0.0
450.0   120.0   0.0
450.0   90.0   16.666666666666668
500.0   90.0   0.0
500.0   120.0   0.0
450.0   120.0   0.0
500.0   120.0   16.666666666666668
450.0   90.0   16.666666666666668
450.0   120.0   16.666666666666668
500.0   120.0   16.666666666666668
450.0   120.0   0.0
450.0   90.0   16.666666666666668
500.0   120.0   16.666666666666668
500.0   90.0   16.666666666666668
500.0   90.0   0.0
450.0   90.0   16.666666666666668
500.0   120.0   16.666666666666668
500.0   90.0   0.0
450.0   120.0   0.0
450.0   90.0   16.666666666666668
500.0   90.0   16.666666666666668
450.0   120.0   16.666666666666668
450.0   90.0   33.333333333333336
500.0   90.0   16.666666666666668
500.0   120.0   16.666666666666668
450.0   120.0   16.666666666666668
500.0   120.0   33.333333333333336
450.0   90.0   33.333333333333336
450.0   120.0   33.333333333333336
500.0   120.0   33.333333333333336
450.0   120.0   16.666666666666668
450.0   90.0   33.333333333333336
500.0   120.0   33.333333333333336
500.0   90.0   33.333333333333336
500.0   90.0   16.666666666666668
450.0   90.0   33.333333333333336
500.0   120.0   33.333333333333336
500.0   90.0   16.666666666666668
450.0   120.0   16.666666666666668
450.0   90.0   33.333333333333336
500.0   90.0   33.333333333333336
450.0   120.0   33.333333333333336
450.0   90.0   50.0
500.0   90.0   33.333333333333336
500.0   120.0   33.333333333333336
450.0   120.0   33.333333333333336
500.0   120.0   50.0
450.0   90.0   50.0
450.0   120.0   50.0
500.0   120.0   50.0
450.0   120.0   33.333333333333336
450.0   90.0   50.0
500.0   120.0   50.0
500.0   90.0   50.0
500.0   90.0   33.333333333333336
450.0   90.0   50.0
500.0   120.0   50.0
500.0   90.0   33.333333333333336
450.0   120.0   33.333333333333336
450.0   120.0   0.0
500.0   120.0   0.0
450.0   150.0   0.0
450.0   120.0   16.666666666666668
500.0   120.0   0.0
500.0   150.0   0.0
450.0   150.0   0.0
500.0   150.0   16.666666666666668
450.0   120.0   16.666666666666668
450.0   150.0   16.666666666666668
500.0   150.0   16.666666666666668
450.0   150.0   0.0
450.0   120.0   16.666666666666668
500.0   150.0   16.666666666666668
500.0   120.0   16.666666666666668
500.0   120.0   0.0
450.0   120.0   16.666666666666668
500.0   150.0   16.666666666666668
500.0   120.0   0.0
450.0   150.0   0.0
450.0   120.0   16.666666666666668
500.0   120.0   16.666666666666668
450.0   150.0   16.666666666666668
450.0   120.0   33.333333333333336
500.0   120.0   16.666666666666668
500.0   150.0   16.666666666666668
450.0   150.0   16.666666666666668
500.0   150.0   33.333333333333336
450.0   120.0   33.333333333333336
450.0   150.0   33.333333333333336
500.0   150.0   33.333333333333336
450.0   150.0   16.666666666666668
450.0   120.0   33.333333333333336
500.0   150.0   33.333333333333336
500.0   120.0   33.333333333333336
500.0   120.0   16.666666666666668
450.0   120.0   33.333333333333336
500.0   150.0   33.333333333333336
500.0   120.0   16.666666666666668
450.0   150.0   16.666666666666668
450.0   120.0   33.333333333333336
500.0   120.0   33.333333333333336
450.0   150.0   33.333333333333336
450.0   120.0   50.0
500.0   120.0   33.333333333333336
500.0   150.0   33.333333333333336
450.0   150.0   33.333333333333336
500.0   150.0   50.0
450.0   120.0   50.0
450.0   150.0   50.0
500.0   150.0   50.0
450.0   150.0   33.333333333333336
450.0   120.0   50.0
500.0   150.0   50.0
500.0   120.0   50.0
500.0   120.0   33.333333333333336
450.0   120.0   50.0
500.0   150.0   50.0
500.0   120.0   33.333333333333336
450.0   150.0   33.333333333333336
             </DataArray>   
          </Points>  
          <Cells>  
             <DataArray type="Int32" Name="connectivity" format="ascii">   
0   1   2   3
4   5   6   7
8   9   10   11
12   13   14   15
16   17   18   19
20   21   22   23
24   25   26   27
28   29   30   31
32   33   34   35
36   37   38   39
40   41   42   43
44   45   46   47
48   49   50   51
52   53   54   55
56   57   58   59
60   61   62   63
64   65   66   67
68   69   70   71
72   73   74   75
76   77   78   79
80   81   82   83
84   85   86   87
88   89   90   91
92   93   94   95
96   97   98   99
100   101   102   103
104   105   106   107
108   109   110   111
112   113   114   115
116   117   118   119
120   121   122   123
124   125   126   127
128   129   130   131
132   133   134   135
136   137   138   139
140   141   142   143
144   145   146   147
148   149   150   151
152   153   154   155
156   157   158   159
160   161   162   163
164   165   166   167
168   169   170   171
172   173   174   175
176   177   178   179
180   181   182   183
184   185   186   187
188   189   190   191
192   193   194   195
196   197   198   199
200   201   202   203
204   205   206   207
208   209   210   211
212   213   214   215
216   217   218   219
220   221   222   223
224   225   226   227
228   229   230   231
232   233   234   235
236   237   238   239
240   241   242   243
244   245   246   247
248   249   250   251
252   253   254   255
256   257   258   259
260   261   262   263
264   265   266   267
268   269   270   271
272   273   274   275
276   277   278   279
280   281   282   283
284   285   286   287
288   289   290   291
292   293   294   295
296   297   298   299
300   301   302   303
304   305   306   307
308   309   310   311
312   313   314   315
316   317   318   319
320   321   322   323
324   325   326   327
328   329   330   331
332   333   334   335
336   337   338   339
340   341   342   343
344   345   346   347
348   349   350   351
352   353   354   355
356   357   358   359
360   361   362   363
364   365   366   367
368   369   370   371
372   373   374   375
376   377   378   379
380   381   382   383
384   385   386   387
388   389   390   391
392   393   394   395
396   397   398   399
400   401   402   403
404   405   406   407
408   409   410   411
412   413   414   415
416   417   418   419
420   421   422   423
424   425   426   427
428   429   430   431
432   433   434   435
436   437   438   439
440   441   442   443
444   445   446   447
448   449   450   451
452   453   454   455
456   457   458   459
460   461   462   463
464   465   466   467
468   469   470   471
472   473   474   475
476   477   478   479
480   481   482   483
484   485   486   487
488   489   490   491
492   493   494   495
496   497   498   499
500   501   502   503
504   505   506   507
508   509   510   511
512   513   514   515
516   517   518   519
520   521   522   523
524   525   526   527
528   529   530   531
532   533   534   535
536   537   538   539
540   541   542   543
544   545   546   547
548   549   550   551
552   553   554   555
556   557   558   559
560   561   562   563
564   565   566   567
568   569   570   571
572   573   574   575
576   577   578   579
580   581   582   583
584   585   586   587
588   589   590   591
592   593   594   595
596   597   598   599
600   601   602   603
604   605   606   607
608   609   610   611
612   613   614   615
616   617   618   619
620   621   622   623
624   625   626   627
628   629   630   631
632   633   634   635
636   637   638   639
640   641   642   643
644   645   646   647
648   649   650   651
652   653   654   655
656   657   658   659
660   661   662   663
664   665   666   667
668   669   670   671
672   673   674   675
676   677   678   679
680   681   682   683
684   685   686   687
688   689   690   691
692   693   694   695
696   697   698   699
700   701   702   703
704   705   706   707
708   709   710   711
712   713   714   715
716   717   718   719
720   721   722   723
724   725   726   727
728   729   730   731
732   733   734   735
736   737   738   739
740   741   742   743
744   745   746   747
748   749   750   751
752   753   754   755
756   757   758   759
760   761   762   763
764   765   766   767
768   769   770   771
772   773   774   775
776   777   778   779
780   781   782   783
784   785   786   787
788   789   790   791
792   793   794   795
796   797   798   799
800   801   802   803
804   805   806   807
808   809   810   811
812   813   814   815
816   817   818   819
820   821   822   823
824   825   826   827
828   829   830   831
832   833   834   835
836   837   838   839
840   841   842   843
844   845   846   847
848   849   850   851
852   853   854   855
856   857   858   859
860   861   862   863
864   865   866   867
868   869   870   871
872   873   874   875
876   877   878   879
880   881   882   883
884   885   886   887
888   889   890   891
892   893   894   895
896   897   898   899
900   901   902   903
904   905   906   907
908   909   910   911
912   913   914   915
916   917   918   919
920   921   922   923
924   925   926   927
928   929   930   931
932   933   934   935
936   937   938   939
940   941   942   943
944   945   946   947
948   949   950   951
952   953   954   955
956   957   958   959
960   961   962   963
964   965   966   967
968   969   970   971
972   973   974   975
976   977   978   979
980   981   982   983
984   985   986   987
988   989   990   991
992   993   994   995
996   997   998   999
1000   1001   1002   1003
1004   1005   1006   1007
1008   1009   1010   1011
1012   1013   1014   1015
1016   1017   1018   1019
1020   1021   1022   1023
1024   1025   1026   1027
1028   1029   1030   1031
1032   1033   1034   1035
1036   1037   1038   1039
1040   1041   1042   1043
1044   1045   1046   1047
1048   1049   1050   1051
1052   1053   1054   1055
1056   1057   1058   1059
1060   1061   1062   1063
1064   1065   1066   1067
1068   1069   1070   1071
1072   1073   1074   1075
1076   1077   1078   1079
1080   1081   1082   1083
1084   1085   1086   1087
1088   1089   1090   1091
1092   1093   1094   1095
1096   1097   1098   1099
1100   1101   1102   1103
1104   1105   1106   1107
1108   1109   1110   1111
1112   1113   1114   1115
1116   1117   1118   1119
1120   1121   1122   1123
1124   1125   1126   1127
1128   1129   1130   1131
1132   1133   1134   1135
1136   1137   1138   1139
1140   1141   1142   1143
1144   1145   1146   1147
1148   1149   1150   1151
1152   1153   1154   1155
1156   1157   1158   1159
1160   1161   1162   1163
1164   1165   1166   1167
1168   1169   1170   1171
1172   1173   1174   1175
1176   1177   1178   1179
1180   1181   1182   1183
1184   1185   1186   1187
1188   1189   1190   1191
1192   1193   1194   1195
1196   1197   1198   1199
1200   1201   1202   1203
1204   1205   1206   1207
1208   1209   1210   1211
1212   1213   1214   1215
1216   1217   1218   1219
1220   1221   1222   1223
1224   1225   1226   1227
1228   1229   1230   1231
1232   1233   1234   1235
1236   1237   1238   1239
1240   1241   1242   1243
1244   1245   1246   1247
1248   1249   1250   1251
1252   1253   1254   1255
1256   1257   1258   1259
1260   1261   1262   1263
1264   1265   1266   1267
1268   1269   1270   1271
1272   1273   1274   1275
1276   1277   1278   1279
1280   1281   1282   1283
1284   1285   1286   1287
1288   1289   1290   1291
1292   1293   1294   1295
1296   1297   1298   1299
1300   1301   1302   1303
1304   1305   1306   1307
1308   1309   1310   1311
1312   1313   1314   1315
1316   1317   1318   1319
1320   1321   1322   1323
1324   1325   1326   1327
1328   1329   1330   1331
1332   1333   1334   1335
1336   1337   1338   1339
1340   1341   1342   1343
1344   1345   1346   1347
1348   1349   1350   1351
1352   1353   1354   1355
1356   1357   1358   1359
1360   1361   1362   1363
1364   1365   1366   1367
1368   1369   1370   1371
1372   1373   1374   1375
1376   1377   1378   1379
1380   1381   1382   1383
1384   1385   1386   1387
1388   1389   1390   1391
1392   1393   1394   1395
1396   1397   1398   1399
1400   1401   1402   1403
1404   1405   1406   1407
1408   1409   1410   1411
1412   1413   1414   1415
1416   1417   1418   1419
1420   1421   1422   1423
1424   1425   1426   1427
1428   1429   1430   1431
1432   1433   1434   1435
1436   1437   1438   1439
1440   1441   1442   1443
1444   1445   1446   1447
1448   1449   1450   1451
1452   1453   1454   1455
1456   1457   1458   1459
1460   1461   1462   1463
1464   1465   1466   1467
1468   1469   1470   1471
1472   1473   1474   1475
1476   1477   1478   1479
1480   1481   1482   1483
1484   1485   1486   1487
1488   1489   1490   1491
1492   1493   1494   1495
1496   1497   1498   1499
1500   1501   1502   1503
1504   1505   1506   1507
1508   1509   1510   1511
1512   1513   1514   1515
1516   1517   1518   1519
1520   1521   1522   1523
1524   1525   1526   1527
1528   1529   1530   1531
1532   1533   1534   1535
1536   1537   1538   1539
1540   1541   1542   1543
1544   1545   1546   1547
1548   1549   1550   1551
1552   1553   1554   1555
1556   1557   1558   1559
1560   1561   1562   1563
1564   1565   1566   1567
1568   1569   1570   1571
1572   1573   1574   1575
1576   1577   1578   1579
1580   1581   1582   1583
1584   1585   1586   1587
1588   1589   1590   1591
1592   1593   1594   1595
1596   1597   1598   1599
1600   1601   1602   1603
1604   1605   1606   1607
1608   1609   1610   1611
1612   1613   1614   1615
1616   1617   1618   1619
1620   1621   1622   1623
1624   1625   1626   1627
1628   1629   1630   1631
1632   1633   1634   1635
1636   1637   1638   1639
1640   1641   1642   1643
1644   1645   1646   1647
1648   1649   1650   1651
1652   1653   1654   1655
1656   1657   1658   1659
1660   1661   1662   1663
1664   1665   1666   1667
1668   1669   1670   1671
1672   1673   1674   1675
1676   1677   1678   1679
1680   1681   1682   1683
1684   1685   1686   1687
1688   1689   1690   1691
1692   1693   1694   1695
1696   1697   1698   1699
1700   1701   1702   1703
1704   1705   1706   1707
1708   1709   1710   1711
1712   1713   1714   1715
1716   1717   1718   1719
1720   1721   1722   1723
1724   1725   1726   1727
1728   1729   1730   1731
1732   1733   1734   1735
1736   1737   1738   1739
1740   1741   1742   1743
1744   1745   1746   1747
1748   1749   1750   1751
1752   1753   1754   1755
1756   1757   1758   1759
1760   1761   1762   1763
1764   1765   1766   1767
1768   1769   1770   1771
1772   1773   1774   1775
1776   1777   1778   1779
1780   1781   1782   1783
1784   1785   1786   1787
1788   1789   1790   1791
1792   1793   1794   1795
1796   1797   1798   1799
1800   1801   1802   1803
1804   1805   1806   1807
1808   1809   1810   1811
1812   1813   1814   1815
1816   1817   1818   1819
1820   1821   1822   1823
1824   1825   1826   1827
1828   1829   1830   1831
1832   1833   1834   1835
1836   1837   1838   1839
1840   1841   1842   1843
1844   1845   1846   1847
1848   1849   1850   1851
1852   1853   1854   1855
1856   1857   1858   1859
1860   1861   1862   1863
1864   1865   1866   1867
1868   1869   1870   1871
1872   1873   1874   1875
1876   1877   1878   1879
1880   1881   1882   1883
1884   1885   1886   1887
1888   1889   1890   1891
1892   1893   1894   1895
1896   1897   1898   1899
1900   1901   1902   1903
1904   1905   1906   1907
1908   1909   1910   1911
1912   1913   1914   1915
1916   1917   1918   1919
1920   1921   1922   1923
1924   1925   1926   1927
1928   1929   1930   1931
1932   1933   1934   1935
1936   1937   1938   1939
1940   1941   1942   1943
1944   1945   1946   1947
1948   1949   1950   1951
1952   1953   1954   1955
1956   1957   1958   1959
1960   1961   1962   1963
1964   1965   1966   1967
1968   1969   1970   1971
1972   1973   1974   1975
1976   1977   1978   1979
1980   1981   1982   1983
1984   1985   1986   1987
1988   1989   1990   1991
1992   1993   1994   1995
1996   1997   1998   1999
2000   2001   2002   2003
2004   2005   2006   2007
2008   2009   2010   2011
2012   2013   2014   2015
2016   2017   2018   2019
2020   2021   2022   2023
2024   2025   2026   2027
2028   2029   2030   2031
2032   2033   2034   2035
2036   2037   2038   2039
2040   2041   2042   2043
2044   2045   2046   2047
2048   2049   2050   2051
2052   2053   2054   2055
2056   2057   2058   2059
2060   2061   2062   2063
2064   2065   2066   2067
2068   2069   2070   2071
2072   2073   2074   2075
2076   2077   2078   2079
2080   2081   2082   2083
2084   2085   2086   2087
2088   2089   2090   2091
2092   2093   2094   2095
2096   2097   2098   2099
2100   2101   2102   2103
2104   2105   2106   2107
2108   2109   2110   2111
2112   2113   2114   2115
2116   2117   2118   2119
2120   2121   2122   2123
2124   2125   2126   2127
2128   2129   2130   2131
2132   2133   2134   2135
2136   2137   2138   2139
2140   2141   2142   2143
2144   2145   2146   2147
2148   2149   2150   2151
2152   2153   2154   2155
2156   2157   2158   2159
2160   2161   2162   2163
2164   2165   2166   2167
2168   2169   2170   2171
2172   2173   2174   2175
2176   2177   2178   2179
2180   2181   2182   2183
2184   2185   2186   2187
2188   2189   2190   2191
2192   2193   2194   2195
2196   2197   2198   2199
2200   2201   2202   2203
2204   2205   2206   2207
2208   2209   2210   2211
2212   2213   2214   2215
2216   2217   2218   2219
2220   2221   2222   2223
2224   2225   2226   2227
2228   2229   2230   2231
2232   2233   2234   2235
2236   2237   2238   2239
2240   2241   2242   2243
2244   2245   2246   2247
2248   2249   2250   2251
2252   2253   2254   2255
2256   2257   2258   2259
2260   2261   2262   2263
2264   2265   2266   2267
2268   2269   2270   2271
2272   2273   2274   2275
2276   2277   2278   2279
2280   2281   2282   2283
2284   2285   2286   2287
2288   2289   2290   2291
2292   2293   2294   2295
2296   2297   2298   2299
2300   2301   2302   2303
2304   2305   2306   2307
2308   2309   2310   2311
2312   2313   2314   2315
2316   2317   2318   2319
2320   2321   2322   2323
2324   2325   2326   2327
2328   2329   2330   2331
2332   2333   2334   2335
2336   2337   2338   2339
2340   2341   2342   2343
2344   2345   2346   2347
2348   2349   2350   2351
2352   2353   2354   2355
2356   2357   2358   2359
2360   2361   2362   2363
2364   2365   2366   2367
2368   2369   2370   2371
2372   2373   2374   2375
2376   2377   2378   2379
2380   2381   2382   2383
2384   2385   2386   2387
2388   2389   2390   2391
2392   2393   2394   2395
2396   2397   2398   2399
2400   2401   2402   2403
2404   2405   2406   2407
2408   2409   2410   2411
2412   2413   2414   2415
2416   2417   2418   2419
2420   2421   2422   2423
2424   2425   2426   2427
2428   2429   2430   2431
2432   2433   2434   2435
2436   2437   2438   2439
2440   2441   2442   2443
2444   2445   2446   2447
2448   2449   2450   2451
2452   2453   2454   2455
2456   2457   2458   2459
2460   2461   2462   2463
2464   2465   2466   2467
2468   2469   2470   2471
2472   2473   2474   2475
2476   2477   2478   2479
2480   2481   2482   2483
2484   2485   2486   2487
2488   2489   2490   2491
2492   2493   2494   2495
2496   2497   2498   2499
2500   2501   2502   2503
2504   2505   2506   2507
2508   2509   2510   2511
2512   2513   2514   2515
2516   2517   2518   2519
2520   2521   2522   2523
2524   2525   2526   2527
2528   2529   2530   2531
2532   2533   2534   2535
2536   2537   2538   2539
2540   2541   2542   2543
2544   2545   2546   2547
2548   2549   2550   2551
2552   2553   2554   2555
2556   2557   2558   2559
2560   2561   2562   2563
2564   2565   2566   2567
2568   2569   2570   2571
2572   2573   2574   2575
2576   2577   2578   2579
2580   2581   2582   2583
2584   2585   2586   2587
2588   2589   2590   2591
2592   2593   2594   2595
2596   2597   2598   2599
2600   2601   2602   2603
2604   2605   2606   2607
2608   2609   2610   2611
2612   2613   2614   2615
2616   2617   2618   2619
2620   2621   2622   2623
2624   2625   2626   2627
2628   2629   2630   2631
2632   2633   2634   2635
2636   2637   2638   2639
2640   2641   2642   2643
2644   2645   2646   2647
2648   2649   2650   2651
2652   2653   2654   2655
2656   2657   2658   2659
2660   2661   2662   2663
2664   2665   2666   2667
2668   2669   2670   2671
2672   2673   2674   2675
2676   2677   2678   2679
2680   2681   2682   2683
2684   2685   2686   2687
2688   2689   2690   2691
2692   2693   2694   2695
2696   2697   2698   2699
2700   2701   2702   2703
2704   2705   2706   2707
2708   2709   2710   2711
2712   2713   2714   2715
2716   2717   2718   2719
2720   2721   2722   2723
2724   2725   2726   2727
2728   2729   2730   2731
2732   2733   2734   2735
2736   2737   2738   2739
2740   2741   2742   2743
2744   2745   2746   2747
2748   2749   2750   2751
2752   2753   2754   2755
2756   2757   2758   2759
2760   2761   2762   2763
2764   2765   2766   2767
2768   2769   2770   2771
2772   2773   2774   2775
2776   2777   2778   2779
2780   2781   2782   2783
2784   2785   2786   2787
2788   2789   2790   2791
2792   2793   2794   2795
2796   2797   2798   2799
2800   2801   2802   2803
2804   2805   2806   2807
2808   2809   2810   2811
2812   2813   2814   2815
2816   2817   2818   2819
2820   2821   2822   2823
2824   2825   2826   2827
2828   2829   2830   2831
2832   2833   2834   2835
2836   2837   2838   2839
2840   2841   2842   2843
2844   2845   2846   2847
2848   2849   2850   2851
2852   2853   2854   2855
2856   2857   2858   2859
2860   2861   2862   2863
2864   2865   2866   2867
2868   2869   2870   2871
2872   2873   2874   2875
2876   2877   2878   2879
2880   2881   2882   2883
2884   2885   2886   2887
2888   2889   2890   2891
2892   2893   2894   2895
2896   2897   2898   2899
2900   2901   2902   2903
2904   2905   2906   2907
2908   2909   2910   2911
2912   2913   2914   2915
2916   2917   2918   2919
2920   2921   2922   2923
2924   2925   2926   2927
2928   2929   2930   2931
2932   2933   2934   2935
2936   2937   2938   2939
2940   2941   2942   2943
2944   2945   2946   2947
2948   2949   2950   2951
2952   2953   2954   2955
2956   2957   2958   2959
2960   2961   2962   2963
2964   2965   2966   2967
2968   2969   2970   2971
2972   2973   2974   2975
2976   2977   2978   2979
2980   2981   2982   2983
2984   2985   2986   2987
2988   2989   2990   2991
2992   2993   2994   2995
2996   2997   2998   2999
3000   3001   3002   3003
3004   3005   3006   3007
3008   3009   3010   3011
3012   3013   3014   3015
3016   3017   3018   3019
3020   3021   3022   3023
3024   3025   3026   3027
3028   3029   3030   3031
3032   3033   3034   3035
3036   3037   3038   3039
3040   3041   3042   3043
3044   3045   3046   3047
3048   3049   3050   3051
3052   3053   3054   3055
3056   3057   3058   3059
3060   3061   3062   3063
3064   3065   3066   3067
3068   3069   3070   3071
3072   3073   3074   3075
3076   3077   3078   3079
3080   3081   3082   3083
3084   3085   3086   3087
3088   3089   3090   3091
3092   3093   3094   3095
3096   3097   3098   3099
3100   3101   3102   3103
3104   3105   3106   3107
3108   3109   3110   3111
3112   3113   3114   3115
3116   3117   3118   3119
3120   3121   3122   3123
3124   3125   3126   3127
3128   3129   3130   3131
3132   3133   3134   3135
3136   3137   3138   3139
3140   3141   3142   3143
3144   3145   3146   3147
3148   3149   3150   3151
3152   3153   3154   3155
3156   3157   3158   3159
3160   3161   3162   3163
3164   3165   3166   3167
3168   3169   3170   3171
3172   3173   3174   3175
3176   3177   3178   3179
3180   3181   3182   3183
3184   3185   3186   3187
3188   3189   3190   3191
3192   3193   3194   3195
3196   3197   3198   3199
3200   3201   3202   3203
3204   3205   3206   3207
3208   3209   3210   3211
3212   3213   3214   3215
3216   3217   3218   3219
3220   3221   3222   3223
3224   3225   3226   3227
3228   3229   3230   3231
3232   3233   3234   3235
3236   3237   3238   3239
3240   3241   3242   3243
3244   3245   3246   3247
3248   3249   3250   3251
3252   3253   3254   3255
3256   3257   3258   3259
3260   3261   3262   3263
3264   3265   3266   3267
3268   3269   3270   3271
3272   3273   3274   3275
3276   3277   3278   3279
3280   3281   3282   3283
3284   3285   3286   3287
3288   3289   3290   3291
3292   3293   3294   3295
3296   3297   3298   3299
3300   3301   3302   3303
3304   3305   3306   3307
3308   3309   3310   3311
3312   3313   3314   3315
3316   3317   3318   3319
3320   3321   3322   3323
3324   3325   3326   3327
3328   3329   3330   3331
3332   3333   3334   3335
3336   3337   3338   3339
3340   3341   3342   3343
3344   3345   3346   3347
3348   3349   3350   3351
3352   3353   3354   3355
3356   3357   3358   3359
3360   3361   3362   3363
3364   3365   3366   3367
3368   3369   3370   3371
3372   3373   3374   3375
3376   3377   3378   3379
3380   3381   3382   3383
3384   3385   3386   3387
3388   3389   3390   3391
3392   3393   3394   3395
3396   3397   3398   3399
3400   3401   3402   3403
3404   3405   3406   3407
3408   3409   3410   3411
3412   3413   3414   3415
3416   3417   3418   3419
3420   3421   3422   3423
3424   3425   3426   3427
3428   3429   3430   3431
3432   3433   3434   3435
3436   3437   3438   3439
3440   3441   3442   3443
3444   3445   3446   3447
3448   3449   3450   3451
3452   3453   3454   3455
3456   3457   3458   3459
3460   3461   3462   3463
3464   3465   3466   3467
3468   3469   3470   3471
3472   3473   3474   3475
3476   3477   3478   3479
3480   3481   3482   3483
3484   3485   3486   3487
3488   3489   3490   3491
3492   3493   3494   3495
3496   3497   3498   3499
3500   3501   3502   3503
3504   3505   3506   3507
3508   3509   3510   3511
3512   3513   3514   3515
3516   3517   3518   3519
3520   3521   3522   3523
3524   3525   3526   3527
3528   3529   3530   3531
3532   3533   3534   3535
3536   3537   3538   3539
3540   3541   3542   3543
3544   3545   3546   3547
3548   3549   3550   3551
3552   3553   3554   3555
3556   3557   3558   3559
3560   3561   3562   3563
3564   3565   3566   3567
3568   3569   3570   3571
3572   3573   3574   3575
3576   3577   3578   3579
3580   3581   3582   3583
3584   3585   3586   3587
3588   3589   3590   3591
3592   3593   3594   3595
3596   3597   3598   3599
3600   3601   3602   3603
3604   3605   3606   3607
3608   3609   3610   3611
3612   3613   3614   3615
3616   3617   3618   3619
3620   3621   3622   3623
3624   3625   3626   3627
3628   3629   3630   3631
3632   3633   3634   3635
3636   3637   3638   3639
3640   3641   3642   3643
3644   3645   3646   3647
3648   3649   3650   3651
3652   3653   3654   3655
3656   3657   3658   3659
3660   3661   3662   3663
3664   3665   3666   3667
3668   3669   3670   3671
3672   3673   3674   3675
3676   3677   3678   3679
3680   3681   3682   3683
3684   3685   3686   3687
3688   3689   3690   3691
3692   3693   3694   3695
3696   3697   3698   3699
3700   3701   3702   3703
3704   3705   3706   3707
3708   3709   3710   3711
3712   3713   3714   3715
3716   3717   3718   3719
3720   3721   3722   3723
3724   3725   3726   3727
3728   3729   3730   3731
3732   3733   3734   3735
3736   3737   3738   3739
3740   3741   3742   3743
3744   3745   3746   3747
3748   3749   3750   3751
3752   3753   3754   3755
3756   3757   3758   3759
3760   3761   3762   3763
3764   3765   3766   3767
3768   3769   3770   3771
3772   3773   3774   3775
3776   3777   3778   3779
3780   3781   3782   3783
3784   3785   3786   3787
3788   3789   3790   3791
3792   3793   3794   3795
3796   3797   3798   3799
3800   3801   3802   3803
3804   3805   3806   3807
3808   3809   3810   3811
3812   3813   3814   3815
3816   3817   3818   3819
3820   3821   3822   3823
3824   3825   3826   3827
3828   3829   3830   3831
3832   3833   3834   3835
3836   3837   3838   3839
3840   3841   3842   3843
3844   3845   3846   3847
3848   3849   3850   3851
3852   3853   3854   3855
3856   3857   3858   3859
3860   3861   3862   3863
3864   3865   3866   3867
3868   3869   3870   3871
3872   3873   3874   3875
3876   3877   3878   3879
3880   3881   3882   3883
3884   3885   3886   3887
3888   3889   3890   3891
3892   3893   3894   3895
3896   3897   3898   3899
3900   3901   3902   3903
3904   3905   3906   3907
3908   3909   3910   3911
3912   3913   3914   3915
3916   3917   3918   3919
3920   3921   3922   3923
3924   3925   3926   3927
3928   3929   3930   3931
3932   3933   3934   3935
3936   3937   3938   3939
3940   3941   3942   3943
3944   3945   3946   3947
3948   3949   3950   3951
3952   3953   3954   3955
3956   3957   3958   3959
3960   3961   3962   3963
3964   3965   3966   3967
3968   3969   3970   3971
3972   3973   3974   3975
3976   3977   3978   3979
3980   3981   3982   3983
3984   3985   3986   3987
3988   3989   3990   3991
3992   3993   3994   3995
3996   3997   3998   3999
4000   4001   4002   4003
4004   4005   4006   4007
4008   4009   4010   4011
4012   4013   4014   4015
4016   4017   4018   4019
4020   4021   4022   4023
4024   4025   4026   4027
4028   4029   4030   4031
4032   4033   4034   4035
4036   4037   4038   4039
4040   4041   4042   4043
4044   4045   4046   4047
4048   4049   4050   4051
4052   4053   4054   4055
4056   4057   4058   4059
4060   4061   4062   4063
4064   4065   4066   4067
4068   4069   4070   4071
4072   4073   4074   4075
4076   4077   4078   4079
4080   4081   4082   4083
4084   4085   4086   4087
4088   4089   4090   4091
4092   4093   4094   4095
4096   4097   4098   4099
4100   4101   4102   4103
4104   4105   4106   4107
4108   4109   4110   4111
4112   4113   4114   4115
4116   4117   4118   4119
4120   4121   4122   4123
4124   4125   4126   4127
4128   4129   4130   4131
4132   4133   4134   4135
4136   4137   4138   4139
4140   4141   4142   4143
4144   4145   4146   4147
4148   4149   4150   4151
4152   4153   4154   4155
4156   4157   4158   4159
4160   4161   4162   4163
4164   4165   4166   4167
4168   4169   4170   4171
4172   4173   4174   4175
4176   4177   4178   4179
4180   4181   4182   4183
4184   4185   4186   4187
4188   4189   4190   4191
4192   4193   4194   4195
4196   4197   4198   4199
4200   4201   4202   4203
4204   4205   4206   4207
4208   4209   4210   4211
4212   4213   4214   4215
4216   4217   4218   4219
4220   4221   4222   4223
4224   4225   4226   4227
4228   4229   4230   4231
4232   4233   4234   4235
4236   4237   4238   4239
4240   4241   4242   4243
4244   4245   4246   4247
4248   4249   4250   4251
4252   4253   4254   4255
4256   4257   4258   4259
4260   4261   4262   4263
4264   4265   4266   4267
4268   4269   4270   4271
4272   4273   4274   4275
4276   4277   4278   4279
4280   4281   4282   4283
4284   4285   4286   4287
4288   4289   4290   4291
4292   4293   4294   4295
4296   4297   4298   4299
4300   4301   4302   4303
4304   4305   4306   4307
4308   4309   4310   4311
4312   4313   4314   4315
4316   4317   4318   4319
4320   4321   4322   4323
4324   4325   4326   4327
4328   4329   4330   4331
4332   4333   4334   4335
4336   4337   4338   4339
4340   4341   4342   4343
4344   4345   4346   4347
4348   4349   4350   4351
4352   4353   4354   4355
4356   4357   4358   4359
4360   4361   4362   4363
4364   4365   4366   4367
4368   4369   4370   4371
4372   4373   4374   4375
4376   4377   4378   4379
4380   4381   4382   4383
4384   4385   4386   4387
4388   4389   4390   4391
4392   4393   4394   4395
4396   4397   4398   4399
4400   4401   4402   4403
4404   4405   4406   4407
4408   4409   4410   4411
4412   4413   4414   4415
4416   4417   4418   4419
4420   4421   4422   4423
4424   4425   4426   4427
4428   4429   4430   4431
4432   4433   4434   4435
4436   4437   4438   4439
4440   4441   4442   4443
4444   4445   4446   4447
4448   4449   4450   4451
4452   4453   4454   4455
4456   4457   4458   4459
4460   4461   4462   4463
4464   4465   4466   4467
4468   4469   4470   4471
4472   4473   4474   4475
4476   4477   4478   4479
4480   4481   4482   4483
4484   4485   4486   4487
4488   4489   4490   4491
4492   4493   4494   4495
4496   4497   4498   4499
4500   4501   4502   4503
4504   4505   4506   4507
4508   4509   4510   4511
4512   4513   4514   4515
4516   4517   4518   4519
4520   4521   4522   4523
4524   4525   4526   4527
4528   4529   4530   4531
4532   4533   4534   4535
4536   4537   4538   4539
4540   4541   4542   4543
4544   4545   4546   4547
4548   4549   4550   4551
4552   4553   4554   4555
4556   4557   4558   4559
4560   4561   4562   4563
4564   4565   4566   4567
4568   4569   4570   4571
4572   4573   4574   4575
4576   4577   4578   4579
4580   4581   4582   4583
4584   4585   4586   4587
4588   4589   4590   4591
4592   4593   4594   4595
4596   4597   4598   4599
4600   4601   4602   4603
4604   4605   4606   4607
4608   4609   4610   4611
4612   4613   4614   4615
4616   4617   4618   4619
4620   4621   4622   4623
4624   4625   4626   4627
4628   4629   4630   4631
4632   4633   4634   4635
4636   4637   4638   4639
4640   4641   4642   4643
4644   4645   4646   4647
4648   4649   4650   4651
4652   4653   4654   4655
4656   4657   4658   4659
4660   4661   4662   4663
4664   4665   4666   4667
4668   4669   4670   4671
4672   4673   4674   4675
4676   4677   4678   4679
4680   4681   4682   4683
4684   4685   4686   4687
4688   4689   4690   4691
4692   4693   4694   4695
4696   4697   4698   4699
4700   4701   4702   4703
4704   4705   4706   4707
4708   4709   4710   4711
4712   4713   4714   4715
4716   4717   4718   4719
4720   4721   4722   4723
4724   4725   4726   4727
4728   4729   4730   4731
4732   4733   4734   4735
4736   4737   4738   4739
4740   4741   4742   4743
4744   4745   4746   4747
4748   4749   4750   4751
4752   4753   4754   4755
4756   4757   4758   4759
4760   4761   4762   4763
4764   4765   4766   4767
4768   4769   4770   4771
4772   4773   4774   4775
4776   4777   4778   4779
4780   4781   4782   4783
4784   4785   4786   4787
4788   4789   4790   4791
4792   4793   4794   4795
4796   4797   4798   4799
4800   4801   4802   4803
4804   4805   4806   4807
4808   4809   4810   4811
4812   4813   4814   4815
4816   4817   4818   4819
4820   4821   4822   4823
4824   4825   4826   4827
4828   4829   4830   4831
4832   4833   4834   4835
4836   4837   4838   4839
4840   4841   4842   4843
4844   4845   4846   4847
4848   4849   4850   4851
4852   4853   4854   4855
4856   4857   4858   4859
4860   4861   4862   4863
4864   4865   4866   4867
4868   4869   4870   4871
4872   4873   4874   4875
4876   4877   4878   4879
4880   4881   4882   4883
4884   4885   4886   4887
4888   4889   4890   4891
4892   4893   4894   4895
4896   4897   4898   4899
4900   4901   4902   4903
4904   4905   4906   4907
4908   4909   4910   4911
4912   4913   4914   4915
4916   4917   4918   4919
4920   4921   4922   4923
4924   4925   4926   4927
4928   4929   4930   4931
4932   4933   4934   4935
4936   4937   4938   4939
4940   4941   4942   4943
4944   4945   4946   4947
4948   4949   4950   4951
4952   4953   4954   4955
4956   4957   4958   4959
4960   4961   4962   4963
4964   4965   4966   4967
4968   4969   4970   4971
4972   4973   4974   4975
4976   4977   4978   4979
4980   4981   4982   4983
4984   4985   4986   4987
4988   4989   4990   4991
4992   4993   4994   4995
4996   4997   4998   4999
5000   5001   5002   5003
5004   5005   5006   5007
5008   5009   5010   5011
5012   5013   5014   5015
5016   5017   5018   5019
5020   5021   5022   5023
5024   5025   5026   5027
5028   5029   5030   5031
5032   5033   5034   5035
5036   5037   5038   5039
5040   5041   5042   5043
5044   5045   5046   5047
5048   5049   5050   5051
5052   5053   5054   5055
5056   5057   5058   5059
5060   5061   5062   5063
5064   5065   5066   5067
5068   5069   5070   5071
5072   5073   5074   5075
5076   5077   5078   5079
5080   5081   5082   5083
5084   5085   5086   5087
5088   5089   5090   5091
5092   5093   5094   5095
5096   5097   5098   5099
5100   5101   5102   5103
5104   5105   5106   5107
5108   5109   5110   5111
5112   5113   5114   5115
5116   5117   5118   5119
5120   5121   5122   5123
5124   5125   5126   5127
5128   5129   5130   5131
5132   5133   5134   5135
5136   5137   5138   5139
5140   5141   5142   5143
5144   5145   5146   5147
5148   5149   5150   5151
5152   5153   5154   5155
5156   5157   5158   5159
5160   5161   5162   5163
5164   5165   5166   5167
5168   5169   5170   5171
5172   5173   5174   5175
5176   5177   5178   5179
5180   5181   5182   5183
5184   5185   5186   5187
5188   5189   5190   5191
5192   5193   5194   5195
5196   5197   5198   5199
5200   5201   5202   5203
5204   5205   5206   5207
5208   5209   5210   5211
5212   5213   5214   5215
5216   5217   5218   5219
5220   5221   5222   5223
5224   5225   5226   5227
5228   5229   5230   5231
5232   5233   5234   5235
5236   5237   5238   5239
5240   5241   5242   5243
5244   5245   5246   5247
5248   5249   5250   5251
5252   5253   5254   5255
5256   5257   5258   5259
5260   5261   5262   5263
5264   5265   5266   5267
5268   5269   5270   5271
5272   5273   5274   5275
5276   5277   5278   5279
5280   5281   5282   5283
5284   5285   5286   5287
5288   5289   5290   5291
5292   5293   5294   5295
5296   5297   5298   5299
5300   5301   5302   5303
5304   5305   5306   5307
5308   5309   5310   5311
5312   5313   5314   5315
5316   5317   5318   5319
5320   5321   5322   5323
5324   5325   5326   5327
5328   5329   5330   5331
5332   5333   5334   5335
5336   5337   5338   5339
5340   5341   5342   5343
5344   5345   5346   5347
5348   5349   5350   5351
5352   5353   5354   5355
5356   5357   5358   5359
5360   5361   5362   5363
5364   5365   5366   5367
5368   5369   5370   5371
5372   5373   5374   5375
5376   5377   5378   5379
5380   5381   5382   5383
5384   5385   5386   5387
5388   5389   5390   5391
5392   5393   5394   5395
5396   5397   5398   5399
5400   5401   5402   5403
5404   5405   5406   5407
5408   5409   5410   5411
5412   5413   5414   5415
5416   5417   5418   5419
5420   5421   5422   5423
5424   5425   5426   5427
5428   5429   5430   5431
5432   5433   5434   5435
5436   5437   5438   5439
5440   5441   5442   5443
5444   5445   5446   5447
5448   5449   5450   5451
5452   5453   5454   5455
5456   5457   5458   5459
5460   5461   5462   5463
5464   5465   5466   5467
5468   5469   5470   5471
5472   5473   5474   5475
5476   5477   5478   5479
5480   5481   5482   5483
5484   5485   5486   5487
5488   5489   5490   5491
5492   5493   5494   5495
5496   5497   5498   5499
5500   5501   5502   5503
5504   5505   5506   5507
5508   5509   5510   5511
5512   5513   5514   5515
5516   5517   5518   5519
5520   5521   5522   5523
5524   5525   5526   5527
5528   5529   5530   5531
5532   5533   5534   5535
5536   5537   5538   5539
5540   5541   5542   5543
5544   5545   5546   5547
5548   5549   5550   5551
5552   5553   5554   5555
5556   5557   5558   5559
5560   5561   5562   5563
5564   5565   5566   5567
5568   5569   5570   5571
5572   5573   5574   5575
5576   5577   5578   5579
5580   5581   5582   5583
5584   5585   5586   5587
5588   5589   5590   5591
5592   5593   5594   5595
5596   5597   5598   5599
5600   5601   5602   5603
5604   5605   5606   5607
5608   5609   5610   5611
5612   5613   5614   5615
5616   5617   5618   5619
5620   5621   5622   5623
5624   5625   5626   5627
5628   5629   5630   5631
5632   5633   5634   5635
5636   5637   5638   5639
5640   5641   5642   5643
5644   5645   5646   5647
5648   5649   5650   5651
5652   5653   5654   5655
5656   5657   5658   5659
5660   5661   5662   5663
5664   5665   5666   5667
5668   5669   5670   5671
5672   5673   5674   5675
5676   5677   5678   5679
5680   5681   5682   5683
5684   5685   5686   5687
5688   5689   5690   5691
5692   5693   5694   5695
5696   5697   5698   5699
5700   5701   5702   5703
5704   5705   5706   5707
5708   5709   5710   5711
5712   5713   5714   5715
5716   5717   5718   5719
5720   5721   5722   5723
5724   5725   5726   5727
5728   5729   5730   5731
5732   5733   5734   5735
5736   5737   5738   5739
5740   5741   5742   5743
5744   5745   5746   5747
5748   5749   5750   5751
5752   5753   5754   5755
5756   5757   5758   5759
5760   5761   5762   5763
5764   5765   5766   5767
5768   5769   5770   5771
5772   5773   5774   5775
5776   5777   5778   5779
5780   5781   5782   5783
5784   5785   5786   5787
5788   5789   5790   5791
5792   5793   5794   5795
5796   5797   5798   5799
5800   5801   5802   5803
5804   5805   5806   5807
5808   5809   5810   5811
5812   5813   5814   5815
5816   5817   5818   5819
5820   5821   5822   5823
5824   5825   5826   5827
5828   5829   5830   5831
5832   5833   5834   5835
5836   5837   5838   5839
5840   5841   5842   5843
5844   5845   5846   5847
5848   5849   5850   5851
5852   5853   5854   5855
5856   5857   5858   5859
5860   5861   5862   5863
5864   5865   5866   5867
5868   5869   5870   5871
5872   5873   5874   5875
5876   5877   5878   5879
5880   5881   5882   5883
5884   5885   5886   5887
5888   5889   5890   5891
5892   5893   5894   5895
5896   5897   5898   5899
5900   5901   5902   5903
5904   5905   5906   5907
5908   5909   5910   5911
5912   5913   5914   5915
5916   5917   5918   5919
5920   5921   5922   5923
5924   5925   5926   5927
5928   5929   5930   5931
5932   5933   5934   5935
5936   5937   5938   5939
5940   5941   5942   5943
5944   5945   5946   5947
5948   5949   5950   5951
5952   5953   5954   5955
5956   5957   5958   5959
5960   5961   5962   5963
5964   5965   5966   5967
5968   5969   5970   5971
5972   5973   5974   5975
5976   5977   5978   5979
5980   5981   5982   5983
5984   5985   5986   5987
5988   5989   5990   5991
5992   5993   5994   5995
5996   5997   5998   5999
              </DataArray>   
              <DataArray type="Int32" Name="offsets" format="ascii">   
4
8
12
16
20
24
28
32
36
40
44
48
52
56
60
64
68
72
76
80
84
88
92
96
100
104
108
112
116
120
124
128
132
136
140
144
148
152
156
160
164
168
172
176
180
184
188
192
196
200
204
208
212
216
220
224
228
232
236
240
244
248
252
256
260
264
268
272
276
280
284
288
292
296
300
304
308
312
316
320
324
328
332
336
340
344
348
352
356
360
364
368
372
376
380
384
388
392
396
400
404
408
412
416
420
424
428
432
436
440
444
448
452
456
460
464
468
472
476
480
484
488
492
496
500
504
508
512
516
520
524
528
532
536
540
544
548
552
556
560
564
568
572
576
580
584
588
592
596
600
604
608
612
616
620
624
628
632
636
640
644
648
652
656
660
664
668
672
676
680
684
688
692
696
700
704
708
712
716
720
724
728
732
736
740
744
748
752
756
760
764
768
772
776
780
784
788
792
796
800
804
808
812
816
820
824
828
832
836
840
844
848
852
856
860
864
868
872
876
880
884
888
892
896
900
904
908
912
916
920
924
928
932
936
940
944
948
952
956
960
964
968
972
976
980
984
988
992
996
1000
1004
1008
1012
1016
1020
1024
1028
1032
1036
1040
1044
1048
1052
1056
1060
1064
1068
1072
1076
1080
1084
1088
1092
1096
1100
1104
1108
1112
1116
1120
1124
1128
1132
1136
1140
1144
1148
1152
1156
1160
1164
1168
1172
1176
1180
1184
1188
1192
1196
1200
1204
1208
1212
1216
1220
1224
1228
1232
1236
1240
1244
1248
1252
1256
1260
1264
1268
1272
1276
1280
1284
1288
1292
1296
1300
1304
1308
1312
1316
1320
1324
1328
1332
1336
1340
1344
1348
1352
1356
1360
1364
1368
1372
1376
1380
1384
1388
1392
1396
1400
1404
1408
1412
1416
1420
1424
1428
1432
1436
1440
1444
1448
1452
1456
1460
1464
1468
1472
1476
1480
1484
1488
1492
1496
1500
1504
1508
1512
1516
1520
1524
1528
1532
1536
1540
1544
1548
1552
1556
1560
1564
1568
1572
1576
1580
1584
1588
1592
1596
1600
1604
1608
1612
1616
1620
1624
1628
1632
1636
1640
1644
1648
1652
1656
1660
1664
1668
1672
1676
1680
1684
1688
1692
1696
1700
1704
1708
1712
1716
1720
1724
1728
1732
1736
1740
1744
1748
1752
1756
1760
1764
1768
1772
1776
1780
1784
1788
1792
1796
1800
1804
1808
1812
1816
1820
1824
1828
1832
1836
1840
1844
1848
1852
1856
1860
1864
1868
1872
1876
1880
1884
1888
1892
1896
1900
1904
1908
1912
1916
1920
1924
1928
1932
1936
1940
1944
1948
1952
1956
1960
1964
1968
1972
1976
1980
1984
1988
1992
1996
2000
2004
2008
2012
2016
2020
2024
2028
2032
2036
2040
2044
2048
2052
2056
2060
2064
2068
2072
2076
2080
2084
2088
2092
2096
2100
2104
2108
2112
2116
2120
2124
2128
2132
2136
2140
2144
2148
2152
2156
2160
2164
2168
2172
2176
2180
2184
2188
2192
2196
2200
2204
2208
2212
2216
2220
2224
2228
2232
2236
2240
2244
2248
2252
2256
2260
2264
2268
2272
2276
2280
2284
2288
2292
2296
2300
2304
2308
2312
2316
2320
2324
2328
2332
2336
2340
2344
2348
2352
2356
2360
2364
2368
2372
2376
2380
2384
2388
2392
2396
2400
2404
2408
2412
2416
2420
2424
2428
2432
2436
2440
2444
2448
2452
2456
2460
2464
2468
2472
2476
2480
2484
2488
2492
2496
2500
2504
2508
2512
2516
2520
2524
2528
2532
2536
2540
2544
2548
2552
2556
2560
2564
2568
2572
2576
2580
2584
2588
2592
2596
2600
2604
2608
2612
2616
2620
2624
2628
2632
2636
2640
2644
2648
2652
2656
2660
2664
2668
2672
2676
2680
2684
2688
2692
2696
2700
2704
2708
2712
2716
2720
2724
2728
2732
2736
2740
2744
2748
2752
2756
2760
2764
2768
2772
2776
2780
2784
2788
2792
2796
2800
2804
2808
2812
2816
2820
2824
2828
2832
2836
2840
2844
2848
2852
2856
2860
2864
2868
2872
2876
2880
2884
2888
2892
2896
2900
2904
2908
2912
2916
2920
2924
2928
2932
2936
2940
2944
2948
2952
2956
2960
2964
2968
2972
2976
2980
2984
2988
2992
2996
3000
3004
3008
3012
3016
3020
3024
3028
3032
3036
3040
3044
3048
3052
3056
3060
3064
3068
3072
3076
3080
3084
3088
3092
3096
3100
3104
3108
3112
3116
3120
3124
3128
3132
3136
3140
3144
3148
3152
3156
3160
3164
3168
3172
3176
3180
3184
3188
3192
3196
3200
3204
3208
3212
3216
3220
3224
3228
3232
3236
3240
3244
3248
3252
3256
3260
3264
3268
3272
3276
3280
3284
3288
3292
3296
3300
3304
3308
3312
3316
3320
3324
3328
3332
3336
3340
3344
3348
3352
3356
3360
3364
3368
3372
3376
3380
3384
3388
3392
3396
3400
3404
3408
3412
3416
3420
3424
3428
3432
3436
3440
3444
3448
3452
3456
3460
3464
3468
3472
3476
3480
3484
3488
3492
3496
3500
3504
3508
3512
3516
3520
3524
3528
3532
3536
3540
3544
3548
3552
3556
3560
3564
3568
3572
3576
3580
3584
3588
3592
3596
3600
3604
3608
3612
3616
3620
3624
3628
3632
3636
3640
3644
3648
3652
3656
3660
3664
3668
3672
3676
3680
3684
3688
3692
3696
3700
3704
3708
3712
3716
3720
3724
3728
3732
3736
3740
3744
3748
3752
3756
3760
3764
3768
3772
3776
3780
3784
3788
3792
3796
3800
3804
3808
3812
3816
3820
3824
3828
3832
3836
3840
3844
3848
3852
3856
3860
3864
3868
3872
3876
3880
3884
3888
3892
3896
3900
3904
3908
3912
3916
3920
3924
3928
3932
3936
3940
3944
3948
3952
3956
3960
3964
3968
3972
3976
3980
3984
3988
3992
3996
4000
4004
4008
4012
4016
4020
4024
4028
4032
4036
4040
4044
4048
4052
4056
4060
4064
4068
4072
4076
4080
4084
4088
4092
4096
4100
4104
4108
4112
4116
4120
4124
4128
4132
4136
4140
4144
4148
4152
4156
4160
4164
4168
4172
4176
4180
4184
4188
4192
4196
4200
4204
4208
4212
4216
4220
4224
4228
4232
4236
4240
4244
4248
4252
4256
4260
4264
4268
4272
4276
4280
4284
4288
4292
4296
4300
4304
4308
4312
4316
4320
4324
4328
4332
4336
4340
4344
4348
4352
4356
4360
4364
4368
4372
4376
4380
4384
4388
4392
4396
4400
4404
4408
4412
4416
4420
4424
4428
4432
4436
4440
4444
4448
4452
4456
4460
4464
4468
4472
4476
4480
4484
4488
4492
4496
4500
4504
4508
4512
4516
4520
4524
4528
4532
4536
4540
4544
4548
4552
4556
4560
4564
4568
4572
4576
4580
4584
4588
4592
4596
4600
4604
4608
4612
4616
4620
4624
4628
4632
4636
4640
4644
4648
4652
4656
4660
4664
4668
4672
4676
4680
4684
4688
4692
4696
4700
4704
4708
4712
4716
4720
4724
4728
4732
4736
4740
4744
4748
4752
4756
4760
4764
4768
4772
4776
4780
4784
4788
4792
4796
4800
4804
4808
4812
4816
4820
4824
4828
4832
4836
4840
4844
4848
4852
4856
4860
4864
4868
4872
4876
4880
4884
4888
4892
4896
4900
4904
4908
4912
4916
4920
4924
4928
4932
4936
4940
4944
4948
4952
4956
4960
4964
4968
4972
4976
4980
4984
4988
4992
4996
5000
5004
5008
5012
5016
5020
5024
5028
5032
5036
5040
5044
5048
5052
5056
5060
5064
5068
5072
5076
5080
5084
5088
5092
5096
5100
5104
5108
5112
5116
5120
5124
5128
5132
5136
5140
5144
5148
5152
5156
5160
5164
5168
5172
5176
5180
5184
5188
5192
5196
5200
5204
5208
5212
5216
5220
5224
5228
5232
5236
5240
5244
5248
5252
5256
5260
5264
5268
5272
5276
5280
5284
5288
5292
5296
5300
5304
5308
5312
5316
5320
5324
5328
5332
5336
5340
5344
5348
5352
5356
5360
5364
5368
5372
5376
5380
5384
5388
5392
5396
5400
5404
5408
5412
5416
5420
5424
5428
5432
5436
5440
5444
5448
5452
5456
5460
5464
5468
5472
5476
5480
5484
5488
5492
5496
5500
5504
5508
5512
5516
5520
5524
5528
5532
5536
5540
5544
5548
5552
5556
5560
5564
5568
5572
5576
5580
5584
5588
5592
5596
5600
5604
5608
5612
5616
5620
5624
5628
5632
5636
5640
5644
5648
5652
5656
5660
5664
5668
5672
5676
5680
5684
5688
5692
5696
5700
5704
5708
5712
5716
5720
5724
5728
5732
5736
5740
5744
5748
5752
5756
5760
5764
5768
5772
5776
5780
5784
5788
5792
5796
5800
5804
5808
5812
5816
5820
5824
5828
5832
5836
5840
5844
5848
5852
5856
5860
5864
5868
5872
5876
5880
5884
5888
5892
5896
5900
5904
5908
5912
5916
5920
5924
5928
5932
5936
5940
5944
5948
5952
5956
5960
5964
5968
5972
5976
5980
5984
5988
5992
5996
6000
              </DataArray>   
              <DataArray type="UInt8" Name="types" format="ascii">   
10
10
10
10
10
10
10
10
10
10
10
10
10
10
10
10
10
10
10
10
10
10
10
10
10
10
10
10
10
10
10
10
10
10
10
10
10
10
10
10
10
10
10
10
10
10
10
10
10
10
10
10
10
10
10
10
10
10
10
10
10
10
10
10
10
10
10
10
10
10
10
10
10
10
10
10
10
10
10
10
10
10
10
10
10
10
10
10
10
10
10
10
10
10
10
10
10
10
10
10
10
10
10
10
10
10
10
10
10
10
10
10
10
10
10
10
10
10
10
10
10
10
10
10
10
10
10
10
10
10
10
10
10
10
10
10
10
10
10
10
10
10
10
10
10
10
10
10
10
10
10
10
10
10
10
10
10
10
10
10
10
10
10
10
10
10
10
10
10
10
10
10
10
10
10
10
10
10
10
10
10
10
10
10
10
10
10
10
10
10
10
10
10
10
10
10
10
10
10
10
10
10
10
10
10
10
10
10
10
10
10
10
10
10
10
10
10
10
10
10
10
10
10
10
10
10
10
10
10
10
10
10
10
10
10
10
10
10
10
10
10
10
10
10
10
10
10
10
10
10
10
10
10
10
10
10
10
10
10
10
10
10
10
10
10
10
10
10
10
10
10
10
10
10
10
10
10
10
10
10
10
10
10
10
10
10
10
10
10
10
10
10
10
10
10
10
10
10
10
10
10
10
10
10
10
10
10
10
10
10
10
10
10
10
10
10
10
10
10
10
10
10
10
10
10
10
10
10
10
10
10
10
10
10
10
10
10
10
10
10
10
10
10
10
10
10
10
10
10
10
10
10
10
10
10
10
10
10
10
10
10
10
10
10
10
10
10
10
10
10
10
10
10
10
10
10
10
10
10
10
10
10
10
10
10
10
10
10
10
10
10
10
10
10
10
10
10
10
10
10
10
10
10
10
10
10
10
10
10
10
10
10
10
10
10
10
10
10
10
10
10
10
10
10
10
10
10
10
10
10
10
10
10
10
10
10
10
10
10
10
10
10
10
10
10
10
10
10
10
10
10
10
10
10
10
10
10
10
10
10
10
10
10
10
10
10
10
10
10
10
10
10
10
10
10
10
10
10
10
10
10
10
10
10
10
10
10
10
10
10
10
10
10
10
10
10
10
10
10
10
10
10
10
10
10
10
10
10
10
10
10
10
10
10
10
10
10
10
10
10
10
10
10
10
10
10
10
10
10
10
10
10
10
10
10
10
10
10
10
10
10
10
10
10
10
10
10
10
10
10
10
10
10
10
10
10
10
10
10
10
10
10
10
10
10
10
10
10
10
10
10
10
10
10
10
10
10
10
10
10
10
10
10
10
10
10
10
10
10
10
10
10
10
10
10
10
10
10
10
10
10
10
10
10
10
10
10
10
10
10
10
10
10
10
10
10
10
10
10
10
10
10
10
10
10
10
10
10
10
10
10
10
10
10
10
10
10
10
10
10
10
10
10
10
10
10
10
10
10
10
10
10
10
10
10
10
10
10
10
10
10
10
10
10
10
10
10
10
10
10
10
10
10
10
10
10
10
10
10
10
10
10
10
10
10
10
10
10
10
10
10
10
10
10
10
10
10
10
10
10
10
10
10
10
10
10
10
10
10
10
10
10
10
10
10
10
10
10
10
10
10
10
10
10
10
10
10
10
10
10
10
10
10
10
10
10
10
10
10
10
10
10
10
10
10
10
10
10
10
10
10
10
10
10
10
10
10
10
10
10
10
10
10
10
10
10
10
10
10
10
10
10
10
10
10
10
10
10
10
10
10
10
10
10
10
10
10
10
10
10
10
10
10
10
10
10
10
10
10
10
10
10
10
10
10
10
10
10
10
10
10
10
10
10
10
10
10
10
10
10
10
10
10
10
10
10
10
10
10
10
10
10
10
10
10
10
10
10
10
10
10
10
10
10
10
10
10
10
10
10
10
10
10
10
10
10
10
10
10
10
10
10
10
10
10
10
10
10
10
10
10
10
10
10
10
10
10
10
10
10
10
10
10
10
10
10
10
10
10
10
10
10
10
10
10
10
10
10
10
10
10
10
10
10
10
10
10
10
10
10
10
10
10
10
10
10
10
10
10
10
10
10
10
10
10
10
10
10
10
10
10
10
10
10
10
10
10
10
10
10
10
10
10
10
10
10
10
10
10
10
10
10
10
10
10
10
10
10
10
10
10
10
10
10
10
10
10
10
10
10
10
10
10
10
10
10
10
10
10
10
10
10
10
10
10
10
10
10
10
10
10
10
10
10
10
10
10
10
10
10
10
10
10
10
10
10
10
10
10
10
10
10
10
10
10
10
10
10
10
10
10
10
10
10
10
10
10
10
10
10
10
10
10
10
10
10
10
10
10
10
10
10
10
10
10
10
10
10
10
10
10
10
10
10
10
10
10
10
10
10
10
10
10
10
10
10
10
10
10
10
10
10
10
10
10
10
10
10
10
10
10
10
10
10
10
10
10
10
10
10
10
10
10
10
10
10
10
10
10
10
10
10
10
10
10
10
10
10
10
10
10
10
10
10
10
10
10
10
10
10
10
10
10
10
10
10
10
10
10
10
10
10
10
10
10
10
10
10
10
10
10
10
10
10
10
10
10
10
10
10
10
10
10
10
10
10
10
10
10
10
10
10
10
10
10
10
10
10
10
10
10
10
10
10
10
10
10
10
10
10
10
10
10
10
10
10
10
10
10
10
10
10
10
10
10
10
10
10
10
10
10
10
10
10
10
10
10
10
10
10
10
10
10
10
10
10
10
10
10
10
10
10
10
10
10
10
10
10
10
10
10
10
10
10
10
10
10
10
10
10
10
10
10
10
10
10
10
10
10
10
10
10
10
10
10
10
10
10
10
10
10
10
10
10
10
10
10
10
10
10
10
10
10
10
10
10
10
10
10
10
10
10
10
10
10
10
10
10
10
10
10
10
10
10
10
10
10
10
10
10
10
10
10
10
10
10
10
10
10
10
10
10
10
10
10
10
10
10
10
10
10
10
10
10
10
10
10
10
10
10
10
10
10
10
10
10
10
10
10
10
10
10
10
10
10
10
10
10
10
10
10
10
10
10
10
10
10
10
10
10
10
10
10
10
10
10
10
10
10
10
10
10
10
10
10
10
10
10
10
10
10
10
10
10
10
10
10
10
10
10
10
10
10
10
10
10
10
10
10
10
10
10
10
10
10
10
10
10
10
10
10
10
10
10
10
10
10
10
10
10
10
10
10
10
10
10
10
10
10
10
10
10
10
10
10
10
10
10
10
10
10
10
10
10
10
10
10
10
10
10
10
10
10
10
10
10
10
10
10
10
10
10
10
10
10
10
10
10
10
10
10
10
10
10
10
10
10
10
10
10
10
10
10
10
10
10
10
10
10
10
10
10
10
10
10
10
10
10
10
10
              </DataArray>   
          </Cells>  
          <PointData>  
             <DataArray type="Float64" NumberOfComponents="3" Name="Strains" format="ascii">   
-0.00012566627725337843   0.0   -8.238872985365834e-05
-0.00012566627725337843   0.0   -8.238872985365834e-05
-0.00012566627725337843   0.0   -8.238872985365834e-05
-0.00012566627725337843   0.0   -8.238872985365834e-05
-7.997242082077998e-05   1.3932860892949892e-05   2.127414069775526e-06
-7.997242082077998e-05   1.3932860892949892e-05   2.127414069775526e-06
-7.997242082077998e-05   1.3932860892949892e-05   2.127414069775526e-06
-7.997242082077998e-05   1.3932860892949892e-05   2.127414069775526e-06
-7.839695842424408e-05   0.0   -7.774734525313703e-05
-7.839695842424408e-05   0.0   -7.774734525313703e-05
-7.839695842424408e-05   0.0   -7.774734525313703e-05
-7.839695842424408e-05   0.0   -7.774734525313703e-05
-0.0001315232909270076   1.6714681082323382e-05   7.677336020751521e-07
-0.0001315232909270076   1.6714681082323382e-05   7.677336020751521e-07
-0.0001315232909270076   1.6714681082323382e-05   7.677336020751521e-07
-0.0001315232909270076   1.6714681082323382e-05   7.677336020751521e-07
-0.00010203161783881108   3.867820500434409e-06   -4.067693852911895e-05
-0.00010203161783881108   3.867820500434409e-06   -4.067693852911895e-05
-0.00010203161783881108   3.867820500434409e-06   -4.067693852911895e-05
-0.00010203161783881108   3.867820500434409e-06   -4.067693852911895e-05
-0.00013152329092700783   0.0   -8.777615390253108e-05
-0.00013152329092700783   0.0   -8.777615390253108e-05
-0.00013152329092700783   0.0   -8.777615390253108e-05
-0.00013152329092700783   0.0   -8.777615390253108e-05
-7.839695842424408e-05   1.671468108232341e-05   1.0796542251469187e-05
-7.839695842424408e-05   1.671468108232341e-05   1.0796542251469187e-05
-7.839695842424408e-05   1.671468108232341e-05   1.0796542251469187e-05
-7.839695842424408e-05   1.671468108232341e-05   1.0796542251469187e-05
-7.862468381292929e-05   0.0   -7.965211219230062e-05
-7.862468381292929e-05   0.0   -7.965211219230062e-05
-7.862468381292929e-05   0.0   -7.965211219230062e-05
-7.862468381292929e-05   0.0   -7.965211219230062e-05
-0.00013563965890356792   1.7905773259718055e-05   4.6293823362665955e-06
-0.00013563965890356792   1.7905773259718055e-05   4.6293823362665955e-06
-0.00013563965890356792   1.7905773259718055e-05   4.6293823362665955e-06
-0.00013563965890356792   1.7905773259718055e-05   4.6293823362665955e-06
-0.00010507398736996838   6.770034758525381e-06   -3.963196045235029e-05
-0.00010507398736996838   6.770034758525381e-06   -3.963196045235029e-05
-0.00010507398736996838   6.770034758525381e-06   -3.963196045235029e-05
-0.00010507398736996838   6.770034758525381e-06   -3.963196045235029e-05
-0.00013563965890356816   0.0   -9.039557614813147e-05
-0.00013563965890356816   0.0   -9.039557614813147e-05
-0.00013563965890356816   0.0   -9.039557614813147e-05
-0.00013563965890356816   0.0   -9.039557614813147e-05
-7.862468381292929e-05   1.7905773259718083e-05   1.5372846292097478e-05
-7.862468381292929e-05   1.7905773259718083e-05   1.5372846292097478e-05
-7.862468381292929e-05   1.7905773259718083e-05   1.5372846292097478e-05
-7.862468381292929e-05   1.7905773259718083e-05   1.5372846292097478e-05
-7.859083316390414e-05   0.0   -8.014051551688157e-05
-7.859083316390414e-05   0.0   -8.014051551688157e-05
-7.859083316390414e-05   0.0   -8.014051551688157e-05
-7.859083316390414e-05   0.0   -8.014051551688157e-05
-0.0001445008679264038   2.0393697999184553e-05   1.747332362110748e-05
-0.0001445008679264038   2.0393697999184553e-05   1.747332362110748e-05
-0.0001445008679264038   2.0393697999184553e-05   1.747332362110748e-05
-0.0001445008679264038   2.0393697999184553e-05   1.747332362110748e-05
-0.00010711524603373597   8.545883859374911e-06   -3.772735771611976e-05
-0.00010711524603373597   8.545883859374911e-06   -3.772735771611976e-05
-0.00010711524603373597   8.545883859374911e-06   -3.772735771611976e-05
-0.00010711524603373597   8.545883859374911e-06   -3.772735771611976e-05
-7.997242082078012e-05   0.0   -7.40290133178884e-05
-7.997242082078012e-05   0.0   -7.40290133178884e-05
-7.997242082078012e-05   0.0   -7.40290133178884e-05
-7.997242082078012e-05   0.0   -7.40290133178884e-05
-3.641220336714332e-05   5.112234174995016e-06   1.6386896098365475e-06
-3.641220336714332e-05   5.112234174995016e-06   1.6386896098365475e-06
-3.641220336714332e-05   5.112234174995016e-06   1.6386896098365475e-06
-3.641220336714332e-05   5.112234174995016e-06   1.6386896098365475e-06
-3.502720595829124e-05   0.0   -7.338266513898981e-05
-3.502720595829124e-05   0.0   -7.338266513898981e-05
-3.502720595829124e-05   0.0   -7.338266513898981e-05
-3.502720595829124e-05   0.0   -7.338266513898981e-05
-7.839695842424408e-05   7.274466856912082e-06   -5.46442447654899e-06
-7.839695842424408e-05   7.274466856912082e-06   -5.46442447654899e-06
-7.839695842424408e-05   7.274466856912082e-06   -5.46442447654899e-06
-7.839695842424408e-05   7.274466856912082e-06   -5.46442447654899e-06
-5.749981338953558e-05   5.386234824154905e-07   -3.625149350969827e-05
-5.749981338953558e-05   5.386234824154905e-07   -3.625149350969827e-05
-5.749981338953558e-05   5.386234824154905e-07   -3.625149350969827e-05
-5.749981338953558e-05   5.386234824154905e-07   -3.625149350969827e-05
-7.839695842424401e-05   0.0   -7.774734525313697e-05
-7.839695842424401e-05   0.0   -7.774734525313697e-05
-7.839695842424401e-05   0.0   -7.774734525313697e-05
-7.839695842424401e-05   0.0   -7.774734525313697e-05
-3.502720595829124e-05   7.274466856912082e-06   -1.0997443624017448e-06
-3.502720595829124e-05   7.274466856912082e-06   -1.0997443624017448e-06
-3.502720595829124e-05   7.274466856912082e-06   -1.0997443624017448e-06
-3.502720595829124e-05   7.274466856912082e-06   -1.0997443624017448e-06
-3.425205980279732e-05   0.0   -7.430518708936502e-05
-3.425205980279732e-05   0.0   -7.430518708936502e-05
-3.425205980279732e-05   0.0   -7.430518708936502e-05
-3.425205980279732e-05   0.0   -7.430518708936502e-05
-7.862468381292929e-05   8.91154183822599e-06   -5.69773884208068e-06
-7.862468381292929e-05   8.91154183822599e-06   -5.69773884208068e-06
-7.862468381292929e-05   8.91154183822599e-06   -5.69773884208068e-06
-7.862468381292929e-05   8.91154183822599e-06   -5.69773884208068e-06
-5.6324509113520586e-05   2.868465136476685e-06   -3.9238850653378594e-05
-5.6324509113520586e-05   2.868465136476685e-06   -3.9238850653378594e-05
-5.6324509113520586e-05   2.868465136476685e-06   -3.9238850653378594e-05
-5.6324509113520586e-05   2.868465136476685e-06   -3.9238850653378594e-05
-7.862468381292929e-05   0.0   -7.965211219230062e-05
-7.862468381292929e-05   0.0   -7.965211219230062e-05
-7.862468381292929e-05   0.0   -7.965211219230062e-05
-7.862468381292929e-05   0.0   -7.965211219230062e-05
-3.425205980279732e-05   8.91154183822599e-06   -3.508137391450926e-07
-3.425205980279732e-05   8.91154183822599e-06   -3.508137391450926e-07
-3.425205980279732e-05   8.91154183822599e-06   -3.508137391450926e-07
-3.425205980279732e-05   8.91154183822599e-06   -3.508137391450926e-07
-3.354732409691525e-05   0.0   -7.391968799240531e-05
-3.354732409691525e-05   0.0   -7.391968799240531e-05
-3.354732409691525e-05   0.0   -7.391968799240531e-05
-3.354732409691525e-05   0.0   -7.391968799240531e-05
-7.859083316390393e-05   1.0368045874126973e-05   -5.068000405233382e-06
-7.859083316390393e-05   1.0368045874126973e-05   -5.068000405233382e-06
-7.859083316390393e-05   1.0368045874126973e-05   -5.068000405233382e-06
-7.859083316390393e-05   1.0368045874126973e-05   -5.068000405233382e-06
-5.608600395492225e-05   4.7770201665793695e-06   -3.922143366234126e-05
-5.608600395492225e-05   4.7770201665793695e-06   -3.922143366234126e-05
-5.608600395492225e-05   4.7770201665793695e-06   -3.922143366234126e-05
-5.608600395492225e-05   4.7770201665793695e-06   -3.922143366234126e-05
-3.641220336714338e-05   0.0   -7.096167281289139e-05
-3.641220336714338e-05   0.0   -7.096167281289139e-05
-3.641220336714338e-05   0.0   -7.096167281289139e-05
-3.641220336714338e-05   0.0   -7.096167281289139e-05
4.749687099941013e-06   -6.532899665073435e-07   -2.7504960143217305e-06
4.749687099941013e-06   -6.532899665073435e-07   -2.7504960143217305e-06
4.749687099941013e-06   -6.532899665073435e-07   -2.7504960143217305e-06
4.749687099941013e-06   -6.532899665073435e-07   -2.7504960143217305e-06
5.63065431592523e-06   0.0   -7.260930740040585e-05
5.63065431592523e-06   0.0   -7.260930740040585e-05
5.63065431592523e-06   0.0   -7.260930740040585e-05
5.63065431592523e-06   0.0   -7.260930740040585e-05
-3.502720595829124e-05   1.2889295643061496e-06   -5.619564681962324e-06
-3.502720595829124e-05   1.2889295643061496e-06   -5.619564681962324e-06
-3.502720595829124e-05   1.2889295643061496e-06   -5.619564681962324e-06
-3.502720595829124e-05   1.2889295643061496e-06   -5.619564681962324e-06
-1.539077452560904e-05   -1.373028822928936e-06   -3.674977537075813e-05
-1.539077452560904e-05   -1.373028822928936e-06   -3.674977537075813e-05
-1.539077452560904e-05   -1.373028822928936e-06   -3.674977537075813e-05
-1.539077452560904e-05   -1.373028822928936e-06   -3.674977537075813e-05
-3.502720595829124e-05   0.0   -7.338266513898981e-05
-3.502720595829124e-05   0.0   -7.338266513898981e-05
-3.502720595829124e-05   0.0   -7.338266513898981e-05
-3.502720595829124e-05   0.0   -7.338266513898981e-05
5.63065431592524e-06   1.2889295643061632e-06   -4.846206943378624e-06
5.63065431592524e-06   1.2889295643061632e-06   -4.846206943378624e-06
5.63065431592524e-06   1.2889295643061632e-06   -4.846206943378624e-06
5.63065431592524e-06   1.2889295643061632e-06   -4.846206943378624e-06
6.325092892862421e-06   0.0   -7.250593813483011e-05
6.325092892862421e-06   0.0   -7.250593813483011e-05
6.325092892862421e-06   0.0   -7.250593813483011e-05
6.325092892862421e-06   0.0   -7.250593813483011e-05
-3.425205980279726e-05   2.998748257557966e-06   -6.67659926326543e-06
-3.425205980279726e-05   2.998748257557966e-06   -6.67659926326543e-06
-3.425205980279726e-05   2.998748257557966e-06   -6.67659926326543e-06
-3.425205980279726e-05   2.998748257557966e-06   -6.67659926326543e-06
-1.4351056532714405e-05   7.306058367996404e-07   -3.8484052594281936e-05
-1.4351056532714405e-05   7.306058367996404e-07   -3.8484052594281936e-05
-1.4351056532714405e-05   7.306058367996404e-07   -3.8484052594281936e-05
-1.4351056532714405e-05   7.306058367996404e-07   -3.8484052594281936e-05
-3.425205980279732e-05   0.0   -7.430518708936502e-05
-3.425205980279732e-05   0.0   -7.430518708936502e-05
-3.425205980279732e-05   0.0   -7.430518708936502e-05
-3.425205980279732e-05   0.0   -7.430518708936502e-05
6.325092892862432e-06   2.9987482575579794e-06   -4.877350308730658e-06
6.325092892862432e-06   2.9987482575579794e-06   -4.877350308730658e-06
6.325092892862432e-06   2.9987482575579794e-06   -4.877350308730658e-06
6.325092892862432e-06   2.9987482575579794e-06   -4.877350308730658e-06
7.261664879811118e-06   0.0   -7.093195895801815e-05
7.261664879811118e-06   0.0   -7.093195895801815e-05
7.261664879811118e-06   0.0   -7.093195895801815e-05
7.261664879811118e-06   0.0   -7.093195895801815e-05
-3.354732409691522e-05   4.979548390645171e-06   -5.9047063645280295e-06
-3.354732409691522e-05   4.979548390645171e-06   -5.9047063645280295e-06
-3.354732409691522e-05   4.979548390645171e-06   -5.9047063645280295e-06
-3.354732409691522e-05   4.979548390645171e-06   -5.9047063645280295e-06
-1.3495197461493071e-05   2.8110234427889536e-06   -3.802380245485118e-05
-1.3495197461493071e-05   2.8110234427889536e-06   -3.802380245485118e-05
-1.3495197461493071e-05   2.8110234427889536e-06   -3.802380245485118e-05
-1.3495197461493071e-05   2.8110234427889536e-06   -3.802380245485118e-05
4.749687099941022e-06   0.0   -7.135364679279579e-05
4.749687099941022e-06   0.0   -7.135364679279579e-05
4.749687099941022e-06   0.0   -7.135364679279579e-05
4.749687099941022e-06   0.0   -7.135364679279579e-05
4.9424653969764524e-05   -5.7969721387490135e-06   -3.735519596726475e-07
4.9424653969764524e-05   -5.7969721387490135e-06   -3.735519596726475e-07
4.9424653969764524e-05   -5.7969721387490135e-06   -3.735519596726475e-07
4.9424653969764524e-05   -5.7969721387490135e-06   -3.735519596726475e-07
4.95034528143812e-05   0.0   -7.523251895698393e-05
4.95034528143812e-05   0.0   -7.523251895698393e-05
4.95034528143812e-05   0.0   -7.523251895698393e-05
4.95034528143812e-05   0.0   -7.523251895698393e-05
5.630654315925249e-06   -4.3720192609630144e-06   5.120234303538057e-07
5.630654315925249e-06   -4.3720192609630144e-06   5.120234303538057e-07
5.630654315925249e-06   -4.3720192609630144e-06   5.120234303538057e-07
5.630654315925249e-06   -4.3720192609630144e-06   5.120234303538057e-07
2.7126569957161112e-05   -3.2323934701567714e-06   -3.599827811285635e-05
2.7126569957161112e-05   -3.2323934701567714e-06   -3.599827811285635e-05
2.7126569957161112e-05   -3.2323934701567714e-06   -3.599827811285635e-05
2.7126569957161112e-05   -3.2323934701567714e-06   -3.599827811285635e-05
5.630654315925249e-06   0.0   -7.260930740040611e-05
5.630654315925249e-06   0.0   -7.260930740040611e-05
5.630654315925249e-06   0.0   -7.260930740040611e-05
5.630654315925249e-06   0.0   -7.260930740040611e-05
4.95034528143812e-05   -4.3720192609630144e-06   -2.111188126224011e-06
4.95034528143812e-05   -4.3720192609630144e-06   -2.111188126224011e-06
4.95034528143812e-05   -4.3720192609630144e-06   -2.111188126224011e-06
4.95034528143812e-05   -4.3720192609630144e-06   -2.111188126224011e-06
4.928360612748455e-05   0.0   -7.415816189459269e-05
4.928360612748455e-05   0.0   -7.415816189459269e-05
4.928360612748455e-05   0.0   -7.415816189459269e-05
4.928360612748455e-05   0.0   -7.415816189459269e-05
6.325092892862432e-06   -2.75370626627076e-06   -9.084160771267121e-07
6.325092892862432e-06   -2.75370626627076e-06   -9.084160771267121e-07
6.325092892862432e-06   -2.75370626627076e-06   -9.084160771267121e-07
6.325092892862432e-06   -2.75370626627076e-06   -9.084160771267121e-07
2.74571302217049e-05   -1.2907120784888212e-06   -3.700627480453329e-05
2.74571302217049e-05   -1.2907120784888212e-06   -3.700627480453329e-05
2.74571302217049e-05   -1.2907120784888212e-06   -3.700627480453329e-05
2.74571302217049e-05   -1.2907120784888212e-06   -3.700627480453329e-05
6.325092892862426e-06   0.0   -7.250593813483017e-05
6.325092892862426e-06   0.0   -7.250593813483017e-05
6.325092892862426e-06   0.0   -7.250593813483017e-05
6.325092892862426e-06   0.0   -7.250593813483017e-05
4.928360612748455e-05   -2.75370626627076e-06   -2.5606398368891624e-06
4.928360612748455e-05   -2.75370626627076e-06   -2.5606398368891624e-06
4.928360612748455e-05   -2.75370626627076e-06   -2.5606398368891624e-06
4.928360612748455e-05   -2.75370626627076e-06   -2.5606398368891624e-06
5.023055713631757e-05   0.0   -7.12791056123989e-05
5.023055713631757e-05   0.0   -7.12791056123989e-05
5.023055713631757e-05   0.0   -7.12791056123989e-05
5.023055713631757e-05   0.0   -7.12791056123989e-05
7.261664879811131e-06   -5.785777573010604e-07   6.828614694924376e-07
7.261664879811131e-06   -5.785777573010604e-07   6.828614694924376e-07
7.261664879811131e-06   -5.785777573010604e-07   6.828614694924376e-07
7.261664879811131e-06   -5.785777573010604e-07   6.828614694924376e-07
2.8277825014589977e-05   1.0223604353594404e-06   -3.530463500406857e-05
2.8277825014589977e-05   1.0223604353594404e-06   -3.530463500406857e-05
2.8277825014589977e-05   1.0223604353594404e-06   -3.530463500406857e-05
2.8277825014589977e-05   1.0223604353594404e-06   -3.530463500406857e-05
4.9424653969764524e-05   0.0   -7.48318300760452e-05
4.9424653969764524e-05   0.0   -7.48318300760452e-05
4.9424653969764524e-05   0.0   -7.48318300760452e-05
4.9424653969764524e-05   0.0   -7.48318300760452e-05
0.00011153517017765473   -1.4689184772362634e-05   1.9872186073688157e-05
0.00011153517017765473   -1.4689184772362634e-05   1.9872186073688157e-05
0.00011153517017765473   -1.4689184772362634e-05   1.9872186073688157e-05
0.00011153517017765473   -1.4689184772362634e-05   1.9872186073688157e-05
0.00010473772147074478   0.0   -8.273429378856162e-05
0.00010473772147074478   0.0   -8.273429378856162e-05
0.00010473772147074478   0.0   -8.273429378856162e-05
0.00010473772147074478   0.0   -8.273429378856162e-05
4.95034528143812e-05   -1.2502958052629508e-05   1.6824595470288665e-05
4.95034528143812e-05   -1.2502958052629508e-05   1.6824595470288665e-05
4.95034528143812e-05   -1.2502958052629508e-05   1.6824595470288665e-05
4.95034528143812e-05   -1.2502958052629508e-05   1.6824595470288665e-05
7.708118772025465e-05   -6.585386427097019e-06   -3.268883901481984e-05
7.708118772025465e-05   -6.585386427097019e-06   -3.268883901481984e-05
7.708118772025465e-05   -6.585386427097019e-06   -3.268883901481984e-05
7.708118772025465e-05   -6.585386427097019e-06   -3.268883901481984e-05
4.950345281438116e-05   0.0   -7.523251895698386e-05
4.950345281438116e-05   0.0   -7.523251895698386e-05
4.950345281438116e-05   0.0   -7.523251895698386e-05
4.950345281438116e-05   0.0   -7.523251895698386e-05
0.00010473772147074442   -1.2502958052629454e-05   9.32282063871096e-06
0.00010473772147074442   -1.2502958052629454e-05   9.32282063871096e-06
0.00010473772147074442   -1.2502958052629454e-05   9.32282063871096e-06
0.00010473772147074442   -1.2502958052629454e-05   9.32282063871096e-06
0.00010159960908629992   0.0   -8.101411670467883e-05
0.00010159960908629992   0.0   -8.101411670467883e-05
0.00010159960908629992   0.0   -8.101411670467883e-05
0.00010159960908629992   0.0   -8.101411670467883e-05
4.928360612748455e-05   -1.1426591350143558e-05   1.3035176370099568e-05
4.928360612748455e-05   -1.1426591350143558e-05   1.3035176370099568e-05
4.928360612748455e-05   -1.1426591350143558e-05   1.3035176370099568e-05
4.928360612748455e-05   -1.1426591350143558e-05   1.3035176370099568e-05
7.555153095034052e-05   -4.817998123079093e-06   -3.470985427089906e-05
7.555153095034052e-05   -4.817998123079093e-06   -3.470985427089906e-05
7.555153095034052e-05   -4.817998123079093e-06   -3.470985427089906e-05
7.555153095034052e-05   -4.817998123079093e-06   -3.470985427089906e-05
4.928360612748455e-05   0.0   -7.415816189459269e-05
4.928360612748455e-05   0.0   -7.415816189459269e-05
4.928360612748455e-05   0.0   -7.415816189459269e-05
4.928360612748455e-05   0.0   -7.415816189459269e-05
0.00010159960908629957   -1.1426591350143504e-05   6.179221560013401e-06
0.00010159960908629957   -1.1426591350143504e-05   6.179221560013401e-06
0.00010159960908629957   -1.1426591350143504e-05   6.179221560013401e-06
0.00010159960908629957   -1.1426591350143504e-05   6.179221560013401e-06
9.693331556675842e-05   0.0   -7.661110353883548e-05
9.693331556675842e-05   0.0   -7.661110353883548e-05
9.693331556675842e-05   0.0   -7.661110353883548e-05
9.693331556675842e-05   0.0   -7.661110353883548e-05
5.023055713631757e-05   -8.886663210727855e-06   6.558825105002796e-06
5.023055713631757e-05   -8.886663210727855e-06   6.558825105002796e-06
5.023055713631757e-05   -8.886663210727855e-06   6.558825105002796e-06
5.023055713631757e-05   -8.886663210727855e-06   6.558825105002796e-06
7.310846084712158e-05   -2.0441180368690933e-06   -3.56765415173191e-05
7.310846084712158e-05   -2.0441180368690933e-06   -3.56765415173191e-05
7.310846084712158e-05   -2.0441180368690933e-06   -3.56765415173191e-05
7.310846084712158e-05   -2.0441180368690933e-06   -3.56765415173191e-05
-0.00010909722178394947   1.3932860892949865e-05   -7.15244972958161e-05
-0.00010909722178394947   1.3932860892949865e-05   -7.15244972958161e-05
-0.00010909722178394947   1.3932860892949865e-05   -7.15244972958161e-05
-0.00010909722178394947   1.3932860892949865e-05   -7.15244972958161e-05
-6.987013748204507e-05   1.2533449570726089e-05   -6.9856702526430614e-06
-6.987013748204507e-05   1.2533449570726089e-05   -6.9856702526430614e-06
-6.987013748204507e-05   1.2533449570726089e-05   -6.9856702526430614e-06
-6.987013748204507e-05   1.2533449570726089e-05   -6.9856702526430614e-06
-7.163193917631287e-05   1.6714681082323355e-05   -6.006364445157805e-05
-7.163193917631287e-05   1.6714681082323355e-05   -6.006364445157805e-05
-7.163193917631287e-05   1.6714681082323355e-05   -6.006364445157805e-05
-7.163193917631287e-05   1.6714681082323355e-05   -6.006364445157805e-05
-0.00011028625163829087   1.5039470044827987e-05   5.365336274216115e-06
-0.00011028625163829087   1.5039470044827987e-05   5.365336274216115e-06
-0.00011028625163829087   1.5039470044827987e-05   5.365336274216115e-06
-0.00011028625163829087   1.5039470044827987e-05   5.365336274216115e-06
-8.664834244504861e-05   1.4551598260382982e-05   -3.37384559771879e-05
-8.664834244504861e-05   1.4551598260382982e-05   -3.37384559771879e-05
-8.664834244504861e-05   1.4551598260382982e-05   -3.37384559771879e-05
-8.664834244504861e-05   1.4551598260382982e-05   -3.37384559771879e-05
-0.00011028625163829087   1.6714681082323355e-05   -5.9058517829080806e-05
-0.00011028625163829087   1.6714681082323355e-05   -5.9058517829080806e-05
-0.00011028625163829087   1.6714681082323355e-05   -5.9058517829080806e-05
-0.00011028625163829087   1.6714681082323355e-05   -5.9058517829080806e-05
-7.163193917631311e-05   1.5039470044827987e-05   4.360209651718829e-06
-7.163193917631311e-05   1.5039470044827987e-05   4.360209651718829e-06
-7.163193917631311e-05   1.5039470044827987e-05   4.360209651718829e-06
-7.163193917631311e-05   1.5039470044827987e-05   4.360209651718829e-06
-7.20050947683354e-05   1.790577325971803e-05   -5.399670005356612e-05
-7.20050947683354e-05   1.790577325971803e-05   -5.399670005356612e-05
-7.20050947683354e-05   1.790577325971803e-05   -5.399670005356612e-05
-7.20050947683354e-05   1.790577325971803e-05   -5.399670005356612e-05
-0.00011106934913519164   1.6170369735913845e-05   1.2151632672143095e-05
-0.00011106934913519164   1.6170369735913845e-05   1.2151632672143095e-05
-0.00011106934913519164   1.6170369735913845e-05   1.2151632672143095e-05
-0.00011106934913519164   1.6170369735913845e-05   1.2151632672143095e-05
-8.920135190937576e-05   1.6127516167456545e-05   -2.426931722980866e-05
-8.920135190937576e-05   1.6127516167456545e-05   -2.426931722980866e-05
-8.920135190937576e-05   1.6127516167456545e-05   -2.426931722980866e-05
-8.920135190937576e-05   1.6127516167456545e-05   -2.426931722980866e-05
-0.00011106934913519145   1.790577325971803e-05   -5.2955457939283564e-05
-0.00011106934913519145   1.790577325971803e-05   -5.2955457939283564e-05
-0.00011106934913519145   1.790577325971803e-05   -5.2955457939283564e-05
-0.00011106934913519145   1.790577325971803e-05   -5.2955457939283564e-05
-7.200509476833554e-05   1.6170369735913845e-05   1.1110390557860596e-05
-7.200509476833554e-05   1.6170369735913845e-05   1.1110390557860596e-05
-7.200509476833554e-05   1.6170369735913845e-05   1.1110390557860596e-05
-7.200509476833554e-05   1.6170369735913845e-05   1.1110390557860596e-05
-7.160055847508247e-05   2.0393697999184553e-05   -3.9885148083826805e-05
-7.160055847508247e-05   2.0393697999184553e-05   -3.9885148083826805e-05
-7.160055847508247e-05   2.0393697999184553e-05   -3.9885148083826805e-05
-7.160055847508247e-05   2.0393697999184553e-05   -3.9885148083826805e-05
-0.00010799953986924464   1.7067740274779957e-05   2.2775395541085994e-05
-0.00010799953986924464   1.7067740274779957e-05   2.2775395541085994e-05
-0.00010799953986924464   1.7067740274779957e-05   2.2775395541085994e-05
-0.00010799953986924464   1.7067740274779957e-05   2.2775395541085994e-05
-8.68874239692066e-05   1.7687410964747213e-05   -1.2783266706291102e-05
-8.68874239692066e-05   1.7687410964747213e-05   -1.2783266706291102e-05
-8.68874239692066e-05   1.7687410964747213e-05   -1.2783266706291102e-05
-8.68874239692066e-05   1.7687410964747213e-05   -1.2783266706291102e-05
-6.987013748204507e-05   5.112234174995016e-06   -7.592020905408633e-05
-6.987013748204507e-05   5.112234174995016e-06   -7.592020905408633e-05
-6.987013748204507e-05   5.112234174995016e-06   -7.592020905408633e-05
-6.987013748204507e-05   5.112234174995016e-06   -7.592020905408633e-05
-3.30981839297787e-05   5.831885783778986e-06   -1.4201828835038554e-05
-3.30981839297787e-05   5.831885783778986e-06   -1.4201828835038554e-05
-3.30981839297787e-05   5.831885783778986e-06   -1.4201828835038554e-05
-3.30981839297787e-05   5.831885783778986e-06   -1.4201828835038554e-05
-3.389305255940746e-05   7.274466856912055e-06   -7.580744101415708e-05
-3.389305255940746e-05   7.274466856912055e-06   -7.580744101415708e-05
-3.389305255940746e-05   7.274466856912055e-06   -7.580744101415708e-05
-3.389305255940746e-05   7.274466856912055e-06   -7.580744101415708e-05
-7.163193917631287e-05   8.136417132643915e-06   -1.3426466818087038e-05
-7.163193917631287e-05   8.136417132643915e-06   -1.3426466818087038e-05
-7.163193917631287e-05   8.136417132643915e-06   -1.3426466818087038e-05
-7.163193917631287e-05   8.136417132643915e-06   -1.3426466818087038e-05
-5.1976827514568315e-05   6.551858587677746e-06   -4.523425112734869e-05
-5.1976827514568315e-05   6.551858587677746e-06   -4.523425112734869e-05
-5.1976827514568315e-05   6.551858587677746e-06   -4.523425112734869e-05
-5.1976827514568315e-05   6.551858587677746e-06   -4.523425112734869e-05
-7.16319391763128e-05   7.274466856912055e-06   -7.632461117959604e-05
-7.16319391763128e-05   7.274466856912055e-06   -7.632461117959604e-05
-7.16319391763128e-05   7.274466856912055e-06   -7.632461117959604e-05
-7.16319391763128e-05   7.274466856912055e-06   -7.632461117959604e-05
-3.389305255940752e-05   8.136417132643915e-06   -1.2909296652647947e-05
-3.389305255940752e-05   8.136417132643915e-06   -1.2909296652647947e-05
-3.389305255940752e-05   8.136417132643915e-06   -1.2909296652647947e-05
-3.389305255940752e-05   8.136417132643915e-06   -1.2909296652647947e-05
-3.414632625228256e-05   8.91154183822599e-06   -7.43881042702828e-05
-3.414632625228256e-05   8.91154183822599e-06   -7.43881042702828e-05
-3.414632625228256e-05   8.91154183822599e-06   -7.43881042702828e-05
-3.414632625228256e-05   8.91154183822599e-06   -7.43881042702828e-05
-7.20050947683354e-05   1.0043510033994909e-05   -1.1969337660989467e-05
-7.20050947683354e-05   1.0043510033994909e-05   -1.1969337660989467e-05
-7.20050947683354e-05   1.0043510033994909e-05   -1.1969337660989467e-05
-7.20050947683354e-05   1.0043510033994909e-05   -1.1969337660989467e-05
-5.23876969422082e-05   8.313882960637087e-06   -4.362722446051996e-05
-5.23876969422082e-05   8.313882960637087e-06   -4.362722446051996e-05
-5.23876969422082e-05   8.313882960637087e-06   -4.362722446051996e-05
-5.23876969422082e-05   8.313882960637087e-06   -4.362722446051996e-05
-7.20050947683354e-05   8.91154183822599e-06   -7.50672851877442e-05
-7.20050947683354e-05   8.91154183822599e-06   -7.50672851877442e-05
-7.20050947683354e-05   8.91154183822599e-06   -7.50672851877442e-05
-7.20050947683354e-05   8.91154183822599e-06   -7.50672851877442e-05
-3.414632625228269e-05   1.0043510033994963e-05   -1.1290156743528186e-05
-3.414632625228269e-05   1.0043510033994963e-05   -1.1290156743528186e-05
-3.414632625228269e-05   1.0043510033994963e-05   -1.1290156743528186e-05
-3.414632625228269e-05   1.0043510033994963e-05   -1.1290156743528186e-05
-3.406781199597506e-05   1.0368045874126973e-05   -7.362646507508186e-05
-3.406781199597506e-05   1.0368045874126973e-05   -7.362646507508186e-05
-3.406781199597506e-05   1.0368045874126973e-05   -7.362646507508186e-05
-3.406781199597506e-05   1.0368045874126973e-05   -7.362646507508186e-05
-7.16005584750824e-05   1.2095088931787768e-05   -1.2108113444499495e-05
-7.16005584750824e-05   1.2095088931787768e-05   -1.2108113444499495e-05
-7.16005584750824e-05   1.2095088931787768e-05   -1.2108113444499495e-05
-7.16005584750824e-05   1.2095088931787768e-05   -1.2108113444499495e-05
-5.270101085372685e-05   9.908692482204866e-06   -4.2295521610342525e-05
-5.270101085372685e-05   9.908692482204866e-06   -4.2295521610342525e-05
-5.270101085372685e-05   9.908692482204866e-06   -4.2295521610342525e-05
-5.270101085372685e-05   9.908692482204866e-06   -4.2295521610342525e-05
-3.309818392977864e-05   -6.532899665073435e-07   -7.948562973306986e-05
-3.309818392977864e-05   -6.532899665073435e-07   -7.948562973306986e-05
-3.309818392977864e-05   -6.532899665073435e-07   -7.948562973306986e-05
-3.309818392977864e-05   -6.532899665073435e-07   -7.948562973306986e-05
3.2106179482560882e-06   -1.7268159866314168e-07   -1.8682594915638774e-05
3.2106179482560882e-06   -1.7268159866314168e-07   -1.8682594915638774e-05
3.2106179482560882e-06   -1.7268159866314168e-07   -1.8682594915638774e-05
3.2106179482560882e-06   -1.7268159866314168e-07   -1.8682594915638774e-05
3.0566645665054867e-06   1.2889295643061632e-06   -7.993037206618223e-05
3.0566645665054867e-06   1.2889295643061632e-06   -7.993037206618223e-05
3.0566645665054867e-06   1.2889295643061632e-06   -7.993037206618223e-05
3.0566645665054867e-06   1.2889295643061632e-06   -7.993037206618223e-05
-3.389305255940746e-05   1.950411676865415e-06   -1.87443994571959e-05
-3.389305255940746e-05   1.950411676865415e-06   -1.87443994571959e-05
-3.389305255940746e-05   1.950411676865415e-06   -1.87443994571959e-05
-3.389305255940746e-05   1.950411676865415e-06   -1.87443994571959e-05
-1.5272774778070536e-05   6.472431225112681e-07   -4.899629462681179e-05
-1.5272774778070536e-05   6.472431225112681e-07   -4.899629462681179e-05
-1.5272774778070536e-05   6.472431225112681e-07   -4.899629462681179e-05
-1.5272774778070536e-05   6.472431225112681e-07   -4.899629462681179e-05
-3.389305255940746e-05   1.2889295643061496e-06   -8.032726133371765e-05
-3.389305255940746e-05   1.2889295643061496e-06   -8.032726133371765e-05
-3.389305255940746e-05   1.2889295643061496e-06   -8.032726133371765e-05
-3.389305255940746e-05   1.2889295643061496e-06   -8.032726133371765e-05
3.0566645665054867e-06   1.950411676865469e-06   -1.8347510189660395e-05
3.0566645665054867e-06   1.950411676865469e-06   -1.8347510189660395e-05
3.0566645665054867e-06   1.950411676865469e-06   -1.8347510189660395e-05
3.0566645665054867e-06   1.950411676865469e-06   -1.8347510189660395e-05
2.848363998074941e-06   2.9987482575579523e-06   -8.009832271450873e-05
2.848363998074941e-06   2.9987482575579523e-06   -8.009832271450873e-05
2.848363998074941e-06   2.9987482575579523e-06   -8.009832271450873e-05
2.848363998074941e-06   2.9987482575579523e-06   -8.009832271450873e-05
-3.414632625228256e-05   4.024693390715383e-06   -1.9056072710474077e-05
-3.414632625228256e-05   4.024693390715383e-06   -1.9056072710474077e-05
-3.414632625228256e-05   4.024693390715383e-06   -1.9056072710474077e-05
-3.414632625228256e-05   4.024693390715383e-06   -1.9056072710474077e-05
-1.5562698069944627e-05   2.446714952712833e-06   -4.9081999284902275e-05
-1.5562698069944627e-05   2.446714952712833e-06   -4.9081999284902275e-05
-1.5562698069944627e-05   2.446714952712833e-06   -4.9081999284902275e-05
-1.5562698069944627e-05   2.446714952712833e-06   -4.9081999284902275e-05
-3.414632625228256e-05   2.9987482575579523e-06   -8.071388979440317e-05
-3.414632625228256e-05   2.9987482575579523e-06   -8.071388979440317e-05
-3.414632625228256e-05   2.9987482575579523e-06   -8.071388979440317e-05
-3.414632625228256e-05   2.9987482575579523e-06   -8.071388979440317e-05
2.848363998074947e-06   4.024693390715383e-06   -1.844050563057965e-05
2.848363998074947e-06   4.024693390715383e-06   -1.844050563057965e-05
2.848363998074947e-06   4.024693390715383e-06   -1.844050563057965e-05
2.848363998074947e-06   4.024693390715383e-06   -1.844050563057965e-05
2.4340581649753114e-06   4.979548390645158e-06   -7.996009385376676e-05
2.4340581649753114e-06   4.979548390645158e-06   -7.996009385376676e-05
2.4340581649753114e-06   4.979548390645158e-06   -7.996009385376676e-05
2.4340581649753114e-06   4.979548390645158e-06   -7.996009385376676e-05
-3.40678119959751e-05   6.186056232455092e-06   -1.9847548290602104e-05
-3.40678119959751e-05   6.186056232455092e-06   -1.9847548290602104e-05
-3.40678119959751e-05   6.186056232455092e-06   -1.9847548290602104e-05
-3.40678119959751e-05   6.186056232455092e-06   -1.9847548290602104e-05
-1.57402159031203e-05   4.295316773150434e-06   -4.925909810311059e-05
-1.57402159031203e-05   4.295316773150434e-06   -4.925909810311059e-05
-1.57402159031203e-05   4.295316773150434e-06   -4.925909810311059e-05
-1.57402159031203e-05   4.295316773150434e-06   -4.925909810311059e-05
3.2106179482560882e-06   -5.796972138749e-06   -7.33421373744649e-05
3.2106179482560882e-06   -5.796972138749e-06   -7.33421373744649e-05
3.2106179482560882e-06   -5.796972138749e-06   -7.33421373744649e-05
3.2106179482560882e-06   -5.796972138749e-06   -7.33421373744649e-05
4.0627589835621e-05   -5.960198253493433e-06   -1.1078453231036609e-05
4.0627589835621e-05   -5.960198253493433e-06   -1.1078453231036609e-05
4.0627589835621e-05   -5.960198253493433e-06   -1.1078453231036609e-05
4.0627589835621e-05   -5.960198253493433e-06   -1.1078453231036609e-05
4.0955099411511815e-05   -4.372019260963001e-06   -7.436803134482968e-05
4.0955099411511815e-05   -4.372019260963001e-06   -7.436803134482968e-05
4.0955099411511815e-05   -4.372019260963001e-06   -7.436803134482968e-05
4.0955099411511815e-05   -4.372019260963001e-06   -7.436803134482968e-05
3.0566645665054867e-06   -4.031835348263261e-06   -1.1408083617438867e-05
3.0566645665054867e-06   -4.031835348263261e-06   -1.1408083617438867e-05
3.0566645665054867e-06   -4.031835348263261e-06   -1.1408083617438867e-05
3.0566645665054867e-06   -4.031835348263261e-06   -1.1408083617438867e-05
2.168177449420021e-05   -4.825284603816394e-06   -4.1973863943598336e-05
2.168177449420021e-05   -4.825284603816394e-06   -4.1973863943598336e-05
2.168177449420021e-05   -4.825284603816394e-06   -4.1973863943598336e-05
2.168177449420021e-05   -4.825284603816394e-06   -4.1973863943598336e-05
3.0566645665054833e-06   -4.3720192609630144e-06   -7.457214169244966e-05
3.0566645665054833e-06   -4.3720192609630144e-06   -7.457214169244966e-05
3.0566645665054833e-06   -4.3720192609630144e-06   -7.457214169244966e-05
3.0566645665054833e-06   -4.3720192609630144e-06   -7.457214169244966e-05
4.0955099411511876e-05   -4.031835348263261e-06   -1.1203973269818953e-05
4.0955099411511876e-05   -4.031835348263261e-06   -1.1203973269818953e-05
4.0955099411511876e-05   -4.031835348263261e-06   -1.1203973269818953e-05
4.0955099411511876e-05   -4.031835348263261e-06   -1.1203973269818953e-05
4.0746854601697906e-05   -2.7537062662707465e-06   -7.576265583721008e-05
4.0746854601697906e-05   -2.7537062662707465e-06   -7.576265583721008e-05
4.0746854601697906e-05   -2.7537062662707465e-06   -7.576265583721008e-05
4.0746854601697906e-05   -2.7537062662707465e-06   -7.576265583721008e-05
2.848363998074941e-06   -2.1424851901130832e-06   -1.2965237476866488e-05
2.848363998074941e-06   -2.1424851901130832e-06   -1.2965237476866488e-05
2.848363998074941e-06   -2.1424851901130832e-06   -1.2965237476866488e-05
2.848363998074941e-06   -2.1424851901130832e-06   -1.2965237476866488e-05
2.144461695218481e-05   -3.2851172400368857e-06   -4.327341317042855e-05
2.144461695218481e-05   -3.2851172400368857e-06   -4.327341317042855e-05
2.144461695218481e-05   -3.2851172400368857e-06   -4.327341317042855e-05
2.144461695218481e-05   -3.2851172400368857e-06   -4.327341317042855e-05
2.84836399807494e-06   -2.75370626627076e-06   -7.612938848290469e-05
2.84836399807494e-06   -2.75370626627076e-06   -7.612938848290469e-05
2.84836399807494e-06   -2.75370626627076e-06   -7.612938848290469e-05
2.84836399807494e-06   -2.75370626627076e-06   -7.612938848290469e-05
4.074685460169805e-05   -2.1424851901130832e-06   -1.2598504831171878e-05
4.074685460169805e-05   -2.1424851901130832e-06   -1.2598504831171878e-05
4.074685460169805e-05   -2.1424851901130832e-06   -1.2598504831171878e-05
4.074685460169805e-05   -2.1424851901130832e-06   -1.2598504831171878e-05
3.9550922983497315e-05   -5.785777573010469e-07   -7.5896146156622e-05
3.9550922983497315e-05   -5.785777573010469e-07   -7.5896146156622e-05
3.9550922983497315e-05   -5.785777573010469e-07   -7.5896146156622e-05
3.9550922983497315e-05   -5.785777573010469e-07   -7.5896146156622e-05
2.4340581649753114e-06   1.94937071884354e-07   -1.449881368993003e-05
2.4340581649753114e-06   1.94937071884354e-07   -1.449881368993003e-05
2.4340581649753114e-06   1.94937071884354e-07   -1.449881368993003e-05
2.4340581649753114e-06   1.94937071884354e-07   -1.449881368993003e-05
2.1204833001728317e-05   -1.4861887147229991e-06   -4.4774762945887174e-05
2.1204833001728317e-05   -1.4861887147229991e-06   -4.4774762945887174e-05
2.1204833001728317e-05   -1.4861887147229991e-06   -4.4774762945887174e-05
2.1204833001728317e-05   -1.4861887147229991e-06   -4.4774762945887174e-05
4.0627589835621e-05   -1.4689184772362634e-05   -4.438082414653313e-05
4.0627589835621e-05   -1.4689184772362634e-05   -4.438082414653313e-05
4.0627589835621e-05   -1.4689184772362634e-05   -4.438082414653313e-05
4.0627589835621e-05   -1.4689184772362634e-05   -4.438082414653313e-05
7.756557170714348e-05   -1.1081494925193518e-05   1.93470928809723e-05
7.756557170714348e-05   -1.1081494925193518e-05   1.93470928809723e-05
7.756557170714348e-05   -1.1081494925193518e-05   1.93470928809723e-05
7.756557170714348e-05   -1.1081494925193518e-05   1.93470928809723e-05
8.050133181254209e-05   -1.2502958052629481e-05   -5.396444222632019e-05
8.050133181254209e-05   -1.2502958052629481e-05   -5.396444222632019e-05
8.050133181254209e-05   -1.2502958052629481e-05   -5.396444222632019e-05
8.050133181254209e-05   -1.2502958052629481e-05   -5.396444222632019e-05
4.095509941151196e-05   -1.0056615515967717e-05   1.0478139586733167e-05
4.095509941151196e-05   -1.0056615515967717e-05   1.0478139586733167e-05
4.095509941151196e-05   -1.0056615515967717e-05   1.0478139586733167e-05
4.095509941151196e-05   -1.0056615515967717e-05   1.0478139586733167e-05
5.712633704831808e-05   -1.2032075990753277e-05   -1.5288646856405808e-05
5.712633704831808e-05   -1.2032075990753277e-05   -1.5288646856405808e-05
5.712633704831808e-05   -1.2032075990753277e-05   -1.5288646856405808e-05
5.712633704831808e-05   -1.2032075990753277e-05   -1.5288646856405808e-05
4.0955099411511856e-05   -1.2502958052629454e-05   -5.543224774831703e-05
4.0955099411511856e-05   -1.2502958052629454e-05   -5.543224774831703e-05
4.0955099411511856e-05   -1.2502958052629454e-05   -5.543224774831703e-05
4.0955099411511856e-05   -1.2502958052629454e-05   -5.543224774831703e-05
8.050133181254209e-05   -1.0056615515967717e-05   1.1945945108730177e-05
8.050133181254209e-05   -1.0056615515967717e-05   1.1945945108730177e-05
8.050133181254209e-05   -1.0056615515967717e-05   1.1945945108730177e-05
8.050133181254209e-05   -1.0056615515967717e-05   1.1945945108730177e-05
8.018955808054522e-05   -1.1426591350143558e-05   -5.869243293222534e-05
8.018955808054522e-05   -1.1426591350143558e-05   -5.869243293222534e-05
8.018955808054522e-05   -1.1426591350143558e-05   -5.869243293222534e-05
8.018955808054522e-05   -1.1426591350143558e-05   -5.869243293222534e-05
4.074685460169805e-05   -8.969246853483132e-06   5.570999501190298e-06
4.074685460169805e-05   -8.969246853483132e-06   5.570999501190298e-06
4.074685460169805e-05   -8.969246853483132e-06   5.570999501190298e-06
4.074685460169805e-05   -8.969246853483132e-06   5.570999501190298e-06
5.911319589725441e-05   -1.0628448885826236e-05   -2.404404810533111e-05
5.911319589725441e-05   -1.0628448885826236e-05   -2.404404810533111e-05
5.911319589725441e-05   -1.0628448885826236e-05   -2.404404810533111e-05
5.911319589725441e-05   -1.0628448885826236e-05   -2.404404810533111e-05
4.074685460169797e-05   -1.142659135014353e-05   -6.0166839630221476e-05
4.074685460169797e-05   -1.142659135014353e-05   -6.0166839630221476e-05
4.074685460169797e-05   -1.142659135014353e-05   -6.0166839630221476e-05
4.074685460169797e-05   -1.142659135014353e-05   -6.0166839630221476e-05
8.018955808054522e-05   -8.969246853483132e-06   7.0454061991865485e-06
8.018955808054522e-05   -8.969246853483132e-06   7.0454061991865485e-06
8.018955808054522e-05   -8.969246853483132e-06   7.0454061991865485e-06
8.018955808054522e-05   -8.969246853483132e-06   7.0454061991865485e-06
7.969248951604693e-05   -8.886663210727855e-06   -6.831840942032188e-05
7.969248951604693e-05   -8.886663210727855e-06   -6.831840942032188e-05
7.969248951604693e-05   -8.886663210727855e-06   -6.831840942032188e-05
7.969248951604693e-05   -8.886663210727855e-06   -6.831840942032188e-05
3.955092298349745e-05   -6.628952466712168e-06   -2.7704249791489065e-06
3.955092298349745e-05   -6.628952466712168e-06   -2.7704249791489065e-06
3.955092298349745e-05   -6.628952466712168e-06   -2.7704249791489065e-06
3.955092298349745e-05   -6.628952466712168e-06   -2.7704249791489065e-06
5.7413049794685316e-05   -9.153429149443763e-06   -3.102595032148964e-05
5.7413049794685316e-05   -9.153429149443763e-06   -3.102595032148964e-05
5.7413049794685316e-05   -9.153429149443763e-06   -3.102595032148964e-05
5.7413049794685316e-05   -9.153429149443763e-06   -3.102595032148964e-05
-8.695835534423834e-05   1.2533449570726089e-05   -5.9982472986638445e-05
-8.695835534423834e-05   1.2533449570726089e-05   -5.9982472986638445e-05
-8.695835534423834e-05   1.2533449570726089e-05   -5.9982472986638445e-05
-8.695835534423834e-05   1.2533449570726089e-05   -5.9982472986638445e-05
-5.6996460358326215e-05   9.581361589026125e-06   -1.1817234132471452e-05
-5.6996460358326215e-05   9.581361589026125e-06   -1.1817234132471452e-05
-5.6996460358326215e-05   9.581361589026125e-06   -1.1817234132471452e-05
-5.6996460358326215e-05   9.581361589026125e-06   -1.1817234132471452e-05
-5.7274560390507335e-05   1.5039470044827987e-05   -4.980124693856078e-05
-5.7274560390507335e-05   1.5039470044827987e-05   -4.980124693856078e-05
-5.7274560390507335e-05   1.5039470044827987e-05   -4.980124693856078e-05
-5.7274560390507335e-05   1.5039470044827987e-05   -4.980124693856078e-05
-8.564819204124387e-05   1.1588242182651197e-05   -4.4112413669387604e-07
-8.564819204124387e-05   1.1588242182651197e-05   -4.4112413669387604e-07
-8.564819204124387e-05   1.1588242182651197e-05   -4.4112413669387604e-07
-8.564819204124387e-05   1.1588242182651197e-05   -4.4112413669387604e-07
-6.868660575225344e-05   1.274344786139853e-05   -2.940355802559324e-05
-6.868660575225344e-05   1.274344786139853e-05   -2.940355802559324e-05
-6.868660575225344e-05   1.274344786139853e-05   -2.940355802559324e-05
-6.868660575225344e-05   1.274344786139853e-05   -2.940355802559324e-05
-8.564819204124387e-05   1.5039470044827987e-05   -4.773051022125468e-05
-8.564819204124387e-05   1.5039470044827987e-05   -4.773051022125468e-05
-8.564819204124387e-05   1.5039470044827987e-05   -4.773051022125468e-05
-8.564819204124387e-05   1.5039470044827987e-05   -4.773051022125468e-05
-5.7274560390507335e-05   1.1588242182651088e-05   -2.5118608539997553e-06
-5.7274560390507335e-05   1.1588242182651088e-05   -2.5118608539997553e-06
-5.7274560390507335e-05   1.1588242182651088e-05   -2.5118608539997553e-06
-5.7274560390507335e-05   1.1588242182651088e-05   -2.5118608539997553e-06
-5.721926017091263e-05   1.6170369735913845e-05   -4.260383965415946e-05
-5.721926017091263e-05   1.6170369735913845e-05   -4.260383965415946e-05
-5.721926017091263e-05   1.6170369735913845e-05   -4.260383965415946e-05
-5.721926017091263e-05   1.6170369735913845e-05   -4.260383965415946e-05
-8.436971053684485e-05   1.2469558473273356e-05   4.867397713311482e-06
-8.436971053684485e-05   1.2469558473273356e-05   4.867397713311482e-06
-8.436971053684485e-05   1.2469558473273356e-05   4.867397713311482e-06
-8.436971053684485e-05   1.2469558473273356e-05   4.867397713311482e-06
-6.92844338597017e-05   1.3906889123015717e-05   -2.1137128471771698e-05
-6.92844338597017e-05   1.3906889123015717e-05   -2.1137128471771698e-05
-6.92844338597017e-05   1.3906889123015717e-05   -2.1137128471771698e-05
-6.92844338597017e-05   1.3906889123015717e-05   -2.1137128471771698e-05
-8.436971053684485e-05   1.6170369735913845e-05   -4.038335289657525e-05
-8.436971053684485e-05   1.6170369735913845e-05   -4.038335289657525e-05
-8.436971053684485e-05   1.6170369735913845e-05   -4.038335289657525e-05
-8.436971053684485e-05   1.6170369735913845e-05   -4.038335289657525e-05
-5.721926017091271e-05   1.2469558473273464e-05   2.646910955727641e-06
-5.721926017091271e-05   1.2469558473273464e-05   2.646910955727641e-06
-5.721926017091271e-05   1.2469558473273464e-05   2.646910955727641e-06
-5.721926017091271e-05   1.2469558473273464e-05   2.646910955727641e-06
-5.727958485360647e-05   1.7067740274779957e-05   -3.252163017485087e-05
-5.727958485360647e-05   1.7067740274779957e-05   -3.252163017485087e-05
-5.727958485360647e-05   1.7067740274779957e-05   -3.252163017485087e-05
-5.727958485360647e-05   1.7067740274779957e-05   -3.252163017485087e-05
-8.269826528781458e-05   1.3335653644817261e-05   1.2082089193473093e-05
-8.269826528781458e-05   1.3335653644817261e-05   1.2082089193473093e-05
-8.269826528781458e-05   1.3335653644817261e-05   1.2082089193473093e-05
-8.269826528781458e-05   1.3335653644817261e-05   1.2082089193473093e-05
-6.770975434564217e-05   1.4518009080163419e-05   -1.3608175638021023e-05
-6.770975434564217e-05   1.4518009080163419e-05   -1.3608175638021023e-05
-6.770975434564217e-05   1.4518009080163419e-05   -1.3608175638021023e-05
-6.770975434564217e-05   1.4518009080163419e-05   -1.3608175638021023e-05
-5.6996460358326215e-05   5.831885783778932e-06   -6.94016753233243e-05
-5.6996460358326215e-05   5.831885783778932e-06   -6.94016753233243e-05
-5.6996460358326215e-05   5.831885783778932e-06   -6.94016753233243e-05
-5.6996460358326215e-05   5.831885783778932e-06   -6.94016753233243e-05
-2.8995364739193048e-05   4.775848544350718e-06   -2.336680496842592e-05
-2.8995364739193048e-05   4.775848544350718e-06   -2.336680496842592e-05
-2.8995364739193048e-05   4.775848544350718e-06   -2.336680496842592e-05
-2.8995364739193048e-05   4.775848544350718e-06   -2.336680496842592e-05
-2.9349718210768574e-05   8.136417132643915e-06   -6.842023284351522e-05
-2.9349718210768574e-05   8.136417132643915e-06   -6.842023284351522e-05
-2.9349718210768574e-05   8.136417132643915e-06   -6.842023284351522e-05
-2.9349718210768574e-05   8.136417132643915e-06   -6.842023284351522e-05
-5.72745603905072e-05   6.749234740729688e-06   -2.1046519775468747e-05
-5.72745603905072e-05   6.749234740729688e-06   -2.1046519775468747e-05
-5.72745603905072e-05   6.749234740729688e-06   -2.1046519775468747e-05
-5.72745603905072e-05   6.749234740729688e-06   -2.1046519775468747e-05
-4.278485524606987e-05   6.723592306725839e-06   -4.5180642889128866e-05
-4.278485524606987e-05   6.723592306725839e-06   -4.5180642889128866e-05
-4.278485524606987e-05   6.723592306725839e-06   -4.5180642889128866e-05
-4.278485524606987e-05   6.723592306725839e-06   -4.5180642889128866e-05
-5.727456039050728e-05   8.136417132643915e-06   -6.758792340836651e-05
-5.727456039050728e-05   8.136417132643915e-06   -6.758792340836651e-05
-5.727456039050728e-05   8.136417132643915e-06   -6.758792340836651e-05
-5.727456039050728e-05   8.136417132643915e-06   -6.758792340836651e-05
-2.9349718210768615e-05   6.749234740729797e-06   -2.187882921061714e-05
-2.9349718210768615e-05   6.749234740729797e-06   -2.187882921061714e-05
-2.9349718210768615e-05   6.749234740729797e-06   -2.187882921061714e-05
-2.9349718210768615e-05   6.749234740729797e-06   -2.187882921061714e-05
-2.958026232344656e-05   1.0043510033994909e-05   -6.660853858530863e-05
-2.958026232344656e-05   1.0043510033994909e-05   -6.660853858530863e-05
-2.958026232344656e-05   1.0043510033994909e-05   -6.660853858530863e-05
-2.958026232344656e-05   1.0043510033994909e-05   -6.660853858530863e-05
-5.721926017091263e-05   8.501892180163033e-06   -1.961857146056653e-05
-5.721926017091263e-05   8.501892180163033e-06   -1.961857146056653e-05
-5.721926017091263e-05   8.501892180163033e-06   -1.961857146056653e-05
-5.721926017091263e-05   8.501892180163033e-06   -1.961857146056653e-05
-4.286603463531364e-05   8.346737820136697e-06   -4.34475214038815e-05
-4.286603463531364e-05   8.346737820136697e-06   -4.34475214038815e-05
-4.286603463531364e-05   8.346737820136697e-06   -4.34475214038815e-05
-4.286603463531364e-05   8.346737820136697e-06   -4.34475214038815e-05
-5.721926017091263e-05   1.0043510033994909e-05   -6.568356787300963e-05
-5.721926017091263e-05   1.0043510033994909e-05   -6.568356787300963e-05
-5.721926017091263e-05   1.0043510033994909e-05   -6.568356787300963e-05
-5.721926017091263e-05   1.0043510033994909e-05   -6.568356787300963e-05
-2.9580262323446654e-05   8.501892180163033e-06   -2.0543542172865288e-05
-2.9580262323446654e-05   8.501892180163033e-06   -2.0543542172865288e-05
-2.9580262323446654e-05   8.501892180163033e-06   -2.0543542172865288e-05
-2.9580262323446654e-05   8.501892180163033e-06   -2.0543542172865288e-05
-2.987777375683272e-05   1.2095088931787822e-05   -6.644718598287447e-05
-2.987777375683272e-05   1.2095088931787822e-05   -6.644718598287447e-05
-2.987777375683272e-05   1.2095088931787822e-05   -6.644718598287447e-05
-2.987777375683272e-05   1.2095088931787822e-05   -6.644718598287447e-05
-5.727958485360644e-05   1.0365719836652985e-05   -1.9739879364504074e-05
-5.727958485360644e-05   1.0365719836652985e-05   -1.9739879364504074e-05
-5.727958485360644e-05   1.0365719836652985e-05   -1.9739879364504074e-05
-5.727958485360644e-05   1.0365719836652985e-05   -1.9739879364504074e-05
-4.337608545391689e-05   9.953974641460682e-06   -4.266533124687067e-05
-4.337608545391689e-05   9.953974641460682e-06   -4.266533124687067e-05
-4.337608545391689e-05   9.953974641460682e-06   -4.266533124687067e-05
-4.337608545391689e-05   9.953974641460682e-06   -4.266533124687067e-05
-2.8995364739192993e-05   -1.7268159866314168e-07   -7.480442876828798e-05
-2.8995364739192993e-05   -1.7268159866314168e-07   -7.480442876828798e-05
-2.8995364739192993e-05   -1.7268159866314168e-07   -7.480442876828798e-05
-2.8995364739192993e-05   -1.7268159866314168e-07   -7.480442876828798e-05
-1.3098513289899253e-06   2.539306507791774e-07   -2.840593906828408e-05
-1.3098513289899253e-06   2.539306507791774e-07   -2.840593906828408e-05
-1.3098513289899253e-06   2.539306507791774e-07   -2.840593906828408e-05
-1.3098513289899253e-06   2.539306507791774e-07   -2.840593906828408e-05
-1.5944487310366217e-06   1.950411676865469e-06   -7.410800808050147e-05
-1.5944487310366217e-06   1.950411676865469e-06   -7.410800808050147e-05
-1.5944487310366217e-06   1.950411676865469e-06   -7.410800808050147e-05
-1.5944487310366217e-06   1.950411676865469e-06   -7.410800808050147e-05
-2.9349718210768574e-05   2.195957622801452e-06   -2.7996553181843236e-05
-2.9349718210768574e-05   2.195957622801452e-06   -2.7996553181843236e-05
-2.9349718210768574e-05   2.195957622801452e-06   -2.7996553181843236e-05
-2.9349718210768574e-05   2.195957622801452e-06   -2.7996553181843236e-05
-1.5226464207609658e-05   1.2790974802977858e-06   -5.098519376827256e-05
-1.5226464207609658e-05   1.2790974802977858e-06   -5.098519376827256e-05
-1.5226464207609658e-05   1.2790974802977858e-06   -5.098519376827256e-05
-1.5226464207609658e-05   1.2790974802977858e-06   -5.098519376827256e-05
-2.9349718210768574e-05   1.950411676865415e-06   -7.425533564806318e-05
-2.9349718210768574e-05   1.950411676865415e-06   -7.425533564806318e-05
-2.9349718210768574e-05   1.950411676865415e-06   -7.425533564806318e-05
-2.9349718210768574e-05   1.950411676865415e-06   -7.425533564806318e-05
-1.5944487310366225e-06   2.1959576228013436e-06   -2.7849225614281527e-05
-1.5944487310366225e-06   2.1959576228013436e-06   -2.7849225614281527e-05
-1.5944487310366225e-06   2.1959576228013436e-06   -2.7849225614281527e-05
-1.5944487310366225e-06   2.1959576228013436e-06   -2.7849225614281527e-05
-1.8008542978672115e-06   4.024693390715383e-06   -7.430998222696881e-05
-1.8008542978672115e-06   4.024693390715383e-06   -7.430998222696881e-05
-1.8008542978672115e-06   4.024693390715383e-06   -7.430998222696881e-05
-1.8008542978672115e-06   4.024693390715383e-06   -7.430998222696881e-05
-2.9580262323446614e-05   4.132147266191653e-06   -2.8075441176289204e-05
-2.9580262323446614e-05   4.132147266191653e-06   -2.8075441176289204e-05
-2.9580262323446614e-05   4.132147266191653e-06   -2.8075441176289204e-05
-2.9580262323446614e-05   4.132147266191653e-06   -2.8075441176289204e-05
-1.559315348137398e-05   2.9916449043028513e-06   -5.0702987829276606e-05
-1.559315348137398e-05   2.9916449043028513e-06   -5.0702987829276606e-05
-1.559315348137398e-05   2.9916449043028513e-06   -5.0702987829276606e-05
-1.559315348137398e-05   2.9916449043028513e-06   -5.0702987829276606e-05
-2.9580262323446614e-05   4.024693390715383e-06   -7.437445455225469e-05
-2.9580262323446614e-05   4.024693390715383e-06   -7.437445455225469e-05
-2.9580262323446614e-05   4.024693390715383e-06   -7.437445455225469e-05
-2.9580262323446614e-05   4.024693390715383e-06   -7.437445455225469e-05
-1.8008542978672157e-06   4.132147266191653e-06   -2.801096885100314e-05
-1.8008542978672157e-06   4.132147266191653e-06   -2.801096885100314e-05
-1.8008542978672157e-06   4.132147266191653e-06   -2.801096885100314e-05
-1.8008542978672157e-06   4.132147266191653e-06   -2.801096885100314e-05
-2.1239146452666813e-06   6.186056232455092e-06   -7.526644006310325e-05
-2.1239146452666813e-06   6.186056232455092e-06   -7.526644006310325e-05
-2.1239146452666813e-06   6.186056232455092e-06   -7.526644006310325e-05
-2.1239146452666813e-06   6.186056232455092e-06   -7.526644006310325e-05
-2.9877773756832707e-05   6.1134005665719644e-06   -2.896641481096369e-05
-2.9877773756832707e-05   6.1134005665719644e-06   -2.896641481096369e-05
-2.9877773756832707e-05   6.1134005665719644e-06   -2.896641481096369e-05
-2.9877773756832707e-05   6.1134005665719644e-06   -2.896641481096369e-05
-1.5982580388526874e-05   4.724531064128875e-06   -5.129174872334047e-05
-1.5982580388526874e-05   4.724531064128875e-06   -5.129174872334047e-05
-1.5982580388526874e-05   4.724531064128875e-06   -5.129174872334047e-05
-1.5982580388526874e-05   4.724531064128875e-06   -5.129174872334047e-05
-1.309851328989927e-06   -5.960198253493433e-06   -6.684638406517375e-05
-1.309851328989927e-06   -5.960198253493433e-06   -6.684638406517375e-05
-1.309851328989927e-06   -5.960198253493433e-06   -6.684638406517375e-05
-1.309851328989927e-06   -5.960198253493433e-06   -6.684638406517375e-05
2.623953440597301e-05   -3.999352865783224e-06   -1.9754233940942818e-05
2.623953440597301e-05   -3.999352865783224e-06   -1.9754233940942818e-05
2.623953440597301e-05   -3.999352865783224e-06   -1.9754233940942818e-05
2.623953440597301e-05   -3.999352865783224e-06   -1.9754233940942818e-05
2.6217229226944402e-05   -4.031835348263261e-06   -6.608142721673725e-05
2.6217229226944402e-05   -4.031835348263261e-06   -6.608142721673725e-05
2.6217229226944402e-05   -4.031835348263261e-06   -6.608142721673725e-05
2.6217229226944402e-05   -4.031835348263261e-06   -6.608142721673725e-05
-1.5944487310366225e-06   -2.219911529025031e-06   -2.0815784911645096e-05
-1.5944487310366225e-06   -2.219911529025031e-06   -2.0815784911645096e-05
-1.5944487310366225e-06   -2.219911529025031e-06   -2.0815784911645096e-05
-1.5944487310366225e-06   -2.219911529025031e-06   -2.0815784911645096e-05
1.2293336242114178e-05   -3.913128574783769e-06   -4.2946162972774495e-05
1.2293336242114178e-05   -3.913128574783769e-06   -4.2946162972774495e-05
1.2293336242114178e-05   -3.913128574783769e-06   -4.2946162972774495e-05
1.2293336242114178e-05   -3.913128574783769e-06   -4.2946162972774495e-05
-1.5944487310366225e-06   -4.031835348263261e-06   -6.716858150828005e-05
-1.5944487310366225e-06   -4.031835348263261e-06   -6.716858150828005e-05
-1.5944487310366225e-06   -4.031835348263261e-06   -6.716858150828005e-05
-1.5944487310366225e-06   -4.031835348263261e-06   -6.716858150828005e-05
2.6217229226944402e-05   -2.219911529025031e-06   -1.972863062010209e-05
2.6217229226944402e-05   -2.219911529025031e-06   -1.972863062010209e-05
2.6217229226944402e-05   -2.219911529025031e-06   -1.972863062010209e-05
2.6217229226944402e-05   -2.219911529025031e-06   -1.972863062010209e-05
2.6338045644051626e-05   -2.1424851901130832e-06   -6.783170894955802e-05
2.6338045644051626e-05   -2.1424851901130832e-06   -6.783170894955802e-05
2.6338045644051626e-05   -2.1424851901130832e-06   -6.783170894955802e-05
2.6338045644051626e-05   -2.1424851901130832e-06   -6.783170894955802e-05
-1.8008542978672183e-06   -4.708099839499484e-07   -2.1936547503391414e-05
-1.8008542978672183e-06   -4.708099839499484e-07   -2.1936547503391414e-05
-1.8008542978672183e-06   -4.708099839499484e-07   -2.1936547503391414e-05
-1.8008542978672183e-06   -4.708099839499484e-07   -2.1936547503391414e-05
1.1914683703898873e-05   -2.3700032685621984e-06   -4.36562615355672e-05
1.1914683703898873e-05   -2.3700032685621984e-06   -4.36562615355672e-05
1.1914683703898873e-05   -2.3700032685621984e-06   -4.36562615355672e-05
1.1914683703898873e-05   -2.3700032685621984e-06   -4.36562615355672e-05
-1.800854297867214e-06   -2.1424851901130832e-06   -6.883471407325564e-05
-1.800854297867214e-06   -2.1424851901130832e-06   -6.883471407325564e-05
-1.800854297867214e-06   -2.1424851901130832e-06   -6.883471407325564e-05
-1.800854297867214e-06   -2.1424851901130832e-06   -6.883471407325564e-05
2.6338045644051626e-05   -4.708099839499484e-07   -2.0933542379693185e-05
2.6338045644051626e-05   -4.708099839499484e-07   -2.0933542379693185e-05
2.6338045644051626e-05   -4.708099839499484e-07   -2.0933542379693185e-05
2.6338045644051626e-05   -4.708099839499484e-07   -2.0933542379693185e-05
2.613335952643716e-05   1.949370718844082e-07   -6.981364073871835e-05
2.613335952643716e-05   1.949370718844082e-07   -6.981364073871835e-05
2.613335952643716e-05   1.949370718844082e-07   -6.981364073871835e-05
2.613335952643716e-05   1.949370718844082e-07   -6.981364073871835e-05
-2.1239146452666847e-06   1.5748861198827202e-06   -2.3546153214677783e-05
-2.1239146452666847e-06   1.5748861198827202e-06   -2.3546153214677783e-05
-2.1239146452666847e-06   1.5748861198827202e-06   -2.3546153214677783e-05
-2.1239146452666847e-06   1.5748861198827202e-06   -2.3546153214677783e-05
1.1780629232676593e-05   -7.183702203095166e-07   -4.534443920713418e-05
1.1780629232676593e-05   -7.183702203095166e-07   -4.534443920713418e-05
1.1780629232676593e-05   -7.183702203095166e-07   -4.534443920713418e-05
1.1780629232676593e-05   -7.183702203095166e-07   -4.534443920713418e-05
2.6239534405972956e-05   -1.1081494925193518e-05   -3.740894462884016e-05
2.6239534405972956e-05   -1.1081494925193518e-05   -3.740894462884016e-05
2.6239534405972956e-05   -1.1081494925193518e-05   -3.740894462884016e-05
2.6239534405972956e-05   -1.1081494925193518e-05   -3.740894462884016e-05
5.204998846413772e-05   -7.25772628548942e-06   7.90273998525705e-06
5.204998846413772e-05   -7.25772628548942e-06   7.90273998525705e-06
5.204998846413772e-05   -7.25772628548942e-06   7.90273998525705e-06
5.204998846413772e-05   -7.25772628548942e-06   7.90273998525705e-06
5.379748315347167e-05   -1.0056615515967662e-05   -4.210535554709878e-05
5.379748315347167e-05   -1.0056615515967662e-05   -4.210535554709878e-05
5.379748315347167e-05   -1.0056615515967662e-05   -4.210535554709878e-05
5.379748315347167e-05   -1.0056615515967662e-05   -4.210535554709878e-05
2.6217229226944348e-05   -6.233350827490776e-06   1.5677755173607044e-06
2.6217229226944348e-05   -6.233350827490776e-06   1.5677755173607044e-06
2.6217229226944348e-05   -6.233350827490776e-06   1.5677755173607044e-06
2.6217229226944348e-05   -6.233350827490776e-06   1.5677755173607044e-06
3.788451026871266e-05   -8.554957344102674e-06   -1.648472897561933e-05
3.788451026871266e-05   -8.554957344102674e-06   -1.648472897561933e-05
3.788451026871266e-05   -8.554957344102674e-06   -1.648472897561933e-05
3.788451026871266e-05   -8.554957344102674e-06   -1.648472897561933e-05
2.6217229226944334e-05   -1.0056615515967717e-05   -4.439931436018478e-05
2.6217229226944334e-05   -1.0056615515967717e-05   -4.439931436018478e-05
2.6217229226944334e-05   -1.0056615515967717e-05   -4.439931436018478e-05
2.6217229226944334e-05   -1.0056615515967717e-05   -4.439931436018478e-05
5.379748315347167e-05   -6.233350827490776e-06   3.861734330447004e-06
5.379748315347167e-05   -6.233350827490776e-06   3.861734330447004e-06
5.379748315347167e-05   -6.233350827490776e-06   3.861734330447004e-06
5.379748315347167e-05   -6.233350827490776e-06   3.861734330447004e-06
5.513926125833319e-05   -8.969246853483132e-06   -4.749282952976309e-05
5.513926125833319e-05   -8.969246853483132e-06   -4.749282952976309e-05
5.513926125833319e-05   -8.969246853483132e-06   -4.749282952976309e-05
5.513926125833319e-05   -8.969246853483132e-06   -4.749282952976309e-05
2.633804564405153e-05   -5.353621707762028e-06   -1.6601785933931744e-06
2.633804564405153e-05   -5.353621707762028e-06   -1.6601785933931744e-06
2.633804564405153e-05   -5.353621707762028e-06   -1.6601785933931744e-06
2.633804564405153e-05   -5.353621707762028e-06   -1.6601785933931744e-06
3.91673479327731e-05   -7.893923520858014e-06   -2.151816798673801e-05
3.91673479327731e-05   -7.893923520858014e-06   -2.151816798673801e-05
3.91673479327731e-05   -7.893923520858014e-06   -2.151816798673801e-05
3.91673479327731e-05   -7.893923520858014e-06   -2.151816798673801e-05
2.633804564405157e-05   -8.969246853483132e-06   -4.966220461719576e-05
2.633804564405157e-05   -8.969246853483132e-06   -4.966220461719576e-05
2.633804564405157e-05   -8.969246853483132e-06   -4.966220461719576e-05
2.633804564405157e-05   -8.969246853483132e-06   -4.966220461719576e-05
5.513926125833311e-05   -5.353621707762028e-06   5.091964940397804e-07
5.513926125833311e-05   -5.353621707762028e-06   5.091964940397804e-07
5.513926125833311e-05   -5.353621707762028e-06   5.091964940397804e-07
5.513926125833311e-05   -5.353621707762028e-06   5.091964940397804e-07
5.656794323754443e-05   -6.628952466712168e-06   -5.665605328154894e-05
5.656794323754443e-05   -6.628952466712168e-06   -5.665605328154894e-05
5.656794323754443e-05   -6.628952466712168e-06   -5.665605328154894e-05
5.656794323754443e-05   -6.628952466712168e-06   -5.665605328154894e-05
2.6133359526437066e-05   -3.4734397268798393e-06   -7.82505474026965e-06
2.6133359526437066e-05   -3.4734397268798393e-06   -7.82505474026965e-06
2.6133359526437066e-05   -3.4734397268798393e-06   -7.82505474026965e-06
2.6133359526437066e-05   -3.4734397268798393e-06   -7.82505474026965e-06
3.899580370346198e-05   -6.801777054458286e-06   -2.72654593054305e-05
3.899580370346198e-05   -6.801777054458286e-06   -2.72654593054305e-05
3.899580370346198e-05   -6.801777054458286e-06   -2.72654593054305e-05
3.899580370346198e-05   -6.801777054458286e-06   -2.72654593054305e-05
-6.25323758900686e-05   9.581361589026125e-06   -4.7546611897447515e-05
-6.25323758900686e-05   9.581361589026125e-06   -4.7546611897447515e-05
-6.25323758900686e-05   9.581361589026125e-06   -4.7546611897447515e-05
-6.25323758900686e-05   9.581361589026125e-06   -4.7546611897447515e-05
-4.256182901102201e-05   6.099137573547034e-06   -1.6351701508323883e-05
-4.256182901102201e-05   6.099137573547034e-06   -1.6351701508323883e-05
-4.256182901102201e-05   6.099137573547034e-06   -1.6351701508323883e-05
-4.256182901102201e-05   6.099137573547034e-06   -1.6351701508323883e-05
-4.2407222251414784e-05   1.1588242182651197e-05   -4.039201588542133e-05
-4.2407222251414784e-05   1.1588242182651197e-05   -4.039201588542133e-05
-4.2407222251414784e-05   1.1588242182651197e-05   -4.039201588542133e-05
-4.2407222251414784e-05   1.1588242182651197e-05   -4.039201588542133e-05
-6.066593085102354e-05   7.761225777418905e-06   -7.664625042933968e-06
-6.066593085102354e-05   7.761225777418905e-06   -7.664625042933968e-06
-6.066593085102354e-05   7.761225777418905e-06   -7.664625042933968e-06
-6.066593085102354e-05   7.761225777418905e-06   -7.664625042933968e-06
-4.983407862320995e-05   9.225519541605884e-06   -2.659628834780211e-05
-4.983407862320995e-05   9.225519541605884e-06   -2.659628834780211e-05
-4.983407862320995e-05   9.225519541605884e-06   -2.659628834780211e-05
-4.983407862320995e-05   9.225519541605884e-06   -2.659628834780211e-05
-6.066593085102354e-05   1.1588242182651197e-05   -3.8095806042282e-05
-6.066593085102354e-05   1.1588242182651197e-05   -3.8095806042282e-05
-6.066593085102354e-05   1.1588242182651197e-05   -3.8095806042282e-05
-6.066593085102354e-05   1.1588242182651197e-05   -3.8095806042282e-05
-4.2407222251414866e-05   7.761225777418905e-06   -9.960834886073366e-06
-4.2407222251414866e-05   7.761225777418905e-06   -9.960834886073366e-06
-4.2407222251414866e-05   7.761225777418905e-06   -9.960834886073366e-06
-4.2407222251414866e-05   7.761225777418905e-06   -9.960834886073366e-06
-4.208583223170307e-05   1.2469558473273356e-05   -3.5221390539752874e-05
-4.208583223170307e-05   1.2469558473273356e-05   -3.5221390539752874e-05
-4.208583223170307e-05   1.2469558473273356e-05   -3.5221390539752874e-05
-4.208583223170307e-05   1.2469558473273356e-05   -3.5221390539752874e-05
-5.927003989865599e-05   8.535112021692756e-06   -4.220376557216273e-06
-5.927003989865599e-05   8.535112021692756e-06   -4.220376557216273e-06
-5.927003989865599e-05   8.535112021692756e-06   -4.220376557216273e-06
-5.927003989865599e-05   8.535112021692756e-06   -4.220376557216273e-06
-4.983817993738901e-05   1.0152853235696757e-05   -2.091078788773028e-05
-4.983817993738901e-05   1.0152853235696757e-05   -2.091078788773028e-05
-4.983817993738901e-05   1.0152853235696757e-05   -2.091078788773028e-05
-4.983817993738901e-05   1.0152853235696757e-05   -2.091078788773028e-05
-5.927003989865599e-05   1.2469558473273356e-05   -3.286072266880447e-05
-5.927003989865599e-05   1.2469558473273356e-05   -3.286072266880447e-05
-5.927003989865599e-05   1.2469558473273356e-05   -3.286072266880447e-05
-5.927003989865599e-05   1.2469558473273356e-05   -3.286072266880447e-05
-4.208583223170315e-05   8.535112021692756e-06   -6.581044428164359e-06
-4.208583223170315e-05   8.535112021692756e-06   -6.581044428164359e-06
-4.208583223170315e-05   8.535112021692756e-06   -6.581044428164359e-06
-4.208583223170315e-05   8.535112021692756e-06   -6.581044428164359e-06
-4.195673925386201e-05   1.3335653644817261e-05   -2.8061950173702754e-05
-4.195673925386201e-05   1.3335653644817261e-05   -2.8061950173702754e-05
-4.195673925386201e-05   1.3335653644817261e-05   -2.8061950173702754e-05
-4.195673925386201e-05   1.3335653644817261e-05   -2.8061950173702754e-05
-5.744285009317142e-05   9.507456175631953e-06   4.515303999089431e-08
-5.744285009317142e-05   9.507456175631953e-06   4.515303999089431e-08
-5.744285009317142e-05   9.507456175631953e-06   4.515303999089431e-08
-5.744285009317142e-05   9.507456175631953e-06   4.515303999089431e-08
-4.836438119253762e-05   1.0654337627959685e-05   -1.5773757332462e-05
-4.836438119253762e-05   1.0654337627959685e-05   -1.5773757332462e-05
-4.836438119253762e-05   1.0654337627959685e-05   -1.5773757332462e-05
-4.836438119253762e-05   1.0654337627959685e-05   -1.5773757332462e-05
-4.256182901102193e-05   4.77584854435061e-06   -6.055189479903239e-05
-4.256182901102193e-05   4.77584854435061e-06   -6.055189479903239e-05
-4.256182901102193e-05   4.77584854435061e-06   -6.055189479903239e-05
-4.256182901102193e-05   4.77584854435061e-06   -6.055189479903239e-05
-2.4465431212139825e-05   3.150634795015539e-06   -3.13663600504967e-05
-2.4465431212139825e-05   3.150634795015539e-06   -3.13663600504967e-05
-2.4465431212139825e-05   3.150634795015539e-06   -3.13663600504967e-05
-2.4465431212139825e-05   3.150634795015539e-06   -3.13663600504967e-05
-2.447715863418565e-05   6.749234740729688e-06   -6.003322229084591e-05
-2.447715863418565e-05   6.749234740729688e-06   -6.003322229084591e-05
-2.447715863418565e-05   6.749234740729688e-06   -6.003322229084591e-05
-2.447715863418565e-05   6.749234740729688e-06   -6.003322229084591e-05
-4.2407222251414784e-05   4.904988934137074e-06   -2.9043235444841547e-05
-4.2407222251414784e-05   4.904988934137074e-06   -2.9043235444841547e-05
-4.2407222251414784e-05   4.904988934137074e-06   -2.9043235444841547e-05
-4.2407222251414784e-05   4.904988934137074e-06   -2.9043235444841547e-05
-3.316938650382353e-05   5.222248402750448e-06   -4.462998403866183e-05
-3.316938650382353e-05   5.222248402750448e-06   -4.462998403866183e-05
-3.316938650382353e-05   5.222248402750448e-06   -4.462998403866183e-05
-3.316938650382353e-05   5.222248402750448e-06   -4.462998403866183e-05
-4.240722225141476e-05   6.749234740729688e-06   -5.892667480688994e-05
-4.240722225141476e-05   6.749234740729688e-06   -5.892667480688994e-05
-4.240722225141476e-05   6.749234740729688e-06   -5.892667480688994e-05
-4.240722225141476e-05   6.749234740729688e-06   -5.892667480688994e-05
-2.447715863418565e-05   4.904988934137074e-06   -3.0149782928797164e-05
-2.447715863418565e-05   4.904988934137074e-06   -3.0149782928797164e-05
-2.447715863418565e-05   4.904988934137074e-06   -3.0149782928797164e-05
-2.447715863418565e-05   4.904988934137074e-06   -3.0149782928797164e-05
-2.4458803052560405e-05   8.501892180163141e-06   -5.868752206612121e-05
-2.4458803052560405e-05   8.501892180163141e-06   -5.868752206612121e-05
-2.4458803052560405e-05   8.501892180163141e-06   -5.868752206612121e-05
-2.4458803052560405e-05   8.501892180163141e-06   -5.868752206612121e-05
-4.208583223170307e-05   6.500810330038525e-06   -2.810849099080877e-05
-4.208583223170307e-05   6.500810330038525e-06   -2.810849099080877e-05
-4.208583223170307e-05   6.500810330038525e-06   -2.810849099080877e-05
-4.208583223170307e-05   6.500810330038525e-06   -2.810849099080877e-05
-3.301455809646062e-05   6.662483645734625e-06   -4.3324285205630076e-05
-3.301455809646062e-05   6.662483645734625e-06   -4.3324285205630076e-05
-3.301455809646062e-05   6.662483645734625e-06   -4.3324285205630076e-05
-3.301455809646062e-05   6.662483645734625e-06   -4.3324285205630076e-05
-4.208583223170307e-05   8.501892180163141e-06   -5.748687295604652e-05
-4.208583223170307e-05   8.501892180163141e-06   -5.748687295604652e-05
-4.208583223170307e-05   8.501892180163141e-06   -5.748687295604652e-05
-4.208583223170307e-05   8.501892180163141e-06   -5.748687295604652e-05
-2.4458803052560433e-05   6.500810330038525e-06   -2.9309140100883436e-05
-2.4458803052560433e-05   6.500810330038525e-06   -2.9309140100883436e-05
-2.4458803052560433e-05   6.500810330038525e-06   -2.9309140100883436e-05
-2.4458803052560433e-05   6.500810330038525e-06   -2.9309140100883436e-05
-2.4477988239708615e-05   1.0365719836653094e-05   -5.892389069766786e-05
-2.4477988239708615e-05   1.0365719836653094e-05   -5.892389069766786e-05
-2.4477988239708615e-05   1.0365719836653094e-05   -5.892389069766786e-05
-2.4477988239708615e-05   1.0365719836653094e-05   -5.892389069766786e-05
-4.195673925386204e-05   8.233679930043977e-06   -2.851341506344637e-05
-4.195673925386204e-05   8.233679930043977e-06   -2.851341506344637e-05
-4.195673925386204e-05   8.233679930043977e-06   -2.851341506344637e-05
-4.195673925386204e-05   8.233679930043977e-06   -2.851341506344637e-05
-3.322807210109617e-05   8.08674084980818e-06   -4.2973030203248075e-05
-3.322807210109617e-05   8.08674084980818e-06   -4.2973030203248075e-05
-3.322807210109617e-05   8.08674084980818e-06   -4.2973030203248075e-05
-3.322807210109617e-05   8.08674084980818e-06   -4.2973030203248075e-05
-2.4465431212139784e-05   2.539306507791774e-07   -6.682212449815708e-05
-2.4465431212139784e-05   2.539306507791774e-07   -6.682212449815708e-05
-2.4465431212139784e-05   2.539306507791774e-07   -6.682212449815708e-05
-2.4465431212139784e-05   2.539306507791774e-07   -6.682212449815708e-05
-6.622908912414025e-06   5.407846057343783e-07   -3.691247495897444e-05
-6.622908912414025e-06   5.407846057343783e-07   -3.691247495897444e-05
-6.622908912414025e-06   5.407846057343783e-07   -3.691247495897444e-05
-6.622908912414025e-06   5.407846057343783e-07   -3.691247495897444e-05
-6.635217936954556e-06   2.195957622801452e-06   -6.608605429564906e-05
-6.635217936954556e-06   2.195957622801452e-06   -6.608605429564906e-05
-6.635217936954556e-06   2.195957622801452e-06   -6.608605429564906e-05
-6.635217936954556e-06   2.195957622801452e-06   -6.608605429564906e-05
-2.4477158634185597e-05   2.3041109001725735e-06   -3.641437843335339e-05
-2.4477158634185597e-05   2.3041109001725735e-06   -3.641437843335339e-05
-2.4477158634185597e-05   2.3041109001725735e-06   -3.641437843335339e-05
-2.4477158634185597e-05   2.3041109001725735e-06   -3.641437843335339e-05
-1.5447004012277577e-05   1.55133441035371e-06   -5.101297024264205e-05
-1.5447004012277577e-05   1.55133441035371e-06   -5.101297024264205e-05
-1.5447004012277577e-05   1.55133441035371e-06   -5.101297024264205e-05
-1.5447004012277577e-05   1.55133441035371e-06   -5.101297024264205e-05
-2.4477158634185597e-05   2.195957622801452e-06   -6.61509462620718e-05
-2.4477158634185597e-05   2.195957622801452e-06   -6.61509462620718e-05
-2.4477158634185597e-05   2.195957622801452e-06   -6.61509462620718e-05
-2.4477158634185597e-05   2.195957622801452e-06   -6.61509462620718e-05
-6.635217936954556e-06   2.3041109001725735e-06   -3.6349486466930676e-05
-6.635217936954556e-06   2.3041109001725735e-06   -3.6349486466930676e-05
-6.635217936954556e-06   2.3041109001725735e-06   -3.6349486466930676e-05
-6.635217936954556e-06   2.3041109001725735e-06   -3.6349486466930676e-05
-6.6115386753970695e-06   4.132147266191545e-06   -6.625487001453662e-05
-6.6115386753970695e-06   4.132147266191545e-06   -6.625487001453662e-05
-6.6115386753970695e-06   4.132147266191545e-06   -6.625487001453662e-05
-6.6115386753970695e-06   4.132147266191545e-06   -6.625487001453662e-05
-2.4458803052560405e-05   4.073065691205351e-06   -3.647398044093932e-05
-2.4458803052560405e-05   4.073065691205351e-06   -3.647398044093932e-05
-2.4458803052560405e-05   4.073065691205351e-06   -3.647398044093932e-05
-2.4458803052560405e-05   4.073065691205351e-06   -3.647398044093932e-05
-1.55501466089237e-05   3.0935547455879188e-06   -5.0734034612963434e-05
-1.55501466089237e-05   3.0935547455879188e-06   -5.0734034612963434e-05
-1.55501466089237e-05   3.0935547455879188e-06   -5.0734034612963434e-05
-1.55501466089237e-05   3.0935547455879188e-06   -5.0734034612963434e-05
-2.4458803052560405e-05   4.132147266191545e-06   -6.621942106954486e-05
-2.4458803052560405e-05   4.132147266191545e-06   -6.621942106954486e-05
-2.4458803052560405e-05   4.132147266191545e-06   -6.621942106954486e-05
-2.4458803052560405e-05   4.132147266191545e-06   -6.621942106954486e-05
-6.611538675397081e-06   4.073065691205351e-06   -3.6509429385930944e-05
-6.611538675397081e-06   4.073065691205351e-06   -3.6509429385930944e-05
-6.611538675397081e-06   4.073065691205351e-06   -3.6509429385930944e-05
-6.611538675397081e-06   4.073065691205351e-06   -3.6509429385930944e-05
-6.621817368391445e-06   6.1134005665719644e-06   -6.725707550159351e-05
-6.621817368391445e-06   6.1134005665719644e-06   -6.725707550159351e-05
-6.621817368391445e-06   6.1134005665719644e-06   -6.725707550159351e-05
-6.621817368391445e-06   6.1134005665719644e-06   -6.725707550159351e-05
-2.4477988239708588e-05   5.87294920899404e-06   -3.7352519901517715e-05
-2.4477988239708588e-05   5.87294920899404e-06   -3.7352519901517715e-05
-2.4477988239708588e-05   5.87294920899404e-06   -3.7352519901517715e-05
-2.4477988239708588e-05   5.87294920899404e-06   -3.7352519901517715e-05
-1.5683576571652834e-05   4.656024004055055e-06   -5.127971755864745e-05
-1.5683576571652834e-05   4.656024004055055e-06   -5.127971755864745e-05
-1.5683576571652834e-05   4.656024004055055e-06   -5.127971755864745e-05
-1.5683576571652834e-05   4.656024004055055e-06   -5.127971755864745e-05
-6.622908912414014e-06   -3.999352865783116e-06   -5.917481423046891e-05
-6.622908912414014e-06   -3.999352865783116e-06   -5.917481423046891e-05
-6.622908912414014e-06   -3.999352865783116e-06   -5.917481423046891e-05
-6.622908912414014e-06   -3.999352865783116e-06   -5.917481423046891e-05
1.096362516249165e-05   -1.8465020008044328e-06   -2.857221358663908e-05
1.096362516249165e-05   -1.8465020008044328e-06   -2.857221358663908e-05
1.096362516249165e-05   -1.8465020008044328e-06   -2.857221358663908e-05
1.096362516249165e-05   -1.8465020008044328e-06   -2.857221358663908e-05
1.1107350224176646e-05   -2.219911529025031e-06   -5.7832375036581554e-05
1.1107350224176646e-05   -2.219911529025031e-06   -5.7832375036581554e-05
1.1107350224176646e-05   -2.219911529025031e-06   -5.7832375036581554e-05
1.1107350224176646e-05   -2.219911529025031e-06   -5.7832375036581554e-05
-6.635217936954556e-06   -1.8618060164030635e-07   -2.948166665779375e-05
-6.635217936954556e-06   -1.8618060164030635e-07   -2.948166665779375e-05
-6.635217936954556e-06   -1.8618060164030635e-07   -2.948166665779375e-05
-6.635217936954556e-06   -1.8618060164030635e-07   -2.948166665779375e-05
2.2130140605273403e-06   -1.9098034376259163e-06   -4.319454628533894e-05
2.2130140605273403e-06   -1.9098034376259163e-06   -4.319454628533894e-05
2.2130140605273403e-06   -1.9098034376259163e-06   -4.319454628533894e-05
2.2130140605273403e-06   -1.9098034376259163e-06   -4.319454628533894e-05
-6.635217936954556e-06   -2.219911529025031e-06   -5.905261359301237e-05
-6.635217936954556e-06   -2.219911529025031e-06   -5.905261359301237e-05
-6.635217936954556e-06   -2.219911529025031e-06   -5.905261359301237e-05
-6.635217936954556e-06   -2.219911529025031e-06   -5.905261359301237e-05
1.1107350224176686e-05   -1.861806016400895e-07   -2.826142810136308e-05
1.1107350224176686e-05   -1.861806016400895e-07   -2.826142810136308e-05
1.1107350224176686e-05   -1.861806016400895e-07   -2.826142810136308e-05
1.1107350224176686e-05   -1.861806016400895e-07   -2.826142810136308e-05
1.144517322472807e-05   -4.708099839499484e-07   -5.905098984230946e-05
1.144517322472807e-05   -4.708099839499484e-07   -5.905098984230946e-05
1.144517322472807e-05   -4.708099839499484e-07   -5.905098984230946e-05
1.144517322472807e-05   -4.708099839499484e-07   -5.905098984230946e-05
-6.611538675397081e-06   1.411621390408303e-06   -3.00859288333826e-05
-6.611538675397081e-06   1.411621390408303e-06   -3.00859288333826e-05
-6.611538675397081e-06   1.411621390408303e-06   -3.00859288333826e-05
-6.611538675397081e-06   1.411621390408303e-06   -3.00859288333826e-05
2.111473883247071e-06   -5.287194069026127e-07   -4.346007861940303e-05
2.111473883247071e-06   -5.287194069026127e-07   -4.346007861940303e-05
2.111473883247071e-06   -5.287194069026127e-07   -4.346007861940303e-05
2.111473883247071e-06   -5.287194069026127e-07   -4.346007861940303e-05
-6.6115386753970754e-06   -4.708099839499484e-07   -6.018044866692426e-05
-6.6115386753970754e-06   -4.708099839499484e-07   -6.018044866692426e-05
-6.6115386753970754e-06   -4.708099839499484e-07   -6.018044866692426e-05
-6.6115386753970754e-06   -4.708099839499484e-07   -6.018044866692426e-05
1.1445173224728096e-05   1.411621390408303e-06   -2.8956470008767487e-05
1.1445173224728096e-05   1.411621390408303e-06   -2.8956470008767487e-05
1.1445173224728096e-05   1.411621390408303e-06   -2.8956470008767487e-05
1.1445173224728096e-05   1.411621390408303e-06   -2.8956470008767487e-05
1.1610277488295341e-05   1.5748861198827202e-06   -6.079205101006856e-05
1.1610277488295341e-05   1.5748861198827202e-06   -6.079205101006856e-05
1.1610277488295341e-05   1.5748861198827202e-06   -6.079205101006856e-05
1.1610277488295341e-05   1.5748861198827202e-06   -6.079205101006856e-05
-6.621817368391434e-06   3.243501946064136e-06   -3.140639574463281e-05
-6.621817368391434e-06   3.243501946064136e-06   -3.140639574463281e-05
-6.621817368391434e-06   3.243501946064136e-06   -3.140639574463281e-05
-6.621817368391434e-06   3.243501946064136e-06   -3.140639574463281e-05
2.172933139733261e-06   9.491368562235996e-07   -4.4687694204269415e-05
2.172933139733261e-06   9.491368562235996e-07   -4.4687694204269415e-05
2.172933139733261e-06   9.491368562235996e-07   -4.4687694204269415e-05
2.172933139733261e-06   9.491368562235996e-07   -4.4687694204269415e-05
1.0963625162491636e-05   -7.25772628548942e-06   -3.2520390969104334e-05
1.0963625162491636e-05   -7.25772628548942e-06   -3.2520390969104334e-05
1.0963625162491636e-05   -7.25772628548942e-06   -3.2520390969104334e-05
1.0963625162491636e-05   -7.25772628548942e-06   -3.2520390969104334e-05
2.6596544133119436e-05   -3.396252450660114e-06   -4.148641717160247e-06
2.6596544133119436e-05   -3.396252450660114e-06   -4.148641717160247e-06
2.6596544133119436e-05   -3.396252450660114e-06   -4.148641717160247e-06
2.6596544133119436e-05   -3.396252450660114e-06   -4.148641717160247e-06
2.844851619158333e-05   -6.233350827490776e-06   -3.415939885236674e-05
2.844851619158333e-05   -6.233350827490776e-06   -3.415939885236674e-05
2.844851619158333e-05   -6.233350827490776e-06   -3.415939885236674e-05
2.844851619158333e-05   -6.233350827490776e-06   -3.415939885236674e-05
1.1107350224176673e-05   -2.2724007495704586e-06   -7.634025620107749e-06
1.1107350224176673e-05   -2.2724007495704586e-06   -7.634025620107749e-06
1.1107350224176673e-05   -2.2724007495704586e-06   -7.634025620107749e-06
1.1107350224176673e-05   -2.2724007495704586e-06   -7.634025620107749e-06
1.8456972100209086e-05   -4.641660190241015e-06   -1.8461839749092798e-05
1.8456972100209086e-05   -4.641660190241015e-06   -1.8461839749092798e-05
1.8456972100209086e-05   -4.641660190241015e-06   -1.8461839749092798e-05
1.8456972100209086e-05   -4.641660190241015e-06   -1.8461839749092798e-05
1.110735022417666e-05   -6.233350827490776e-06   -3.653596889911857e-05
1.110735022417666e-05   -6.233350827490776e-06   -3.653596889911857e-05
1.110735022417666e-05   -6.233350827490776e-06   -3.653596889911857e-05
1.110735022417666e-05   -6.233350827490776e-06   -3.653596889911857e-05
2.8448516191583248e-05   -2.2724007495704586e-06   -5.257455573355672e-06
2.8448516191583248e-05   -2.2724007495704586e-06   -5.257455573355672e-06
2.8448516191583248e-05   -2.2724007495704586e-06   -5.257455573355672e-06
2.8448516191583248e-05   -2.2724007495704586e-06   -5.257455573355672e-06
2.987345137449898e-05   -5.353621707762028e-06   -3.7462985677273215e-05
2.987345137449898e-05   -5.353621707762028e-06   -3.7462985677273215e-05
2.987345137449898e-05   -5.353621707762028e-06   -3.7462985677273215e-05
2.987345137449898e-05   -5.353621707762028e-06   -3.7462985677273215e-05
1.1445173224728096e-05   -1.495887743201878e-06   -9.063829139724643e-06
1.1445173224728096e-05   -1.495887743201878e-06   -9.063829139724643e-06
1.1445173224728096e-05   -1.495887743201878e-06   -9.063829139724643e-06
1.1445173224728096e-05   -1.495887743201878e-06   -9.063829139724643e-06
1.958998433334921e-05   -4.064843399453704e-06   -2.1097140927008593e-05
1.958998433334921e-05   -4.064843399453704e-06   -2.1097140927008593e-05
1.958998433334921e-05   -4.064843399453704e-06   -2.1097140927008593e-05
1.958998433334921e-05   -4.064843399453704e-06   -2.1097140927008593e-05
1.1445173224728083e-05   -5.353621707762028e-06   -3.977762605600929e-05
1.1445173224728083e-05   -5.353621707762028e-06   -3.977762605600929e-05
1.1445173224728083e-05   -5.353621707762028e-06   -3.977762605600929e-05
1.1445173224728083e-05   -5.353621707762028e-06   -3.977762605600929e-05
2.987345137449887e-05   -1.4958877432016612e-06   -6.74918876098819e-06
2.987345137449887e-05   -1.4958877432016612e-06   -6.74918876098819e-06
2.987345137449887e-05   -1.4958877432016612e-06   -6.74918876098819e-06
2.987345137449887e-05   -1.4958877432016612e-06   -6.74918876098819e-06
3.176632448952834e-05   -3.4734397268798393e-06   -4.3795756031474956e-05
3.176632448952834e-05   -3.4734397268798393e-06   -4.3795756031474956e-05
3.176632448952834e-05   -3.4734397268798393e-06   -4.3795756031474956e-05
3.176632448952834e-05   -3.4734397268798393e-06   -4.3795756031474956e-05
1.1610277488295355e-05   3.1836828094829184e-08   -1.2305510295737874e-05
1.1610277488295355e-05   3.1836828094829184e-08   -1.2305510295737874e-05
1.1610277488295355e-05   3.1836828094829184e-08   -1.2305510295737874e-05
1.1610277488295355e-05   3.1836828094829184e-08   -1.2305510295737874e-05
1.9965242168205048e-05   -3.2050093387557283e-06   -2.4288343728810628e-05
1.9965242168205048e-05   -3.2050093387557283e-06   -2.4288343728810628e-05
1.9965242168205048e-05   -3.2050093387557283e-06   -2.4288343728810628e-05
1.9965242168205048e-05   -3.2050093387557283e-06   -2.4288343728810628e-05
-3.7888165455583506e-05   6.099137573547251e-06   -3.548384397914948e-05
-3.7888165455583506e-05   6.099137573547251e-06   -3.548384397914948e-05
-3.7888165455583506e-05   6.099137573547251e-06   -3.548384397914948e-05
-3.7888165455583506e-05   6.099137573547251e-06   -3.548384397914948e-05
-2.7956843999932268e-05   2.4881619807826626e-06   -2.1098226908722762e-05
-2.7956843999932268e-05   2.4881619807826626e-06   -2.1098226908722762e-05
-2.7956843999932268e-05   2.4881619807826626e-06   -2.1098226908722762e-05
-2.7956843999932268e-05   2.4881619807826626e-06   -2.1098226908722762e-05
-2.7544603354558704e-05   7.761225777418905e-06   -3.130304130706096e-05
-2.7544603354558704e-05   7.761225777418905e-06   -3.130304130706096e-05
-2.7544603354558704e-05   7.761225777418905e-06   -3.130304130706096e-05
-2.7544603354558704e-05   7.761225777418905e-06   -3.130304130706096e-05
-3.583177349627094e-05   3.871870305116945e-06   -1.5157477787492422e-05
-3.583177349627094e-05   3.871870305116945e-06   -1.5157477787492422e-05
-3.583177349627094e-05   3.871870305116945e-06   -1.5157477787492422e-05
-3.583177349627094e-05   3.871870305116945e-06   -1.5157477787492422e-05
-3.09365830972584e-05   5.47029138052023e-06   -2.4275181097756834e-05
-3.09365830972584e-05   5.47029138052023e-06   -2.4275181097756834e-05
-3.09365830972584e-05   5.47029138052023e-06   -2.4275181097756834e-05
-3.09365830972584e-05   5.47029138052023e-06   -2.4275181097756834e-05
-3.583177349627094e-05   7.761225777418905e-06   -2.8969428023679976e-05
-3.583177349627094e-05   7.761225777418905e-06   -2.8969428023679976e-05
-3.583177349627094e-05   7.761225777418905e-06   -2.8969428023679976e-05
-3.583177349627094e-05   7.761225777418905e-06   -2.8969428023679976e-05
-2.7544603354558758e-05   3.871870305117162e-06   -1.74910910708737e-05
-2.7544603354558758e-05   3.871870305117162e-06   -1.74910910708737e-05
-2.7544603354558758e-05   3.871870305117162e-06   -1.74910910708737e-05
-2.7544603354558758e-05   3.871870305117162e-06   -1.74910910708737e-05
-2.695656240006046e-05   8.535112021692756e-06   -2.79523625539165e-05
-2.695656240006046e-05   8.535112021692756e-06   -2.79523625539165e-05
-2.695656240006046e-05   8.535112021692756e-06   -2.79523625539165e-05
-2.695656240006046e-05   8.535112021692756e-06   -2.79523625539165e-05
-3.4190523093385633e-05   4.5704114077205725e-06   -1.3516941029991002e-05
-3.4190523093385633e-05   4.5704114077205725e-06   -1.3516941029991002e-05
-3.4190523093385633e-05   4.5704114077205725e-06   -1.3516941029991002e-05
-3.4190523093385633e-05   4.5704114077205725e-06   -1.3516941029991002e-05
-3.0393716810519258e-05   6.216692519785084e-06   -2.083272016867386e-05
-3.0393716810519258e-05   6.216692519785084e-06   -2.083272016867386e-05
-3.0393716810519258e-05   6.216692519785084e-06   -2.083272016867386e-05
-3.0393716810519258e-05   6.216692519785084e-06   -2.083272016867386e-05
-3.4190523093385633e-05   8.535112021692756e-06   -2.5573542185533104e-05
-3.4190523093385633e-05   8.535112021692756e-06   -2.5573542185533104e-05
-3.4190523093385633e-05   8.535112021692756e-06   -2.5573542185533104e-05
-3.4190523093385633e-05   8.535112021692756e-06   -2.5573542185533104e-05
-2.6956562400060513e-05   4.5704114077205725e-06   -1.5895761398374453e-05
-2.6956562400060513e-05   4.5704114077205725e-06   -1.5895761398374453e-05
-2.6956562400060513e-05   4.5704114077205725e-06   -1.5895761398374453e-05
-2.6956562400060513e-05   4.5704114077205725e-06   -1.5895761398374453e-05
-2.655509344987744e-05   9.507456175631953e-06   -2.3652643646914938e-05
-2.655509344987744e-05   9.507456175631953e-06   -2.3652643646914938e-05
-2.655509344987744e-05   9.507456175631953e-06   -2.3652643646914938e-05
-2.655509344987744e-05   9.507456175631953e-06   -2.3652643646914938e-05
-3.210039682800483e-05   5.676648080340293e-06   -1.2111986492860686e-05
-3.210039682800483e-05   5.676648080340293e-06   -1.2111986492860686e-05
-3.210039682800483e-05   5.676648080340293e-06   -1.2111986492860686e-05
-3.210039682800483e-05   5.676648080340293e-06   -1.2111986492860686e-05
-2.897284830173194e-05   6.733255186677865e-06   -1.79585316337856e-05
-2.897284830173194e-05   6.733255186677865e-06   -1.79585316337856e-05
-2.897284830173194e-05   6.733255186677865e-06   -1.79585316337856e-05
-2.897284830173194e-05   6.733255186677865e-06   -1.79585316337856e-05
-2.7956843999932268e-05   3.150634795015539e-06   -5.1689959627379675e-05
-2.7956843999932268e-05   3.150634795015539e-06   -5.1689959627379675e-05
-2.7956843999932268e-05   3.150634795015539e-06   -5.1689959627379675e-05
-2.7956843999932268e-05   3.150634795015539e-06   -5.1689959627379675e-05
-1.9889804579751983e-05   1.425378190376362e-06   -3.928004788986275e-05
-1.9889804579751983e-05   1.425378190376362e-06   -3.928004788986275e-05
-1.9889804579751983e-05   1.425378190376362e-06   -3.928004788986275e-05
-1.9889804579751983e-05   1.425378190376362e-06   -3.928004788986275e-05
-1.9619166125880592e-05   4.904988934137074e-06   -5.152141569102946e-05
-1.9619166125880592e-05   4.904988934137074e-06   -5.152141569102946e-05
-1.9619166125880592e-05   4.904988934137074e-06   -5.152141569102946e-05
-1.9619166125880592e-05   4.904988934137074e-06   -5.152141569102946e-05
-2.7544603354558812e-05   3.0116992254698716e-06   -3.7176379818031774e-05
-2.7544603354558812e-05   3.0116992254698716e-06   -3.7176379818031774e-05
-2.7544603354558812e-05   3.0116992254698716e-06   -3.7176379818031774e-05
-2.7544603354558812e-05   3.0116992254698716e-06   -3.7176379818031774e-05
-2.352106483495264e-05   3.426764511662043e-06   -4.4131316522425174e-05
-2.352106483495264e-05   3.426764511662043e-06   -4.4131316522425174e-05
-2.352106483495264e-05   3.426764511662043e-06   -4.4131316522425174e-05
-2.352106483495264e-05   3.426764511662043e-06   -4.4131316522425174e-05
-2.754460335455865e-05   4.904988934137074e-06   -5.038544186582877e-05
-2.754460335455865e-05   4.904988934137074e-06   -5.038544186582877e-05
-2.754460335455865e-05   4.904988934137074e-06   -5.038544186582877e-05
-2.754460335455865e-05   4.904988934137074e-06   -5.038544186582877e-05
-1.9619166125880592e-05   3.0116992254698716e-06   -3.83123536432323e-05
-1.9619166125880592e-05   3.0116992254698716e-06   -3.83123536432323e-05
-1.9619166125880592e-05   3.0116992254698716e-06   -3.83123536432323e-05
-1.9619166125880592e-05   3.0116992254698716e-06   -3.83123536432323e-05
-1.9320368859872467e-05   6.500810330038525e-06   -5.068854943800281e-05
-1.9320368859872467e-05   6.500810330038525e-06   -5.068854943800281e-05
-1.9320368859872467e-05   6.500810330038525e-06   -5.068854943800281e-05
-1.9320368859872467e-05   6.500810330038525e-06   -5.068854943800281e-05
-2.6956562400060567e-05   4.486243127635155e-06   -3.675281988291365e-05
-2.6956562400060567e-05   4.486243127635155e-06   -3.675281988291365e-05
-2.6956562400060567e-05   4.486243127635155e-06   -3.675281988291365e-05
-2.6956562400060567e-05   4.486243127635155e-06   -3.675281988291365e-05
-2.3165548770731913e-05   4.708817387266348e-06   -4.3204720487573115e-05
-2.3165548770731913e-05   4.708817387266348e-06   -4.3204720487573115e-05
-2.3165548770731913e-05   4.708817387266348e-06   -4.3204720487573115e-05
-2.3165548770731913e-05   4.708817387266348e-06   -4.3204720487573115e-05
-2.695656240006046e-05   6.500810330038525e-06   -4.9479809116560595e-05
-2.695656240006046e-05   6.500810330038525e-06   -4.9479809116560595e-05
-2.695656240006046e-05   6.500810330038525e-06   -4.9479809116560595e-05
-2.695656240006046e-05   6.500810330038525e-06   -4.9479809116560595e-05
-1.9320368859872413e-05   4.486243127635155e-06   -3.796156020435565e-05
-1.9320368859872413e-05   4.486243127635155e-06   -3.796156020435565e-05
-1.9320368859872413e-05   4.486243127635155e-06   -3.796156020435565e-05
-1.9320368859872413e-05   4.486243127635155e-06   -3.796156020435565e-05
-1.9054363504722848e-05   8.23367993004376e-06   -5.1179957436059626e-05
-1.9054363504722848e-05   8.23367993004376e-06   -5.1179957436059626e-05
-1.9054363504722848e-05   8.23367993004376e-06   -5.1179957436059626e-05
-1.9054363504722848e-05   8.23367993004376e-06   -5.1179957436059626e-05
-2.6555093449877494e-05   6.124239651346874e-06   -3.741307669358326e-05
-2.6555093449877494e-05   6.124239651346874e-06   -3.741307669358326e-05
-2.6555093449877494e-05   6.124239651346874e-06   -3.741307669358326e-05
-2.6555093449877494e-05   6.124239651346874e-06   -3.741307669358326e-05
-2.3025763900276643e-05   6.006846385694627e-06   -4.3224856650193725e-05
-2.3025763900276643e-05   6.006846385694627e-06   -4.3224856650193725e-05
-2.3025763900276643e-05   6.006846385694627e-06   -4.3224856650193725e-05
-2.3025763900276643e-05   6.006846385694627e-06   -4.3224856650193725e-05
-1.9889804579751902e-05   5.407846057343783e-07   -5.8443340871614066e-05
-1.9889804579751902e-05   5.407846057343783e-07   -5.8443340871614066e-05
-1.9889804579751902e-05   5.407846057343783e-07   -5.8443340871614066e-05
-1.9889804579751902e-05   5.407846057343783e-07   -5.8443340871614066e-05
-1.2030802005648721e-05   8.148465261282982e-07   -4.518056609587246e-05
-1.2030802005648721e-05   8.148465261282982e-07   -4.518056609587246e-05
-1.2030802005648721e-05   8.148465261282982e-07   -4.518056609587246e-05
-1.2030802005648721e-05   8.148465261282982e-07   -4.518056609587246e-05
-1.176687425896879e-05   2.3041109001725735e-06   -5.771047864189065e-05
-1.176687425896879e-05   2.3041109001725735e-06   -5.771047864189065e-05
-1.176687425896879e-05   2.3041109001725735e-06   -5.771047864189065e-05
-1.176687425896879e-05   2.3041109001725735e-06   -5.771047864189065e-05
-1.9619166125880592e-05   2.4299984896644037e-06   -4.469885808406563e-05
-1.9619166125880592e-05   2.4299984896644037e-06   -4.469885808406563e-05
-1.9619166125880592e-05   2.4299984896644037e-06   -4.469885808406563e-05
-1.9619166125880592e-05   2.4299984896644037e-06   -4.469885808406563e-05
-1.572530965833816e-05   1.7469724971047162e-06   -5.077880326776835e-05
-1.572530965833816e-05   1.7469724971047162e-06   -5.077880326776835e-05
-1.572530965833816e-05   1.7469724971047162e-06   -5.077880326776835e-05
-1.572530965833816e-05   1.7469724971047162e-06   -5.077880326776835e-05
-1.9619166125880538e-05   2.3041109001725735e-06   -5.7786011195585575e-05
-1.9619166125880538e-05   2.3041109001725735e-06   -5.7786011195585575e-05
-1.9619166125880538e-05   2.3041109001725735e-06   -5.7786011195585575e-05
-1.9619166125880538e-05   2.3041109001725735e-06   -5.7786011195585575e-05
-1.176687425896879e-05   2.4299984896644037e-06   -4.462332553037082e-05
-1.176687425896879e-05   2.4299984896644037e-06   -4.462332553037082e-05
-1.176687425896879e-05   2.4299984896644037e-06   -4.462332553037082e-05
-1.176687425896879e-05   2.4299984896644037e-06   -4.462332553037082e-05
-1.1470237855416441e-05   4.073065691205134e-06   -5.786163426511762e-05
-1.1470237855416441e-05   4.073065691205134e-06   -5.786163426511762e-05
-1.1470237855416441e-05   4.073065691205134e-06   -5.786163426511762e-05
-1.1470237855416441e-05   4.073065691205134e-06   -5.786163426511762e-05
-1.9320368859872413e-05   4.059324879440241e-06   -4.476983810396503e-05
-1.9320368859872413e-05   4.059324879440241e-06   -4.476983810396503e-05
-1.9320368859872413e-05   4.059324879440241e-06   -4.476983810396503e-05
-1.9320368859872413e-05   4.059324879440241e-06   -4.476983810396503e-05
-1.5547838104814734e-05   3.1342804993187735e-06   -5.0502362734321596e-05
-1.5547838104814734e-05   3.1342804993187735e-06   -5.0502362734321596e-05
-1.5547838104814734e-05   3.1342804993187735e-06   -5.0502362734321596e-05
-1.5547838104814734e-05   3.1342804993187735e-06   -5.0502362734321596e-05
-1.9320368859872386e-05   4.073065691205351e-06   -5.7853389778058316e-05
-1.9320368859872386e-05   4.073065691205351e-06   -5.7853389778058316e-05
-1.9320368859872386e-05   4.073065691205351e-06   -5.7853389778058316e-05
-1.9320368859872386e-05   4.073065691205351e-06   -5.7853389778058316e-05
-1.147023785541646e-05   4.059324879440241e-06   -4.4778082591024064e-05
-1.147023785541646e-05   4.059324879440241e-06   -4.4778082591024064e-05
-1.147023785541646e-05   4.059324879440241e-06   -4.4778082591024064e-05
-1.147023785541646e-05   4.059324879440241e-06   -4.4778082591024064e-05
-1.1203645585538664e-05   5.87294920899404e-06   -5.883568097695747e-05
-1.1203645585538664e-05   5.87294920899404e-06   -5.883568097695747e-05
-1.1203645585538664e-05   5.87294920899404e-06   -5.883568097695747e-05
-1.1203645585538664e-05   5.87294920899404e-06   -5.883568097695747e-05
-1.9054363504722848e-05   5.713211464340468e-06   -4.565530846485806e-05
-1.9054363504722848e-05   5.713211464340468e-06   -4.565530846485806e-05
-1.9054363504722848e-05   5.713211464340468e-06   -4.565530846485806e-05
-1.9054363504722848e-05   5.713211464340468e-06   -4.565530846485806e-05
-1.540082033680553e-05   4.540023434627862e-06   -5.104063426022645e-05
-1.540082033680553e-05   4.540023434627862e-06   -5.104063426022645e-05
-1.540082033680553e-05   4.540023434627862e-06   -5.104063426022645e-05
-1.540082033680553e-05   4.540023434627862e-06   -5.104063426022645e-05
-1.203080200564868e-05   -1.8465020008046496e-06   -5.123035286602935e-05
-1.203080200564868e-05   -1.8465020008046496e-06   -5.123035286602935e-05
-1.203080200564868e-05   -1.8465020008046496e-06   -5.123035286602935e-05
-1.203080200564868e-05   -1.8465020008046496e-06   -5.123035286602935e-05
-4.4053746508429515e-06   3.4459607884903577e-07   -3.720664842689456e-05
-4.4053746508429515e-06   3.4459607884903577e-07   -3.720664842689456e-05
-4.4053746508429515e-06   3.4459607884903577e-07   -3.720664842689456e-05
-4.4053746508429515e-06   3.4459607884903577e-07   -3.720664842689456e-05
-4.0117522799026505e-06   -1.8618060164030635e-07   -4.958572249874019e-05
-4.0117522799026505e-06   -1.8618060164030635e-07   -4.958572249874019e-05
-4.0117522799026505e-06   -1.8618060164030635e-07   -4.958572249874019e-05
-4.0117522799026505e-06   -1.8618060164030635e-07   -4.958572249874019e-05
-1.1766874258968768e-05   1.9087132883822532e-06   -3.7917455534309855e-05
-1.1766874258968768e-05   1.9087132883822532e-06   -3.7917455534309855e-05
-1.1766874258968768e-05   1.9087132883822532e-06   -3.7917455534309855e-05
-1.1766874258968768e-05   1.9087132883822532e-06   -3.7917455534309855e-05
-7.972466695016875e-06   2.18599427743299e-07   -4.322739982451373e-05
-7.972466695016875e-06   2.18599427743299e-07   -4.322739982451373e-05
-7.972466695016875e-06   2.18599427743299e-07   -4.322739982451373e-05
-7.972466695016875e-06   2.18599427743299e-07   -4.322739982451373e-05
-1.1766874258968748e-05   -1.8618060164030635e-07   -5.0842658832753705e-05
-1.1766874258968748e-05   -1.8618060164030635e-07   -5.0842658832753705e-05
-1.1766874258968748e-05   -1.8618060164030635e-07   -5.0842658832753705e-05
-1.1766874258968748e-05   -1.8618060164030635e-07   -5.0842658832753705e-05
-4.0117522799026505e-06   1.9087132883822532e-06   -3.666051920029657e-05
-4.0117522799026505e-06   1.9087132883822532e-06   -3.666051920029657e-05
-4.0117522799026505e-06   1.9087132883822532e-06   -3.666051920029657e-05
-4.0117522799026505e-06   1.9087132883822532e-06   -3.666051920029657e-05
-3.4285070503349687e-06   1.411621390408303e-06   -5.0255259221550176e-05
-3.4285070503349687e-06   1.411621390408303e-06   -5.0255259221550176e-05
-3.4285070503349687e-06   1.411621390408303e-06   -5.0255259221550176e-05
-3.4285070503349687e-06   1.411621390408303e-06   -5.0255259221550176e-05
-1.1470237855416441e-05   3.3830788754396317e-06   -3.803524903743304e-05
-1.1470237855416441e-05   3.3830788754396317e-06   -3.803524903743304e-05
-1.1470237855416441e-05   3.3830788754396317e-06   -3.803524903743304e-05
-1.1470237855416441e-05   3.3830788754396317e-06   -3.803524903743304e-05
-7.734122545794595e-06   1.4811975457833422e-06   -4.3120979089009094e-05
-7.734122545794595e-06   1.4811975457833422e-06   -4.3120979089009094e-05
-7.734122545794595e-06   1.4811975457833422e-06   -4.3120979089009094e-05
-7.734122545794595e-06   1.4811975457833422e-06   -4.3120979089009094e-05
-1.147023785541641e-05   1.411621390408303e-06   -5.143813371256869e-05
-1.147023785541641e-05   1.411621390408303e-06   -5.143813371256869e-05
-1.147023785541641e-05   1.411621390408303e-06   -5.143813371256869e-05
-1.147023785541641e-05   1.411621390408303e-06   -5.143813371256869e-05
-3.4285070503349687e-06   3.3830788754396317e-06   -3.685237454641437e-05
-3.4285070503349687e-06   3.3830788754396317e-06   -3.685237454641437e-05
-3.4285070503349687e-06   3.3830788754396317e-06   -3.685237454641437e-05
-3.4285070503349687e-06   3.3830788754396317e-06   -3.685237454641437e-05
-3.021087256554301e-06   3.243501946064353e-06   -5.166094953154056e-05
-3.021087256554301e-06   3.243501946064353e-06   -5.166094953154056e-05
-3.021087256554301e-06   3.243501946064353e-06   -5.166094953154056e-05
-3.021087256554301e-06   3.243501946064353e-06   -5.166094953154056e-05
-1.1203645585538664e-05   5.0507294027057024e-06   -3.9107688790551305e-05
-1.1203645585538664e-05   5.0507294027057024e-06   -3.9107688790551305e-05
-1.1203645585538664e-05   5.0507294027057024e-06   -3.9107688790551305e-05
-1.1203645585538664e-05   5.0507294027057024e-06   -3.9107688790551305e-05
-7.4844073444204335e-06   2.8050617869679415e-06   -4.395901862297235e-05
-7.4844073444204335e-06   2.8050617869679415e-06   -4.395901862297235e-05
-7.4844073444204335e-06   2.8050617869679415e-06   -4.395901862297235e-05
-7.4844073444204335e-06   2.8050617869679415e-06   -4.395901862297235e-05
-4.405374650842924e-06   -3.396252450660114e-06   -2.780900644965619e-05
-4.405374650842924e-06   -3.396252450660114e-06   -2.780900644965619e-05
-4.405374650842924e-06   -3.396252450660114e-06   -2.780900644965619e-05
-4.405374650842924e-06   -3.396252450660114e-06   -2.780900644965619e-05
1.249942141409038e-06   4.737066012924177e-07   -1.6061503031397943e-05
1.249942141409038e-06   4.737066012924177e-07   -1.6061503031397943e-05
1.249942141409038e-06   4.737066012924177e-07   -1.6061503031397943e-05
1.249942141409038e-06   4.737066012924177e-07   -1.6061503031397943e-05
3.3192941934031997e-06   -2.2724007495704586e-06   -2.65692171343076e-05
3.3192941934031997e-06   -2.2724007495704586e-06   -2.65692171343076e-05
3.3192941934031997e-06   -2.2724007495704586e-06   -2.65692171343076e-05
3.3192941934031997e-06   -2.2724007495704586e-06   -2.65692171343076e-05
-4.0117522799026505e-06   1.7094373890584776e-06   -1.673990922864153e-05
-4.0117522799026505e-06   1.7094373890584776e-06   -1.673990922864153e-05
-4.0117522799026505e-06   1.7094373890584776e-06   -1.673990922864153e-05
-4.0117522799026505e-06   1.7094373890584776e-06   -1.673990922864153e-05
-9.380153071588711e-07   -7.040158416617755e-07   -2.0414732244782832e-05
-9.380153071588711e-07   -7.040158416617755e-07   -2.0414732244782832e-05
-9.380153071588711e-07   -7.040158416617755e-07   -2.0414732244782832e-05
-9.380153071588711e-07   -7.040158416617755e-07   -2.0414732244782832e-05
-4.0117522799026505e-06   -2.2724007495704586e-06   -2.8958320017484886e-05
-4.0117522799026505e-06   -2.2724007495704586e-06   -2.8958320017484886e-05
-4.0117522799026505e-06   -2.2724007495704586e-06   -2.8958320017484886e-05
-4.0117522799026505e-06   -2.2724007495704586e-06   -2.8958320017484886e-05
3.3192941934031997e-06   1.7094373890586944e-06   -1.4350806345464354e-05
3.3192941934031997e-06   1.7094373890586944e-06   -1.4350806345464354e-05
3.3192941934031997e-06   1.7094373890586944e-06   -1.4350806345464354e-05
3.3192941934031997e-06   1.7094373890586944e-06   -1.4350806345464354e-05
4.953071742051568e-06   -1.495887743201878e-06   -2.8022270469515813e-05
4.953071742051568e-06   -1.495887743201878e-06   -2.8022270469515813e-05
4.953071742051568e-06   -1.495887743201878e-06   -2.8022270469515813e-05
4.953071742051568e-06   -1.495887743201878e-06   -2.8022270469515813e-05
-3.4285070503349687e-06   2.4046920617838696e-06   -1.639332036519606e-05
-3.4285070503349687e-06   2.4046920617838696e-06   -1.639332036519606e-05
-3.4285070503349687e-06   2.4046920617838696e-06   -1.639332036519606e-05
-3.4285070503349687e-06   2.4046920617838696e-06   -1.639332036519606e-05
1.1379935626798965e-07   -1.1282413750523038e-07   -2.0786654656627533e-05
1.1379935626798965e-07   -1.1282413750523038e-07   -2.0786654656627533e-05
1.1379935626798965e-07   -1.1282413750523038e-07   -2.0786654656627533e-05
1.1379935626798965e-07   -1.1282413750523038e-07   -2.0786654656627533e-05
-3.4285070503349687e-06   -1.495887743201878e-06   -3.036261835250736e-05
-3.4285070503349687e-06   -1.495887743201878e-06   -3.036261835250736e-05
-3.4285070503349687e-06   -1.495887743201878e-06   -3.036261835250736e-05
-3.4285070503349687e-06   -1.495887743201878e-06   -3.036261835250736e-05
4.953071742051568e-06   2.4046920617838696e-06   -1.4052972482204865e-05
4.953071742051568e-06   2.4046920617838696e-06   -1.4052972482204865e-05
4.953071742051568e-06   2.4046920617838696e-06   -1.4052972482204865e-05
4.953071742051568e-06   2.4046920617838696e-06   -1.4052972482204865e-05
7.013489632088233e-06   3.1836828094612343e-08   -3.139696248059766e-05
7.013489632088233e-06   3.1836828094612343e-08   -3.139696248059766e-05
7.013489632088233e-06   3.1836828094612343e-08   -3.139696248059766e-05
7.013489632088233e-06   3.1836828094612343e-08   -3.139696248059766e-05
-3.021087256554301e-06   3.6389553243563327e-06   -1.6836938763950093e-05
-3.021087256554301e-06   3.6389553243563327e-06   -1.6836938763950093e-05
-3.021087256554301e-06   3.6389553243563327e-06   -1.6836938763950093e-05
-3.021087256554301e-06   3.6389553243563327e-06   -1.6836938763950093e-05
1.0158690276845062e-06   5.633051667931765e-07   -2.1719809143143885e-05
1.0158690276845062e-06   5.633051667931765e-07   -2.1719809143143885e-05
1.0158690276845062e-06   5.633051667931765e-07   -2.1719809143143885e-05
1.0158690276845062e-06   5.633051667931765e-07   -2.1719809143143885e-05
-1.3235010356461082e-05   2.4881619807826626e-06   -2.367914236389246e-05
-1.3235010356461082e-05   2.4881619807826626e-06   -2.367914236389246e-05
-1.3235010356461082e-05   2.4881619807826626e-06   -2.367914236389246e-05
-1.3235010356461082e-05   2.4881619807826626e-06   -2.367914236389246e-05
-1.3378684223412825e-05   -1.1520200140727882e-06   -2.6102708005725677e-05
-1.3378684223412825e-05   -1.1520200140727882e-06   -2.6102708005725677e-05
-1.3378684223412825e-05   -1.1520200140727882e-06   -2.6102708005725677e-05
-1.3378684223412825e-05   -1.1520200140727882e-06   -2.6102708005725677e-05
-1.2706575992587309e-05   3.871870305116945e-06   -2.2247437749638383e-05
-1.2706575992587309e-05   3.871870305116945e-06   -2.2247437749638383e-05
-1.2706575992587309e-05   3.871870305116945e-06   -2.2247437749638383e-05
-1.2706575992587309e-05   3.871870305116945e-06   -2.2247437749638383e-05
-1.0928923116107806e-05   -3.19813756206877e-08   -2.2867881535328007e-05
-1.0928923116107806e-05   -3.19813756206877e-08   -2.2867881535328007e-05
-1.0928923116107806e-05   -3.19813756206877e-08   -2.2867881535328007e-05
-1.0928923116107806e-05   -3.19813756206877e-08   -2.2867881535328007e-05
-1.2013067523680964e-05   1.7127542913740034e-06   -2.2107815589570757e-05
-1.2013067523680964e-05   1.7127542913740034e-06   -2.2107815589570757e-05
-1.2013067523680964e-05   1.7127542913740034e-06   -2.2107815589570757e-05
-1.2013067523680964e-05   1.7127542913740034e-06   -2.2107815589570757e-05
-1.0928923116107752e-05   3.871870305116945e-06   -1.990512674119563e-05
-1.0928923116107752e-05   3.871870305116945e-06   -1.990512674119563e-05
-1.0928923116107752e-05   3.871870305116945e-06   -1.990512674119563e-05
-1.0928923116107752e-05   3.871870305116945e-06   -1.990512674119563e-05
-1.2706575992587309e-05   -3.19813756206877e-08   -2.521019254377087e-05
-1.2706575992587309e-05   -3.19813756206877e-08   -2.521019254377087e-05
-1.2706575992587309e-05   -3.19813756206877e-08   -2.521019254377087e-05
-1.2706575992587309e-05   -3.19813756206877e-08   -2.521019254377087e-05
-1.1859163114816111e-05   4.570411407720356e-06   -2.0646099355294857e-05
-1.1859163114816111e-05   4.570411407720356e-06   -2.0646099355294857e-05
-1.1859163114816111e-05   4.570411407720356e-06   -2.0646099355294857e-05
-1.1859163114816111e-05   4.570411407720356e-06   -2.0646099355294857e-05
-9.02075256911238e-06   6.009429889641642e-07   -2.2995102546880647e-05
-9.02075256911238e-06   6.009429889641642e-07   -2.2995102546880647e-05
-9.02075256911238e-06   6.009429889641642e-07   -2.2995102546880647e-05
-9.02075256911238e-06   6.009429889641642e-07   -2.2995102546880647e-05
-1.0920196702009021e-05   2.287423640632679e-06   -2.0841250716388147e-05
-1.0920196702009021e-05   2.287423640632679e-06   -2.0841250716388147e-05
-1.0920196702009021e-05   2.287423640632679e-06   -2.0841250716388147e-05
-1.0920196702009021e-05   2.287423640632679e-06   -2.0841250716388147e-05
-9.020752569112325e-06   4.570411407720356e-06   -1.8264418304041294e-05
-9.020752569112325e-06   4.570411407720356e-06   -1.8264418304041294e-05
-9.020752569112325e-06   4.570411407720356e-06   -1.8264418304041294e-05
-9.020752569112325e-06   4.570411407720356e-06   -1.8264418304041294e-05
-1.1859163114816111e-05   6.009429889645979e-07   -2.5376783598134265e-05
-1.1859163114816111e-05   6.009429889645979e-07   -2.5376783598134265e-05
-1.1859163114816111e-05   6.009429889645979e-07   -2.5376783598134265e-05
-1.1859163114816111e-05   6.009429889645979e-07   -2.5376783598134265e-05
-1.1197254063293036e-05   5.676648080340076e-06   -1.915578816062886e-05
-1.1197254063293036e-05   5.676648080340076e-06   -1.915578816062886e-05
-1.1197254063293036e-05   5.676648080340076e-06   -1.915578816062886e-05
-1.1197254063293036e-05   5.676648080340076e-06   -1.915578816062886e-05
-6.664776350541013e-06   1.8635002491263625e-06   -2.4422028983153948e-05
-6.664776350541013e-06   1.8635002491263625e-06   -2.4422028983153948e-05
-6.664776350541013e-06   1.8635002491263625e-06   -2.4422028983153948e-05
-6.664776350541013e-06   1.8635002491263625e-06   -2.4422028983153948e-05
-9.553372003901975e-06   2.8373012182607293e-06   -2.0191983475699557e-05
-9.553372003901975e-06   2.8373012182607293e-06   -2.0191983475699557e-05
-9.553372003901975e-06   2.8373012182607293e-06   -2.0191983475699557e-05
-9.553372003901975e-06   2.8373012182607293e-06   -2.0191983475699557e-05
-1.3378684223412825e-05   1.4253781903765788e-06   -4.300991857916238e-05
-1.3378684223412825e-05   1.4253781903765788e-06   -4.300991857916238e-05
-1.3378684223412825e-05   1.4253781903765788e-06   -4.300991857916238e-05
-1.3378684223412825e-05   1.4253781903765788e-06   -4.300991857916238e-05
-1.538846472919761e-05   -2.5173324392016583e-07   -4.7365819616048375e-05
-1.538846472919761e-05   -2.5173324392016583e-07   -4.7365819616048375e-05
-1.538846472919761e-05   -2.5173324392016583e-07   -4.7365819616048375e-05
-1.538846472919761e-05   -2.5173324392016583e-07   -4.7365819616048375e-05
-1.4844667752778333e-05   3.0116992254698716e-06   -4.30431236199463e-05
-1.4844667752778333e-05   3.0116992254698716e-06   -4.30431236199463e-05
-1.4844667752778333e-05   3.0116992254698716e-06   -4.30431236199463e-05
-1.4844667752778333e-05   3.0116992254698716e-06   -4.30431236199463e-05
-1.2706575992587363e-05   1.161037353553801e-06   -4.549621276378143e-05
-1.2706575992587363e-05   1.161037353553801e-06   -4.549621276378143e-05
-1.2706575992587363e-05   1.161037353553801e-06   -4.549621276378143e-05
-1.2706575992587363e-05   1.161037353553801e-06   -4.549621276378143e-05
-1.3915536855892862e-05   1.6460369178174401e-06   -4.377227773016452e-05
-1.3915536855892862e-05   1.6460369178174401e-06   -4.377227773016452e-05
-1.3915536855892862e-05   1.6460369178174401e-06   -4.377227773016452e-05
-1.3915536855892862e-05   1.6460369178174401e-06   -4.377227773016452e-05
-1.2706575992587309e-05   3.0116992254698716e-06   -4.1932726496796266e-05
-1.2706575992587309e-05   3.0116992254698716e-06   -4.1932726496796266e-05
-1.2706575992587309e-05   3.0116992254698716e-06   -4.1932726496796266e-05
-1.2706575992587309e-05   3.0116992254698716e-06   -4.1932726496796266e-05
-1.4844667752778306e-05   1.161037353553801e-06   -4.660660988693114e-05
-1.4844667752778306e-05   1.161037353553801e-06   -4.660660988693114e-05
-1.4844667752778306e-05   1.161037353553801e-06   -4.660660988693114e-05
-1.4844667752778306e-05   1.161037353553801e-06   -4.660660988693114e-05
-1.4279160201996136e-05   4.486243127635372e-06   -4.268243554768586e-05
-1.4279160201996136e-05   4.486243127635372e-06   -4.268243554768586e-05
-1.4279160201996136e-05   4.486243127635372e-06   -4.268243554768586e-05
-1.4279160201996136e-05   4.486243127635372e-06   -4.268243554768586e-05
-1.1859163114816111e-05   2.520780281215721e-06   -4.5536486318467314e-05
-1.1859163114816111e-05   2.520780281215721e-06   -4.5536486318467314e-05
-1.1859163114816111e-05   2.520780281215721e-06   -4.5536486318467314e-05
-1.1859163114816111e-05   2.520780281215721e-06   -4.5536486318467314e-05
-1.3370552605053055e-05   2.784448377925533e-06   -4.317570469276525e-05
-1.3370552605053055e-05   2.784448377925533e-06   -4.317570469276525e-05
-1.3370552605053055e-05   2.784448377925533e-06   -4.317570469276525e-05
-1.3370552605053055e-05   2.784448377925533e-06   -4.317570469276525e-05
-1.1859163114816111e-05   4.486243127635372e-06   -4.1503157839834e-05
-1.1859163114816111e-05   4.486243127635372e-06   -4.1503157839834e-05
-1.1859163114816111e-05   4.486243127635372e-06   -4.1503157839834e-05
-1.1859163114816111e-05   4.486243127635372e-06   -4.1503157839834e-05
-1.4279160201996081e-05   2.5207802812161548e-06   -4.671576402631879e-05
-1.4279160201996081e-05   2.5207802812161548e-06   -4.671576402631879e-05
-1.4279160201996081e-05   2.5207802812161548e-06   -4.671576402631879e-05
-1.4279160201996081e-05   2.5207802812161548e-06   -4.671576402631879e-05
-1.3746293371414401e-05   6.124239651346874e-06   -4.3389132494037674e-05
-1.3746293371414401e-05   6.124239651346874e-06   -4.3389132494037674e-05
-1.3746293371414401e-05   6.124239651346874e-06   -4.3389132494037674e-05
-1.3746293371414401e-05   6.124239651346874e-06   -4.3389132494037674e-05
-1.1197254063293036e-05   4.07300800157797e-06   -4.6406792351044994e-05
-1.1197254063293036e-05   4.07300800157797e-06   -4.6406792351044994e-05
-1.1197254063293036e-05   4.07300800157797e-06   -4.6406792351044994e-05
-1.1197254063293036e-05   4.07300800157797e-06   -4.6406792351044994e-05
-1.289076098851696e-05   3.978131248214955e-06   -4.352735475698764e-05
-1.289076098851696e-05   3.978131248214955e-06   -4.352735475698764e-05
-1.289076098851696e-05   3.978131248214955e-06   -4.352735475698764e-05
-1.289076098851696e-05   3.978131248214955e-06   -4.352735475698764e-05
-1.538846472919753e-05   8.148465261282982e-07   -5.008114079798644e-05
-1.538846472919753e-05   8.148465261282982e-07   -5.008114079798644e-05
-1.538846472919753e-05   8.148465261282982e-07   -5.008114079798644e-05
-1.538846472919753e-05   8.148465261282982e-07   -5.008114079798644e-05
-1.7508384339841287e-05   1.1685615000055216e-06   -5.340211116473326e-05
-1.7508384339841287e-05   1.1685615000055216e-06   -5.340211116473326e-05
-1.7508384339841287e-05   1.1685615000055216e-06   -5.340211116473326e-05
-1.7508384339841287e-05   1.1685615000055216e-06   -5.340211116473326e-05
-1.697378566166041e-05   2.4299984896644037e-06   -4.931070171600464e-05
-1.697378566166041e-05   2.4299984896644037e-06   -4.931070171600464e-05
-1.697378566166041e-05   2.4299984896644037e-06   -4.931070171600464e-05
-1.697378566166041e-05   2.4299984896644037e-06   -4.931070171600464e-05
-1.4844667752778333e-05   2.628209064289063e-06   -5.297815790891638e-05
-1.4844667752778333e-05   2.628209064289063e-06   -5.297815790891638e-05
-1.4844667752778333e-05   2.628209064289063e-06   -5.297815790891638e-05
-1.4844667752778333e-05   2.628209064289063e-06   -5.297815790891638e-05
-1.6081450788002484e-05   1.987581722251268e-06   -5.053247644498714e-05
-1.6081450788002484e-05   1.987581722251268e-06   -5.053247644498714e-05
-1.6081450788002484e-05   1.987581722251268e-06   -5.053247644498714e-05
-1.6081450788002484e-05   1.987581722251268e-06   -5.053247644498714e-05
-1.4844667752778306e-05   2.4299984896644037e-06   -4.942962806077963e-05
-1.4844667752778306e-05   2.4299984896644037e-06   -4.942962806077963e-05
-1.4844667752778306e-05   2.4299984896644037e-06   -4.942962806077963e-05
-1.4844667752778306e-05   2.4299984896644037e-06   -4.942962806077963e-05
-1.6973785661660436e-05   2.628209064289063e-06   -5.285923156414171e-05
-1.6973785661660436e-05   2.628209064289063e-06   -5.285923156414171e-05
-1.6973785661660436e-05   2.628209064289063e-06   -5.285923156414171e-05
-1.6973785661660436e-05   2.628209064289063e-06   -5.285923156414171e-05
-1.6411771431710082e-05   4.059324879440241e-06   -4.945428779043405e-05
-1.6411771431710082e-05   4.059324879440241e-06   -4.945428779043405e-05
-1.6411771431710082e-05   4.059324879440241e-06   -4.945428779043405e-05
-1.6411771431710082e-05   4.059324879440241e-06   -4.945428779043405e-05
-1.4279160201996136e-05   4.120034307542302e-06   -5.3045065496818355e-05
-1.4279160201996136e-05   4.120034307542302e-06   -5.3045065496818355e-05
-1.4279160201996136e-05   4.120034307542302e-06   -5.3045065496818355e-05
-1.4279160201996136e-05   4.120034307542302e-06   -5.3045065496818355e-05
-1.5632436137638353e-05   3.235824535934191e-06   -5.025907974111728e-05
-1.5632436137638353e-05   3.235824535934191e-06   -5.025907974111728e-05
-1.5632436137638353e-05   3.235824535934191e-06   -5.025907974111728e-05
-1.5632436137638353e-05   3.235824535934191e-06   -5.025907974111728e-05
-1.4279160201996081e-05   4.059324879440241e-06   -4.949071344729518e-05
-1.4279160201996081e-05   4.059324879440241e-06   -4.949071344729518e-05
-1.4279160201996081e-05   4.059324879440241e-06   -4.949071344729518e-05
-1.4279160201996081e-05   4.059324879440241e-06   -4.949071344729518e-05
-1.6411771431710082e-05   4.120034307542302e-06   -5.3008639839957064e-05
-1.6411771431710082e-05   4.120034307542302e-06   -5.3008639839957064e-05
-1.6411771431710082e-05   4.120034307542302e-06   -5.3008639839957064e-05
-1.6411771431710082e-05   4.120034307542302e-06   -5.3008639839957064e-05
-1.5881647179488778e-05   5.713211464340468e-06   -5.0414149754103577e-05
-1.5881647179488778e-05   5.713211464340468e-06   -5.0414149754103577e-05
-1.5881647179488778e-05   5.713211464340468e-06   -5.0414149754103577e-05
-1.5881647179488778e-05   5.713211464340468e-06   -5.0414149754103577e-05
-1.3746293371414428e-05   5.632462037658773e-06   -5.392462311155157e-05
-1.3746293371414428e-05   5.632462037658773e-06   -5.392462311155157e-05
-1.3746293371414428e-05   5.632462037658773e-06   -5.392462311155157e-05
-1.3746293371414428e-05   5.632462037658773e-06   -5.392462311155157e-05
-1.5218923347478355e-05   4.501514740482947e-06   -5.079167143980649e-05
-1.5218923347478355e-05   4.501514740482947e-06   -5.079167143980649e-05
-1.5218923347478355e-05   4.501514740482947e-06   -5.079167143980649e-05
-1.5218923347478355e-05   4.501514740482947e-06   -5.079167143980649e-05
-1.7508384339841226e-05   3.4459607884903577e-07   -4.3209652992474436e-05
-1.7508384339841226e-05   3.4459607884903577e-07   -4.3209652992474436e-05
-1.7508384339841226e-05   3.4459607884903577e-07   -4.3209652992474436e-05
-1.7508384339841226e-05   3.4459607884903577e-07   -4.3209652992474436e-05
-1.9744375054018312e-05   2.5984842646434997e-06   -4.5583971271293076e-05
-1.9744375054018312e-05   2.5984842646434997e-06   -4.5583971271293076e-05
-1.9744375054018312e-05   2.5984842646434997e-06   -4.5583971271293076e-05
-1.9744375054018312e-05   2.5984842646434997e-06   -4.5583971271293076e-05
-1.909803395847957e-05   1.90871328838247e-06   -4.1312404153383015e-05
-1.909803395847957e-05   1.90871328838247e-06   -4.1312404153383015e-05
-1.909803395847957e-05   1.90871328838247e-06   -4.1312404153383015e-05
-1.909803395847957e-05   1.90871328838247e-06   -4.1312404153383015e-05
-1.697378566166041e-05   4.06275923265113e-06   -4.6145245547975595e-05
-1.697378566166041e-05   4.06275923265113e-06   -4.6145245547975595e-05
-1.697378566166041e-05   4.06275923265113e-06   -4.6145245547975595e-05
-1.697378566166041e-05   4.06275923265113e-06   -4.6145245547975595e-05
-1.8189551389271445e-05   2.391979383166388e-06   -4.311650142560053e-05
-1.8189551389271445e-05   2.391979383166388e-06   -4.311650142560053e-05
-1.8189551389271445e-05   2.391979383166388e-06   -4.311650142560053e-05
-1.8189551389271445e-05   2.391979383166388e-06   -4.311650142560053e-05
-1.697378566166038e-05   1.9087132883822532e-06   -4.260483171994391e-05
-1.697378566166038e-05   1.9087132883822532e-06   -4.260483171994391e-05
-1.697378566166038e-05   1.9087132883822532e-06   -4.260483171994391e-05
-1.697378566166038e-05   1.9087132883822532e-06   -4.260483171994391e-05
-1.909803395847957e-05   4.06275923265113e-06   -4.485281798141476e-05
-1.909803395847957e-05   4.06275923265113e-06   -4.485281798141476e-05
-1.909803395847957e-05   4.06275923265113e-06   -4.485281798141476e-05
-1.909803395847957e-05   4.06275923265113e-06   -4.485281798141476e-05
-1.8263934843965745e-05   3.383078875439415e-06   -4.1492936463356366e-05
-1.8263934843965745e-05   3.383078875439415e-06   -4.1492936463356366e-05
-1.8263934843965745e-05   3.383078875439415e-06   -4.1492936463356366e-05
-1.8263934843965745e-05   3.383078875439415e-06   -4.1492936463356366e-05
-1.6411771431710052e-05   5.4139418312502616e-06   -4.5798393257269e-05
-1.6411771431710052e-05   5.4139418312502616e-06   -4.5798393257269e-05
-1.6411771431710052e-05   5.4139418312502616e-06   -4.5798393257269e-05
-1.6411771431710052e-05   5.4139418312502616e-06   -4.5798393257269e-05
-1.7611987730948127e-05   3.5533851238857966e-06   -4.268169873412078e-05
-1.7611987730948127e-05   3.5533851238857966e-06   -4.268169873412078e-05
-1.7611987730948127e-05   3.5533851238857966e-06   -4.268169873412078e-05
-1.7611987730948127e-05   3.5533851238857966e-06   -4.268169873412078e-05
-1.641177143171001e-05   3.383078875439415e-06   -4.271145423684266e-05
-1.641177143171001e-05   3.383078875439415e-06   -4.271145423684266e-05
-1.641177143171001e-05   3.383078875439415e-06   -4.271145423684266e-05
-1.641177143171001e-05   3.383078875439415e-06   -4.271145423684266e-05
-1.8263934843965773e-05   5.413941831250695e-06   -4.457987548378258e-05
-1.8263934843965773e-05   5.413941831250695e-06   -4.457987548378258e-05
-1.8263934843965773e-05   5.413941831250695e-06   -4.457987548378258e-05
-1.8263934843965773e-05   5.413941831250695e-06   -4.457987548378258e-05
-1.760837518088175e-05   5.050729402705919e-06   -4.2643858094539304e-05
-1.760837518088175e-05   5.050729402705919e-06   -4.2643858094539304e-05
-1.760837518088175e-05   5.050729402705919e-06   -4.2643858094539304e-05
-1.760837518088175e-05   5.050729402705919e-06   -4.2643858094539304e-05
-1.5881647179488778e-05   6.9287783001480835e-06   -4.6648567435326114e-05
-1.5881647179488778e-05   6.9287783001480835e-06   -4.6648567435326114e-05
-1.5881647179488778e-05   6.9287783001480835e-06   -4.6648567435326114e-05
-1.5881647179488778e-05   6.9287783001480835e-06   -4.6648567435326114e-05
-1.71784043327795e-05   4.740820442335637e-06   -4.3174530798486914e-05
-1.71784043327795e-05   4.740820442335637e-06   -4.3174530798486914e-05
-1.71784043327795e-05   4.740820442335637e-06   -4.3174530798486914e-05
-1.71784043327795e-05   4.740820442335637e-06   -4.3174530798486914e-05
-1.9744375054018258e-05   4.737066012924177e-07   -2.303415011667301e-05
-1.9744375054018258e-05   4.737066012924177e-07   -2.303415011667301e-05
-1.9744375054018258e-05   4.737066012924177e-07   -2.303415011667301e-05
-1.9744375054018258e-05   4.737066012924177e-07   -2.303415011667301e-05
-2.3890645936426353e-05   4.3643220754168745e-06   -2.7610232302878283e-05
-2.3890645936426353e-05   4.3643220754168745e-06   -2.7610232302878283e-05
-2.3890645936426353e-05   4.3643220754168745e-06   -2.7610232302878283e-05
-2.3890645936426353e-05   4.3643220754168745e-06   -2.7610232302878283e-05
-2.1602535079863516e-05   1.7094373890584776e-06   -1.9002664434301366e-05
-2.1602535079863516e-05   1.7094373890584776e-06   -1.9002664434301366e-05
-2.1602535079863516e-05   1.7094373890584776e-06   -1.9002664434301366e-05
-2.1602535079863516e-05   1.7094373890584776e-06   -1.9002664434301366e-05
-1.909803395847954e-05   5.691320301436358e-06   -2.5565962717367946e-05
-1.909803395847954e-05   5.691320301436358e-06   -2.5565962717367946e-05
-1.909803395847954e-05   5.691320301436358e-06   -2.5565962717367946e-05
-1.909803395847954e-05   5.691320301436358e-06   -2.5565962717367946e-05
-2.0230565304852958e-05   3.220894058017683e-06   -2.2196154727361554e-05
-2.0230565304852958e-05   3.220894058017683e-06   -2.2196154727361554e-05
-2.0230565304852958e-05   3.220894058017683e-06   -2.2196154727361554e-05
-2.0230565304852958e-05   3.220894058017683e-06   -2.2196154727361554e-05
-1.9098033958479487e-05   1.7094373890586944e-06   -2.1391794181727813e-05
-1.9098033958479487e-05   1.7094373890586944e-06   -2.1391794181727813e-05
-1.9098033958479487e-05   1.7094373890586944e-06   -2.1391794181727813e-05
-1.9098033958479487e-05   1.7094373890586944e-06   -2.1391794181727813e-05
-2.1602535079863516e-05   5.691320301436358e-06   -2.3176832969941255e-05
-2.1602535079863516e-05   5.691320301436358e-06   -2.3176832969941255e-05
-2.1602535079863516e-05   5.691320301436358e-06   -2.3176832969941255e-05
-2.1602535079863516e-05   5.691320301436358e-06   -2.3176832969941255e-05
-1.974147618496845e-05   2.4046920617838696e-06   -1.8697321217399604e-05
-1.974147618496845e-05   2.4046920617838696e-06   -1.8697321217399604e-05
-1.974147618496845e-05   2.4046920617838696e-06   -1.8697321217399604e-05
-1.974147618496845e-05   2.4046920617838696e-06   -1.8697321217399604e-05
-1.8263934843965745e-05   6.298960503014865e-06   -2.3496451183809192e-05
-1.8263934843965745e-05   6.298960503014865e-06   -2.3496451183809192e-05
-1.8263934843965745e-05   6.298960503014865e-06   -2.3496451183809192e-05
-1.8263934843965745e-05   6.298960503014865e-06   -2.3496451183809192e-05
-1.925134928699012e-05   3.834665015877521e-06   -2.0372183153152964e-05
-1.925134928699012e-05   3.834665015877521e-06   -2.0372183153152964e-05
-1.925134928699012e-05   3.834665015877521e-06   -2.0372183153152964e-05
-1.925134928699012e-05   3.834665015877521e-06   -2.0372183153152964e-05
-1.8263934843965705e-05   2.4046920617838696e-06   -2.1033882282138353e-05
-1.8263934843965705e-05   2.4046920617838696e-06   -2.1033882282138353e-05
-1.8263934843965705e-05   2.4046920617838696e-06   -2.1033882282138353e-05
-1.8263934843965705e-05   2.4046920617838696e-06   -2.1033882282138353e-05
-1.974147618496845e-05   6.298960503014865e-06   -2.115989011907066e-05
-1.974147618496845e-05   6.298960503014865e-06   -2.115989011907066e-05
-1.974147618496845e-05   6.298960503014865e-06   -2.115989011907066e-05
-1.974147618496845e-05   6.298960503014865e-06   -2.115989011907066e-05
-1.7466564797060248e-05   3.638955324356116e-06   -1.9295667392599746e-05
-1.7466564797060248e-05   3.638955324356116e-06   -1.9295667392599746e-05
-1.7466564797060248e-05   3.638955324356116e-06   -1.9295667392599746e-05
-1.7466564797060248e-05   3.638955324356116e-06   -1.9295667392599746e-05
-1.7608375180881708e-05   7.241917239894993e-06   -2.122109390222026e-05
-1.7608375180881708e-05   7.241917239894993e-06   -2.122109390222026e-05
-1.7608375180881708e-05   7.241917239894993e-06   -2.122109390222026e-05
-1.7608375180881708e-05   7.241917239894993e-06   -2.122109390222026e-05
-1.7815373035577097e-05   4.331789476197303e-06   -1.9130020819509272e-05
-1.7815373035577097e-05   4.331789476197303e-06   -1.9130020819509272e-05
-1.7815373035577097e-05   4.331789476197303e-06   -1.9130020819509272e-05
-1.7815373035577097e-05   4.331789476197303e-06   -1.9130020819509272e-05
1.163778669508326e-05   -1.1520200140732219e-06   -1.2021123698256796e-05
1.163778669508326e-05   -1.1520200140732219e-06   -1.2021123698256796e-05
1.163778669508326e-05   -1.1520200140732219e-06   -1.2021123698256796e-05
1.163778669508326e-05   -1.1520200140732219e-06   -1.2021123698256796e-05
1.1877765455350561e-06   -4.860236748685954e-06   -3.166273732160482e-05
1.1877765455350561e-06   -4.860236748685954e-06   -3.166273732160482e-05
1.1877765455350561e-06   -4.860236748685954e-06   -3.166273732160482e-05
1.1877765455350561e-06   -4.860236748685954e-06   -3.166273732160482e-05
2.1096926833311883e-06   -3.19813756206877e-08   -1.327331847997314e-05
2.1096926833311883e-06   -3.19813756206877e-08   -1.327331847997314e-05
2.1096926833311883e-06   -3.19813756206877e-08   -1.327331847997314e-05
2.1096926833311883e-06   -3.19813756206877e-08   -1.327331847997314e-05
1.420673679871894e-05   -3.993225135990024e-06   -3.105831241606441e-05
1.420673679871894e-05   -3.993225135990024e-06   -3.105831241606441e-05
1.420673679871894e-05   -3.993225135990024e-06   -3.105831241606441e-05
1.420673679871894e-05   -3.993225135990024e-06   -3.105831241606441e-05
7.014475835286549e-06   -2.0264300853865998e-06   -2.0251287840705907e-05
7.014475835286549e-06   -2.0264300853865998e-06   -2.0251287840705907e-05
7.014475835286549e-06   -2.0264300853865998e-06   -2.0251287840705907e-05
7.014475835286549e-06   -2.0264300853865998e-06   -2.0251287840705907e-05
1.420673679871894e-05   -3.19813756206877e-08   -1.0896572223751712e-05
1.420673679871894e-05   -3.19813756206877e-08   -1.0896572223751712e-05
1.420673679871894e-05   -3.19813756206877e-08   -1.0896572223751712e-05
1.420673679871894e-05   -3.19813756206877e-08   -1.0896572223751712e-05
2.1096926833311883e-06   -3.993225135989591e-06   -3.343505867228617e-05
2.1096926833311883e-06   -3.993225135989591e-06   -3.343505867228617e-05
2.1096926833311883e-06   -3.993225135989591e-06   -3.343505867228617e-05
2.1096926833311883e-06   -3.993225135989591e-06   -3.343505867228617e-05
3.1961172949330043e-06   6.009429889641642e-07   -1.3372535922852964e-05
3.1961172949330043e-06   6.009429889641642e-07   -1.3372535922852964e-05
3.1961172949330043e-06   6.009429889641642e-07   -1.3372535922852964e-05
3.1961172949330043e-06   6.009429889641642e-07   -1.3372535922852964e-05
1.637936894703006e-05   -3.4159896221807456e-06   -3.293446244299436e-05
1.637936894703006e-05   -3.4159896221807456e-06   -3.293446244299436e-05
1.637936894703006e-05   -3.4159896221807456e-06   -3.293446244299436e-05
1.637936894703006e-05   -3.4159896221807456e-06   -3.293446244299436e-05
8.644894625666795e-06   -1.6217877726936933e-06   -2.112019301708204e-05
8.644894625666795e-06   -1.6217877726936933e-06   -2.112019301708204e-05
8.644894625666795e-06   -1.6217877726936933e-06   -2.112019301708204e-05
8.644894625666795e-06   -1.6217877726936933e-06   -2.112019301708204e-05
1.6379368947030113e-05   6.009429889641642e-07   -1.0962376356166061e-05
1.6379368947030113e-05   6.009429889641642e-07   -1.0962376356166061e-05
1.6379368947030113e-05   6.009429889641642e-07   -1.0962376356166061e-05
1.6379368947030113e-05   6.009429889641642e-07   -1.0962376356166061e-05
3.1961172949330043e-06   -3.415989622180312e-06   -3.5344622009681696e-05
3.1961172949330043e-06   -3.415989622180312e-06   -3.5344622009681696e-05
3.1961172949330043e-06   -3.415989622180312e-06   -3.5344622009681696e-05
3.1961172949330043e-06   -3.415989622180312e-06   -3.5344622009681696e-05
4.091381277519009e-06   1.8635002491263625e-06   -1.4646302699296287e-05
4.091381277519009e-06   1.8635002491263625e-06   -1.4646302699296287e-05
4.091381277519009e-06   1.8635002491263625e-06   -1.4646302699296287e-05
4.091381277519009e-06   1.8635002491263625e-06   -1.4646302699296287e-05
1.898914239067674e-05   -1.960733227005223e-06   -3.718136446887973e-05
1.898914239067674e-05   -1.960733227005223e-06   -3.718136446887973e-05
1.898914239067674e-05   -1.960733227005223e-06   -3.718136446887973e-05
1.898914239067674e-05   -1.960733227005223e-06   -3.718136446887973e-05
9.943972841051094e-06   -1.028266246832013e-06   -2.2665562074275524e-05
9.943972841051094e-06   -1.028266246832013e-06   -2.2665562074275524e-05
9.943972841051094e-06   -1.028266246832013e-06   -2.2665562074275524e-05
9.943972841051094e-06   -1.028266246832013e-06   -2.2665562074275524e-05
1.1877765455350561e-06   -2.5173324392016583e-07   -3.450289848876955e-05
1.1877765455350561e-06   -2.5173324392016583e-07   -3.450289848876955e-05
1.1877765455350561e-06   -2.5173324392016583e-07   -3.450289848876955e-05
1.1877765455350561e-06   -2.5173324392016583e-07   -3.450289848876955e-05
-1.1021962676884662e-05   -1.925697089981502e-06   -5.5856842167105653e-05
-1.1021962676884662e-05   -1.925697089981502e-06   -5.5856842167105653e-05
-1.1021962676884662e-05   -1.925697089981502e-06   -5.5856842167105653e-05
-1.1021962676884662e-05   -1.925697089981502e-06   -5.5856842167105653e-05
-1.0212593607319742e-05   1.161037353553801e-06   -3.469867714962077e-05
-1.0212593607319742e-05   1.161037353553801e-06   -3.469867714962077e-05
-1.0212593607319742e-05   1.161037353553801e-06   -3.469867714962077e-05
-1.0212593607319742e-05   1.161037353553801e-06   -3.469867714962077e-05
2.1096926833311883e-06   -7.378600625079779e-07   -5.409648251773503e-05
2.1096926833311883e-06   -7.378600625079779e-07   -5.409648251773503e-05
2.1096926833311883e-06   -7.378600625079779e-07   -5.409648251773503e-05
2.1096926833311883e-06   -7.378600625079779e-07   -5.409648251773503e-05
-4.380425025892745e-06   -7.511767644713396e-08   -4.3677265100665265e-05
-4.380425025892745e-06   -7.511767644713396e-08   -4.3677265100665265e-05
-4.380425025892745e-06   -7.511767644713396e-08   -4.3677265100665265e-05
-4.380425025892745e-06   -7.511767644713396e-08   -4.3677265100665265e-05
2.1096926833311883e-06   1.161037353553801e-06   -3.355933869998349e-05
2.1096926833311883e-06   1.161037353553801e-06   -3.355933869998349e-05
2.1096926833311883e-06   1.161037353553801e-06   -3.355933869998349e-05
2.1096926833311883e-06   1.161037353553801e-06   -3.355933869998349e-05
-1.0212593607319742e-05   -7.378600625079779e-07   -5.5235820967372475e-05
-1.0212593607319742e-05   -7.378600625079779e-07   -5.5235820967372475e-05
-1.0212593607319742e-05   -7.378600625079779e-07   -5.5235820967372475e-05
-1.0212593607319742e-05   -7.378600625079779e-07   -5.5235820967372475e-05
-9.398637191792582e-06   2.520780281215721e-06   -3.475063864242763e-05
-9.398637191792582e-06   2.520780281215721e-06   -3.475063864242763e-05
-9.398637191792582e-06   2.520780281215721e-06   -3.475063864242763e-05
-9.398637191792582e-06   2.520780281215721e-06   -3.475063864242763e-05
3.1961172949330043e-06   4.901136158134978e-07   -5.45234961210621e-05
3.1961172949330043e-06   4.901136158134978e-07   -5.45234961210621e-05
3.1961172949330043e-06   4.901136158134978e-07   -5.45234961210621e-05
3.1961172949330043e-06   4.901136158134978e-07   -5.45234961210621e-05
-3.663109425486503e-06   8.999287855024525e-07   -4.333734068884314e-05
-3.663109425486503e-06   8.999287855024525e-07   -4.333734068884314e-05
-3.663109425486503e-06   8.999287855024525e-07   -4.333734068884314e-05
-3.663109425486503e-06   8.999287855024525e-07   -4.333734068884314e-05
3.1961172949330043e-06   2.520780281215721e-06   -3.353223864318612e-05
3.1961172949330043e-06   2.520780281215721e-06   -3.353223864318612e-05
3.1961172949330043e-06   2.520780281215721e-06   -3.353223864318612e-05
3.1961172949330043e-06   2.520780281215721e-06   -3.353223864318612e-05
-9.398637191792582e-06   4.901136158134978e-07   -5.574189612030382e-05
-9.398637191792582e-06   4.901136158134978e-07   -5.574189612030382e-05
-9.398637191792582e-06   4.901136158134978e-07   -5.574189612030382e-05
-9.398637191792582e-06   4.901136158134978e-07   -5.574189612030382e-05
-8.620680935660189e-06   4.07300800157797e-06   -3.5620628878578215e-05
-8.620680935660189e-06   4.07300800157797e-06   -3.5620628878578215e-05
-8.620680935660189e-06   4.07300800157797e-06   -3.5620628878578215e-05
-8.620680935660189e-06   4.07300800157797e-06   -3.5620628878578215e-05
4.091381277519009e-06   1.943922151378605e-06   -5.552994772375783e-05
4.091381277519009e-06   1.943922151378605e-06   -5.552994772375783e-05
4.091381277519009e-06   1.943922151378605e-06   -5.552994772375783e-05
4.091381277519009e-06   1.943922151378605e-06   -5.552994772375783e-05
-2.8648356762359524e-06   1.9803296559921246e-06   -4.3958097303601566e-05
-2.8648356762359524e-06   1.9803296559921246e-06   -4.3958097303601566e-05
-2.8648356762359524e-06   1.9803296559921246e-06   -4.3958097303601566e-05
-2.8648356762359524e-06   1.9803296559921246e-06   -4.3958097303601566e-05
-1.1021962676884689e-05   1.1685615000055216e-06   -4.1755797329417425e-05
-1.1021962676884689e-05   1.1685615000055216e-06   -4.1755797329417425e-05
-1.1021962676884689e-05   1.1685615000055216e-06   -4.1755797329417425e-05
-1.1021962676884689e-05   1.1685615000055216e-06   -4.1755797329417425e-05
-2.3126945383301928e-05   1.473257520564434e-06   -6.174795089444371e-05
-2.3126945383301928e-05   1.473257520564434e-06   -6.174795089444371e-05
-2.3126945383301928e-05   1.473257520564434e-06   -6.174795089444371e-05
-2.3126945383301928e-05   1.473257520564434e-06   -6.174795089444371e-05
-2.2311673044098166e-05   2.6282090642894967e-06   -4.100947315050017e-05
-2.2311673044098166e-05   2.6282090642894967e-06   -4.100947315050017e-05
-2.2311673044098166e-05   2.6282090642894967e-06   -4.100947315050017e-05
-2.2311673044098166e-05   2.6282090642894967e-06   -4.100947315050017e-05
-1.0212593607319769e-05   2.729462432799444e-06   -6.123535756623669e-05
-1.0212593607319769e-05   2.729462432799444e-06   -6.123535756623669e-05
-1.0212593607319769e-05   2.729462432799444e-06   -6.123535756623669e-05
-1.0212593607319769e-05   2.729462432799444e-06   -6.123535756623669e-05
-1.657174260218415e-05   2.2562241581689825e-06   -5.0352832943351264e-05
-1.657174260218415e-05   2.2562241581689825e-06   -5.0352832943351264e-05
-1.657174260218415e-05   2.2562241581689825e-06   -5.0352832943351264e-05
-1.657174260218415e-05   2.2562241581689825e-06   -5.0352832943351264e-05
-1.0212593607319769e-05   2.628209064289063e-06   -4.1070225171606226e-05
-1.0212593607319769e-05   2.628209064289063e-06   -4.1070225171606226e-05
-1.0212593607319769e-05   2.628209064289063e-06   -4.1070225171606226e-05
-1.0212593607319769e-05   2.628209064289063e-06   -4.1070225171606226e-05
-2.2311673044098166e-05   2.729462432799444e-06   -6.117460554513096e-05
-2.2311673044098166e-05   2.729462432799444e-06   -6.117460554513096e-05
-2.2311673044098166e-05   2.729462432799444e-06   -6.117460554513096e-05
-2.2311673044098166e-05   2.729462432799444e-06   -6.117460554513096e-05
-2.1483516912354135e-05   4.120034307542302e-06   -4.1116147853303715e-05
-2.1483516912354135e-05   4.120034307542302e-06   -4.1116147853303715e-05
-2.1483516912354135e-05   4.120034307542302e-06   -4.1116147853303715e-05
-2.1483516912354135e-05   4.120034307542302e-06   -4.1116147853303715e-05
-9.398637191792582e-06   4.0596880735810185e-06   -6.122140631386306e-05
-9.398637191792582e-06   4.0596880735810185e-06   -6.122140631386306e-05
-9.398637191792582e-06   4.0596880735810185e-06   -6.122140631386306e-05
-9.398637191792582e-06   4.0596880735810185e-06   -6.122140631386306e-05
-1.585401846564702e-05   3.352417245083405e-06   -5.0038075027007906e-05
-1.585401846564702e-05   3.352417245083405e-06   -5.0038075027007906e-05
-1.585401846564702e-05   3.352417245083405e-06   -5.0038075027007906e-05
-1.585401846564702e-05   3.352417245083405e-06   -5.0038075027007906e-05
-9.398637191792582e-06   4.120034307542302e-06   -4.107994011292703e-05
-9.398637191792582e-06   4.120034307542302e-06   -4.107994011292703e-05
-9.398637191792582e-06   4.120034307542302e-06   -4.107994011292703e-05
-9.398637191792582e-06   4.120034307542302e-06   -4.107994011292703e-05
-2.14835169123541e-05   4.0596880735810185e-06   -6.125761405423964e-05
-2.14835169123541e-05   4.0596880735810185e-06   -6.125761405423964e-05
-2.14835169123541e-05   4.0596880735810185e-06   -6.125761405423964e-05
-2.14835169123541e-05   4.0596880735810185e-06   -6.125761405423964e-05
-2.069377968341541e-05   5.632462037658773e-06   -4.203947112723142e-05
-2.069377968341541e-05   5.632462037658773e-06   -4.203947112723142e-05
-2.069377968341541e-05   5.632462037658773e-06   -4.203947112723142e-05
-2.069377968341541e-05   5.632462037658773e-06   -4.203947112723142e-05
-8.620680935660189e-06   5.4128779076456635e-06   -6.202955189548223e-05
-8.620680935660189e-06   5.4128779076456635e-06   -6.202955189548223e-05
-8.620680935660189e-06   5.4128779076456635e-06   -6.202955189548223e-05
-8.620680935660189e-06   5.4128779076456635e-06   -6.202955189548223e-05
-1.5186099383520095e-05   4.4652249548905905e-06   -5.051859604406333e-05
-1.5186099383520095e-05   4.4652249548905905e-06   -5.051859604406333e-05
-1.5186099383520095e-05   4.4652249548905905e-06   -5.051859604406333e-05
-1.5186099383520095e-05   4.4652249548905905e-06   -5.051859604406333e-05
-2.3126945383301965e-05   2.5984842646434997e-06   -3.5107172735118026e-05
-2.3126945383301965e-05   2.5984842646434997e-06   -3.5107172735118026e-05
-2.3126945383301965e-05   2.5984842646434997e-06   -3.5107172735118026e-05
-2.3126945383301965e-05   2.5984842646434997e-06   -3.5107172735118026e-05
-3.508303928603324e-05   4.770849815304793e-06   -5.373057657593987e-05
-3.508303928603324e-05   4.770849815304793e-06   -5.373057657593987e-05
-3.508303928603324e-05   4.770849815304793e-06   -5.373057657593987e-05
-3.508303928603324e-05   4.770849815304793e-06   -5.373057657593987e-05
-3.415188654944748e-05   4.06275923265113e-06   -3.306613311214977e-05
-3.415188654944748e-05   4.06275923265113e-06   -3.306613311214977e-05
-3.415188654944748e-05   4.06275923265113e-06   -3.306613311214977e-05
-3.415188654944748e-05   4.06275923265113e-06   -3.306613311214977e-05
-2.2311673044098166e-05   6.111682602958583e-06   -5.402917630991679e-05
-2.2311673044098166e-05   6.111682602958583e-06   -5.402917630991679e-05
-2.2311673044098166e-05   6.111682602958583e-06   -5.402917630991679e-05
-2.2311673044098166e-05   6.111682602958583e-06   -5.402917630991679e-05
-2.846988699780678e-05   4.560574299543492e-06   -4.283482140501958e-05
-2.846988699780678e-05   4.560574299543492e-06   -4.283482140501958e-05
-2.846988699780678e-05   4.560574299543492e-06   -4.283482140501958e-05
-2.846988699780678e-05   4.560574299543492e-06   -4.283482140501958e-05
-2.2311673044098207e-05   4.06275923265113e-06   -3.429548713433433e-05
-2.2311673044098207e-05   4.06275923265113e-06   -3.429548713433433e-05
-2.2311673044098207e-05   4.06275923265113e-06   -3.429548713433433e-05
-2.2311673044098207e-05   4.06275923265113e-06   -3.429548713433433e-05
-3.415188654944755e-05   6.111682602958583e-06   -5.279982228773234e-05
-3.415188654944755e-05   6.111682602958583e-06   -5.279982228773234e-05
-3.415188654944755e-05   6.111682602958583e-06   -5.279982228773234e-05
-3.415188654944755e-05   6.111682602958583e-06   -5.279982228773234e-05
-3.303806561474682e-05   5.413941831250695e-06   -3.2762421839654336e-05
-3.303806561474682e-05   5.413941831250695e-06   -3.2762421839654336e-05
-3.303806561474682e-05   5.413941831250695e-06   -3.2762421839654336e-05
-3.303806561474682e-05   5.413941831250695e-06   -3.2762421839654336e-05
-2.1483516912354135e-05   7.3197408828524525e-06   -5.316348244126996e-05
-2.1483516912354135e-05   7.3197408828524525e-06   -5.316348244126996e-05
-2.1483516912354135e-05   7.3197408828524525e-06   -5.316348244126996e-05
-2.1483516912354135e-05   7.3197408828524525e-06   -5.316348244126996e-05
-2.7531954365275844e-05   5.618918932664106e-06   -4.206226018295509e-05
-2.7531954365275844e-05   5.618918932664106e-06   -4.206226018295509e-05
-2.7531954365275844e-05   5.618918932664106e-06   -4.206226018295509e-05
-2.7531954365275844e-05   5.618918932664106e-06   -4.206226018295509e-05
-2.1483516912354118e-05   5.413941831250695e-06   -3.390590127061552e-05
-2.1483516912354118e-05   5.413941831250695e-06   -3.390590127061552e-05
-2.1483516912354118e-05   5.413941831250695e-06   -3.390590127061552e-05
-2.1483516912354118e-05   5.413941831250695e-06   -3.390590127061552e-05
-3.303806561474682e-05   7.3197408828524525e-06   -5.202000301030908e-05
-3.303806561474682e-05   7.3197408828524525e-06   -5.202000301030908e-05
-3.303806561474682e-05   7.3197408828524525e-06   -5.202000301030908e-05
-3.303806561474682e-05   7.3197408828524525e-06   -5.202000301030908e-05
-3.210984047786218e-05   6.9287783001480835e-06   -3.366902316959781e-05
-3.210984047786218e-05   6.9287783001480835e-06   -3.366902316959781e-05
-3.210984047786218e-05   6.9287783001480835e-06   -3.366902316959781e-05
-3.210984047786218e-05   6.9287783001480835e-06   -3.366902316959781e-05
-2.069377968341541e-05   8.672016009147066e-06   -5.374173378574145e-05
-2.069377968341541e-05   8.672016009147066e-06   -5.374173378574145e-05
-2.069377968341541e-05   8.672016009147066e-06   -5.374173378574145e-05
-2.069377968341541e-05   8.672016009147066e-06   -5.374173378574145e-05
-2.690229201616036e-05   6.662128819469142e-06   -4.218828091736009e-05
-2.690229201616036e-05   6.662128819469142e-06   -4.218828091736009e-05
-2.690229201616036e-05   6.662128819469142e-06   -4.218828091736009e-05
-2.690229201616036e-05   6.662128819469142e-06   -4.218828091736009e-05
-3.508303928603324e-05   4.3643220754168745e-06   -1.816438372078148e-05
-3.508303928603324e-05   4.3643220754168745e-06   -1.816438372078148e-05
-3.508303928603324e-05   4.3643220754168745e-06   -1.816438372078148e-05
-3.508303928603324e-05   4.3643220754168745e-06   -1.816438372078148e-05
-4.8704112287437866e-05   8.201338384236211e-06   -3.856396227116458e-05
-4.8704112287437866e-05   8.201338384236211e-06   -3.856396227116458e-05
-4.8704112287437866e-05   8.201338384236211e-06   -3.856396227116458e-05
-4.8704112287437866e-05   8.201338384236211e-06   -3.856396227116458e-05
-4.61517435424784e-05   5.691320301436358e-06   -1.1438338779200339e-05
-4.61517435424784e-05   5.691320301436358e-06   -1.1438338779200339e-05
-4.61517435424784e-05   5.691320301436358e-06   -1.1438338779200339e-05
-4.61517435424784e-05   5.691320301436358e-06   -1.1438338779200339e-05
-3.415188654944748e-05   9.592885416274694e-06   -3.377903950315441e-05
-3.415188654944748e-05   9.592885416274694e-06   -3.377903950315441e-05
-3.415188654944748e-05   9.592885416274694e-06   -3.377903950315441e-05
-3.415188654944748e-05   9.592885416274694e-06   -3.377903950315441e-05
-3.935361677165581e-05   7.122373521410881e-06   -2.362718199588952e-05
-3.935361677165581e-05   7.122373521410881e-06   -2.362718199588952e-05
-3.935361677165581e-05   7.122373521410881e-06   -2.362718199588952e-05
-3.935361677165581e-05   7.122373521410881e-06   -2.362718199588952e-05
-3.415188654944752e-05   5.691320301436358e-06   -1.377927784810282e-05
-3.415188654944752e-05   5.691320301436358e-06   -1.377927784810282e-05
-3.415188654944752e-05   5.691320301436358e-06   -1.377927784810282e-05
-3.415188654944752e-05   5.691320301436358e-06   -1.377927784810282e-05
-4.615174354247824e-05   9.592885416274694e-06   -3.1438100434251796e-05
-4.615174354247824e-05   9.592885416274694e-06   -3.1438100434251796e-05
-4.615174354247824e-05   9.592885416274694e-06   -3.1438100434251796e-05
-4.615174354247824e-05   9.592885416274694e-06   -3.1438100434251796e-05
-4.4042145216481604e-05   6.298960503014865e-06   -9.403581321382366e-06
-4.4042145216481604e-05   6.298960503014865e-06   -9.403581321382366e-06
-4.4042145216481604e-05   6.298960503014865e-06   -9.403581321382366e-06
-4.4042145216481604e-05   6.298960503014865e-06   -9.403581321382366e-06
-3.3038065614746754e-05   1.009132086684638e-05   -3.0019130209239412e-05
-3.3038065614746754e-05   1.009132086684638e-05   -3.0019130209239412e-05
-3.3038065614746754e-05   1.009132086684638e-05   -3.0019130209239412e-05
-3.3038065614746754e-05   1.009132086684638e-05   -3.0019130209239412e-05
-3.841513020804002e-05   7.747427299701487e-06   -1.9651019746797058e-05
-3.841513020804002e-05   7.747427299701487e-06   -1.9651019746797058e-05
-3.841513020804002e-05   7.747427299701487e-06   -1.9651019746797058e-05
-3.841513020804002e-05   7.747427299701487e-06   -1.9651019746797058e-05
-3.303806561474682e-05   6.298960503014865e-06   -1.1678997539681275e-05
-3.303806561474682e-05   6.298960503014865e-06   -1.1678997539681275e-05
-3.303806561474682e-05   6.298960503014865e-06   -1.1678997539681275e-05
-3.303806561474682e-05   6.298960503014865e-06   -1.1678997539681275e-05
-4.404214521648152e-05   1.009132086684638e-05   -2.77437139909408e-05
-4.404214521648152e-05   1.009132086684638e-05   -2.77437139909408e-05
-4.404214521648152e-05   1.009132086684638e-05   -2.77437139909408e-05
-4.404214521648152e-05   1.009132086684638e-05   -2.77437139909408e-05
-4.154870332361685e-05   7.241917239895427e-06   -7.27855559967466e-06
-4.154870332361685e-05   7.241917239895427e-06   -7.27855559967466e-06
-4.154870332361685e-05   7.241917239895427e-06   -7.27855559967466e-06
-4.154870332361685e-05   7.241917239895427e-06   -7.27855559967466e-06
-3.210984047786218e-05   1.072495619869893e-05   -2.5099817051215095e-05
-3.210984047786218e-05   1.072495619869893e-05   -2.5099817051215095e-05
-3.210984047786218e-05   1.072495619869893e-05   -2.5099817051215095e-05
-3.210984047786218e-05   1.072495619869893e-05   -2.5099817051215095e-05
-3.643383182183379e-05   8.049827578825771e-06   -1.6288087639338756e-05
-3.643383182183379e-05   8.049827578825771e-06   -1.6288087639338756e-05
-3.643383182183379e-05   8.049827578825771e-06   -1.6288087639338756e-05
-3.643383182183379e-05   8.049827578825771e-06   -1.6288087639338756e-05
3.703391687534405e-05   -4.860236748685954e-06   -3.364225952694113e-07
3.703391687534405e-05   -4.860236748685954e-06   -3.364225952694113e-07
3.703391687534405e-05   -4.860236748685954e-06   -3.364225952694113e-07
3.703391687534405e-05   -4.860236748685954e-06   -3.364225952694113e-07
1.57931189757102e-05   -8.774785539537953e-06   -3.808648170250373e-05
1.57931189757102e-05   -8.774785539537953e-06   -3.808648170250373e-05
1.57931189757102e-05   -8.774785539537953e-06   -3.808648170250373e-05
1.57931189757102e-05   -8.774785539537953e-06   -3.808648170250373e-05
1.6917926312484915e-05   -3.993225135989591e-06   -4.2371276488583146e-06
1.6917926312484915e-05   -3.993225135989591e-06   -4.2371276488583146e-06
1.6917926312484915e-05   -3.993225135989591e-06   -4.2371276488583146e-06
1.6917926312484915e-05   -3.993225135989591e-06   -4.2371276488583146e-06
3.984510800108794e-05   -8.159718819865814e-06   -3.994920091953769e-05
3.984510800108794e-05   -8.159718819865814e-06   -3.994920091953769e-05
3.984510800108794e-05   -8.159718819865814e-06   -3.994920091953769e-05
3.984510800108794e-05   -8.159718819865814e-06   -3.994920091953769e-05
2.629314075707398e-05   -5.7807050513271514e-06   -1.8789997107304343e-05
2.629314075707398e-05   -5.7807050513271514e-06   -1.8789997107304343e-05
2.629314075707398e-05   -5.7807050513271514e-06   -1.8789997107304343e-05
2.629314075707398e-05   -5.7807050513271514e-06   -1.8789997107304343e-05
3.9845108001087994e-05   -3.993225135989591e-06   -1.7372314385325372e-06
3.9845108001087994e-05   -3.993225135989591e-06   -1.7372314385325372e-06
3.9845108001087994e-05   -3.993225135989591e-06   -1.7372314385325372e-06
3.9845108001087994e-05   -3.993225135989591e-06   -1.7372314385325372e-06
1.6917926312484807e-05   -8.159718819865814e-06   -4.2449097129863356e-05
1.6917926312484807e-05   -8.159718819865814e-06   -4.2449097129863356e-05
1.6917926312484807e-05   -8.159718819865814e-06   -4.2449097129863356e-05
1.6917926312484807e-05   -8.159718819865814e-06   -4.2449097129863356e-05
1.81636598344009e-05   -3.4159896221807456e-06   -5.945682578342628e-06
1.81636598344009e-05   -3.4159896221807456e-06   -5.945682578342628e-06
1.81636598344009e-05   -3.4159896221807456e-06   -5.945682578342628e-06
1.81636598344009e-05   -3.4159896221807456e-06   -5.945682578342628e-06
4.220792666241905e-05   -7.63225470367052e-06   -4.348970157614556e-05
4.220792666241905e-05   -7.63225470367052e-06   -4.348970157614556e-05
4.220792666241905e-05   -7.63225470367052e-06   -4.348970157614556e-05
4.220792666241905e-05   -7.63225470367052e-06   -4.348970157614556e-05
2.8404747728230564e-05   -5.545993913611165e-06   -2.1736159826534016e-05
2.8404747728230564e-05   -5.545993913611165e-06   -2.1736159826534016e-05
2.8404747728230564e-05   -5.545993913611165e-06   -2.1736159826534016e-05
2.8404747728230564e-05   -5.545993913611165e-06   -2.1736159826534016e-05
4.2207926662419105e-05   -3.4159896221807456e-06   -3.415923529448764e-06
4.2207926662419105e-05   -3.4159896221807456e-06   -3.415923529448764e-06
4.2207926662419105e-05   -3.4159896221807456e-06   -3.415923529448764e-06
4.2207926662419105e-05   -3.4159896221807456e-06   -3.415923529448764e-06
1.8163659834400845e-05   -7.63225470367052e-06   -4.6019460625039855e-05
1.8163659834400845e-05   -7.63225470367052e-06   -4.6019460625039855e-05
1.8163659834400845e-05   -7.63225470367052e-06   -4.6019460625039855e-05
1.8163659834400845e-05   -7.63225470367052e-06   -4.6019460625039855e-05
1.919437876566081e-05   -1.960733227005223e-06   -9.89270223305085e-06
1.919437876566081e-05   -1.960733227005223e-06   -9.89270223305085e-06
1.919437876566081e-05   -1.960733227005223e-06   -9.89270223305085e-06
1.919437876566081e-05   -1.960733227005223e-06   -9.89270223305085e-06
4.495124419693399e-05   -5.962926074015197e-06   -5.041949557696684e-05
4.495124419693399e-05   -5.962926074015197e-06   -5.041949557696684e-05
4.495124419693399e-05   -5.962926074015197e-06   -5.041949557696684e-05
4.495124419693399e-05   -5.962926074015197e-06   -5.041949557696684e-05
2.955249571228615e-05   -4.894963117168562e-06   -2.539569254332943e-05
2.955249571228615e-05   -4.894963117168562e-06   -2.539569254332943e-05
2.955249571228615e-05   -4.894963117168562e-06   -2.539569254332943e-05
2.955249571228615e-05   -4.894963117168562e-06   -2.539569254332943e-05
1.57931189757102e-05   -1.925697089981502e-06   -2.5874878407644965e-05
1.57931189757102e-05   -1.925697089981502e-06   -2.5874878407644965e-05
1.57931189757102e-05   -1.925697089981502e-06   -2.5874878407644965e-05
1.57931189757102e-05   -1.925697089981502e-06   -2.5874878407644965e-05
-6.701977540583896e-06   -4.11517868999017e-06   -6.468039489480708e-05
-6.701977540583896e-06   -4.11517868999017e-06   -6.468039489480708e-05
-6.701977540583896e-06   -4.11517868999017e-06   -6.468039489480708e-05
-6.701977540583896e-06   -4.11517868999017e-06   -6.468039489480708e-05
-5.654727171070412e-06   -7.378600625079779e-07   -2.641343467319206e-05
-5.654727171070412e-06   -7.378600625079779e-07   -2.641343467319206e-05
-5.654727171070412e-06   -7.378600625079779e-07   -2.641343467319206e-05
-5.654727171070412e-06   -7.378600625079779e-07   -2.641343467319206e-05
1.6917926312484807e-05   -3.262665360649359e-06   -6.251964063356614e-05
1.6917926312484807e-05   -3.262665360649359e-06   -6.251964063356614e-05
1.6917926312484807e-05   -3.262665360649359e-06   -6.251964063356614e-05
1.6917926312484807e-05   -3.262665360649359e-06   -6.251964063356614e-05
5.144905873203886e-06   -1.9908809388785934e-06   -4.3661010554493654e-05
5.144905873203886e-06   -1.9908809388785934e-06   -4.3661010554493654e-05
5.144905873203886e-06   -1.9908809388785934e-06   -4.3661010554493654e-05
5.144905873203886e-06   -1.9908809388785934e-06   -4.3661010554493654e-05
1.691792631248486e-05   -7.378600625079779e-07   -2.4898551494307447e-05
1.691792631248486e-05   -7.378600625079779e-07   -2.4898551494307447e-05
1.691792631248486e-05   -7.378600625079779e-07   -2.4898551494307447e-05
1.691792631248486e-05   -7.378600625079779e-07   -2.4898551494307447e-05
-5.654727171070412e-06   -3.262665360649359e-06   -6.40345238124508e-05
-5.654727171070412e-06   -3.262665360649359e-06   -6.40345238124508e-05
-5.654727171070412e-06   -3.262665360649359e-06   -6.40345238124508e-05
-5.654727171070412e-06   -3.262665360649359e-06   -6.40345238124508e-05
-4.654793671827031e-06   4.901136158134978e-07   -2.6750875705702044e-05
-4.654793671827031e-06   4.901136158134978e-07   -2.6750875705702044e-05
-4.654793671827031e-06   4.901136158134978e-07   -2.6750875705702044e-05
-4.654793671827031e-06   4.901136158134978e-07   -2.6750875705702044e-05
1.8163659834400845e-05   -2.2204180774847843e-06   -6.31553125334361e-05
1.8163659834400845e-05   -2.2204180774847843e-06   -6.31553125334361e-05
1.8163659834400845e-05   -2.2204180774847843e-06   -6.31553125334361e-05
1.8163659834400845e-05   -2.2204180774847843e-06   -6.31553125334361e-05
5.9766950510357675e-06   -1.2372787625840494e-06   -4.343358815010073e-05
5.9766950510357675e-06   -1.2372787625840494e-06   -4.343358815010073e-05
5.9766950510357675e-06   -1.2372787625840494e-06   -4.343358815010073e-05
5.9766950510357675e-06   -1.2372787625840494e-06   -4.343358815010073e-05
1.81636598344009e-05   4.901136158134978e-07   -2.5124556689723248e-05
1.81636598344009e-05   4.901136158134978e-07   -2.5124556689723248e-05
1.81636598344009e-05   4.901136158134978e-07   -2.5124556689723248e-05
1.81636598344009e-05   4.901136158134978e-07   -2.5124556689723248e-05
-4.654793671827031e-06   -2.2204180774847843e-06   -6.478163154941528e-05
-4.654793671827031e-06   -2.2204180774847843e-06   -6.478163154941528e-05
-4.654793671827031e-06   -2.2204180774847843e-06   -6.478163154941528e-05
-4.654793671827031e-06   -2.2204180774847843e-06   -6.478163154941528e-05
-3.715298226183739e-06   1.9439221513790385e-06   -2.765874793320914e-05
-3.715298226183739e-06   1.9439221513790385e-06   -2.765874793320914e-05
-3.715298226183739e-06   1.9439221513790385e-06   -2.765874793320914e-05
-3.715298226183739e-06   1.9439221513790385e-06   -2.765874793320914e-05
1.9194378765660756e-05   -9.094154002210579e-07   -6.412954038865701e-05
1.9194378765660756e-05   -9.094154002210579e-07   -6.412954038865701e-05
1.9194378765660756e-05   -9.094154002210579e-07   -6.412954038865701e-05
1.9194378765660756e-05   -9.094154002210579e-07   -6.412954038865701e-05
7.012973085009387e-06   -3.081200440346876e-07   -4.418797480128386e-05
7.012973085009387e-06   -3.081200440346876e-07   -4.418797480128386e-05
7.012973085009387e-06   -3.081200440346876e-07   -4.418797480128386e-05
7.012973085009387e-06   -3.081200440346876e-07   -4.418797480128386e-05
-6.701977540583896e-06   1.473257520564434e-06   -3.326249370732377e-05
-6.701977540583896e-06   1.473257520564434e-06   -3.326249370732377e-05
-6.701977540583896e-06   1.473257520564434e-06   -3.326249370732377e-05
-6.701977540583896e-06   1.473257520564434e-06   -3.326249370732377e-05
-2.8800895136677775e-05   7.373993307783003e-07   -7.053553794801864e-05
-2.8800895136677775e-05   7.373993307783003e-07   -7.053553794801864e-05
-2.8800895136677775e-05   7.373993307783003e-07   -7.053553794801864e-05
-2.8800895136677775e-05   7.373993307783003e-07   -7.053553794801864e-05
-2.767359600440174e-05   2.729462432799444e-06   -3.303395695390698e-05
-2.767359600440174e-05   2.729462432799444e-06   -3.303395695390698e-05
-2.767359600440174e-05   2.729462432799444e-06   -3.303395695390698e-05
-2.767359600440174e-05   2.729462432799444e-06   -3.303395695390698e-05
-5.654727171070412e-06   1.6944862963820702e-06   -6.911108599427551e-05
-5.654727171070412e-06   1.6944862963820702e-06   -6.911108599427551e-05
-5.654727171070412e-06   1.6944862963820702e-06   -6.911108599427551e-05
-5.654727171070412e-06   1.6944862963820702e-06   -6.911108599427551e-05
-1.70897598793661e-05   2.0195103458435157e-06   -5.0247712576793045e-05
-1.70897598793661e-05   2.0195103458435157e-06   -5.0247712576793045e-05
-1.70897598793661e-05   2.0195103458435157e-06   -5.0247712576793045e-05
-1.70897598793661e-05   2.0195103458435157e-06   -5.0247712576793045e-05
-5.654727171070412e-06   2.729462432799444e-06   -3.24129712720566e-05
-5.654727171070412e-06   2.729462432799444e-06   -3.24129712720566e-05
-5.654727171070412e-06   2.729462432799444e-06   -3.24129712720566e-05
-5.654727171070412e-06   2.729462432799444e-06   -3.24129712720566e-05
-2.767359600440174e-05   1.6944862963820702e-06   -6.973207167612584e-05
-2.767359600440174e-05   1.6944862963820702e-06   -6.973207167612584e-05
-2.767359600440174e-05   1.6944862963820702e-06   -6.973207167612584e-05
-2.767359600440174e-05   1.6944862963820702e-06   -6.973207167612584e-05
-2.658644619380616e-05   4.0596880735810185e-06   -3.2984147979485444e-05
-2.658644619380616e-05   4.0596880735810185e-06   -3.2984147979485444e-05
-2.658644619380616e-05   4.0596880735810185e-06   -3.2984147979485444e-05
-2.658644619380616e-05   4.0596880735810185e-06   -3.2984147979485444e-05
-4.654793671827031e-06   2.8034179398736883e-06   -6.878314010255987e-05
-4.654793671827031e-06   2.8034179398736883e-06   -6.878314010255987e-05
-4.654793671827031e-06   2.8034179398736883e-06   -6.878314010255987e-05
-4.654793671827031e-06   2.8034179398736883e-06   -6.878314010255987e-05
-1.61194500301399e-05   2.9154372961706643e-06   -4.9742591119149586e-05
-1.61194500301399e-05   2.9154372961706643e-06   -4.9742591119149586e-05
-1.61194500301399e-05   2.9154372961706643e-06   -4.9742591119149586e-05
-1.61194500301399e-05   2.9154372961706643e-06   -4.9742591119149586e-05
-4.654793671827031e-06   4.0596880735810185e-06   -3.2230385899261176e-05
-4.654793671827031e-06   4.0596880735810185e-06   -3.2230385899261176e-05
-4.654793671827031e-06   4.0596880735810185e-06   -3.2230385899261176e-05
-4.654793671827031e-06   4.0596880735810185e-06   -3.2230385899261176e-05
-2.658644619380616e-05   2.8034179398736883e-06   -6.953690218278446e-05
-2.658644619380616e-05   2.8034179398736883e-06   -6.953690218278446e-05
-2.658644619380616e-05   2.8034179398736883e-06   -6.953690218278446e-05
-2.658644619380616e-05   2.8034179398736883e-06   -6.953690218278446e-05
-2.5581835421201155e-05   5.4128779076456635e-06   -3.375888129504567e-05
-2.5581835421201155e-05   5.4128779076456635e-06   -3.375888129504567e-05
-2.5581835421201155e-05   5.4128779076456635e-06   -3.375888129504567e-05
-2.5581835421201155e-05   5.4128779076456635e-06   -3.375888129504567e-05
-3.7152982261837663e-06   3.949576740593704e-06   -6.93251292531767e-05
-3.7152982261837663e-06   3.949576740593704e-06   -6.93251292531767e-05
-3.7152982261837663e-06   3.949576740593704e-06   -6.93251292531767e-05
-3.7152982261837663e-06   3.949576740593704e-06   -6.93251292531767e-05
-1.5252315006027026e-05   3.83476032610533e-06   -5.002787810474605e-05
-1.5252315006027026e-05   3.83476032610533e-06   -5.002787810474605e-05
-1.5252315006027026e-05   3.83476032610533e-06   -5.002787810474605e-05
-1.5252315006027026e-05   3.83476032610533e-06   -5.002787810474605e-05
-2.8800895136677836e-05   4.770849815304793e-06   -2.6990053633088595e-05
-2.8800895136677836e-05   4.770849815304793e-06   -2.6990053633088595e-05
-2.8800895136677836e-05   4.770849815304793e-06   -2.6990053633088595e-05
-2.8800895136677836e-05   4.770849815304793e-06   -2.6990053633088595e-05
-5.048385368287226e-05   5.763378011413179e-06   -6.253280095908109e-05
-5.048385368287226e-05   5.763378011413179e-06   -6.253280095908109e-05
-5.048385368287226e-05   5.763378011413179e-06   -6.253280095908109e-05
-5.048385368287226e-05   5.763378011413179e-06   -6.253280095908109e-05
-4.9125520950581204e-05   6.111682602958583e-06   -2.536781857411961e-05
-4.9125520950581204e-05   6.111682602958583e-06   -2.536781857411961e-05
-4.9125520950581204e-05   6.111682602958583e-06   -2.536781857411961e-05
-4.9125520950581204e-05   6.111682602958583e-06   -2.536781857411961e-05
-2.7673596004401787e-05   6.979531177247426e-06   -6.164173596232543e-05
-2.7673596004401787e-05   6.979531177247426e-06   -6.164173596232543e-05
-2.7673596004401787e-05   6.979531177247426e-06   -6.164173596232543e-05
-2.7673596004401787e-05   6.979531177247426e-06   -6.164173596232543e-05
-3.8735738876370665e-05   6.1612699603311866e-06   -4.271387444556088e-05
-3.8735738876370665e-05   6.1612699603311866e-06   -4.271387444556088e-05
-3.8735738876370665e-05   6.1612699603311866e-06   -4.271387444556088e-05
-3.8735738876370665e-05   6.1612699603311866e-06   -4.271387444556088e-05
-2.7673596004401787e-05   6.111682602958583e-06   -2.5888527718692916e-05
-2.7673596004401787e-05   6.111682602958583e-06   -2.5888527718692916e-05
-2.7673596004401787e-05   6.111682602958583e-06   -2.5888527718692916e-05
-2.7673596004401787e-05   6.111682602958583e-06   -2.5888527718692916e-05
-4.912552095058129e-05   6.979531177247426e-06   -6.112102681775215e-05
-4.912552095058129e-05   6.979531177247426e-06   -6.112102681775215e-05
-4.912552095058129e-05   6.979531177247426e-06   -6.112102681775215e-05
-4.912552095058129e-05   6.979531177247426e-06   -6.112102681775215e-05
-4.762337854662795e-05   7.3197408828524525e-06   -2.4465663197994342e-05
-4.762337854662795e-05   7.3197408828524525e-06   -2.4465663197994342e-05
-4.762337854662795e-05   7.3197408828524525e-06   -2.4465663197994342e-05
-4.762337854662795e-05   7.3197408828524525e-06   -2.4465663197994342e-05
-2.6586446193806213e-05   8.026996163722211e-06   -5.995157028788572e-05
-2.6586446193806213e-05   8.026996163722211e-06   -5.995157028788572e-05
-2.6586446193806213e-05   8.026996163722211e-06   -5.995157028788572e-05
-2.6586446193806213e-05   8.026996163722211e-06   -5.995157028788572e-05
-3.736273990988987e-05   7.1076894945293e-06   -4.1439496759563817e-05
-3.736273990988987e-05   7.1076894945293e-06   -4.1439496759563817e-05
-3.736273990988987e-05   7.1076894945293e-06   -4.1439496759563817e-05
-3.736273990988987e-05   7.1076894945293e-06   -4.1439496759563817e-05
-2.6586446193806186e-05   7.3197408828524525e-06   -2.489001636651585e-05
-2.6586446193806186e-05   7.3197408828524525e-06   -2.489001636651585e-05
-2.6586446193806186e-05   7.3197408828524525e-06   -2.489001636651585e-05
-2.6586446193806186e-05   7.3197408828524525e-06   -2.489001636651585e-05
-4.762337854662795e-05   8.026996163722211e-06   -5.952721711936391e-05
-4.762337854662795e-05   8.026996163722211e-06   -5.952721711936391e-05
-4.762337854662795e-05   8.026996163722211e-06   -5.952721711936391e-05
-4.762337854662795e-05   8.026996163722211e-06   -5.952721711936391e-05
-4.635383003645539e-05   8.672016009147066e-06   -2.5030690423419712e-05
-4.635383003645539e-05   8.672016009147066e-06   -2.5030690423419712e-05
-4.635383003645539e-05   8.672016009147066e-06   -2.5030690423419712e-05
-4.635383003645539e-05   8.672016009147066e-06   -2.5030690423419712e-05
-2.5581835421201196e-05   9.186386482275873e-06   -5.995930373272094e-05
-2.5581835421201196e-05   9.186386482275873e-06   -5.995930373272094e-05
-2.5581835421201196e-05   9.186386482275873e-06   -5.995930373272094e-05
-2.5581835421201196e-05   9.186386482275873e-06   -5.995930373272094e-05
-3.650650748221007e-05   7.979676084909817e-06   -4.1027490725953266e-05
-3.650650748221007e-05   7.979676084909817e-06   -4.1027490725953266e-05
-3.650650748221007e-05   7.979676084909817e-06   -4.1027490725953266e-05
-3.650650748221007e-05   7.979676084909817e-06   -4.1027490725953266e-05
-5.048385368287226e-05   8.201338384236211e-06   -1.3530132195940054e-05
-5.048385368287226e-05   8.201338384236211e-06   -1.3530132195940054e-05
-5.048385368287226e-05   8.201338384236211e-06   -1.3530132195940054e-05
-5.048385368287226e-05   8.201338384236211e-06   -1.3530132195940054e-05
-7.331386510975695e-05   1.1336558710986142e-05   -4.969901904469795e-05
-7.331386510975695e-05   1.1336558710986142e-05   -4.969901904469795e-05
-7.331386510975695e-05   1.1336558710986142e-05   -4.969901904469795e-05
-7.331386510975695e-05   1.1336558710986142e-05   -4.969901904469795e-05
-7.020031946673467e-05   9.592885416274694e-06   -4.3313738621315705e-06
-7.020031946673467e-05   9.592885416274694e-06   -4.3313738621315705e-06
-7.020031946673467e-05   9.592885416274694e-06   -4.3313738621315705e-06
-7.020031946673467e-05   9.592885416274694e-06   -4.3313738621315705e-06
-4.9125520950581204e-05   1.2952321961958498e-05   -4.1471699983131215e-05
-4.9125520950581204e-05   1.2952321961958498e-05   -4.1471699983131215e-05
-4.9125520950581204e-05   1.2952321961958498e-05   -4.1471699983131215e-05
-4.9125520950581204e-05   1.2952321961958498e-05   -4.1471699983131215e-05
-5.826770392801644e-05   1.0800569826243094e-05   -2.4943677072642887e-05
-5.826770392801644e-05   1.0800569826243094e-05   -2.4943677072642887e-05
-5.826770392801644e-05   1.0800569826243094e-05   -2.4943677072642887e-05
-5.826770392801644e-05   1.0800569826243094e-05   -2.4943677072642887e-05
-4.9125520950581245e-05   9.592885416274694e-06   -6.347035789541983e-06
-4.9125520950581245e-05   9.592885416274694e-06   -6.347035789541983e-06
-4.9125520950581245e-05   9.592885416274694e-06   -6.347035789541983e-06
-4.9125520950581245e-05   9.592885416274694e-06   -6.347035789541983e-06
-7.020031946673453e-05   1.2952321961958498e-05   -3.9456038055720464e-05
-7.020031946673453e-05   1.2952321961958498e-05   -3.9456038055720464e-05
-7.020031946673453e-05   1.2952321961958498e-05   -3.9456038055720464e-05
-7.020031946673453e-05   1.2952321961958498e-05   -3.9456038055720464e-05
-6.763808185185856e-05   1.0091320866845947e-05   -4.933965642168591e-07
-6.763808185185856e-05   1.0091320866845947e-05   -4.933965642168591e-07
-6.763808185185856e-05   1.0091320866845947e-05   -4.933965642168591e-07
-6.763808185185856e-05   1.0091320866845947e-05   -4.933965642168591e-07
-4.762337854662795e-05   1.3376977254692807e-05   -3.58226292389757e-05
-4.762337854662795e-05   1.3376977254692807e-05   -3.58226292389757e-05
-4.762337854662795e-05   1.3376977254692807e-05   -3.58226292389757e-05
-4.762337854662795e-05   1.3376977254692807e-05   -3.58226292389757e-05
-5.720202703064737e-05   1.1442984799963328e-05   -1.869781962610508e-05
-5.720202703064737e-05   1.1442984799963328e-05   -1.869781962610508e-05
-5.720202703064737e-05   1.1442984799963328e-05   -1.869781962610508e-05
-5.720202703064737e-05   1.1442984799963328e-05   -1.869781962610508e-05
-4.762337854662795e-05   1.0091320866845947e-05   -2.4647903969247584e-06
-4.762337854662795e-05   1.0091320866845947e-05   -2.4647903969247584e-06
-4.762337854662795e-05   1.0091320866845947e-05   -2.4647903969247584e-06
-4.762337854662795e-05   1.0091320866845947e-05   -2.4647903969247584e-06
-6.763808185185835e-05   1.3376977254692373e-05   -3.3851235406267936e-05
-6.763808185185835e-05   1.3376977254692373e-05   -3.3851235406267936e-05
-6.763808185185835e-05   1.3376977254692373e-05   -3.3851235406267936e-05
-6.763808185185835e-05   1.3376977254692373e-05   -3.3851235406267936e-05
-6.487545691767247e-05   1.072495619869893e-05   4.37707551892365e-06
-6.487545691767247e-05   1.072495619869893e-05   4.37707551892365e-06
-6.487545691767247e-05   1.072495619869893e-05   4.37707551892365e-06
-6.487545691767247e-05   1.072495619869893e-05   4.37707551892365e-06
-4.635383003645539e-05   1.3744609254059525e-05   -2.830409444965426e-05
-4.635383003645539e-05   1.3744609254059525e-05   -2.830409444965426e-05
-4.635383003645539e-05   1.3744609254059525e-05   -2.830409444965426e-05
-4.635383003645539e-05   1.3744609254059525e-05   -2.830409444965426e-05
-5.460725670681204e-05   1.154813505892813e-05   -1.3230498815314934e-05
-5.460725670681204e-05   1.154813505892813e-05   -1.3230498815314934e-05
-5.460725670681204e-05   1.154813505892813e-05   -1.3230498815314934e-05
-5.460725670681204e-05   1.154813505892813e-05   -1.3230498815314934e-05
6.290354600696371e-05   -8.774785539537953e-06   1.2412609976844048e-05
6.290354600696371e-05   -8.774785539537953e-06   1.2412609976844048e-05
6.290354600696371e-05   -8.774785539537953e-06   1.2412609976844048e-05
6.290354600696371e-05   -8.774785539537953e-06   1.2412609976844048e-05
3.0327247497871044e-05   -1.3001740456483786e-05   -4.441739382181082e-05
3.0327247497871044e-05   -1.3001740456483786e-05   -4.441739382181082e-05
3.0327247497871044e-05   -1.3001740456483786e-05   -4.441739382181082e-05
3.0327247497871044e-05   -1.3001740456483786e-05   -4.441739382181082e-05
3.157418464603255e-05   -8.159718819865814e-06   5.95511161838487e-06
3.157418464603255e-05   -8.159718819865814e-06   5.95511161838487e-06
3.157418464603255e-05   -8.159718819865814e-06   5.95511161838487e-06
3.157418464603255e-05   -8.159718819865814e-06   5.95511161838487e-06
6.579317157744401e-05   -1.2697058419963627e-05   -4.83541295072423e-05
6.579317157744401e-05   -1.2697058419963627e-05   -4.83541295072423e-05
6.579317157744401e-05   -1.2697058419963627e-05   -4.83541295072423e-05
6.579317157744401e-05   -1.2697058419963627e-05   -4.83541295072423e-05
4.5712892595172944e-05   -9.609687669181848e-06   -1.6739420320592883e-05
4.5712892595172944e-05   -9.609687669181848e-06   -1.6739420320592883e-05
4.5712892595172944e-05   -9.609687669181848e-06   -1.6739420320592883e-05
4.5712892595172944e-05   -9.609687669181848e-06   -1.6739420320592883e-05
6.579317157744412e-05   -8.159718819865814e-06   8.677515378443384e-06
6.579317157744412e-05   -8.159718819865814e-06   8.677515378443384e-06
6.579317157744412e-05   -8.159718819865814e-06   8.677515378443384e-06
6.579317157744412e-05   -8.159718819865814e-06   8.677515378443384e-06
3.1574184646032466e-05   -1.2697058419963627e-05   -5.10765332673007e-05
3.1574184646032466e-05   -1.2697058419963627e-05   -5.10765332673007e-05
3.1574184646032466e-05   -1.2697058419963627e-05   -5.10765332673007e-05
3.1574184646032466e-05   -1.2697058419963627e-05   -5.10765332673007e-05
3.2814474965925464e-05   -7.632254703670953e-06   2.798291881725857e-06
3.2814474965925464e-05   -7.632254703670953e-06   2.798291881725857e-06
3.2814474965925464e-05   -7.632254703670953e-06   2.798291881725857e-06
3.2814474965925464e-05   -7.632254703670953e-06   2.798291881725857e-06
6.801198220753876e-05   -1.2256604550642605e-05   -5.308961027944599e-05
6.801198220753876e-05   -1.2256604550642605e-05   -5.308961027944599e-05
6.801198220753876e-05   -1.2256604550642605e-05   -5.308961027944599e-05
6.801198220753876e-05   -1.2256604550642605e-05   -5.308961027944599e-05
4.8145644512463426e-05   -9.5781764556397e-06   -2.1586104311322254e-05
4.8145644512463426e-05   -9.5781764556397e-06   -2.1586104311322254e-05
4.8145644512463426e-05   -9.5781764556397e-06   -2.1586104311322254e-05
4.8145644512463426e-05   -9.5781764556397e-06   -2.1586104311322254e-05
6.801198220753876e-05   -7.632254703670953e-06   5.5729017899095856e-06
6.801198220753876e-05   -7.632254703670953e-06   5.5729017899095856e-06
6.801198220753876e-05   -7.632254703670953e-06   5.5729017899095856e-06
6.801198220753876e-05   -7.632254703670953e-06   5.5729017899095856e-06
3.2814474965925464e-05   -1.2256604550642605e-05   -5.58642201876295e-05
3.2814474965925464e-05   -1.2256604550642605e-05   -5.58642201876295e-05
3.2814474965925464e-05   -1.2256604550642605e-05   -5.58642201876295e-05
3.2814474965925464e-05   -1.2256604550642605e-05   -5.58642201876295e-05
3.3657784378401755e-05   -5.962926074015197e-06   -3.564386545339311e-06
3.3657784378401755e-05   -5.962926074015197e-06   -3.564386545339311e-06
3.3657784378401755e-05   -5.962926074015197e-06   -3.564386545339311e-06
3.3657784378401755e-05   -5.962926074015197e-06   -3.564386545339311e-06
7.035793323256263e-05   -1.0537350013122785e-05   -6.19866469388098e-05
7.035793323256263e-05   -1.0537350013122785e-05   -6.19866469388098e-05
7.035793323256263e-05   -1.0537350013122785e-05   -6.19866469388098e-05
7.035793323256263e-05   -1.0537350013122785e-05   -6.19866469388098e-05
4.882992698958907e-05   -8.842674269936984e-06   -2.7123441979766036e-05
4.882992698958907e-05   -8.842674269936984e-06   -2.7123441979766036e-05
4.882992698958907e-05   -8.842674269936984e-06   -2.7123441979766036e-05
4.882992698958907e-05   -8.842674269936984e-06   -2.7123441979766036e-05
3.0327247497871098e-05   -4.1151786899906034e-06   -1.540378720562099e-05
3.0327247497871098e-05   -4.1151786899906034e-06   -1.540378720562099e-05
3.0327247497871098e-05   -4.1151786899906034e-06   -1.540378720562099e-05
3.0327247497871098e-05   -4.1151786899906034e-06   -1.540378720562099e-05
-1.811220042687901e-06   -8.440547657740955e-06   -7.156312115386967e-05
-1.811220042687901e-06   -8.440547657740955e-06   -7.156312115386967e-05
-1.811220042687901e-06   -8.440547657740955e-06   -7.156312115386967e-05
-1.811220042687901e-06   -8.440547657740955e-06   -7.156312115386967e-05
-5.307161172922795e-07   -3.2626653606489253e-06   -1.6980956125275514e-05
-5.307161172922795e-07   -3.2626653606489253e-06   -1.6980956125275514e-05
-5.307161172922795e-07   -3.2626653606489253e-06   -1.6980956125275514e-05
-5.307161172922795e-07   -3.2626653606489253e-06   -1.6980956125275514e-05
3.157418464603255e-05   -8.038539093912014e-06   -6.762359982419227e-05
3.157418464603255e-05   -8.038539093912014e-06   -6.762359982419227e-05
3.157418464603255e-05   -8.038539093912014e-06   -6.762359982419227e-05
3.157418464603255e-05   -8.038539093912014e-06   -6.762359982419227e-05
1.493519717754284e-05   -5.105816922957706e-06   -4.1651587345948975e-05
1.493519717754284e-05   -5.105816922957706e-06   -4.1651587345948975e-05
1.493519717754284e-05   -5.105816922957706e-06   -4.1651587345948975e-05
1.493519717754284e-05   -5.105816922957706e-06   -4.1651587345948975e-05
3.1574184646032466e-05   -3.2626653606489253e-06   -1.411543188531753e-05
3.1574184646032466e-05   -3.2626653606489253e-06   -1.411543188531753e-05
3.1574184646032466e-05   -3.2626653606489253e-06   -1.411543188531753e-05
3.1574184646032466e-05   -3.2626653606489253e-06   -1.411543188531753e-05
-5.307161172922795e-07   -8.038539093912014e-06   -7.04891240641502e-05
-5.307161172922795e-07   -8.038539093912014e-06   -7.04891240641502e-05
-5.307161172922795e-07   -8.038539093912014e-06   -7.04891240641502e-05
-5.307161172922795e-07   -8.038539093912014e-06   -7.04891240641502e-05
5.976358260647804e-07   -2.2204180774847843e-06   -1.737844757196058e-05
5.976358260647804e-07   -2.2204180774847843e-06   -1.737844757196058e-05
5.976358260647804e-07   -2.2204180774847843e-06   -1.737844757196058e-05
5.976358260647804e-07   -2.2204180774847843e-06   -1.737844757196058e-05
3.2814474965925464e-05   -7.288563986301497e-06   -6.80322919264382e-05
3.2814474965925464e-05   -7.288563986301497e-06   -6.80322919264382e-05
3.2814474965925464e-05   -7.288563986301497e-06   -6.80322919264382e-05
3.2814474965925464e-05   -7.288563986301497e-06   -6.80322919264382e-05
1.5808138955419215e-05   -4.689134567297838e-06   -4.124805622699541e-05
1.5808138955419215e-05   -4.689134567297838e-06   -4.124805622699541e-05
1.5808138955419215e-05   -4.689134567297838e-06   -4.124805622699541e-05
1.5808138955419215e-05   -4.689134567297838e-06   -4.124805622699541e-05
3.2814474965925464e-05   -2.2204180774843506e-06   -1.433756002667077e-05
3.2814474965925464e-05   -2.2204180774843506e-06   -1.433756002667077e-05
3.2814474965925464e-05   -2.2204180774843506e-06   -1.433756002667077e-05
3.2814474965925464e-05   -2.2204180774843506e-06   -1.433756002667077e-05
5.976358260647804e-07   -7.288563986301497e-06   -7.107317947172833e-05
5.976358260647804e-07   -7.288563986301497e-06   -7.107317947172833e-05
5.976358260647804e-07   -7.288563986301497e-06   -7.107317947172833e-05
5.976358260647804e-07   -7.288563986301497e-06   -7.107317947172833e-05
1.4014932503019536e-06   -9.094154002210579e-07   -1.8060448919475676e-05
1.4014932503019536e-06   -9.094154002210579e-07   -1.8060448919475676e-05
1.4014932503019536e-06   -9.094154002210579e-07   -1.8060448919475676e-05
1.4014932503019536e-06   -9.094154002210579e-07   -1.8060448919475676e-05
3.3657784378401863e-05   -6.22163751797444e-06   -6.863360086232378e-05
3.3657784378401863e-05   -6.22163751797444e-06   -6.863360086232378e-05
3.3657784378401863e-05   -6.22163751797444e-06   -6.863360086232378e-05
3.3657784378401863e-05   -6.22163751797444e-06   -6.863360086232378e-05
1.685116464620618e-05   -3.953936755337478e-06   -4.198318843291369e-05
1.685116464620618e-05   -3.953936755337478e-06   -4.198318843291369e-05
1.685116464620618e-05   -3.953936755337478e-06   -4.198318843291369e-05
1.685116464620618e-05   -3.953936755337478e-06   -4.198318843291369e-05
-1.811220042687901e-06   7.373993307783003e-07   -2.3412636725611254e-05
-1.811220042687901e-06   7.373993307783003e-07   -2.3412636725611254e-05
-1.811220042687901e-06   7.373993307783003e-07   -2.3412636725611254e-05
-1.811220042687901e-06   7.373993307783003e-07   -2.3412636725611254e-05
-3.347485644776702e-05   -4.455346890963e-06   -7.930101180045486e-05
-3.347485644776702e-05   -4.455346890963e-06   -7.930101180045486e-05
-3.347485644776702e-05   -4.455346890963e-06   -7.930101180045486e-05
-3.347485644776702e-05   -4.455346890963e-06   -7.930101180045486e-05
-3.193869149390022e-05   1.6944862963820702e-06   -2.5463608957448144e-05
-3.193869149390022e-05   1.6944862963820702e-06   -2.5463608957448144e-05
-3.193869149390022e-05   1.6944862963820702e-06   -2.5463608957448144e-05
-3.193869149390022e-05   1.6944862963820702e-06   -2.5463608957448144e-05
-5.307161172922795e-07   -3.982331454197886e-06   -7.440414393478003e-05
-5.307161172922795e-07   -3.982331454197886e-06   -7.440414393478003e-05
-5.307161172922795e-07   -3.982331454197886e-06   -7.440414393478003e-05
-5.307161172922795e-07   -3.982331454197886e-06   -7.440414393478003e-05
-1.6736904493786032e-05   -8.766764754723419e-07   -4.925722296119208e-05
-1.6736904493786032e-05   -8.766764754723419e-07   -4.925722296119208e-05
-1.6736904493786032e-05   -8.766764754723419e-07   -4.925722296119208e-05
-1.6736904493786032e-05   -8.766764754723419e-07   -4.925722296119208e-05
-5.307161172922795e-07   1.6944862963820702e-06   -2.205751830710017e-05
-5.307161172922795e-07   1.6944862963820702e-06   -2.205751830710017e-05
-5.307161172922795e-07   1.6944862963820702e-06   -2.205751830710017e-05
-5.307161172922795e-07   1.6944862963820702e-06   -2.205751830710017e-05
-3.193869149390022e-05   -3.982331454197886e-06   -7.7810234585128e-05
-3.193869149390022e-05   -3.982331454197886e-06   -7.7810234585128e-05
-3.193869149390022e-05   -3.982331454197886e-06   -7.7810234585128e-05
-3.193869149390022e-05   -3.982331454197886e-06   -7.7810234585128e-05
-3.0529314500166475e-05   2.8034179398736883e-06   -2.5008265609629318e-05
-3.0529314500166475e-05   2.8034179398736883e-06   -2.5008265609629318e-05
-3.0529314500166475e-05   2.8034179398736883e-06   -2.5008265609629318e-05
-3.0529314500166475e-05   2.8034179398736883e-06   -2.5008265609629318e-05
5.976358260647804e-07   -3.243764534333407e-06   -7.325820666882413e-05
5.976358260647804e-07   -3.243764534333407e-06   -7.325820666882413e-05
5.976358260647804e-07   -3.243764534333407e-06   -7.325820666882413e-05
5.976358260647804e-07   -3.243764534333407e-06   -7.325820666882413e-05
-1.548527050075489e-05   -3.3429510057575787e-07   -4.819904445104578e-05
-1.548527050075489e-05   -3.3429510057575787e-07   -4.819904445104578e-05
-1.548527050075489e-05   -3.3429510057575787e-07   -4.819904445104578e-05
-1.548527050075489e-05   -3.3429510057575787e-07   -4.819904445104578e-05
5.976358260647804e-07   2.8034179398736883e-06   -2.137995612510506e-05
5.976358260647804e-07   2.8034179398736883e-06   -2.137995612510506e-05
5.976358260647804e-07   2.8034179398736883e-06   -2.137995612510506e-05
5.976358260647804e-07   2.8034179398736883e-06   -2.137995612510506e-05
-3.052931450016653e-05   -3.243764534333407e-06   -7.688651615334855e-05
-3.052931450016653e-05   -3.243764534333407e-06   -7.688651615334855e-05
-3.052931450016653e-05   -3.243764534333407e-06   -7.688651615334855e-05
-3.052931450016653e-05   -3.243764534333407e-06   -7.688651615334855e-05
-2.9578849511810852e-05   3.9495767405932705e-06   -2.544000015708512e-05
-2.9578849511810852e-05   3.9495767405932705e-06   -2.544000015708512e-05
-2.9578849511810852e-05   3.9495767405932705e-06   -2.544000015708512e-05
-2.9578849511810852e-05   3.9495767405932705e-06   -2.544000015708512e-05
1.4014932503019807e-06   -2.5436980994886227e-06   -7.317793985655712e-05
1.4014932503019807e-06   -2.5436980994886227e-06   -7.317793985655712e-05
1.4014932503019807e-06   -2.5436980994886227e-06   -7.317793985655712e-05
1.4014932503019807e-06   -2.5436980994886227e-06   -7.317793985655712e-05
-1.4592049638905113e-05   2.7491285811611504e-07   -4.8213201615775474e-05
-1.4592049638905113e-05   2.7491285811611504e-07   -4.8213201615775474e-05
-1.4592049638905113e-05   2.7491285811611504e-07   -4.8213201615775474e-05
-1.4592049638905113e-05   2.7491285811611504e-07   -4.8213201615775474e-05
-3.347485644776698e-05   5.763378011413179e-06   -1.9121064387383428e-05
-3.347485644776698e-05   5.763378011413179e-06   -1.9121064387383428e-05
-3.347485644776698e-05   5.763378011413179e-06   -1.9121064387383428e-05
-3.347485644776698e-05   5.763378011413179e-06   -1.9121064387383428e-05
-6.557690555801749e-05   1.0809966171695246e-06   -7.543390840768064e-05
-6.557690555801749e-05   1.0809966171695246e-06   -7.543390840768064e-05
-6.557690555801749e-05   1.0809966171695246e-06   -7.543390840768064e-05
-6.557690555801749e-05   1.0809966171695246e-06   -7.543390840768064e-05
-6.339024825864944e-05   6.979531177247426e-06   -2.0385732049177287e-05
-6.339024825864944e-05   6.979531177247426e-06   -2.0385732049177287e-05
-6.339024825864944e-05   6.979531177247426e-06   -2.0385732049177287e-05
-6.339024825864944e-05   6.979531177247426e-06   -2.0385732049177287e-05
-3.193869149390015e-05   1.9587665013648045e-06   -6.979253451822986e-05
-3.193869149390015e-05   1.9587665013648045e-06   -6.979253451822986e-05
-3.193869149390015e-05   1.9587665013648045e-06   -6.979253451822986e-05
-3.193869149390015e-05   1.9587665013648045e-06   -6.979253451822986e-05
-4.808956638594185e-05   4.364826078206898e-06   -4.4318045444265326e-05
-4.808956638594185e-05   4.364826078206898e-06   -4.4318045444265326e-05
-4.808956638594185e-05   4.364826078206898e-06   -4.4318045444265326e-05
-4.808956638594185e-05   4.364826078206898e-06   -4.4318045444265326e-05
-3.193869149390015e-05   6.979531177247426e-06   -1.737327324364754e-05
-3.193869149390015e-05   6.979531177247426e-06   -1.737327324364754e-05
-3.193869149390015e-05   6.979531177247426e-06   -1.737327324364754e-05
-3.193869149390015e-05   6.979531177247426e-06   -1.737327324364754e-05
-6.339024825864955e-05   1.9587665013648045e-06   -7.28049933237595e-05
-6.339024825864955e-05   1.9587665013648045e-06   -7.28049933237595e-05
-6.339024825864955e-05   1.9587665013648045e-06   -7.28049933237595e-05
-6.339024825864955e-05   1.9587665013648045e-06   -7.28049933237595e-05
-6.127745828201098e-05   8.026996163722211e-06   -1.8578849914316874e-05
-6.127745828201098e-05   8.026996163722211e-06   -1.8578849914316874e-05
-6.127745828201098e-05   8.026996163722211e-06   -1.8578849914316874e-05
-6.127745828201098e-05   8.026996163722211e-06   -1.8578849914316874e-05
-3.052931450016653e-05   2.767135831078897e-06   -6.666984001780526e-05
-3.052931450016653e-05   2.767135831078897e-06   -6.666984001780526e-05
-3.052931450016653e-05   2.767135831078897e-06   -6.666984001780526e-05
-3.052931450016653e-05   2.767135831078897e-06   -6.666984001780526e-05
-4.6114831225651684e-05   5.128495160749719e-06   -4.211079440646546e-05
-4.6114831225651684e-05   5.128495160749719e-06   -4.211079440646546e-05
-4.6114831225651684e-05   5.128495160749719e-06   -4.211079440646546e-05
-4.6114831225651684e-05   5.128495160749719e-06   -4.211079440646546e-05
-3.052931450016646e-05   8.026996163722211e-06   -1.5422933714730712e-05
-3.052931450016646e-05   8.026996163722211e-06   -1.5422933714730712e-05
-3.052931450016646e-05   8.026996163722211e-06   -1.5422933714730712e-05
-3.052931450016646e-05   8.026996163722211e-06   -1.5422933714730712e-05
-6.127745828201107e-05   2.767135831078897e-06   -6.982575621739136e-05
-6.127745828201107e-05   2.767135831078897e-06   -6.982575621739136e-05
-6.127745828201107e-05   2.767135831078897e-06   -6.982575621739136e-05
-6.127745828201107e-05   2.767135831078897e-06   -6.982575621739136e-05
-5.967324896328916e-05   9.186386482275873e-06   -1.863704710855854e-05
-5.967324896328916e-05   9.186386482275873e-06   -1.863704710855854e-05
-5.967324896328916e-05   9.186386482275873e-06   -1.863704710855854e-05
-5.967324896328916e-05   9.186386482275873e-06   -1.863704710855854e-05
-2.9578849511810906e-05   3.4516311953405876e-06   -6.535352635552824e-05
-2.9578849511810906e-05   3.4516311953405876e-06   -6.535352635552824e-05
-2.9578849511810906e-05   3.4516311953405876e-06   -6.535352635552824e-05
-2.9578849511810906e-05   3.4516311953405876e-06   -6.535352635552824e-05
-4.500518223002328e-05   5.6613204345175826e-06   -4.0968785368680305e-05
-4.500518223002328e-05   5.6613204345175826e-06   -4.0968785368680305e-05
-4.500518223002328e-05   5.6613204345175826e-06   -4.0968785368680305e-05
-4.500518223002328e-05   5.6613204345175826e-06   -4.0968785368680305e-05
-6.557690555801749e-05   1.1336558710986142e-05   -1.0977843505596873e-05
-6.557690555801749e-05   1.1336558710986142e-05   -1.0977843505596873e-05
-6.557690555801749e-05   1.1336558710986142e-05   -1.0977843505596873e-05
-6.557690555801749e-05   1.1336558710986142e-05   -1.0977843505596873e-05
-9.910778533241813e-05   1.0692943175890333e-05   -6.72488124506558e-05
-9.910778533241813e-05   1.0692943175890333e-05   -6.72488124506558e-05
-9.910778533241813e-05   1.0692943175890333e-05   -6.72488124506558e-05
-9.910778533241813e-05   1.0692943175890333e-05   -6.72488124506558e-05
-9.480232744819923e-05   1.2952321961958932e-05   -3.78051276047741e-07
-9.480232744819923e-05   1.2952321961958932e-05   -3.78051276047741e-07
-9.480232744819923e-05   1.2952321961958932e-05   -3.78051276047741e-07
-9.480232744819923e-05   1.2952321961958932e-05   -3.78051276047741e-07
-6.339024825864933e-05   1.3549578526140041e-05   -5.308987053047321e-05
-6.339024825864933e-05   1.3549578526140041e-05   -5.308987053047321e-05
-6.339024825864933e-05   1.3549578526140041e-05   -5.308987053047321e-05
-6.339024825864933e-05   1.3549578526140041e-05   -5.308987053047321e-05
-7.723762740095567e-05   1.2777630799561731e-05   -2.954773665734883e-05
-7.723762740095567e-05   1.2777630799561731e-05   -2.954773665734883e-05
-7.723762740095567e-05   1.2777630799561731e-05   -2.954773665734883e-05
-7.723762740095567e-05   1.2777630799561731e-05   -2.954773665734883e-05
-6.339024825864949e-05   1.2952321961958498e-05   -7.364052145562329e-07
-6.339024825864949e-05   1.2952321961958498e-05   -7.364052145562329e-07
-6.339024825864949e-05   1.2952321961958498e-05   -7.364052145562329e-07
-6.339024825864949e-05   1.2952321961958498e-05   -7.364052145562329e-07
-9.480232744819923e-05   1.3549578526140041e-05   -5.273151659196417e-05
-9.480232744819923e-05   1.3549578526140041e-05   -5.273151659196417e-05
-9.480232744819923e-05   1.3549578526140041e-05   -5.273151659196417e-05
-9.480232744819923e-05   1.3549578526140041e-05   -5.273151659196417e-05
-9.123016019998742e-05   1.3376977254692373e-05   5.614142917008446e-06
-9.123016019998742e-05   1.3376977254692373e-05   5.614142917008446e-06
-9.123016019998742e-05   1.3376977254692373e-05   5.614142917008446e-06
-9.123016019998742e-05   1.3376977254692373e-05   5.614142917008446e-06
-6.127745828201098e-05   1.4190985506255024e-05   -4.479543189722294e-05
-6.127745828201098e-05   1.4190985506255024e-05   -4.479543189722294e-05
-6.127745828201098e-05   1.4190985506255024e-05   -4.479543189722294e-05
-6.127745828201098e-05   1.4190985506255024e-05   -4.479543189722294e-05
-7.560038225328441e-05   1.3707267562312973e-05   -2.0633661178734637e-05
-7.560038225328441e-05   1.3707267562312973e-05   -2.0633661178734637e-05
-7.560038225328441e-05   1.3707267562312973e-05   -2.0633661178734637e-05
-7.560038225328441e-05   1.3707267562312973e-05   -2.0633661178734637e-05
-6.127745828201107e-05   1.3376977254692807e-05   5.125737966071202e-06
-6.127745828201107e-05   1.3376977254692807e-05   5.125737966071202e-06
-6.127745828201107e-05   1.3376977254692807e-05   5.125737966071202e-06
-6.127745828201107e-05   1.3376977254692807e-05   5.125737966071202e-06
-9.123016019998726e-05   1.419098550625459e-05   -4.430702694628564e-05
-9.123016019998726e-05   1.419098550625459e-05   -4.430702694628564e-05
-9.123016019998726e-05   1.419098550625459e-05   -4.430702694628564e-05
-9.123016019998726e-05   1.419098550625459e-05   -4.430702694628564e-05
-8.749551033780903e-05   1.3744609254059525e-05   1.3640659570168323e-05
-8.749551033780903e-05   1.3744609254059525e-05   1.3640659570168323e-05
-8.749551033780903e-05   1.3744609254059525e-05   1.3640659570168323e-05
-8.749551033780903e-05   1.3744609254059525e-05   1.3640659570168323e-05
-5.967324896328916e-05   1.5296475386622575e-05   -3.36608957335697e-05
-5.967324896328916e-05   1.5296475386622575e-05   -3.36608957335697e-05
-5.967324896328916e-05   1.5296475386622575e-05   -3.36608957335697e-05
-5.967324896328916e-05   1.5296475386622575e-05   -3.36608957335697e-05
-7.199778507256522e-05   1.4021285598497454e-05   -1.2354888345235491e-05
-7.199778507256522e-05   1.4021285598497454e-05   -1.2354888345235491e-05
-7.199778507256522e-05   1.4021285598497454e-05   -1.2354888345235491e-05
-7.199778507256522e-05   1.4021285598497454e-05   -1.2354888345235491e-05
8.652106461291942e-05   -1.3001740456483352e-05   2.9470322562449164e-05
8.652106461291942e-05   -1.3001740456483352e-05   2.9470322562449164e-05
8.652106461291942e-05   -1.3001740456483352e-05   2.9470322562449164e-05
8.652106461291942e-05   -1.3001740456483352e-05   2.9470322562449164e-05
4.35049109534703e-05   -1.6449746327581744e-05   -4.429207039262535e-05
4.35049109534703e-05   -1.6449746327581744e-05   -4.429207039262535e-05
4.35049109534703e-05   -1.6449746327581744e-05   -4.429207039262535e-05
4.35049109534703e-05   -1.6449746327581744e-05   -4.429207039262535e-05
4.457260699958343e-05   -1.2697058419963193e-05   2.11277767642468e-05
4.457260699958343e-05   -1.2697058419963193e-05   2.11277767642468e-05
4.457260699958343e-05   -1.2697058419963193e-05   2.11277767642468e-05
4.457260699958343e-05   -1.2697058419963193e-05   2.11277767642468e-05
8.868321648696506e-05   -1.686120597648843e-05   -4.98914171808073e-05
8.868321648696506e-05   -1.686120597648843e-05   -4.98914171808073e-05
8.868321648696506e-05   -1.686120597648843e-05   -4.98914171808073e-05
8.868321648696506e-05   -1.686120597648843e-05   -4.98914171808073e-05
6.319951886376686e-05   -1.3281196096490144e-05   -9.566593736809199e-06
6.319951886376686e-05   -1.3281196096490144e-05   -9.566593736809199e-06
6.319951886376686e-05   -1.3281196096490144e-05   -9.566593736809199e-06
6.319951886376686e-05   -1.3281196096490144e-05   -9.566593736809199e-06
8.868321648696506e-05   -1.2697058419963193e-05   2.3626265298162244e-05
8.868321648696506e-05   -1.2697058419963193e-05   2.3626265298162244e-05
8.868321648696506e-05   -1.2697058419963193e-05   2.3626265298162244e-05
8.868321648696506e-05   -1.2697058419963193e-05   2.3626265298162244e-05
4.457260699958343e-05   -1.686120597648843e-05   -5.238990571472253e-05
4.457260699958343e-05   -1.686120597648843e-05   -5.238990571472253e-05
4.457260699958343e-05   -1.686120597648843e-05   -5.238990571472253e-05
4.457260699958343e-05   -1.686120597648843e-05   -5.238990571472253e-05
4.547518483872899e-05   -1.2256604550642605e-05   1.6664803899354205e-05
4.547518483872899e-05   -1.2256604550642605e-05   1.6664803899354205e-05
4.547518483872899e-05   -1.2256604550642605e-05   1.6664803899354205e-05
4.547518483872899e-05   -1.2256604550642605e-05   1.6664803899354205e-05
9.003117408550973e-05   -1.6709378733578088e-05   -5.4923513668852586e-05
9.003117408550973e-05   -1.6709378733578088e-05   -5.4923513668852586e-05
9.003117408550973e-05   -1.6709378733578088e-05   -5.4923513668852586e-05
9.003117408550973e-05   -1.6709378733578088e-05   -5.4923513668852586e-05
6.54317617485248e-05   -1.3701830111192102e-05   -1.5729022280642634e-05
6.54317617485248e-05   -1.3701830111192102e-05   -1.5729022280642634e-05
6.54317617485248e-05   -1.3701830111192102e-05   -1.5729022280642634e-05
6.54317617485248e-05   -1.3701830111192102e-05   -1.5729022280642634e-05
9.003117408550973e-05   -1.2256604550642605e-05   1.9336468409115537e-05
9.003117408550973e-05   -1.2256604550642605e-05   1.9336468409115537e-05
9.003117408550973e-05   -1.2256604550642605e-05   1.9336468409115537e-05
9.003117408550973e-05   -1.2256604550642605e-05   1.9336468409115537e-05
4.547518483872899e-05   -1.6709378733578088e-05   -5.759517817861392e-05
4.547518483872899e-05   -1.6709378733578088e-05   -5.759517817861392e-05
4.547518483872899e-05   -1.6709378733578088e-05   -5.759517817861392e-05
4.547518483872899e-05   -1.6709378733578088e-05   -5.759517817861392e-05
4.641886818594626e-05   -1.0537350013122351e-05   7.999636776455637e-06
4.641886818594626e-05   -1.0537350013122351e-05   7.999636776455637e-06
4.641886818594626e-05   -1.0537350013122351e-05   7.999636776455637e-06
4.641886818594626e-05   -1.0537350013122351e-05   7.999636776455637e-06
9.135839153475429e-05   -1.5782510683542972e-05   -6.375247240263864e-05
9.135839153475429e-05   -1.5782510683542972e-05   -6.375247240263864e-05
9.135839153475429e-05   -1.5782510683542972e-05   -6.375247240263864e-05
9.135839153475429e-05   -1.5782510683542972e-05   -6.375247240263864e-05
6.546874402607292e-05   -1.3188011671168287e-05   -2.2159759295594826e-05
6.546874402607292e-05   -1.3188011671168287e-05   -2.2159759295594826e-05
6.546874402607292e-05   -1.3188011671168287e-05   -2.2159759295594826e-05
6.546874402607292e-05   -1.3188011671168287e-05   -2.2159759295594826e-05
4.35049109534703e-05   -8.440547657740955e-06   2.8510130883814024e-06
4.35049109534703e-05   -8.440547657740955e-06   2.8510130883814024e-06
4.35049109534703e-05   -8.440547657740955e-06   2.8510130883814024e-06
4.35049109534703e-05   -8.440547657740955e-06   2.8510130883814024e-06
5.200389631987906e-06   -1.6539442310447693e-05   -6.584919257238012e-05
5.200389631987906e-06   -1.6539442310447693e-05   -6.584919257238012e-05
5.200389631987906e-06   -1.6539442310447693e-05   -6.584919257238012e-05
5.200389631987906e-06   -1.6539442310447693e-05   -6.584919257238012e-05
6.445240934702768e-06   -8.038539093912014e-06   -4.6992175953795845e-07
6.445240934702768e-06   -8.038539093912014e-06   -4.6992175953795845e-07
6.445240934702768e-06   -8.038539093912014e-06   -4.6992175953795845e-07
6.445240934702768e-06   -8.038539093912014e-06   -4.6992175953795845e-07
4.457260699958351e-05   -1.6456259038733802e-05   -5.896489990077922e-05
4.457260699958351e-05   -1.6456259038733802e-05   -5.896489990077922e-05
4.457260699958351e-05   -1.6456259038733802e-05   -5.896489990077922e-05
4.457260699958351e-05   -1.6456259038733802e-05   -5.896489990077922e-05
2.502879081995705e-05   -1.1156197070955054e-05   -2.957191011540236e-05
2.502879081995705e-05   -1.1156197070955054e-05   -2.957191011540236e-05
2.502879081995705e-05   -1.1156197070955054e-05   -2.957191011540236e-05
2.502879081995705e-05   -1.1156197070955054e-05   -2.957191011540236e-05
4.457260699958343e-05   -8.038539093912014e-06   4.5807102073552874e-06
4.457260699958343e-05   -8.038539093912014e-06   4.5807102073552874e-06
4.457260699958343e-05   -8.038539093912014e-06   4.5807102073552874e-06
4.457260699958343e-05   -8.038539093912014e-06   4.5807102073552874e-06
6.445240934702768e-06   -1.6456259038733802e-05   -6.401553186767225e-05
6.445240934702768e-06   -1.6456259038733802e-05   -6.401553186767225e-05
6.445240934702768e-06   -1.6456259038733802e-05   -6.401553186767225e-05
6.445240934702768e-06   -1.6456259038733802e-05   -6.401553186767225e-05
7.568981783611365e-06   -7.288563986301497e-06   -8.7269376700767e-07
7.568981783611365e-06   -7.288563986301497e-06   -8.7269376700767e-07
7.568981783611365e-06   -7.288563986301497e-06   -8.7269376700767e-07
7.568981783611365e-06   -7.288563986301497e-06   -8.7269376700767e-07
4.547518483872899e-05   -1.6237607198889368e-05   -5.8680272931317494e-05
4.547518483872899e-05   -1.6237607198889368e-05   -5.8680272931317494e-05
4.547518483872899e-05   -1.6237607198889368e-05   -5.8680272931317494e-05
4.547518483872899e-05   -1.6237607198889368e-05   -5.8680272931317494e-05
2.573705392270006e-05   -1.128099799402706e-05   -2.875735359418553e-05
2.573705392270006e-05   -1.128099799402706e-05   -2.875735359418553e-05
2.573705392270006e-05   -1.128099799402706e-05   -2.875735359418553e-05
2.573705392270006e-05   -1.128099799402706e-05   -2.875735359418553e-05
4.547518483872899e-05   -7.288563986301497e-06   4.496732160544966e-06
4.547518483872899e-05   -7.288563986301497e-06   4.496732160544966e-06
4.547518483872899e-05   -7.288563986301497e-06   4.496732160544966e-06
4.547518483872899e-05   -7.288563986301497e-06   4.496732160544966e-06
7.568981783611392e-06   -1.6237607198889368e-05   -6.404969885887035e-05
7.568981783611392e-06   -1.6237607198889368e-05   -6.404969885887035e-05
7.568981783611392e-06   -1.6237607198889368e-05   -6.404969885887035e-05
7.568981783611392e-06   -1.6237607198889368e-05   -6.404969885887035e-05
9.245751573217707e-06   -6.22163751797444e-06   -1.6492732571168553e-06
9.245751573217707e-06   -6.22163751797444e-06   -1.6492732571168553e-06
9.245751573217707e-06   -6.22163751797444e-06   -1.6492732571168553e-06
9.245751573217707e-06   -6.22163751797444e-06   -1.6492732571168553e-06
4.641886818594623e-05   -1.5799321640513203e-05   -5.785785713814125e-05
4.641886818594623e-05   -1.5799321640513203e-05   -5.785785713814125e-05
4.641886818594623e-05   -1.5799321640513203e-05   -5.785785713814125e-05
4.641886818594623e-05   -1.5799321640513203e-05   -5.785785713814125e-05
2.7083922749946234e-05   -1.1108590111225634e-05   -2.8447386995713924e-05
2.7083922749946234e-05   -1.1108590111225634e-05   -2.8447386995713924e-05
2.7083922749946234e-05   -1.1108590111225634e-05   -2.8447386995713924e-05
2.7083922749946234e-05   -1.1108590111225634e-05   -2.8447386995713924e-05
5.200389631987906e-06   -4.455346890963e-06   -6.630566616782664e-06
5.200389631987906e-06   -4.455346890963e-06   -6.630566616782664e-06
5.200389631987906e-06   -4.455346890963e-06   -6.630566616782664e-06
5.200389631987906e-06   -4.455346890963e-06   -6.630566616782664e-06
-3.270967397906566e-05   -1.9991358127841637e-05   -7.913561271066598e-05
-3.270967397906566e-05   -1.9991358127841637e-05   -7.913561271066598e-05
-3.270967397906566e-05   -1.9991358127841637e-05   -7.913561271066598e-05
-3.270967397906566e-05   -1.9991358127841637e-05   -7.913561271066598e-05
-3.0770997493323406e-05   -3.982331454197886e-06   -1.42572171686812e-05
-3.0770997493323406e-05   -3.982331454197886e-06   -1.42572171686812e-05
-3.0770997493323406e-05   -3.982331454197886e-06   -1.42572171686812e-05
-3.0770997493323406e-05   -3.982331454197886e-06   -1.42572171686812e-05
6.445240934702768e-06   -2.0436124018387552e-05   -6.641200567687771e-05
6.445240934702768e-06   -2.0436124018387552e-05   -6.641200567687771e-05
6.445240934702768e-06   -2.0436124018387552e-05   -6.641200567687771e-05
6.445240934702768e-06   -2.0436124018387552e-05   -6.641200567687771e-05
-1.2519422141924152e-05   -1.131294182345026e-05   -4.027814319946155e-05
-1.2519422141924152e-05   -1.131294182345026e-05   -4.027814319946155e-05
-1.2519422141924152e-05   -1.131294182345026e-05   -4.027814319946155e-05
-1.2519422141924152e-05   -1.131294182345026e-05   -4.027814319946155e-05
6.445240934702768e-06   -3.982331454197886e-06   -4.384941630167574e-06
6.445240934702768e-06   -3.982331454197886e-06   -4.384941630167574e-06
6.445240934702768e-06   -3.982331454197886e-06   -4.384941630167574e-06
6.445240934702768e-06   -3.982331454197886e-06   -4.384941630167574e-06
-3.0770997493323446e-05   -2.0436124018387118e-05   -7.62842812153915e-05
-3.0770997493323446e-05   -2.0436124018387118e-05   -7.62842812153915e-05
-3.0770997493323446e-05   -2.0436124018387118e-05   -7.62842812153915e-05
-3.0770997493323446e-05   -2.0436124018387118e-05   -7.62842812153915e-05
-2.910087546603085e-05   -3.2437645343338407e-06   -1.3317693174500541e-05
-2.910087546603085e-05   -3.2437645343338407e-06   -1.3317693174500541e-05
-2.910087546603085e-05   -3.2437645343338407e-06   -1.3317693174500541e-05
-2.910087546603085e-05   -3.2437645343338407e-06   -1.3317693174500541e-05
7.568981783611392e-06   -2.034371821832935e-05   -6.41741497135068e-05
7.568981783611392e-06   -2.034371821832935e-05   -6.41741497135068e-05
7.568981783611392e-06   -2.034371821832935e-05   -6.41741497135068e-05
7.568981783611392e-06   -2.034371821832935e-05   -6.41741497135068e-05
-1.114255993250128e-05   -1.1571611317773029e-05   -3.825151099365288e-05
-1.114255993250128e-05   -1.1571611317773029e-05   -3.825151099365288e-05
-1.114255993250128e-05   -1.1571611317773029e-05   -3.825151099365288e-05
-1.114255993250128e-05   -1.1571611317773029e-05   -3.825151099365288e-05
7.568981783611392e-06   -3.243764534333407e-06   -3.0577209641031913e-06
7.568981783611392e-06   -3.243764534333407e-06   -3.0577209641031913e-06
7.568981783611392e-06   -3.243764534333407e-06   -3.0577209641031913e-06
7.568981783611392e-06   -3.243764534333407e-06   -3.0577209641031913e-06
-2.9100875466030944e-05   -2.0343718218328918e-05   -7.443412192390452e-05
-2.9100875466030944e-05   -2.0343718218328918e-05   -7.443412192390452e-05
-2.9100875466030944e-05   -2.0343718218328918e-05   -7.443412192390452e-05
-2.9100875466030944e-05   -2.0343718218328918e-05   -7.443412192390452e-05
-2.6219601946065015e-05   -2.5436980994886227e-06   -1.3260523611739652e-05
-2.6219601946065015e-05   -2.5436980994886227e-06   -1.3260523611739652e-05
-2.6219601946065015e-05   -2.5436980994886227e-06   -1.3260523611739652e-05
-2.6219601946065015e-05   -2.5436980994886227e-06   -1.3260523611739652e-05
9.245751573217707e-06   -1.963410581789062e-05   -6.211520151283627e-05
9.245751573217707e-06   -1.963410581789062e-05   -6.211520151283627e-05
9.245751573217707e-06   -1.963410581789062e-05   -6.211520151283627e-05
9.245751573217707e-06   -1.963410581789062e-05   -6.211520151283627e-05
-9.353449095199685e-06   -1.1317902928905527e-05   -3.61062554655317e-05
-9.353449095199685e-06   -1.1317902928905527e-05   -3.61062554655317e-05
-9.353449095199685e-06   -1.1317902928905527e-05   -3.61062554655317e-05
-9.353449095199685e-06   -1.1317902928905527e-05   -3.61062554655317e-05
-3.2709673979065606e-05   1.0809966171690909e-06   -9.275641129589517e-06
-3.2709673979065606e-05   1.0809966171690909e-06   -9.275641129589517e-06
-3.2709673979065606e-05   1.0809966171690909e-06   -9.275641129589517e-06
-3.2709673979065606e-05   1.0809966171690909e-06   -9.275641129589517e-06
-7.502068415371474e-05   -2.49642787445983e-05   -9.54211566377317e-05
-7.502068415371474e-05   -2.49642787445983e-05   -9.54211566377317e-05
-7.502068415371474e-05   -2.49642787445983e-05   -9.54211566377317e-05
-7.502068415371474e-05   -2.49642787445983e-05   -9.54211566377317e-05
-7.270839581260269e-05   1.9587665013648045e-06   -2.4130521301119704e-05
-7.270839581260269e-05   1.9587665013648045e-06   -2.4130521301119704e-05
-7.270839581260269e-05   1.9587665013648045e-06   -2.4130521301119704e-05
-7.270839581260269e-05   1.9587665013648045e-06   -2.4130521301119704e-05
-3.0770997493323406e-05   -2.7859573830863772e-05   -7.613518096724817e-05
-3.0770997493323406e-05   -2.7859573830863772e-05   -7.613518096724817e-05
-3.0770997493323406e-05   -2.7859573830863772e-05   -7.613518096724817e-05
-3.0770997493323406e-05   -2.7859573830863772e-05   -7.613518096724817e-05
-5.2040802755817166e-05   -1.2715385639277838e-05   -4.977201844471007e-05
-5.2040802755817166e-05   -1.2715385639277838e-05   -4.977201844471007e-05
-5.2040802755817166e-05   -1.2715385639277838e-05   -4.977201844471007e-05
-5.2040802755817166e-05   -1.2715385639277838e-05   -4.977201844471007e-05
-3.0770997493323406e-05   1.958766501364371e-06   -6.2395171017827315e-06
-3.0770997493323406e-05   1.958766501364371e-06   -6.2395171017827315e-06
-3.0770997493323406e-05   1.958766501364371e-06   -6.2395171017827315e-06
-3.0770997493323406e-05   1.958766501364371e-06   -6.2395171017827315e-06
-7.270839581260269e-05   -2.7859573830863772e-05   -9.40261851665855e-05
-7.270839581260269e-05   -2.7859573830863772e-05   -9.40261851665855e-05
-7.270839581260269e-05   -2.7859573830863772e-05   -9.40261851665855e-05
-7.270839581260269e-05   -2.7859573830863772e-05   -9.40261851665855e-05
-7.049152415573134e-05   2.767135831078897e-06   -2.157225164531708e-05
-7.049152415573134e-05   2.767135831078897e-06   -2.157225164531708e-05
-7.049152415573134e-05   2.767135831078897e-06   -2.157225164531708e-05
-7.049152415573134e-05   2.767135831078897e-06   -2.157225164531708e-05
-2.9100875466030917e-05   -2.801825517952019e-05   -7.208543152179158e-05
-2.9100875466030917e-05   -2.801825517952019e-05   -7.208543152179158e-05
-2.9100875466030917e-05   -2.801825517952019e-05   -7.208543152179158e-05
-2.9100875466030917e-05   -2.801825517952019e-05   -7.208543152179158e-05
-4.97863106707711e-05   -1.2761411380490893e-05   -4.676381245997561e-05
-4.97863106707711e-05   -1.2761411380490893e-05   -4.676381245997561e-05
-4.97863106707711e-05   -1.2761411380490893e-05   -4.676381245997561e-05
-4.97863106707711e-05   -1.2761411380490893e-05   -4.676381245997561e-05
-2.9100875466030863e-05   2.767135831078897e-06   -3.101017038957196e-06
-2.9100875466030863e-05   2.767135831078897e-06   -3.101017038957196e-06
-2.9100875466030863e-05   2.767135831078897e-06   -3.101017038957196e-06
-2.9100875466030863e-05   2.767135831078897e-06   -3.101017038957196e-06
-7.049152415573146e-05   -2.801825517952019e-05   -9.055666612815122e-05
-7.049152415573146e-05   -2.801825517952019e-05   -9.055666612815122e-05
-7.049152415573146e-05   -2.801825517952019e-05   -9.055666612815122e-05
-7.049152415573146e-05   -2.801825517952019e-05   -9.055666612815122e-05
-6.686014849965514e-05   3.4516311953405876e-06   -1.8964578533195095e-05
-6.686014849965514e-05   3.4516311953405876e-06   -1.8964578533195095e-05
-6.686014849965514e-05   3.4516311953405876e-06   -1.8964578533195095e-05
-6.686014849965514e-05   3.4516311953405876e-06   -1.8964578533195095e-05
-2.6219601946065097e-05   -2.5589091015548304e-05   -6.927438946264521e-05
-2.6219601946065097e-05   -2.5589091015548304e-05   -6.927438946264521e-05
-2.6219601946065097e-05   -2.5589091015548304e-05   -6.927438946264521e-05
-2.6219601946065097e-05   -2.5589091015548304e-05   -6.927438946264521e-05
-4.755754031595537e-05   -1.128517236223146e-05   -4.229351003815038e-05
-4.755754031595537e-05   -1.128517236223146e-05   -4.229351003815038e-05
-4.755754031595537e-05   -1.128517236223146e-05   -4.229351003815038e-05
-4.755754031595537e-05   -1.128517236223146e-05   -4.229351003815038e-05
-7.502068415371474e-05   1.0692943175890333e-05   -1.6331541068567842e-05
-7.502068415371474e-05   1.0692943175890333e-05   -1.6331541068567842e-05
-7.502068415371474e-05   1.0692943175890333e-05   -1.6331541068567842e-05
-7.502068415371474e-05   1.0692943175890333e-05   -1.6331541068567842e-05
-0.00012924587631122684   0.0   -0.00011312262723662267
-0.00012924587631122684   0.0   -0.00011312262723662267
-0.00012924587631122684   0.0   -0.00011312262723662267
-0.00012924587631122684   0.0   -0.00011312262723662267
-0.00012585995245103902   1.3549578526140475e-05   -1.2545145623517892e-05
-0.00012585995245103902   1.3549578526140475e-05   -1.2545145623517892e-05
-0.00012585995245103902   1.3549578526140475e-05   -1.2545145623517892e-05
-0.00012585995245103902   1.3549578526140475e-05   -1.2545145623517892e-05
-7.270839581260255e-05   0.0   -9.300132623856099e-05
-7.270839581260255e-05   0.0   -9.300132623856099e-05
-7.270839581260255e-05   0.0   -9.300132623856099e-05
-7.270839581260255e-05   0.0   -9.300132623856099e-05
-9.642892890779864e-05   4.1338420702845095e-06   -5.5947409655404744e-05
-9.642892890779864e-05   4.1338420702845095e-06   -5.5947409655404744e-05
-9.642892890779864e-05   4.1338420702845095e-06   -5.5947409655404744e-05
-9.642892890779864e-05   4.1338420702845095e-06   -5.5947409655404744e-05
-7.27083958126026e-05   1.3549578526140041e-05   -4.415398507833738e-06
-7.27083958126026e-05   1.3549578526140041e-05   -4.415398507833738e-06
-7.27083958126026e-05   1.3549578526140041e-05   -4.415398507833738e-06
-7.27083958126026e-05   1.3549578526140041e-05   -4.415398507833738e-06
-0.0001258599524510388   0.0   -0.00010113107335424517
-0.0001258599524510388   0.0   -0.00010113107335424517
-0.0001258599524510388   0.0   -0.00010113107335424517
-0.0001258599524510388   0.0   -0.00010113107335424517
-0.00012299728677121714   1.4190985506255024e-05   -5.0565186289020046e-06
-0.00012299728677121714   1.4190985506255024e-05   -5.0565186289020046e-06
-0.00012299728677121714   1.4190985506255024e-05   -5.0565186289020046e-06
-0.00012299728677121714   1.4190985506255024e-05   -5.0565186289020046e-06
-7.049152415573146e-05   0.0   -8.405153168429189e-05
-7.049152415573146e-05   0.0   -8.405153168429189e-05
-7.049152415573146e-05   0.0   -8.405153168429189e-05
-7.049152415573146e-05   0.0   -8.405153168429189e-05
-9.541333068008901e-05   6.559596882471999e-06   -4.645094560651124e-05
-9.541333068008901e-05   6.559596882471999e-06   -4.645094560651124e-05
-9.541333068008901e-05   6.559596882471999e-06   -4.645094560651124e-05
-9.541333068008901e-05   6.559596882471999e-06   -4.645094560651124e-05
-7.049152415573146e-05   1.4190985506255024e-05   3.458072674851183e-06
-7.049152415573146e-05   1.4190985506255024e-05   3.458072674851183e-06
-7.049152415573146e-05   1.4190985506255024e-05   3.458072674851183e-06
-7.049152415573146e-05   1.4190985506255024e-05   3.458072674851183e-06
-0.00012299728677121692   0.0   -9.256612298804475e-05
-0.00012299728677121692   0.0   -9.256612298804475e-05
-0.00012299728677121692   0.0   -9.256612298804475e-05
-0.00012299728677121692   0.0   -9.256612298804475e-05
-0.00011728737762780219   1.5296475386622575e-05   6.991020028951182e-06
-0.00011728737762780219   1.5296475386622575e-05   6.991020028951182e-06
-0.00011728737762780219   1.5296475386622575e-05   6.991020028951182e-06
-0.00011728737762780219   1.5296475386622575e-05   6.991020028951182e-06
-6.686014849965525e-05   0.0   -6.787647661932048e-05
-6.686014849965525e-05   0.0   -6.787647661932048e-05
-6.686014849965525e-05   0.0   -6.787647661932048e-05
-6.686014849965525e-05   0.0   -6.787647661932048e-05
-9.04355313826937e-05   8.093632382985636e-06   -3.344035124404755e-05
-9.04355313826937e-05   8.093632382985636e-06   -3.344035124404755e-05
-9.04355313826937e-05   8.093632382985636e-06   -3.344035124404755e-05
-9.04355313826937e-05   8.093632382985636e-06   -3.344035124404755e-05
9.572282351626887e-05   -1.6449746327581744e-05   5.716246872070193e-05
9.572282351626887e-05   -1.6449746327581744e-05   5.716246872070193e-05
9.572282351626887e-05   -1.6449746327581744e-05   5.716246872070193e-05
9.572282351626887e-05   -1.6449746327581744e-05   5.716246872070193e-05
4.968010949649103e-05   -1.2663705813477106e-05   -1.7303763670464736e-05
4.968010949649103e-05   -1.2663705813477106e-05   -1.7303763670464736e-05
4.968010949649103e-05   -1.2663705813477106e-05   -1.7303763670464736e-05
4.968010949649103e-05   -1.2663705813477106e-05   -1.7303763670464736e-05
4.8427047287363616e-05   -1.686120597648843e-05   5.0499206846709756e-05
4.8427047287363616e-05   -1.686120597648843e-05   5.0499206846709756e-05
4.8427047287363616e-05   -1.686120597648843e-05   5.0499206846709756e-05
4.8427047287363616e-05   -1.686120597648843e-05   5.0499206846709756e-05
9.469455947091218e-05   -1.392554588824273e-05   -2.83747095121523e-05
9.469455947091218e-05   -1.392554588824273e-05   -2.83747095121523e-05
9.469455947091218e-05   -1.392554588824273e-05   -2.83747095121523e-05
9.469455947091218e-05   -1.392554588824273e-05   -2.83747095121523e-05
6.918039054536541e-05   -1.4167792001331964e-05   1.4294253031612789e-05
6.918039054536541e-05   -1.4167792001331964e-05   1.4294253031612789e-05
6.918039054536541e-05   -1.4167792001331964e-05   1.4294253031612789e-05
6.918039054536541e-05   -1.4167792001331964e-05   1.4294253031612789e-05
9.469455947091218e-05   -1.686120597648843e-05   4.873781079376229e-05
9.469455947091218e-05   -1.686120597648843e-05   4.873781079376229e-05
9.469455947091218e-05   -1.686120597648843e-05   4.873781079376229e-05
9.469455947091218e-05   -1.686120597648843e-05   4.873781079376229e-05
4.8427047287363616e-05   -1.392554588824273e-05   -2.6613313459204757e-05
4.8427047287363616e-05   -1.392554588824273e-05   -2.6613313459204757e-05
4.8427047287363616e-05   -1.392554588824273e-05   -2.6613313459204757e-05
4.8427047287363616e-05   -1.392554588824273e-05   -2.6613313459204757e-05
4.729379711215426e-05   -1.6709378733578088e-05   4.534691535323758e-05
4.729379711215426e-05   -1.6709378733578088e-05   4.534691535323758e-05
4.729379711215426e-05   -1.6709378733578088e-05   4.534691535323758e-05
4.729379711215426e-05   -1.6709378733578088e-05   4.534691535323758e-05
9.35064960624308e-05   -1.4042546712494854e-05   -3.327434877654044e-05
9.35064960624308e-05   -1.4042546712494854e-05   -3.327434877654044e-05
9.35064960624308e-05   -1.4042546712494854e-05   -3.327434877654044e-05
9.35064960624308e-05   -1.4042546712494854e-05   -3.327434877654044e-05
6.912404949751145e-05   -1.4416236349854353e-05   7.587275947407699e-06
6.912404949751145e-05   -1.4416236349854353e-05   7.587275947407699e-06
6.912404949751145e-05   -1.4416236349854353e-05   7.587275947407699e-06
6.912404949751145e-05   -1.4416236349854353e-05   7.587275947407699e-06
9.350649606243097e-05   -1.670937873357852e-05   4.374681614058751e-05
9.350649606243097e-05   -1.670937873357852e-05   4.374681614058751e-05
9.350649606243097e-05   -1.670937873357852e-05   4.374681614058751e-05
9.350649606243097e-05   -1.670937873357852e-05   4.374681614058751e-05
4.729379711215426e-05   -1.4042546712494854e-05   -3.167424956389037e-05
4.729379711215426e-05   -1.4042546712494854e-05   -3.167424956389037e-05
4.729379711215426e-05   -1.4042546712494854e-05   -3.167424956389037e-05
4.729379711215426e-05   -1.4042546712494854e-05   -3.167424956389037e-05
4.591136349394351e-05   -1.5782510683542972e-05   3.6964634095683954e-05
4.591136349394351e-05   -1.5782510683542972e-05   3.6964634095683954e-05
4.591136349394351e-05   -1.5782510683542972e-05   3.6964634095683954e-05
4.591136349394351e-05   -1.5782510683542972e-05   3.6964634095683954e-05
9.164511643814682e-05   -1.3752565289047464e-05   -4.047625471468607e-05
9.164511643814682e-05   -1.3752565289047464e-05   -4.047625471468607e-05
9.164511643814682e-05   -1.3752565289047464e-05   -4.047625471468607e-05
9.164511643814682e-05   -1.3752565289047464e-05   -4.047625471468607e-05
6.676088561751845e-05   -1.3708751521900563e-05   9.711750594065338e-07
6.676088561751845e-05   -1.3708751521900563e-05   9.711750594065338e-07
6.676088561751845e-05   -1.3708751521900563e-05   9.711750594065338e-07
6.676088561751845e-05   -1.3708751521900563e-05   9.711750594065338e-07
4.968010949649103e-05   -1.6539442310447693e-05   4.273630764103421e-05
4.968010949649103e-05   -1.6539442310447693e-05   4.273630764103421e-05
4.968010949649103e-05   -1.6539442310447693e-05   4.273630764103421e-05
4.968010949649103e-05   -1.6539442310447693e-05   4.273630764103421e-05
1.0626754732400101e-05   -7.844135294555413e-06   -1.713543275624874e-05
1.0626754732400101e-05   -7.844135294555413e-06   -1.713543275624874e-05
1.0626754732400101e-05   -7.844135294555413e-06   -1.713543275624874e-05
1.0626754732400101e-05   -7.844135294555413e-06   -1.713543275624874e-05
8.643541800807227e-06   -1.6456259038733802e-05   4.8805504528770614e-05
8.643541800807227e-06   -1.6456259038733802e-05   4.8805504528770614e-05
8.643541800807227e-06   -1.6456259038733802e-05   4.8805504528770614e-05
8.643541800807227e-06   -1.6456259038733802e-05   4.8805504528770614e-05
4.8427047287363616e-05   -8.320772591870716e-06   -2.2381629816940898e-05
4.8427047287363616e-05   -8.320772591870716e-06   -2.2381629816940898e-05
4.8427047287363616e-05   -8.320772591870716e-06   -2.2381629816940898e-05
4.8427047287363616e-05   -8.320772591870716e-06   -2.2381629816940898e-05
2.930411815282051e-05   -1.1835443557508402e-05   1.159872132001341e-05
2.930411815282051e-05   -1.1835443557508402e-05   1.159872132001341e-05
2.930411815282051e-05   -1.1835443557508402e-05   1.159872132001341e-05
2.930411815282051e-05   -1.1835443557508402e-05   1.159872132001341e-05
4.842704728736364e-05   -1.6456259038733802e-05   4.392421266065328e-05
4.842704728736364e-05   -1.6456259038733802e-05   4.392421266065328e-05
4.842704728736364e-05   -1.6456259038733802e-05   4.392421266065328e-05
4.842704728736364e-05   -1.6456259038733802e-05   4.392421266065328e-05
8.643541800807227e-06   -8.320772591870716e-06   -1.7500337948822943e-05
8.643541800807227e-06   -8.320772591870716e-06   -1.7500337948822943e-05
8.643541800807227e-06   -8.320772591870716e-06   -1.7500337948822943e-05
8.643541800807227e-06   -8.320772591870716e-06   -1.7500337948822943e-05
7.229779726478894e-06   -1.6237607198889368e-05   4.888405616667582e-05
7.229779726478894e-06   -1.6237607198889368e-05   4.888405616667582e-05
7.229779726478894e-06   -1.6237607198889368e-05   4.888405616667582e-05
7.229779726478894e-06   -1.6237607198889368e-05   4.888405616667582e-05
4.729379711215426e-05   -8.53388125531939e-06   -2.251154170892529e-05
4.729379711215426e-05   -8.53388125531939e-06   -2.251154170892529e-05
4.729379711215426e-05   -8.53388125531939e-06   -2.251154170892529e-05
4.729379711215426e-05   -8.53388125531939e-06   -2.251154170892529e-05
2.7605254542905394e-05   -1.159384418597054e-05   1.2138673664881228e-05
2.7605254542905394e-05   -1.159384418597054e-05   1.2138673664881228e-05
2.7605254542905394e-05   -1.159384418597054e-05   1.2138673664881228e-05
2.7605254542905394e-05   -1.159384418597054e-05   1.2138673664881228e-05
4.729379711215437e-05   -1.6237607198889368e-05   4.426182060053379e-05
4.729379711215437e-05   -1.6237607198889368e-05   4.426182060053379e-05
4.729379711215437e-05   -1.6237607198889368e-05   4.426182060053379e-05
4.729379711215437e-05   -1.6237607198889368e-05   4.426182060053379e-05
7.229779726478894e-06   -8.53388125531939e-06   -1.78893061427831e-05
7.229779726478894e-06   -8.53388125531939e-06   -1.78893061427831e-05
7.229779726478894e-06   -8.53388125531939e-06   -1.78893061427831e-05
7.229779726478894e-06   -8.53388125531939e-06   -1.78893061427831e-05
5.656904245270581e-06   -1.5799321640513203e-05   5.0479823255693626e-05
5.656904245270581e-06   -1.5799321640513203e-05   5.0479823255693626e-05
5.656904245270581e-06   -1.5799321640513203e-05   5.0479823255693626e-05
5.656904245270581e-06   -1.5799321640513203e-05   5.0479823255693626e-05
4.5911363493943456e-05   -8.343525818412748e-06   -2.1084419652021348e-05
4.5911363493943456e-05   -8.343525818412748e-06   -2.1084419652021348e-05
4.5911363493943456e-05   -8.343525818412748e-06   -2.1084419652021348e-05
4.5911363493943456e-05   -8.343525818412748e-06   -2.1084419652021348e-05
2.6565348443879884e-05   -1.1086789332532924e-05   1.2804896873223524e-05
2.6565348443879884e-05   -1.1086789332532924e-05   1.2804896873223524e-05
2.6565348443879884e-05   -1.1086789332532924e-05   1.2804896873223524e-05
2.6565348443879884e-05   -1.1086789332532924e-05   1.2804896873223524e-05
1.0626754732400155e-05   -1.9991358127841637e-05   4.398867845441094e-05
1.0626754732400155e-05   -1.9991358127841637e-05   4.398867845441094e-05
1.0626754732400155e-05   -1.9991358127841637e-05   4.398867845441094e-05
1.0626754732400155e-05   -1.9991358127841637e-05   4.398867845441094e-05
-2.6885723305291296e-05   -3.319898532096275e-06   -8.52924251762725e-06
-2.6885723305291296e-05   -3.319898532096275e-06   -8.52924251762725e-06
-2.6885723305291296e-05   -3.319898532096275e-06   -8.52924251762725e-06
-2.6885723305291296e-05   -3.319898532096275e-06   -8.52924251762725e-06
-2.997120930188976e-05   -2.0436124018387118e-05   5.656691775139623e-05
-2.997120930188976e-05   -2.0436124018387118e-05   5.656691775139623e-05
-2.997120930188976e-05   -2.0436124018387118e-05   5.656691775139623e-05
-2.997120930188976e-05   -2.0436124018387118e-05   5.656691775139623e-05
8.643541800807227e-06   -3.506312298669472e-06   -1.7948887784929337e-05
8.643541800807227e-06   -3.506312298669472e-06   -1.7948887784929337e-05
8.643541800807227e-06   -3.506312298669472e-06   -1.7948887784929337e-05
8.643541800807227e-06   -3.506312298669472e-06   -1.7948887784929337e-05
-9.059432904487535e-06   -1.1434081604119566e-05   1.63127316404985e-05
-9.059432904487535e-06   -1.1434081604119566e-05   1.63127316404985e-05
-9.059432904487535e-06   -1.1434081604119566e-05   1.63127316404985e-05
-9.059432904487535e-06   -1.1434081604119566e-05   1.63127316404985e-05
8.643541800807227e-06   -2.0436124018387552e-05   4.6409030719565206e-05
8.643541800807227e-06   -2.0436124018387552e-05   4.6409030719565206e-05
8.643541800807227e-06   -2.0436124018387552e-05   4.6409030719565206e-05
8.643541800807227e-06   -2.0436124018387552e-05   4.6409030719565206e-05
-2.9971209301889705e-05   -3.5063122986690384e-06   -7.791000753098586e-06
-2.9971209301889705e-05   -3.5063122986690384e-06   -7.791000753098586e-06
-2.9971209301889705e-05   -3.5063122986690384e-06   -7.791000753098586e-06
-2.9971209301889705e-05   -3.5063122986690384e-06   -7.791000753098586e-06
-3.185627339401934e-05   -2.0343718218328918e-05   5.872524396632016e-05
-3.185627339401934e-05   -2.0343718218328918e-05   5.872524396632016e-05
-3.185627339401934e-05   -2.0343718218328918e-05   5.872524396632016e-05
-3.185627339401934e-05   -2.0343718218328918e-05   5.872524396632016e-05
7.229779726478894e-06   -3.7343204611940684e-06   -1.6383816555458038e-05
7.229779726478894e-06   -3.7343204611940684e-06   -1.6383816555458038e-05
7.229779726478894e-06   -3.7343204611940684e-06   -1.6383816555458038e-05
7.229779726478894e-06   -3.7343204611940684e-06   -1.6383816555458038e-05
-1.1147917874251289e-05   -1.1399876530381742e-05   1.8845013087271365e-05
-1.1147917874251289e-05   -1.1399876530381742e-05   1.8845013087271365e-05
-1.1147917874251289e-05   -1.1399876530381742e-05   1.8845013087271365e-05
-1.1147917874251289e-05   -1.1399876530381742e-05   1.8845013087271365e-05
7.229779726478894e-06   -2.034371821832935e-05   4.875960531203877e-05
7.229779726478894e-06   -2.034371821832935e-05   4.875960531203877e-05
7.229779726478894e-06   -2.034371821832935e-05   4.875960531203877e-05
7.229779726478894e-06   -2.034371821832935e-05   4.875960531203877e-05
-3.185627339401926e-05   -3.7343204611940684e-06   -6.418177901177085e-06
-3.185627339401926e-05   -3.7343204611940684e-06   -6.418177901177085e-06
-3.185627339401926e-05   -3.7343204611940684e-06   -6.418177901177085e-06
-3.185627339401926e-05   -3.7343204611940684e-06   -6.418177901177085e-06
-3.407432880338151e-05   -1.963410581789062e-05   6.15211693168311e-05
-3.407432880338151e-05   -1.963410581789062e-05   6.15211693168311e-05
-3.407432880338151e-05   -1.963410581789062e-05   6.15211693168311e-05
-3.407432880338151e-05   -1.963410581789062e-05   6.15211693168311e-05
5.656904245270581e-06   -3.7139725473762063e-06   -1.424963239323151e-05
5.656904245270581e-06   -3.7139725473762063e-06   -1.424963239323151e-05
5.656904245270581e-06   -3.7139725473762063e-06   -1.424963239323151e-05
5.656904245270581e-06   -3.7139725473762063e-06   -1.424963239323151e-05
-1.284816168724436e-05   -1.0949033267469623e-05   2.0933180593015908e-05
-1.284816168724436e-05   -1.0949033267469623e-05   2.0933180593015908e-05
-1.284816168724436e-05   -1.0949033267469623e-05   2.0933180593015908e-05
-1.284816168724436e-05   -1.0949033267469623e-05   2.0933180593015908e-05
-2.688572330529135e-05   -2.49642787445983e-05   5.3333175501853094e-05
-2.688572330529135e-05   -2.49642787445983e-05   5.3333175501853094e-05
-2.688572330529135e-05   -2.49642787445983e-05   5.3333175501853094e-05
-2.688572330529135e-05   -2.49642787445983e-05   5.3333175501853094e-05
-6.962632696295835e-05   3.5089148510726587e-06   -8.1724777018931e-07
-6.962632696295835e-05   3.5089148510726587e-06   -8.1724777018931e-07
-6.962632696295835e-05   3.5089148510726587e-06   -8.1724777018931e-07
-6.962632696295835e-05   3.5089148510726587e-06   -8.1724777018931e-07
-7.333112910524693e-05   -2.7859573830863772e-05   7.54080739445856e-05
-7.333112910524693e-05   -2.7859573830863772e-05   7.54080739445856e-05
-7.333112910524693e-05   -2.7859573830863772e-05   7.54080739445856e-05
-7.333112910524693e-05   -2.7859573830863772e-05   7.54080739445856e-05
-2.9971209301889705e-05   3.293852744212615e-06   -1.5550515006055568e-05
-2.9971209301889705e-05   3.293852744212615e-06   -1.5550515006055568e-05
-2.9971209301889705e-05   3.293852744212615e-06   -1.5550515006055568e-05
-2.9971209301889705e-05   3.293852744212615e-06   -1.5550515006055568e-05
-4.925338813756729e-05   -1.0391283329070494e-05   2.479753136404349e-05
-4.925338813756729e-05   -1.0391283329070494e-05   2.479753136404349e-05
-4.925338813756729e-05   -1.0391283329070494e-05   2.479753136404349e-05
-4.925338813756729e-05   -1.0391283329070494e-05   2.479753136404349e-05
-2.997120930188976e-05   -2.7859573830863772e-05   5.671601799953985e-05
-2.997120930188976e-05   -2.7859573830863772e-05   5.671601799953985e-05
-2.997120930188976e-05   -2.7859573830863772e-05   5.671601799953985e-05
-2.997120930188976e-05   -2.7859573830863772e-05   5.671601799953985e-05
-7.333112910524693e-05   3.2938527442130487e-06   3.141540938990557e-06
-7.333112910524693e-05   3.2938527442130487e-06   3.141540938990557e-06
-7.333112910524693e-05   3.2938527442130487e-06   3.141540938990557e-06
-7.333112910524693e-05   3.2938527442130487e-06   3.141540938990557e-06
-7.558983981557782e-05   -2.801825517952019e-05   7.96256544185925e-05
-7.558983981557782e-05   -2.801825517952019e-05   7.96256544185925e-05
-7.558983981557782e-05   -2.801825517952019e-05   7.96256544185925e-05
-7.558983981557782e-05   -2.801825517952019e-05   7.96256544185925e-05
-3.185627339401926e-05   2.9012782374123088e-06   -1.1815343000830952e-05
-3.185627339401926e-05   2.9012782374123088e-06   -1.1815343000830952e-05
-3.185627339401926e-05   2.9012782374123088e-06   -1.1815343000830952e-05
-3.185627339401926e-05   2.9012782374123088e-06   -1.1815343000830952e-05
-5.1662199590188053e-05   -1.1954009068607628e-05   3.010770637639588e-05
-5.1662199590188053e-05   -1.1954009068607628e-05   3.010770637639588e-05
-5.1662199590188053e-05   -1.1954009068607628e-05   3.010770637639588e-05
-5.1662199590188053e-05   -1.1954009068607628e-05   3.010770637639588e-05
-3.185627339401926e-05   -2.801825517952019e-05   6.107393436843313e-05
-3.185627339401926e-05   -2.801825517952019e-05   6.107393436843313e-05
-3.185627339401926e-05   -2.801825517952019e-05   6.107393436843313e-05
-3.185627339401926e-05   -2.801825517952019e-05   6.107393436843313e-05
-7.558983981557767e-05   2.9012782374123088e-06   6.736377049328416e-06
-7.558983981557767e-05   2.9012782374123088e-06   6.736377049328416e-06
-7.558983981557767e-05   2.9012782374123088e-06   6.736377049328416e-06
-7.558983981557767e-05   2.9012782374123088e-06   6.736377049328416e-06
-7.802281406015168e-05   -2.5589091015548304e-05   8.144405958520912e-05
-7.802281406015168e-05   -2.5589091015548304e-05   8.144405958520912e-05
-7.802281406015168e-05   -2.5589091015548304e-05   8.144405958520912e-05
-7.802281406015168e-05   -2.5589091015548304e-05   8.144405958520912e-05
-3.40743288033814e-05   2.45729829636155e-06   -8.631249429886894e-06
-3.40743288033814e-05   2.45729829636155e-06   -8.631249429886894e-06
-3.40743288033814e-05   2.45729829636155e-06   -8.631249429886894e-06
-3.40743288033814e-05   2.45729829636155e-06   -8.631249429886894e-06
-5.414152099214254e-05   -1.2045298569505949e-05   3.3515629004236846e-05
-5.414152099214254e-05   -1.2045298569505949e-05   3.3515629004236846e-05
-5.414152099214254e-05   -1.2045298569505949e-05   3.3515629004236846e-05
-5.414152099214254e-05   -1.2045298569505949e-05   3.3515629004236846e-05
-6.96263269629581e-05   0.0   5.913138696589859e-05
-6.96263269629581e-05   0.0   5.913138696589859e-05
-6.96263269629581e-05   0.0   5.913138696589859e-05
-6.96263269629581e-05   0.0   5.913138696589859e-05
-0.000122698292844488   1.6080030360109306e-05   -1.9673871287252415e-05
-0.000122698292844488   1.6080030360109306e-05   -1.9673871287252415e-05
-0.000122698292844488   1.6080030360109306e-05   -1.9673871287252415e-05
-0.000122698292844488   1.6080030360109306e-05   -1.9673871287252415e-05
-0.00012781324146948593   0.0   8.574081358665589e-05
-0.00012781324146948593   0.0   8.574081358665589e-05
-0.00012781324146948593   0.0   8.574081358665589e-05
-0.00012781324146948593   0.0   8.574081358665589e-05
-7.33311291052468e-05   1.551313452341106e-05   -1.4370587734455925e-05
-7.33311291052468e-05   1.551313452341106e-05   -1.4370587734455925e-05
-7.33311291052468e-05   1.551313452341106e-05   -1.4370587734455925e-05
-7.33311291052468e-05   1.551313452341106e-05   -1.4370587734455925e-05
-9.4171577062106e-05   9.540613422531243e-06   2.3947004854170742e-05
-9.4171577062106e-05   9.540613422531243e-06   2.3947004854170742e-05
-9.4171577062106e-05   9.540613422531243e-06   2.3947004854170742e-05
-9.4171577062106e-05   9.540613422531243e-06   2.3947004854170742e-05
-7.333112910524674e-05   0.0   7.643293287260986e-05
-7.333112910524674e-05   0.0   7.643293287260986e-05
-7.333112910524674e-05   0.0   7.643293287260986e-05
-7.333112910524674e-05   0.0   7.643293287260986e-05
-0.00012781324146948615   1.551313452341106e-05   -5.062707020409571e-06
-0.00012781324146948615   1.551313452341106e-05   -5.062707020409571e-06
-0.00012781324146948615   1.551313452341106e-05   -5.062707020409571e-06
-0.00012781324146948615   1.551313452341106e-05   -5.062707020409571e-06
-0.00013038998629265992   0.0   9.519848439152679e-05
-0.00013038998629265992   0.0   9.519848439152679e-05
-0.00013038998629265992   0.0   9.519848439152679e-05
-0.00013038998629265992   0.0   9.519848439152679e-05
-7.558983981557767e-05   1.511282588179206e-05   -5.20278859935221e-06
-7.558983981557767e-05   1.511282588179206e-05   -5.20278859935221e-06
-7.558983981557767e-05   1.511282588179206e-05   -5.20278859935221e-06
-7.558983981557767e-05   1.511282588179206e-05   -5.20278859935221e-06
-9.909815007565724e-05   7.964605089941755e-06   3.8266660975891224e-05
-9.909815007565724e-05   7.964605089941755e-06   3.8266660975891224e-05
-9.909815007565724e-05   7.964605089941755e-06   3.8266660975891224e-05
-9.909815007565724e-05   7.964605089941755e-06   3.8266660975891224e-05
-7.558983981557767e-05   0.0   8.613078886245172e-05
-7.558983981557767e-05   0.0   8.613078886245172e-05
-7.558983981557767e-05   0.0   8.613078886245172e-05
-7.558983981557767e-05   0.0   8.613078886245172e-05
-0.00013038998629266035   1.511282588179206e-05   3.864906929722635e-06
-0.00013038998629266035   1.511282588179206e-05   3.864906929722635e-06
-0.00013038998629266035   1.511282588179206e-05   3.864906929722635e-06
-0.00013038998629266035   1.511282588179206e-05   3.864906929722635e-06
-0.00013326200579436573   0.0   0.0001078115139794911
-0.00013326200579436573   0.0   0.0001078115139794911
-0.00013326200579436573   0.0   0.0001078115139794911
-0.00013326200579436573   0.0   0.0001078115139794911
-7.802281406015168e-05   1.2575180374039836e-05   8.201086198043384e-06
-7.802281406015168e-05   1.2575180374039836e-05   8.201086198043384e-06
-7.802281406015168e-05   1.2575180374039836e-05   8.201086198043384e-06
-7.802281406015168e-05   1.2575180374039836e-05   8.201086198043384e-06
-9.993273655222938e-05   5.58619800658175e-06   4.89110131053148e-05
-9.993273655222938e-05   5.58619800658175e-06   4.89110131053148e-05
-9.993273655222938e-05   5.58619800658175e-06   4.89110131053148e-05
-9.993273655222938e-05   5.58619800658175e-06   4.89110131053148e-05
8.414042011758736e-05   -1.2663705813476672e-05   5.978249497624226e-05
8.414042011758736e-05   -1.2663705813476672e-05   5.978249497624226e-05
8.414042011758736e-05   -1.2663705813476672e-05   5.978249497624226e-05
8.414042011758736e-05   -1.2663705813476672e-05   5.978249497624226e-05
4.256580403046994e-05   -9.541044749458109e-06   -7.634935197209022e-06
4.256580403046994e-05   -9.541044749458109e-06   -7.634935197209022e-06
4.256580403046994e-05   -9.541044749458109e-06   -7.634935197209022e-06
4.256580403046994e-05   -9.541044749458109e-06   -7.634935197209022e-06
4.1439411132798874e-05   -1.392554588824273e-05   5.2192785932567674e-05
4.1439411132798874e-05   -1.392554588824273e-05   5.2192785932567674e-05
4.1439411132798874e-05   -1.392554588824273e-05   5.2192785932567674e-05
4.1439411132798874e-05   -1.392554588824273e-05   5.2192785932567674e-05
8.212805047267652e-05   -1.0816335868656535e-05   -1.7487138978979547e-05
8.212805047267652e-05   -1.0816335868656535e-05   -1.7487138978979547e-05
8.212805047267652e-05   -1.0816335868656535e-05   -1.7487138978979547e-05
8.212805047267652e-05   -1.0816335868656535e-05   -1.7487138978979547e-05
5.978297168685695e-05   -1.126676133632147e-05   2.0024914277985348e-05
5.978297168685695e-05   -1.126676133632147e-05   2.0024914277985348e-05
5.978297168685695e-05   -1.126676133632147e-05   2.0024914277985348e-05
5.978297168685695e-05   -1.126676133632147e-05   2.0024914277985348e-05
8.212805047267637e-05   -1.392554588824273e-05   5.032725992081639e-05
8.212805047267637e-05   -1.392554588824273e-05   5.032725992081639e-05
8.212805047267637e-05   -1.392554588824273e-05   5.032725992081639e-05
8.212805047267637e-05   -1.392554588824273e-05   5.032725992081639e-05
4.143941113279893e-05   -1.0816335868656535e-05   -1.5621612967227924e-05
4.143941113279893e-05   -1.0816335868656535e-05   -1.5621612967227924e-05
4.143941113279893e-05   -1.0816335868656535e-05   -1.5621612967227924e-05
4.143941113279893e-05   -1.0816335868656535e-05   -1.5621612967227924e-05
3.9987925256848415e-05   -1.4042546712494854e-05   4.68544723186211e-05
3.9987925256848415e-05   -1.4042546712494854e-05   4.68544723186211e-05
3.9987925256848415e-05   -1.4042546712494854e-05   4.68544723186211e-05
3.9987925256848415e-05   -1.4042546712494854e-05   4.68544723186211e-05
8.009343881299475e-05   -1.1006548360947832e-05   -2.1809649285884437e-05
8.009343881299475e-05   -1.1006548360947832e-05   -2.1809649285884437e-05
8.009343881299475e-05   -1.1006548360947832e-05   -2.1809649285884437e-05
8.009343881299475e-05   -1.1006548360947832e-05   -2.1809649285884437e-05
5.921526568737661e-05   -1.1759363253904462e-05   1.3438994859253195e-05
5.921526568737661e-05   -1.1759363253904462e-05   1.3438994859253195e-05
5.921526568737661e-05   -1.1759363253904462e-05   1.3438994859253195e-05
5.921526568737661e-05   -1.1759363253904462e-05   1.3438994859253195e-05
8.009343881299475e-05   -1.4042546712494854e-05   4.503287330769284e-05
8.009343881299475e-05   -1.4042546712494854e-05   4.503287330769284e-05
8.009343881299475e-05   -1.4042546712494854e-05   4.503287330769284e-05
8.009343881299475e-05   -1.4042546712494854e-05   4.503287330769284e-05
3.9987925256848415e-05   -1.1006548360947832e-05   -1.9988050274955937e-05
3.9987925256848415e-05   -1.1006548360947832e-05   -1.9988050274955937e-05
3.9987925256848415e-05   -1.1006548360947832e-05   -1.9988050274955937e-05
3.9987925256848415e-05   -1.1006548360947832e-05   -1.9988050274955937e-05
3.8465293036582974e-05   -1.3752565289047464e-05   3.893836753978254e-05
3.8465293036582974e-05   -1.3752565289047464e-05   3.893836753978254e-05
3.8465293036582974e-05   -1.3752565289047464e-05   3.893836753978254e-05
3.8465293036582974e-05   -1.3752565289047464e-05   3.893836753978254e-05
7.754673477036791e-05   -1.0939831205401557e-05   -2.788500913337971e-05
7.754673477036791e-05   -1.0939831205401557e-05   -2.788500913337971e-05
7.754673477036791e-05   -1.0939831205401557e-05   -2.788500913337971e-05
7.754673477036791e-05   -1.0939831205401557e-05   -2.788500913337971e-05
5.657079476715688e-05   -1.1452502036161678e-05   7.382493370429043e-06
5.657079476715688e-05   -1.1452502036161678e-05   7.382493370429043e-06
5.657079476715688e-05   -1.1452502036161678e-05   7.382493370429043e-06
5.657079476715688e-05   -1.1452502036161678e-05   7.382493370429043e-06
4.256580403047002e-05   -7.844135294555413e-06   5.6607238319334504e-05
4.256580403047002e-05   -7.844135294555413e-06   5.6607238319334504e-05
4.256580403047002e-05   -7.844135294555413e-06   5.6607238319334504e-05
4.256580403047002e-05   -7.844135294555413e-06   5.6607238319334504e-05
4.693434580130864e-06   -3.369956200428327e-06   -3.8288699747545535e-06
4.693434580130864e-06   -3.369956200428327e-06   -3.8288699747545535e-06
4.693434580130864e-06   -3.369956200428327e-06   -3.8288699747545535e-06
4.693434580130864e-06   -3.369956200428327e-06   -3.8288699747545535e-06
3.5748055786747072e-06   -8.320772591870716e-06   5.898340329528939e-05
3.5748055786747072e-06   -8.320772591870716e-06   5.898340329528939e-05
3.5748055786747072e-06   -8.320772591870716e-06   5.898340329528939e-05
3.5748055786747072e-06   -8.320772591870716e-06   5.898340329528939e-05
4.143941113279893e-05   -4.055883057774677e-06   -6.683206348708686e-06
4.143941113279893e-05   -4.055883057774677e-06   -6.683206348708686e-06
4.143941113279893e-05   -4.055883057774677e-06   -6.683206348708686e-06
4.143941113279893e-05   -4.055883057774677e-06   -6.683206348708686e-06
2.2847521947510935e-05   -5.48347519363588e-06   2.5159830908287888e-05
2.2847521947510935e-05   -5.48347519363588e-06   2.5159830908287888e-05
2.2847521947510935e-05   -5.48347519363588e-06   2.5159830908287888e-05
2.2847521947510935e-05   -5.48347519363588e-06   2.5159830908287888e-05
4.1439411132798915e-05   -8.320772591870716e-06   5.6424469574831724e-05
4.1439411132798915e-05   -8.320772591870716e-06   5.6424469574831724e-05
4.1439411132798915e-05   -8.320772591870716e-06   5.6424469574831724e-05
4.1439411132798915e-05   -8.320772591870716e-06   5.6424469574831724e-05
3.5748055786747072e-06   -4.055883057774677e-06   -4.124272628251019e-06
3.5748055786747072e-06   -4.055883057774677e-06   -4.124272628251019e-06
3.5748055786747072e-06   -4.055883057774677e-06   -4.124272628251019e-06
3.5748055786747072e-06   -4.055883057774677e-06   -4.124272628251019e-06
2.146503436976151e-06   -8.533881255318957e-06   5.843359496874624e-05
2.146503436976151e-06   -8.533881255318957e-06   5.843359496874624e-05
2.146503436976151e-06   -8.533881255318957e-06   5.843359496874624e-05
2.146503436976151e-06   -8.533881255318957e-06   5.843359496874624e-05
3.9987925256848415e-05   -4.506523263385354e-06   -7.051856192867985e-06
3.9987925256848415e-05   -4.506523263385354e-06   -7.051856192867985e-06
3.9987925256848415e-05   -4.506523263385354e-06   -7.051856192867985e-06
3.9987925256848415e-05   -4.506523263385354e-06   -7.051856192867985e-06
2.1429542371312177e-05   -5.743569890956368e-06   2.4621009926236435e-05
2.1429542371312177e-05   -5.743569890956368e-06   2.4621009926236435e-05
2.1429542371312177e-05   -5.743569890956368e-06   2.4621009926236435e-05
2.1429542371312177e-05   -5.743569890956368e-06   2.4621009926236435e-05
3.998792525684835e-05   -8.53388125531939e-06   5.601718017358612e-05
3.998792525684835e-05   -8.53388125531939e-06   5.601718017358612e-05
3.998792525684835e-05   -8.53388125531939e-06   5.601718017358612e-05
3.998792525684835e-05   -8.53388125531939e-06   5.601718017358612e-05
2.146503436976151e-06   -4.506523263385354e-06   -4.6354413977074595e-06
2.146503436976151e-06   -4.506523263385354e-06   -4.6354413977074595e-06
2.146503436976151e-06   -4.506523263385354e-06   -4.6354413977074595e-06
2.146503436976151e-06   -4.506523263385354e-06   -4.6354413977074595e-06
5.686385189209223e-07   -8.343525818412748e-06   5.929785853273084e-05
5.686385189209223e-07   -8.343525818412748e-06   5.929785853273084e-05
5.686385189209223e-07   -8.343525818412748e-06   5.929785853273084e-05
5.686385189209223e-07   -8.343525818412748e-06   5.929785853273084e-05
3.846529303658292e-05   -4.7008205401113945e-06   -6.048855497020481e-06
3.846529303658292e-05   -4.7008205401113945e-06   -6.048855497020481e-06
3.846529303658292e-05   -4.7008205401113945e-06   -6.048855497020481e-06
3.846529303658292e-05   -4.7008205401113945e-06   -6.048855497020481e-06
2.0273058721553323e-05   -5.6902961088787715e-06   2.4865220369290958e-05
2.0273058721553323e-05   -5.6902961088787715e-06   2.4865220369290958e-05
2.0273058721553323e-05   -5.6902961088787715e-06   2.4865220369290958e-05
2.0273058721553323e-05   -5.6902961088787715e-06   2.4865220369290958e-05
4.693434580130864e-06   -3.319898532096275e-06   5.7895060256984814e-05
4.693434580130864e-06   -3.319898532096275e-06   5.7895060256984814e-05
4.693434580130864e-06   -3.319898532096275e-06   5.7895060256984814e-05
4.693434580130864e-06   -3.319898532096275e-06   5.7895060256984814e-05
-3.1994034743108624e-05   2.987577847476334e-06   5.337638793289756e-07
-3.1994034743108624e-05   2.987577847476334e-06   5.337638793289756e-07
-3.1994034743108624e-05   2.987577847476334e-06   5.337638793289756e-07
-3.1994034743108624e-05   2.987577847476334e-06   5.337638793289756e-07
-3.3254286627047025e-05   -3.5063122986690384e-06   6.211555865955065e-05
-3.3254286627047025e-05   -3.5063122986690384e-06   6.211555865955065e-05
-3.3254286627047025e-05   -3.5063122986690384e-06   6.211555865955065e-05
-3.3254286627047025e-05   -3.5063122986690384e-06   6.211555865955065e-05
3.5748055786747072e-06   2.461529701943809e-06   -2.846966883686701e-06
3.5748055786747072e-06   2.461529701943809e-06   -2.846966883686701e-06
3.5748055786747072e-06   2.461529701943809e-06   -2.846966883686701e-06
3.5748055786747072e-06   2.461529701943809e-06   -2.846966883686701e-06
-1.4218768175703554e-05   -6.729521256215731e-08   2.8326284322314132e-05
-1.4218768175703554e-05   -6.729521256215731e-08   2.8326284322314132e-05
-1.4218768175703554e-05   -6.729521256215731e-08   2.8326284322314132e-05
-1.4218768175703554e-05   -6.729521256215731e-08   2.8326284322314132e-05
3.5748055786747343e-06   -3.5063122986690384e-06   5.853485345918294e-05
3.5748055786747343e-06   -3.5063122986690384e-06   5.853485345918294e-05
3.5748055786747343e-06   -3.5063122986690384e-06   5.853485345918294e-05
3.5748055786747343e-06   -3.5063122986690384e-06   5.853485345918294e-05
-3.3254286627047025e-05   2.461529701943809e-06   7.337383166813871e-07
-3.3254286627047025e-05   2.461529701943809e-06   7.337383166813871e-07
-3.3254286627047025e-05   2.461529701943809e-06   7.337383166813871e-07
-3.3254286627047025e-05   2.461529701943809e-06   7.337383166813871e-07
-3.4944586092656825e-05   -3.7343204611940684e-06   6.336277514837861e-05
-3.4944586092656825e-05   -3.7343204611940684e-06   6.336277514837861e-05
-3.4944586092656825e-05   -3.7343204611940684e-06   6.336277514837861e-05
-3.4944586092656825e-05   -3.7343204611940684e-06   6.336277514837861e-05
2.146503436976151e-06   1.9718305259838406e-06   -1.8793979933167293e-06
2.146503436976151e-06   1.9718305259838406e-06   -1.8793979933167293e-06
2.146503436976151e-06   1.9718305259838406e-06   -1.8793979933167293e-06
2.146503436976151e-06   1.9718305259838406e-06   -1.8793979933167293e-06
-1.5462093343536915e-05   -2.1592862075236682e-07   2.8780918795580368e-05
-1.5462093343536915e-05   -2.1592862075236682e-07   2.8780918795580368e-05
-1.5462093343536915e-05   -2.1592862075236682e-07   2.8780918795580368e-05
-1.5462093343536915e-05   -2.1592862075236682e-07   2.8780918795580368e-05
2.146503436976151e-06   -3.7343204611940684e-06   5.9939084556071736e-05
2.146503436976151e-06   -3.7343204611940684e-06   5.9939084556071736e-05
2.146503436976151e-06   -3.7343204611940684e-06   5.9939084556071736e-05
2.146503436976151e-06   -3.7343204611940684e-06   5.9939084556071736e-05
-3.494458609265677e-05   1.9718305259838406e-06   1.5442925989902004e-06
-3.494458609265677e-05   1.9718305259838406e-06   1.5442925989902004e-06
-3.494458609265677e-05   1.9718305259838406e-06   1.5442925989902004e-06
-3.494458609265677e-05   1.9718305259838406e-06   1.5442925989902004e-06
-3.6745497052744234e-05   -3.7139725473757726e-06   6.485885714098069e-05
-3.6745497052744234e-05   -3.7139725473757726e-06   6.485885714098069e-05
-3.6745497052744234e-05   -3.7139725473757726e-06   6.485885714098069e-05
-3.6745497052744234e-05   -3.7139725473757726e-06   6.485885714098069e-05
5.686385189209494e-07   1.618842190490629e-06   -5.310576545145842e-07
5.686385189209494e-07   1.618842190490629e-06   -5.310576545145842e-07
5.686385189209494e-07   1.618842190490629e-06   -5.310576545145842e-07
5.686385189209494e-07   1.618842190490629e-06   -5.310576545145842e-07
-1.704797392075401e-05   -3.2301070333187396e-07   2.999507481457153e-05
-1.704797392075401e-05   -3.2301070333187396e-07   2.999507481457153e-05
-1.704797392075401e-05   -3.2301070333187396e-07   2.999507481457153e-05
-1.704797392075401e-05   -3.2301070333187396e-07   2.999507481457153e-05
-3.1994034743108515e-05   3.508914851072225e-06   5.230762467476322e-05
-3.1994034743108515e-05   3.508914851072225e-06   5.230762467476322e-05
-3.1994034743108515e-05   3.508914851072225e-06   5.230762467476322e-05
-3.1994034743108515e-05   3.508914851072225e-06   5.230762467476322e-05
-6.792716957106969e-05   9.742269564304556e-06   -3.840920543899534e-06
-6.792716957106969e-05   9.742269564304556e-06   -3.840920543899534e-06
-6.792716957106969e-05   9.742269564304556e-06   -3.840920543899534e-06
-6.792716957106969e-05   9.742269564304556e-06   -3.840920543899534e-06
-6.976419828922002e-05   3.293852744212615e-06   5.790832096322623e-05
-6.976419828922002e-05   3.293852744212615e-06   5.790832096322623e-05
-6.976419828922002e-05   3.293852744212615e-06   5.790832096322623e-05
-6.976419828922002e-05   3.293852744212615e-06   5.790832096322623e-05
-3.3254286627046916e-05   9.21431367193349e-06   -6.4938083636943895e-06
-3.3254286627046916e-05   9.21431367193349e-06   -6.4938083636943895e-06
-3.3254286627046916e-05   9.21431367193349e-06   -6.4938083636943895e-06
-3.3254286627046916e-05   9.21431367193349e-06   -6.4938083636943895e-06
-5.033373652130748e-05   6.553686274537052e-06   2.3568317898510537e-05
-5.033373652130748e-05   6.553686274537052e-06   2.3568317898510537e-05
-5.033373652130748e-05   6.553686274537052e-06   2.3568317898510537e-05
-5.033373652130748e-05   6.553686274537052e-06   2.3568317898510537e-05
-3.325428662704697e-05   3.2938527442130487e-06   5.4356044406593616e-05
-3.325428662704697e-05   3.2938527442130487e-06   5.4356044406593616e-05
-3.325428662704697e-05   3.2938527442130487e-06   5.4356044406593616e-05
-3.325428662704697e-05   3.2938527442130487e-06   5.4356044406593616e-05
-6.976419828921991e-05   9.214313671933056e-06   -2.9415318070621574e-06
-6.976419828921991e-05   9.214313671933056e-06   -2.9415318070621574e-06
-6.976419828921991e-05   9.214313671933056e-06   -2.9415318070621574e-06
-6.976419828921991e-05   9.214313671933056e-06   -2.9415318070621574e-06
-7.20149510413468e-05   2.9012782374123088e-06   6.146078661734477e-05
-7.20149510413468e-05   2.9012782374123088e-06   6.146078661734477e-05
-7.20149510413468e-05   2.9012782374123088e-06   6.146078661734477e-05
-7.20149510413468e-05   2.9012782374123088e-06   6.146078661734477e-05
-3.494458609265677e-05   8.726572518445545e-06   -3.818331532425478e-06
-3.494458609265677e-05   8.726572518445545e-06   -3.818331532425478e-06
-3.494458609265677e-05   8.726572518445545e-06   -3.818331532425478e-06
-3.494458609265677e-05   8.726572518445545e-06   -3.818331532425478e-06
-5.170311717475193e-05   6.430679390201626e-06   2.5490089481346027e-05
-5.170311717475193e-05   6.430679390201626e-06   2.5490089481346027e-05
-5.170311717475193e-05   6.430679390201626e-06   2.5490089481346027e-05
-5.170311717475193e-05   6.430679390201626e-06   2.5490089481346027e-05
-3.4944586092656744e-05   2.9012782374123088e-06   5.796561004872431e-05
-3.4944586092656744e-05   2.9012782374123088e-06   5.796561004872431e-05
-3.4944586092656744e-05   2.9012782374123088e-06   5.796561004872431e-05
-3.4944586092656744e-05   2.9012782374123088e-06   5.796561004872431e-05
-7.20149510413468e-05   8.726572518445545e-06   -3.231549638054495e-07
-7.20149510413468e-05   8.726572518445545e-06   -3.231549638054495e-07
-7.20149510413468e-05   8.726572518445545e-06   -3.231549638054495e-07
-7.20149510413468e-05   8.726572518445545e-06   -3.231549638054495e-07
-7.439703649375816e-05   2.45729829636155e-06   6.429368839438879e-05
-7.439703649375816e-05   2.45729829636155e-06   6.429368839438879e-05
-7.439703649375816e-05   2.45729829636155e-06   6.429368839438879e-05
-7.439703649375816e-05   2.45729829636155e-06   6.429368839438879e-05
-3.67454970527441e-05   8.071512050315463e-06   -1.827405593006373e-06
-3.67454970527441e-05   8.071512050315463e-06   -1.827405593006373e-06
-3.67454970527441e-05   8.071512050315463e-06   -1.827405593006373e-06
-3.67454970527441e-05   8.071512050315463e-06   -1.827405593006373e-06
-5.398024797587044e-05   6.034455451228195e-06   2.8119413238324805e-05
-5.398024797587044e-05   6.034455451228195e-06   2.8119413238324805e-05
-5.398024797587044e-05   6.034455451228195e-06   2.8119413238324805e-05
-5.398024797587044e-05   6.034455451228195e-06   2.8119413238324805e-05
-6.792716957106969e-05   1.608003036010974e-05   2.754299576957376e-05
-6.792716957106969e-05   1.608003036010974e-05   2.754299576957376e-05
-6.792716957106969e-05   1.608003036010974e-05   2.754299576957376e-05
-6.792716957106969e-05   1.608003036010974e-05   2.754299576957376e-05
-0.00010233009586670585   1.584406336147719e-05   -2.993679492233254e-05
-0.00010233009586670585   1.584406336147719e-05   -2.993679492233254e-05
-0.00010233009586670585   1.584406336147719e-05   -2.993679492233254e-05
-0.00010233009586670585   1.584406336147719e-05   -2.993679492233254e-05
-0.00010562687626970593   1.5513134523410625e-05   4.077548186297514e-05
-0.00010562687626970593   1.5513134523410625e-05   4.077548186297514e-05
-0.00010562687626970593   1.5513134523410625e-05   4.077548186297514e-05
-0.00010562687626970593   1.5513134523410625e-05   4.077548186297514e-05
-6.976419828921991e-05   1.6145283812069727e-05   -1.9374937677697323e-05
-6.976419828921991e-05   1.6145283812069727e-05   -1.9374937677697323e-05
-6.976419828921991e-05   1.6145283812069727e-05   -1.9374937677697323e-05
-6.976419828921991e-05   1.6145283812069727e-05   -1.9374937677697323e-05
-8.293388900762651e-05   1.61482822063682e-05   2.5727478164011986e-06
-8.293388900762651e-05   1.61482822063682e-05   2.5727478164011986e-06
-8.293388900762651e-05   1.61482822063682e-05   2.5727478164011986e-06
-8.293388900762651e-05   1.61482822063682e-05   2.5727478164011986e-06
-6.976419828921986e-05   1.5513134523410625e-05   4.0396192289779854e-05
-6.976419828921986e-05   1.5513134523410625e-05   4.0396192289779854e-05
-6.976419828921986e-05   1.5513134523410625e-05   4.0396192289779854e-05
-6.976419828921986e-05   1.5513134523410625e-05   4.0396192289779854e-05
-0.00010562687626970593   1.6145283812069294e-05   -1.8995648104502307e-05
-0.00010562687626970593   1.6145283812069294e-05   -1.8995648104502307e-05
-0.00010562687626970593   1.6145283812069294e-05   -1.8995648104502307e-05
-0.00010562687626970593   1.6145283812069294e-05   -1.8995648104502307e-05
-0.00010885992732830629   1.511282588179206e-05   5.007077115192545e-05
-0.00010885992732830629   1.511282588179206e-05   5.007077115192545e-05
-0.00010885992732830629   1.511282588179206e-05   5.007077115192545e-05
-0.00010885992732830629   1.511282588179206e-05   5.007077115192545e-05
-7.201495104134669e-05   1.602807618722923e-05   -1.1886672842936275e-05
-7.201495104134669e-05   1.602807618722923e-05   -1.1886672842936275e-05
-7.201495104134669e-05   1.602807618722923e-05   -1.1886672842936275e-05
-7.201495104134669e-05   1.602807618722923e-05   -1.1886672842936275e-05
-8.670867224188848e-05   1.6143488790849522e-05   1.2533614929128786e-05
-8.670867224188848e-05   1.6143488790849522e-05   1.2533614929128786e-05
-8.670867224188848e-05   1.6143488790849522e-05   1.2533614929128786e-05
-8.670867224188848e-05   1.6143488790849522e-05   1.2533614929128786e-05
-7.201495104134669e-05   1.511282588179206e-05   4.9521620968663495e-05
-7.201495104134669e-05   1.511282588179206e-05   4.9521620968663495e-05
-7.201495104134669e-05   1.511282588179206e-05   4.9521620968663495e-05
-7.201495104134669e-05   1.511282588179206e-05   4.9521620968663495e-05
-0.00010885992732830629   1.6028076187228797e-05   -1.1337522659674156e-05
-0.00010885992732830629   1.6028076187228797e-05   -1.1337522659674156e-05
-0.00010885992732830629   1.6028076187228797e-05   -1.1337522659674156e-05
-0.00010885992732830629   1.6028076187228797e-05   -1.1337522659674156e-05
-0.00011267237781988   1.257518037404027e-05   6.560441370627576e-05
-0.00011267237781988   1.257518037404027e-05   6.560441370627576e-05
-0.00011267237781988   1.257518037404027e-05   6.560441370627576e-05
-0.00011267237781988   1.257518037404027e-05   6.560441370627576e-05
-7.439703649375788e-05   1.47522191592123e-05   5.059548916358514e-07
-7.439703649375788e-05   1.47522191592123e-05   5.059548916358514e-07
-7.439703649375788e-05   1.47522191592123e-05   5.059548916358514e-07
-7.439703649375788e-05   1.47522191592123e-05   5.059548916358514e-07
-8.807000080643699e-05   1.5375042564326827e-05   2.292053470303321e-05
-8.807000080643699e-05   1.5375042564326827e-05   2.292053470303321e-05
-8.807000080643699e-05   1.5375042564326827e-05   2.292053470303321e-05
-8.807000080643699e-05   1.5375042564326827e-05   2.292053470303321e-05
6.81813491589165e-05   -9.541044749458109e-06   5.2660452977250924e-05
6.81813491589165e-05   -9.541044749458109e-06   5.2660452977250924e-05
6.81813491589165e-05   -9.541044749458109e-06   5.2660452977250924e-05
6.81813491589165e-05   -9.541044749458109e-06   5.2660452977250924e-05
3.376520264124299e-05   -6.987455165020223e-06   -3.1676374682085284e-06
3.376520264124299e-05   -6.987455165020223e-06   -3.1676374682085284e-06
3.376520264124299e-05   -6.987455165020223e-06   -3.1676374682085284e-06
3.376520264124299e-05   -6.987455165020223e-06   -3.1676374682085284e-06
3.246786083276633e-05   -1.0816335868656535e-05   4.5800598770331415e-05
3.246786083276633e-05   -1.0816335868656535e-05   4.5800598770331415e-05
3.246786083276633e-05   -1.0816335868656535e-05   4.5800598770331415e-05
3.246786083276633e-05   -1.0816335868656535e-05   4.5800598770331415e-05
6.579495651005814e-05   -8.109821974571808e-06   -1.136846902827172e-05
6.579495651005814e-05   -8.109821974571808e-06   -1.136846902827172e-05
6.579495651005814e-05   -8.109821974571808e-06   -1.136846902827172e-05
6.579495651005814e-05   -8.109821974571808e-06   -1.136846902827172e-05
4.7760649431125105e-05   -8.773136690612068e-06   1.9086698266240266e-05
4.7760649431125105e-05   -8.773136690612068e-06   1.9086698266240266e-05
4.7760649431125105e-05   -8.773136690612068e-06   1.9086698266240266e-05
4.7760649431125105e-05   -8.773136690612068e-06   1.9086698266240266e-05
6.579495651005804e-05   -1.0816335868656535e-05   4.417669043388101e-05
6.579495651005804e-05   -1.0816335868656535e-05   4.417669043388101e-05
6.579495651005804e-05   -1.0816335868656535e-05   4.417669043388101e-05
6.579495651005804e-05   -1.0816335868656535e-05   4.417669043388101e-05
3.246786083276645e-05   -8.109821974571808e-06   -9.744560691821212e-06
3.246786083276645e-05   -8.109821974571808e-06   -9.744560691821212e-06
3.246786083276645e-05   -8.109821974571808e-06   -9.744560691821212e-06
3.246786083276645e-05   -8.109821974571808e-06   -9.744560691821212e-06
3.1026537035954034e-05   -1.1006548360947832e-05   4.1050414579135936e-05
3.1026537035954034e-05   -1.1006548360947832e-05   4.1050414579135936e-05
3.1026537035954034e-05   -1.1006548360947832e-05   4.1050414579135936e-05
3.1026537035954034e-05   -1.1006548360947832e-05   4.1050414579135936e-05
6.363456747310119e-05   -8.335757976675288e-06   -1.4898777046672502e-05
6.363456747310119e-05   -8.335757976675288e-06   -1.4898777046672502e-05
6.363456747310119e-05   -8.335757976675288e-06   -1.4898777046672502e-05
6.363456747310119e-05   -8.335757976675288e-06   -1.4898777046672502e-05
4.6859587487485905e-05   -9.207896200644737e-06   1.3582805863734514e-05
4.6859587487485905e-05   -9.207896200644737e-06   1.3582805863734514e-05
4.6859587487485905e-05   -9.207896200644737e-06   1.3582805863734514e-05
4.6859587487485905e-05   -9.207896200644737e-06   1.3582805863734514e-05
6.363456747310097e-05   -1.1006548360947832e-05   3.944794034857284e-05
6.363456747310097e-05   -1.1006548360947832e-05   3.944794034857284e-05
6.363456747310097e-05   -1.1006548360947832e-05   3.944794034857284e-05
6.363456747310097e-05   -1.1006548360947832e-05   3.944794034857284e-05
3.102653703595409e-05   -8.335757976675288e-06   -1.3296302816108874e-05
3.102653703595409e-05   -8.335757976675288e-06   -1.3296302816108874e-05
3.102653703595409e-05   -8.335757976675288e-06   -1.3296302816108874e-05
3.102653703595409e-05   -8.335757976675288e-06   -1.3296302816108874e-05
2.964052426388417e-05   -1.0939831205401557e-05   3.4430100527188144e-05
2.964052426388417e-05   -1.0939831205401557e-05   3.4430100527188144e-05
2.964052426388417e-05   -1.0939831205401557e-05   3.4430100527188144e-05
2.964052426388417e-05   -1.0939831205401557e-05   3.4430100527188144e-05
6.118827959605616e-05   -8.429415933468559e-06   -1.9655740856258225e-05
6.118827959605616e-05   -8.429415933468559e-06   -1.9655740856258225e-05
6.118827959605616e-05   -8.429415933468559e-06   -1.9655740856258225e-05
6.118827959605616e-05   -8.429415933468559e-06   -1.9655740856258225e-05
4.44410106220413e-05   -9.053236171962381e-06   8.630666243530211e-06
4.44410106220413e-05   -9.053236171962381e-06   8.630666243530211e-06
4.44410106220413e-05   -9.053236171962381e-06   8.630666243530211e-06
4.44410106220413e-05   -9.053236171962381e-06   8.630666243530211e-06
3.376520264124299e-05   -3.369956200428327e-06   5.5314164493891916e-05
3.376520264124299e-05   -3.369956200428327e-06   5.5314164493891916e-05
3.376520264124299e-05   -3.369956200428327e-06   5.5314164493891916e-05
3.376520264124299e-05   -3.369956200428327e-06   5.5314164493891916e-05
1.4609000819890063e-06   -1.3355629506907156e-06   2.694296178311394e-06
1.4609000819890063e-06   -1.3355629506907156e-06   2.694296178311394e-06
1.4609000819890063e-06   -1.3355629506907156e-06   2.694296178311394e-06
1.4609000819890063e-06   -1.3355629506907156e-06   2.694296178311394e-06
2.157753974816798e-07   -4.055883057774677e-06   5.589333200053037e-05
2.157753974816798e-07   -4.055883057774677e-06   5.589333200053037e-05
2.157753974816798e-07   -4.055883057774677e-06   5.589333200053037e-05
2.157753974816798e-07   -4.055883057774677e-06   5.589333200053037e-05
3.246786083276645e-05   -2.1320053716425424e-06   9.855296633765992e-07
3.246786083276645e-05   -2.1320053716425424e-06   9.855296633765992e-07
3.246786083276645e-05   -2.1320053716425424e-06   9.855296633765992e-07
3.246786083276645e-05   -2.1320053716425424e-06   9.855296633765992e-07
1.6771588110408388e-05   -2.6222219598084733e-06   2.744011415353959e-05
1.6771588110408388e-05   -2.6222219598084733e-06   2.744011415353959e-05
1.6771588110408388e-05   -2.6222219598084733e-06   2.744011415353959e-05
1.6771588110408388e-05   -2.6222219598084733e-06   2.744011415353959e-05
3.2467860832766424e-05   -4.055883057774677e-06   5.473900538885109e-05
3.2467860832766424e-05   -4.055883057774677e-06   5.473900538885109e-05
3.2467860832766424e-05   -4.055883057774677e-06   5.473900538885109e-05
3.2467860832766424e-05   -4.055883057774677e-06   5.473900538885109e-05
2.157753974816798e-07   -2.1320053716425424e-06   2.139856275055812e-06
2.157753974816798e-07   -2.1320053716425424e-06   2.139856275055812e-06
2.157753974816798e-07   -2.1320053716425424e-06   2.139856275055812e-06
2.157753974816798e-07   -2.1320053716425424e-06   2.139856275055812e-06
-1.0784313053697884e-06   -4.506523263385354e-06   5.5055896935919234e-05
-1.0784313053697884e-06   -4.506523263385354e-06   5.5055896935919234e-05
-1.0784313053697884e-06   -4.506523263385354e-06   5.5055896935919234e-05
-1.0784313053697884e-06   -4.506523263385354e-06   5.5055896935919234e-05
3.102653703595409e-05   -2.7243761388942925e-06   4.783280923513738e-07
3.102653703595409e-05   -2.7243761388942925e-06   4.783280923513738e-07
3.102653703595409e-05   -2.7243761388942925e-06   4.783280923513738e-07
3.102653703595409e-05   -2.7243761388942925e-06   4.783280923513738e-07
1.5342891717248933e-05   -3.039840631218968e-06   2.6807015652255753e-05
1.5342891717248933e-05   -3.039840631218968e-06   2.6807015652255753e-05
1.5342891717248933e-05   -3.039840631218968e-06   2.6807015652255753e-05
1.5342891717248933e-05   -3.039840631218968e-06   2.6807015652255753e-05
3.1026537035954034e-05   -4.506523263385354e-06   5.398660866122473e-05
3.1026537035954034e-05   -4.506523263385354e-06   5.398660866122473e-05
3.1026537035954034e-05   -4.506523263385354e-06   5.398660866122473e-05
3.1026537035954034e-05   -4.506523263385354e-06   5.398660866122473e-05
-1.0784313053697884e-06   -2.7243761388942925e-06   1.5476163670459075e-06
-1.0784313053697884e-06   -2.7243761388942925e-06   1.5476163670459075e-06
-1.0784313053697884e-06   -2.7243761388942925e-06   1.5476163670459075e-06
-1.0784313053697884e-06   -2.7243761388942925e-06   1.5476163670459075e-06
-2.4257830650587777e-06   -4.7008205401113945e-06   5.5483574172741305e-05
-2.4257830650587777e-06   -4.7008205401113945e-06   5.5483574172741305e-05
-2.4257830650587777e-06   -4.7008205401113945e-06   5.5483574172741305e-05
-2.4257830650587777e-06   -4.7008205401113945e-06   5.5483574172741305e-05
2.9640524263884252e-05   -3.1925531078103725e-06   1.1347681651216468e-06
2.9640524263884252e-05   -3.1925531078103725e-06   1.1347681651216468e-06
2.9640524263884252e-05   -3.1925531078103725e-06   1.1347681651216468e-06
2.9640524263884252e-05   -3.1925531078103725e-06   1.1347681651216468e-06
1.4267537470221355e-05   -3.2649797665211706e-06   2.6799868816454312e-05
1.4267537470221355e-05   -3.2649797665211706e-06   2.6799868816454312e-05
1.4267537470221355e-05   -3.2649797665211706e-06   2.6799868816454312e-05
1.4267537470221355e-05   -3.2649797665211706e-06   2.6799868816454312e-05
1.4609000819890063e-06   2.987577847476334e-06   5.711294847007462e-05
1.4609000819890063e-06   2.987577847476334e-06   5.711294847007462e-05
1.4609000819890063e-06   2.987577847476334e-06   5.711294847007462e-05
1.4609000819890063e-06   2.987577847476334e-06   5.711294847007462e-05
-2.98978735547127e-05   4.342447513123841e-06   5.661247541627291e-06
-2.98978735547127e-05   4.342447513123841e-06   5.661247541627291e-06
-2.98978735547127e-05   4.342447513123841e-06   5.661247541627291e-06
-2.98978735547127e-05   4.342447513123841e-06   5.661247541627291e-06
-3.11986687396945e-05   2.461529701943809e-06   5.7901037260993295e-05
-3.11986687396945e-05   2.461529701943809e-06   5.7901037260993295e-05
-3.11986687396945e-05   2.461529701943809e-06   5.7901037260993295e-05
-3.11986687396945e-05   2.461529701943809e-06   5.7901037260993295e-05
2.157753974816798e-07   3.6788622284410037e-06   4.813230849801077e-06
2.157753974816798e-07   3.6788622284410037e-06   4.813230849801077e-06
2.157753974816798e-07   3.6788622284410037e-06   4.813230849801077e-06
2.157753974816798e-07   3.6788622284410037e-06   4.813230849801077e-06
-1.487803792233937e-05   3.406721082382675e-06   3.0132871070471384e-05
-1.487803792233937e-05   3.406721082382675e-06   3.0132871070471384e-05
-1.487803792233937e-05   3.406721082382675e-06   3.0132871070471384e-05
-1.487803792233937e-05   3.406721082382675e-06   3.0132871070471384e-05
2.157753974816798e-07   2.461529701943809e-06   5.717063774509485e-05
2.157753974816798e-07   2.461529701943809e-06   5.717063774509485e-05
2.157753974816798e-07   2.461529701943809e-06   5.717063774509485e-05
2.157753974816798e-07   2.461529701943809e-06   5.717063774509485e-05
-3.11986687396945e-05   3.6788622284410037e-06   5.543630365699307e-06
-3.11986687396945e-05   3.6788622284410037e-06   5.543630365699307e-06
-3.11986687396945e-05   3.6788622284410037e-06   5.543630365699307e-06
-3.11986687396945e-05   3.6788622284410037e-06   5.543630365699307e-06
-3.257249598496173e-05   1.9718305259838406e-06   5.844953194924368e-05
-3.257249598496173e-05   1.9718305259838406e-06   5.844953194924368e-05
-3.257249598496173e-05   1.9718305259838406e-06   5.844953194924368e-05
-3.257249598496173e-05   1.9718305259838406e-06   5.844953194924368e-05
-1.0784313053697884e-06   3.0344832075393686e-06   5.321832540990058e-06
-1.0784313053697884e-06   3.0344832075393686e-06   5.321832540990058e-06
-1.0784313053697884e-06   3.0344832075393686e-06   5.321832540990058e-06
-1.0784313053697884e-06   3.0344832075393686e-06   5.321832540990058e-06
-1.6086562042241532e-05   3.027430141036569e-06   3.033961560901157e-05
-1.6086562042241532e-05   3.027430141036569e-06   3.033961560901157e-05
-1.6086562042241532e-05   3.027430141036569e-06   3.033961560901157e-05
-1.6086562042241532e-05   3.027430141036569e-06   3.033961560901157e-05
-1.0784313053697884e-06   1.971830525983407e-06   5.781194034031002e-05
-1.0784313053697884e-06   1.971830525983407e-06   5.781194034031002e-05
-1.0784313053697884e-06   1.971830525983407e-06   5.781194034031002e-05
-1.0784313053697884e-06   1.971830525983407e-06   5.781194034031002e-05
-3.2572495984961787e-05   3.0344832075393686e-06   5.959424149923559e-06
-3.2572495984961787e-05   3.0344832075393686e-06   5.959424149923559e-06
-3.2572495984961787e-05   3.0344832075393686e-06   5.959424149923559e-06
-3.2572495984961787e-05   3.0344832075393686e-06   5.959424149923559e-06
-3.3990296447832175e-05   1.618842190490629e-06   5.9320956992482514e-05
-3.3990296447832175e-05   1.618842190490629e-06   5.9320956992482514e-05
-3.3990296447832175e-05   1.618842190490629e-06   5.9320956992482514e-05
-3.3990296447832175e-05   1.618842190490629e-06   5.9320956992482514e-05
-2.4257830650587777e-06   2.4608557641862122e-06   6.2082265436430085e-06
-2.4257830650587777e-06   2.4608557641862122e-06   6.2082265436430085e-06
-2.4257830650587777e-06   2.4608557641862122e-06   6.2082265436430085e-06
-2.4257830650587777e-06   2.4608557641862122e-06   6.2082265436430085e-06
-1.739436401048712e-05   2.6639617180662656e-06   3.103399788036295e-05
-1.739436401048712e-05   2.6639617180662656e-06   3.103399788036295e-05
-1.739436401048712e-05   2.6639617180662656e-06   3.103399788036295e-05
-1.739436401048712e-05   2.6639617180662656e-06   3.103399788036295e-05
-2.989787355471278e-05   9.742269564304122e-06   4.9811173018295954e-05
-2.989787355471278e-05   9.742269564304122e-06   4.9811173018295954e-05
-2.989787355471278e-05   9.742269564304122e-06   4.9811173018295954e-05
-2.989787355471278e-05   9.742269564304122e-06   4.9811173018295954e-05
-6.026033538057647e-05   9.865372813230768e-06   -7.190680754542815e-07
-6.026033538057647e-05   9.865372813230768e-06   -7.190680754542815e-07
-6.026033538057647e-05   9.865372813230768e-06   -7.190680754542815e-07
-6.026033538057647e-05   9.865372813230768e-06   -7.190680754542815e-07
-6.177058126121077e-05   9.214313671933056e-06   5.068346315795702e-05
-6.177058126121077e-05   9.214313671933056e-06   5.068346315795702e-05
-6.177058126121077e-05   9.214313671933056e-06   5.068346315795702e-05
-6.177058126121077e-05   9.214313671933056e-06   5.068346315795702e-05
-3.1198668739694556e-05   9.230934634165897e-06   -2.796969552431401e-07
-3.1198668739694556e-05   9.230934634165897e-06   -2.796969552431401e-07
-3.1198668739694556e-05   9.230934634165897e-06   -2.796969552431401e-07
-3.1198668739694556e-05   9.230934634165897e-06   -2.796969552431401e-07
-4.5577235830210734e-05   9.491334574083209e-06   2.35283415649999e-05
-4.5577235830210734e-05   9.491334574083209e-06   2.35283415649999e-05
-4.5577235830210734e-05   9.491334574083209e-06   2.35283415649999e-05
-4.5577235830210734e-05   9.491334574083209e-06   2.35283415649999e-05
-3.1198668739694556e-05   9.214313671933056e-06   5.067349058061714e-05
-3.1198668739694556e-05   9.214313671933056e-06   5.067349058061714e-05
-3.1198668739694556e-05   9.214313671933056e-06   5.067349058061714e-05
-3.1198668739694556e-05   9.214313671933056e-06   5.067349058061714e-05
-6.17705812612106e-05   9.230934634165897e-06   -2.6972437790337075e-07
-6.17705812612106e-05   9.230934634165897e-06   -2.6972437790337075e-07
-6.17705812612106e-05   9.230934634165897e-06   -2.6972437790337075e-07
-6.17705812612106e-05   9.230934634165897e-06   -2.6972437790337075e-07
-6.344482625077988e-05   8.726572518445545e-06   5.303899126675362e-05
-6.344482625077988e-05   8.726572518445545e-06   5.303899126675362e-05
-6.344482625077988e-05   8.726572518445545e-06   5.303899126675362e-05
-6.344482625077988e-05   8.726572518445545e-06   5.303899126675362e-05
-3.2572495984961787e-05   8.64671159998831e-06   1.63302404146404e-06
-3.2572495984961787e-05   8.64671159998831e-06   1.63302404146404e-06
-3.2572495984961787e-05   8.64671159998831e-06   1.63302404146404e-06
-3.2572495984961787e-05   8.64671159998831e-06   1.63302404146404e-06
-4.667047247905073e-05   9.132596399784396e-06   2.4838120651734597e-05
-4.667047247905073e-05   9.132596399784396e-06   2.4838120651734597e-05
-4.667047247905073e-05   9.132596399784396e-06   2.4838120651734597e-05
-4.667047247905073e-05   9.132596399784396e-06   2.4838120651734597e-05
-3.257249598496173e-05   8.726572518445979e-06   5.308690781782779e-05
-3.257249598496173e-05   8.726572518445979e-06   5.308690781782779e-05
-3.257249598496173e-05   8.726572518445979e-06   5.308690781782779e-05
-3.257249598496173e-05   8.726572518445979e-06   5.308690781782779e-05
-6.344482625077977e-05   8.64671159998831e-06   1.5851074903899809e-06
-6.344482625077977e-05   8.64671159998831e-06   1.5851074903899809e-06
-6.344482625077977e-05   8.64671159998831e-06   1.5851074903899809e-06
-6.344482625077977e-05   8.64671159998831e-06   1.5851074903899809e-06
-6.504070271990883e-05   8.071512050315463e-06   5.4742314724465224e-05
-6.504070271990883e-05   8.071512050315463e-06   5.4742314724465224e-05
-6.504070271990883e-05   8.071512050315463e-06   5.4742314724465224e-05
-6.504070271990883e-05   8.071512050315463e-06   5.4742314724465224e-05
-3.399029644783231e-05   7.933836238973365e-06   3.074243091142747e-06
-3.399029644783231e-05   7.933836238973365e-06   3.074243091142747e-06
-3.399029644783231e-05   7.933836238973365e-06   3.074243091142747e-06
-3.399029644783231e-05   7.933836238973365e-06   3.074243091142747e-06
-4.8406623281260205e-05   8.667503397760939e-06   2.6661254184919296e-05
-4.8406623281260205e-05   8.667503397760939e-06   2.6661254184919296e-05
-4.8406623281260205e-05   8.667503397760939e-06   2.6661254184919296e-05
-4.8406623281260205e-05   8.667503397760939e-06   2.6661254184919296e-05
-6.026033538057636e-05   1.584406336147719e-05   2.3930740788398203e-05
-6.026033538057636e-05   1.584406336147719e-05   2.3930740788398203e-05
-6.026033538057636e-05   1.584406336147719e-05   2.3930740788398203e-05
-6.026033538057636e-05   1.584406336147719e-05   2.3930740788398203e-05
-8.90954404565261e-05   1.419611249541073e-05   -2.511653819115803e-05
-8.90954404565261e-05   1.419611249541073e-05   -2.511653819115803e-05
-8.90954404565261e-05   1.419611249541073e-05   -2.511653819115803e-05
-8.90954404565261e-05   1.419611249541073e-05   -2.511653819115803e-05
-9.147355330079912e-05   1.6145283812069294e-05   3.31694049281071e-05
-9.147355330079912e-05   1.6145283812069294e-05   3.31694049281071e-05
-9.147355330079912e-05   1.6145283812069294e-05   3.31694049281071e-05
-9.147355330079912e-05   1.6145283812069294e-05   3.31694049281071e-05
-6.177058126121077e-05   1.4344196546711967e-05   -1.5254896111992905e-05
-6.177058126121077e-05   1.4344196546711967e-05   -1.5254896111992905e-05
-6.177058126121077e-05   1.4344196546711967e-05   -1.5254896111992905e-05
-6.177058126121077e-05   1.4344196546711967e-05   -1.5254896111992905e-05
-7.275368627035136e-05   1.5045621285595875e-05   2.629424059911187e-06
-7.275368627035136e-05   1.5045621285595875e-05   2.629424059911187e-06
-7.275368627035136e-05   1.5045621285595875e-05   2.629424059911187e-06
-7.275368627035136e-05   1.5045621285595875e-05   2.629424059911187e-06
-6.177058126121055e-05   1.6145283812069727e-05   3.425005728732136e-05
-6.177058126121055e-05   1.6145283812069727e-05   3.425005728732136e-05
-6.177058126121055e-05   1.6145283812069727e-05   3.425005728732136e-05
-6.177058126121055e-05   1.6145283812069727e-05   3.425005728732136e-05
-9.147355330079945e-05   1.4344196546711967e-05   -1.6335548471207387e-05
-9.147355330079945e-05   1.4344196546711967e-05   -1.6335548471207387e-05
-9.147355330079945e-05   1.4344196546711967e-05   -1.6335548471207387e-05
-9.147355330079945e-05   1.4344196546711967e-05   -1.6335548471207387e-05
-9.379627553802349e-05   1.6028076187228797e-05   4.037000189377861e-05
-9.379627553802349e-05   1.6028076187228797e-05   4.037000189377861e-05
-9.379627553802349e-05   1.6028076187228797e-05   4.037000189377861e-05
-9.379627553802349e-05   1.6028076187228797e-05   4.037000189377861e-05
-6.344482625077988e-05   1.4185623697490247e-05   -9.110275424450824e-06
-6.344482625077988e-05   1.4185623697490247e-05   -9.110275424450824e-06
-6.344482625077988e-05   1.4185623697490247e-05   -9.110275424450824e-06
-6.344482625077988e-05   1.4185623697490247e-05   -9.110275424450824e-06
-7.567118698597914e-05   1.5319296578259096e-05   1.0586788739088077e-05
-7.567118698597914e-05   1.5319296578259096e-05   1.0586788739088077e-05
-7.567118698597914e-05   1.5319296578259096e-05   1.0586788739088077e-05
-7.567118698597914e-05   1.5319296578259096e-05   1.0586788739088077e-05
-6.344482625077988e-05   1.6028076187228797e-05   4.147547338762252e-05
-6.344482625077988e-05   1.6028076187228797e-05   4.147547338762252e-05
-6.344482625077988e-05   1.6028076187228797e-05   4.147547338762252e-05
-6.344482625077988e-05   1.6028076187228797e-05   4.147547338762252e-05
-9.379627553802382e-05   1.4185623697490247e-05   -1.0215746918294409e-05
-9.379627553802382e-05   1.4185623697490247e-05   -1.0215746918294409e-05
-9.379627553802382e-05   1.4185623697490247e-05   -1.0215746918294409e-05
-9.379627553802382e-05   1.4185623697490247e-05   -1.0215746918294409e-05
-9.650955680966494e-05   1.47522191592123e-05   5.270983098245013e-05
-9.650955680966494e-05   1.47522191592123e-05   5.270983098245013e-05
-9.650955680966494e-05   1.47522191592123e-05   5.270983098245013e-05
-9.650955680966494e-05   1.47522191592123e-05   5.270983098245013e-05
-6.504070271990883e-05   1.3090025868737164e-05   1.2590568071415469e-06
-6.504070271990883e-05   1.3090025868737164e-05   1.2590568071415469e-06
-6.504070271990883e-05   1.3090025868737164e-05   1.2590568071415469e-06
-6.504070271990883e-05   1.3090025868737164e-05   1.2590568071415469e-06
-7.641871042562718e-05   1.4867442600592033e-05   1.9155952944227084e-05
-7.641871042562718e-05   1.4867442600592033e-05   1.9155952944227084e-05
-7.641871042562718e-05   1.4867442600592033e-05   1.9155952944227084e-05
-7.641871042562718e-05   1.4867442600592033e-05   1.9155952944227084e-05
5.170040802257429e-05   -6.987455165020223e-06   4.392502062489849e-05
5.170040802257429e-05   -6.987455165020223e-06   4.392502062489849e-05
5.170040802257429e-05   -6.987455165020223e-06   4.392502062489849e-05
5.170040802257429e-05   -6.987455165020223e-06   4.392502062489849e-05
2.434459271286888e-05   -4.610560420567535e-06   -2.418680446058131e-07
2.434459271286888e-05   -4.610560420567535e-06   -2.418680446058131e-07
2.434459271286888e-05   -4.610560420567535e-06   -2.418680446058131e-07
2.434459271286888e-05   -4.610560420567535e-06   -2.418680446058131e-07
2.3186401386654936e-05   -8.109821974572242e-06   3.860152809710021e-05
2.3186401386654936e-05   -8.109821974572242e-06   3.860152809710021e-05
2.3186401386654936e-05   -8.109821974572242e-06   3.860152809710021e-05
2.3186401386654936e-05   -8.109821974572242e-06   3.860152809710021e-05
4.945997847874986e-05   -5.598690310741616e-06   -6.694446054689523e-06
4.945997847874986e-05   -5.598690310741616e-06   -6.694446054689523e-06
4.945997847874986e-05   -5.598690310741616e-06   -6.694446054689523e-06
4.945997847874986e-05   -5.598690310741616e-06   -6.694446054689523e-06
3.542397456008926e-05   -6.375354163723826e-06   1.7164892121534266e-05
3.542397456008926e-05   -6.375354163723826e-06   1.7164892121534266e-05
3.542397456008926e-05   -6.375354163723826e-06   1.7164892121534266e-05
3.542397456008926e-05   -6.375354163723826e-06   1.7164892121534266e-05
4.945997847874986e-05   -8.109821974571808e-06   3.7094849098802006e-05
4.945997847874986e-05   -8.109821974571808e-06   3.7094849098802006e-05
4.945997847874986e-05   -8.109821974571808e-06   3.7094849098802006e-05
4.945997847874986e-05   -8.109821974571808e-06   3.7094849098802006e-05
2.3186401386654977e-05   -5.598690310741616e-06   -5.187767056391091e-06
2.3186401386654977e-05   -5.598690310741616e-06   -5.187767056391091e-06
2.3186401386654977e-05   -5.598690310741616e-06   -5.187767056391091e-06
2.3186401386654977e-05   -5.598690310741616e-06   -5.187767056391091e-06
2.1908471710903425e-05   -8.335757976675722e-06   3.4858867025098226e-05
2.1908471710903425e-05   -8.335757976675722e-06   3.4858867025098226e-05
2.1908471710903425e-05   -8.335757976675722e-06   3.4858867025098226e-05
2.1908471710903425e-05   -8.335757976675722e-06   3.4858867025098226e-05
4.7497026335713e-05   -5.8630761172392964e-06   -9.272333131912547e-06
4.7497026335713e-05   -5.8630761172392964e-06   -9.272333131912547e-06
4.7497026335713e-05   -5.8630761172392964e-06   -9.272333131912547e-06
4.7497026335713e-05   -5.8630761172392964e-06   -9.272333131912547e-06
3.449259842937876e-05   -6.776034299687227e-06   1.2949488288113882e-05
3.449259842937876e-05   -6.776034299687227e-06   1.2949488288113882e-05
3.449259842937876e-05   -6.776034299687227e-06   1.2949488288113882e-05
3.449259842937876e-05   -6.776034299687227e-06   1.2949488288113882e-05
4.74970263357129e-05   -8.335757976675722e-06   3.337525790943685e-05
4.74970263357129e-05   -8.335757976675722e-06   3.337525790943685e-05
4.74970263357129e-05   -8.335757976675722e-06   3.337525790943685e-05
4.74970263357129e-05   -8.335757976675722e-06   3.337525790943685e-05
2.190847171090346e-05   -5.8630761172392964e-06   -7.788724016250708e-06
2.190847171090346e-05   -5.8630761172392964e-06   -7.788724016250708e-06
2.190847171090346e-05   -5.8630761172392964e-06   -7.788724016250708e-06
2.190847171090346e-05   -5.8630761172392964e-06   -7.788724016250708e-06
2.0728718877920342e-05   -8.429415933468559e-06   2.9793832530254118e-05
2.0728718877920342e-05   -8.429415933468559e-06   2.9793832530254118e-05
2.0728718877920342e-05   -8.429415933468559e-06   2.9793832530254118e-05
2.0728718877920342e-05   -8.429415933468559e-06   2.9793832530254118e-05
4.530462948391992e-05   -6.112052422506831e-06   -1.2556436586322114e-05
4.530462948391992e-05   -6.112052422506831e-06   -1.2556436586322114e-05
4.530462948391992e-05   -6.112052422506831e-06   -1.2556436586322114e-05
4.530462948391992e-05   -6.112052422506831e-06   -1.2556436586322114e-05
3.244647491285288e-05   -6.738225621156797e-06   9.249524951313558e-06
3.244647491285288e-05   -6.738225621156797e-06   9.249524951313558e-06
3.244647491285288e-05   -6.738225621156797e-06   9.249524951313558e-06
3.244647491285288e-05   -6.738225621156797e-06   9.249524951313558e-06
2.4344592712868792e-05   -1.3355629506907156e-06   4.999245516824685e-05
2.4344592712868792e-05   -1.3355629506907156e-06   4.999245516824685e-05
2.4344592712868792e-05   -1.3355629506907156e-06   4.999245516824685e-05
2.4344592712868792e-05   -1.3355629506907156e-06   4.999245516824685e-05
-1.5512229978878413e-06   -1.976823285707724e-08   7.622239147686127e-06
-1.5512229978878413e-06   -1.976823285707724e-08   7.622239147686127e-06
-1.5512229978878413e-06   -1.976823285707724e-08   7.622239147686127e-06
-1.5512229978878413e-06   -1.976823285707724e-08   7.622239147686127e-06
-2.6398430507302455e-06   -2.1320053716425424e-06   5.0082826822483214e-05
-2.6398430507302455e-06   -2.1320053716425424e-06   5.0082826822483214e-05
-2.6398430507302455e-06   -2.1320053716425424e-06   5.0082826822483214e-05
-2.6398430507302455e-06   -2.1320053716425424e-06   5.0082826822483214e-05
2.3186401386654977e-05   -8.79991421333555e-07   6.287877723322276e-06
2.3186401386654977e-05   -8.79991421333555e-07   6.287877723322276e-06
2.3186401386654977e-05   -8.79991421333555e-07   6.287877723322276e-06
2.3186401386654977e-05   -8.79991421333555e-07   6.287877723322276e-06
1.065958248409998e-05   -1.1229401521662893e-06   2.7311678466080324e-05
1.065958248409998e-05   -1.1229401521662893e-06   2.7311678466080324e-05
1.065958248409998e-05   -1.1229401521662893e-06   2.7311678466080324e-05
1.065958248409998e-05   -1.1229401521662893e-06   2.7311678466080324e-05
2.3186401386654916e-05   -2.1320053716425424e-06   4.933161845229752e-05
2.3186401386654916e-05   -2.1320053716425424e-06   4.933161845229752e-05
2.3186401386654916e-05   -2.1320053716425424e-06   4.933161845229752e-05
2.3186401386654916e-05   -2.1320053716425424e-06   4.933161845229752e-05
-2.6398430507302455e-06   -8.79991421333555e-07   7.039086093507674e-06
-2.6398430507302455e-06   -8.79991421333555e-07   7.039086093507674e-06
-2.6398430507302455e-06   -8.79991421333555e-07   7.039086093507674e-06
-2.6398430507302455e-06   -8.79991421333555e-07   7.039086093507674e-06
-3.7515259558249523e-06   -2.7243761388942925e-06   4.9332861079768274e-05
-3.7515259558249523e-06   -2.7243761388942925e-06   4.9332861079768274e-05
-3.7515259558249523e-06   -2.7243761388942925e-06   4.9332861079768274e-05
-3.7515259558249523e-06   -2.7243761388942925e-06   4.9332861079768274e-05
2.190847171090346e-05   -1.5587708952114095e-06   5.866835155677986e-06
2.190847171090346e-05   -1.5587708952114095e-06   5.866835155677986e-06
2.190847171090346e-05   -1.5587708952114095e-06   5.866835155677986e-06
2.190847171090346e-05   -1.5587708952114095e-06   5.866835155677986e-06
9.439173215946068e-06   -1.6541982894050997e-06   2.6706255750458285e-05
9.439173215946068e-06   -1.6541982894050997e-06   2.6706255750458285e-05
9.439173215946068e-06   -1.6541982894050997e-06   2.6706255750458285e-05
9.439173215946068e-06   -1.6541982894050997e-06   2.6706255750458285e-05
2.1908471710903425e-05   -2.7243761388942925e-06   4.8633497933558935e-05
2.1908471710903425e-05   -2.7243761388942925e-06   4.8633497933558935e-05
2.1908471710903425e-05   -2.7243761388942925e-06   4.8633497933558935e-05
2.1908471710903425e-05   -2.7243761388942925e-06   4.8633497933558935e-05
-3.7515259558249523e-06   -1.5587708952114095e-06   6.566198301887448e-06
-3.7515259558249523e-06   -1.5587708952114095e-06   6.566198301887448e-06
-3.7515259558249523e-06   -1.5587708952114095e-06   6.566198301887448e-06
-3.7515259558249523e-06   -1.5587708952114095e-06   6.566198301887448e-06
-4.869179427587815e-06   -3.1925531078103725e-06   4.968064587828973e-05
-4.869179427587815e-06   -3.1925531078103725e-06   4.968064587828973e-05
-4.869179427587815e-06   -3.1925531078103725e-06   4.968064587828973e-05
-4.869179427587815e-06   -3.1925531078103725e-06   4.968064587828973e-05
2.072871887792035e-05   -2.1882972914507616e-06   6.414928545960482e-06
2.072871887792035e-05   -2.1882972914507616e-06   6.414928545960482e-06
2.072871887792035e-05   -2.1882972914507616e-06   6.414928545960482e-06
2.072871887792035e-05   -2.1882972914507616e-06   6.414928545960482e-06
8.506137132621932e-06   -2.0483163109749625e-06   2.6701909533173563e-05
8.506137132621932e-06   -2.0483163109749625e-06   2.6701909533173563e-05
8.506137132621932e-06   -2.0483163109749625e-06   2.6701909533173563e-05
8.506137132621932e-06   -2.0483163109749625e-06   2.6701909533173563e-05
-1.5512229978878413e-06   4.342447513124275e-06   5.2935961562874294e-05
-1.5512229978878413e-06   4.342447513124275e-06   5.2935961562874294e-05
-1.5512229978878413e-06   4.342447513124275e-06   5.2935961562874294e-05
-1.5512229978878413e-06   4.342447513124275e-06   5.2935961562874294e-05
-2.6903832482577607e-05   4.468091050778122e-06   1.0756998544317331e-05
-2.6903832482577607e-05   4.468091050778122e-06   1.0756998544317331e-05
-2.6903832482577607e-05   4.468091050778122e-06   1.0756998544317331e-05
-2.6903832482577607e-05   4.468091050778122e-06   1.0756998544317331e-05
-2.7998071454927016e-05   3.6788622284410037e-06   5.2775742277548585e-05
-2.7998071454927016e-05   3.6788622284410037e-06   5.2775742277548585e-05
-2.7998071454927016e-05   3.6788622284410037e-06   5.2775742277548585e-05
-2.7998071454927016e-05   3.6788622284410037e-06   5.2775742277548585e-05
-2.6398430507302455e-06   3.7114303623082823e-06   1.0492487390234095e-05
-2.6398430507302455e-06   3.7114303623082823e-06   1.0492487390234095e-05
-2.6398430507302455e-06   3.7114303623082823e-06   1.0492487390234095e-05
-2.6398430507302455e-06   3.7114303623082823e-06   1.0492487390234095e-05
-1.4811636070131276e-05   3.979885587799582e-06   3.061773595394051e-05
-1.4811636070131276e-05   3.979885587799582e-06   3.061773595394051e-05
-1.4811636070131276e-05   3.979885587799582e-06   3.061773595394051e-05
-1.4811636070131276e-05   3.979885587799582e-06   3.061773595394051e-05
-2.6398430507302455e-06   3.6788622284410037e-06   5.2756201397228695e-05
-2.6398430507302455e-06   3.6788622284410037e-06   5.2756201397228695e-05
-2.6398430507302455e-06   3.6788622284410037e-06   5.2756201397228695e-05
-2.6398430507302455e-06   3.6788622284410037e-06   5.2756201397228695e-05
-2.7998071454927016e-05   3.7114303623082823e-06   1.0512028270554148e-05
-2.7998071454927016e-05   3.7114303623082823e-06   1.0512028270554148e-05
-2.7998071454927016e-05   3.7114303623082823e-06   1.0512028270554148e-05
-2.7998071454927016e-05   3.7114303623082823e-06   1.0512028270554148e-05
-2.9119766911783512e-05   3.0344832075398023e-06   5.306643227034609e-05
-2.9119766911783512e-05   3.0344832075398023e-06   5.306643227034609e-05
-2.9119766911783512e-05   3.0344832075398023e-06   5.306643227034609e-05
-2.9119766911783512e-05   3.0344832075398023e-06   5.306643227034609e-05
-3.7515259558249523e-06   2.9667415685956725e-06   1.082667566044813e-05
-3.7515259558249523e-06   2.9667415685956725e-06   1.082667566044813e-05
-3.7515259558249523e-06   2.9667415685956725e-06   1.082667566044813e-05
-3.7515259558249523e-06   2.9667415685956725e-06   1.082667566044813e-05
-1.5827817000966266e-05   3.4707873892269453e-06   3.065139990997257e-05
-1.5827817000966266e-05   3.4707873892269453e-06   3.065139990997257e-05
-1.5827817000966266e-05   3.4707873892269453e-06   3.065139990997257e-05
-1.5827817000966266e-05   3.4707873892269453e-06   3.065139990997257e-05
-3.7515259558249523e-06   3.0344832075393686e-06   5.310707725371248e-05
-3.7515259558249523e-06   3.0344832075393686e-06   5.310707725371248e-05
-3.7515259558249523e-06   3.0344832075393686e-06   5.310707725371248e-05
-3.7515259558249523e-06   3.0344832075393686e-06   5.310707725371248e-05
-2.9119766911783512e-05   2.9667415685956725e-06   1.0786030677081577e-05
-2.9119766911783512e-05   2.9667415685956725e-06   1.0786030677081577e-05
-2.9119766911783512e-05   2.9667415685956725e-06   1.0786030677081577e-05
-2.9119766911783512e-05   2.9667415685956725e-06   1.0786030677081577e-05
-3.024113594720038e-05   2.4608557641857785e-06   5.3728649839056546e-05
-3.024113594720038e-05   2.4608557641857785e-06   5.3728649839056546e-05
-3.024113594720038e-05   2.4608557641857785e-06   5.3728649839056546e-05
-3.024113594720038e-05   2.4608557641857785e-06   5.3728649839056546e-05
-4.869179427587815e-06   2.2600325002299602e-06   1.1562549598076097e-05
-4.869179427587815e-06   2.2600325002299602e-06   1.1562549598076097e-05
-4.869179427587815e-06   2.2600325002299602e-06   1.1562549598076097e-05
-4.869179427587815e-06   2.2600325002299602e-06   1.1562549598076097e-05
-1.6891555436989545e-05   2.9746035444199424e-06   3.1171100320565525e-05
-1.6891555436989545e-05   2.9746035444199424e-06   3.1171100320565525e-05
-1.6891555436989545e-05   2.9746035444199424e-06   3.1171100320565525e-05
-1.6891555436989545e-05   2.9746035444199424e-06   3.1171100320565525e-05
-2.6903832482577525e-05   9.865372813230768e-06   4.6557170119029346e-05
-2.6903832482577525e-05   9.865372813230768e-06   4.6557170119029346e-05
-2.6903832482577525e-05   9.865372813230768e-06   4.6557170119029346e-05
-2.6903832482577525e-05   9.865372813230768e-06   4.6557170119029346e-05
-5.168962236239518e-05   8.785759847662958e-06   4.59975253999244e-06
-5.168962236239518e-05   8.785759847662958e-06   4.59975253999244e-06
-5.168962236239518e-05   8.785759847662958e-06   4.59975253999244e-06
-5.168962236239518e-05   8.785759847662958e-06   4.59975253999244e-06
-5.286684129710646e-05   9.230934634165897e-06   4.625009847348052e-05
-5.286684129710646e-05   9.230934634165897e-06   4.625009847348052e-05
-5.286684129710646e-05   9.230934634165897e-06   4.625009847348052e-05
-5.286684129710646e-05   9.230934634165897e-06   4.625009847348052e-05
-2.7998071454927098e-05   8.060407162288966e-06   5.504465219640731e-06
-2.7998071454927098e-05   8.060407162288966e-06   5.504465219640731e-06
-2.7998071454927098e-05   8.060407162288966e-06   5.504465219640731e-06
-2.7998071454927098e-05   8.060407162288966e-06   5.504465219640731e-06
-3.973307065991727e-05   8.869298935950103e-06   2.4577462163761273e-05
-3.973307065991727e-05   8.869298935950103e-06   2.4577462163761273e-05
-3.973307065991727e-05   8.869298935950103e-06   2.4577462163761273e-05
-3.973307065991727e-05   8.869298935950103e-06   2.4577462163761273e-05
-2.7998071454927016e-05   9.230934634165897e-06   4.695241495660668e-05
-2.7998071454927016e-05   9.230934634165897e-06   4.695241495660668e-05
-2.7998071454927016e-05   9.230934634165897e-06   4.695241495660668e-05
-2.7998071454927016e-05   9.230934634165897e-06   4.695241495660668e-05
-5.286684129710646e-05   8.060407162288966e-06   4.802148736514789e-06
-5.286684129710646e-05   8.060407162288966e-06   4.802148736514789e-06
-5.286684129710646e-05   8.060407162288966e-06   4.802148736514789e-06
-5.286684129710646e-05   8.060407162288966e-06   4.802148736514789e-06
-5.4163112710697034e-05   8.64671159998831e-06   4.7983136764703435e-05
-5.4163112710697034e-05   8.64671159998831e-06   4.7983136764703435e-05
-5.4163112710697034e-05   8.64671159998831e-06   4.7983136764703435e-05
-5.4163112710697034e-05   8.64671159998831e-06   4.7983136764703435e-05
-2.9119766911783594e-05   7.385219271349719e-06   7.001122497031151e-06
-2.9119766911783594e-05   7.385219271349719e-06   7.001122497031151e-06
-2.9119766911783594e-05   7.385219271349719e-06   7.001122497031151e-06
-2.9119766911783594e-05   7.385219271349719e-06   7.001122497031151e-06
-4.057952593877645e-05   8.405907557060277e-06   2.5488307903927016e-05
-4.057952593877645e-05   8.405907557060277e-06   2.5488307903927016e-05
-4.057952593877645e-05   8.405907557060277e-06   2.5488307903927016e-05
-4.057952593877645e-05   8.405907557060277e-06   2.5488307903927016e-05
-2.9119766911783594e-05   8.64671159998831e-06   4.8740032161886894e-05
-2.9119766911783594e-05   8.64671159998831e-06   4.8740032161886894e-05
-2.9119766911783594e-05   8.64671159998831e-06   4.8740032161886894e-05
-2.9119766911783594e-05   8.64671159998831e-06   4.8740032161886894e-05
-5.4163112710697034e-05   7.385219271349719e-06   6.244227099847909e-06
-5.4163112710697034e-05   7.385219271349719e-06   6.244227099847909e-06
-5.4163112710697034e-05   7.385219271349719e-06   6.244227099847909e-06
-5.4163112710697034e-05   7.385219271349719e-06   6.244227099847909e-06
-5.5348765158550275e-05   7.933836238973365e-06   4.9288895666661694e-05
-5.5348765158550275e-05   7.933836238973365e-06   4.9288895666661694e-05
-5.5348765158550275e-05   7.933836238973365e-06   4.9288895666661694e-05
-5.5348765158550275e-05   7.933836238973365e-06   4.9288895666661694e-05
-3.0241135947200407e-05   6.5995652795101944e-06   8.243409556756519e-06
-3.0241135947200407e-05   6.5995652795101944e-06   8.243409556756519e-06
-3.0241135947200407e-05   6.5995652795101944e-06   8.243409556756519e-06
-3.0241135947200407e-05   6.5995652795101944e-06   8.243409556756519e-06
-4.192332796712095e-05   7.883943317778686e-06   2.6943102766998337e-05
-4.192332796712095e-05   7.883943317778686e-06   2.6943102766998337e-05
-4.192332796712095e-05   7.883943317778686e-06   2.6943102766998337e-05
-4.192332796712095e-05   7.883943317778686e-06   2.6943102766998337e-05
-5.168962236239518e-05   1.419611249541073e-05   2.2500702743624744e-05
-5.168962236239518e-05   1.419611249541073e-05   2.2500702743624744e-05
-5.168962236239518e-05   1.419611249541073e-05   2.2500702743624744e-05
-5.168962236239518e-05   1.419611249541073e-05   2.2500702743624744e-05
-7.52103196933396e-05   1.2099408545048276e-05   -1.7958481844833232e-05
-7.52103196933396e-05   1.2099408545048276e-05   -1.7958481844833232e-05
-7.52103196933396e-05   1.2099408545048276e-05   -1.7958481844833232e-05
-7.52103196933396e-05   1.2099408545048276e-05   -1.7958481844833232e-05
-7.732519457539697e-05   1.4344196546711967e-05   2.9880195522819213e-05
-7.732519457539697e-05   1.4344196546711967e-05   2.9880195522819213e-05
-7.732519457539697e-05   1.4344196546711967e-05   2.9880195522819213e-05
-7.732519457539697e-05   1.4344196546711967e-05   2.9880195522819213e-05
-5.286684129710646e-05   1.203631118575901e-05   -9.498995391093697e-06
-5.286684129710646e-05   1.203631118575901e-05   -9.498995391093697e-06
-5.286684129710646e-05   1.203631118575901e-05   -9.498995391093697e-06
-5.286684129710646e-05   1.203631118575901e-05   -9.498995391093697e-06
-6.182808388037914e-05   1.297716353562033e-05   4.87189750444407e-06
-6.182808388037914e-05   1.297716353562033e-05   4.87189750444407e-06
-6.182808388037914e-05   1.297716353562033e-05   4.87189750444407e-06
-6.182808388037914e-05   1.297716353562033e-05   4.87189750444407e-06
-5.286684129710641e-05   1.4344196546711967e-05   3.1264926739391205e-05
-5.286684129710641e-05   1.4344196546711967e-05   3.1264926739391205e-05
-5.286684129710641e-05   1.4344196546711967e-05   3.1264926739391205e-05
-5.286684129710641e-05   1.4344196546711967e-05   3.1264926739391205e-05
-7.732519457539708e-05   1.203631118575901e-05   -1.0883726607665363e-05
-7.732519457539708e-05   1.203631118575901e-05   -1.0883726607665363e-05
-7.732519457539708e-05   1.203631118575901e-05   -1.0883726607665363e-05
-7.732519457539708e-05   1.203631118575901e-05   -1.0883726607665363e-05
-7.921949992446695e-05   1.4185623697489814e-05   3.585048164486335e-05
-7.921949992446695e-05   1.4185623697489814e-05   3.585048164486335e-05
-7.921949992446695e-05   1.4185623697489814e-05   3.585048164486335e-05
-7.921949992446695e-05   1.4185623697489814e-05   3.585048164486335e-05
-5.4163112710697034e-05   1.1790170022490248e-05   -4.472891506420492e-06
-5.4163112710697034e-05   1.1790170022490248e-05   -4.472891506420492e-06
-5.4163112710697034e-05   1.1790170022490248e-05   -4.472891506420492e-06
-5.4163112710697034e-05   1.1790170022490248e-05   -4.472891506420492e-06
-6.425516782097634e-05   1.3119531460522964e-05   1.1549583481227548e-05
-6.425516782097634e-05   1.3119531460522964e-05   1.1549583481227548e-05
-6.425516782097634e-05   1.3119531460522964e-05   1.1549583481227548e-05
-6.425516782097634e-05   1.3119531460522964e-05   1.1549583481227548e-05
-5.4163112710697034e-05   1.4185623697490247e-05   3.728775384986317e-05
-5.4163112710697034e-05   1.4185623697490247e-05   3.728775384986317e-05
-5.4163112710697034e-05   1.4185623697490247e-05   3.728775384986317e-05
-5.4163112710697034e-05   1.4185623697490247e-05   3.728775384986317e-05
-7.921949992446706e-05   1.1790170022490248e-05   -5.910163711420535e-06
-7.921949992446706e-05   1.1790170022490248e-05   -5.910163711420535e-06
-7.921949992446706e-05   1.1790170022490248e-05   -5.910163711420535e-06
-7.921949992446706e-05   1.1790170022490248e-05   -5.910163711420535e-06
-8.139686760255628e-05   1.3090025868737164e-05   4.612618301814194e-05
-8.139686760255628e-05   1.3090025868737164e-05   4.612618301814194e-05
-8.139686760255628e-05   1.3090025868737164e-05   4.612618301814194e-05
-8.139686760255628e-05   1.3090025868737164e-05   4.612618301814194e-05
-5.5348765158550275e-05   1.0706472783198525e-05   4.142810796121921e-06
-5.5348765158550275e-05   1.0706472783198525e-05   4.142810796121921e-06
-5.5348765158550275e-05   1.0706472783198525e-05   4.142810796121921e-06
-5.5348765158550275e-05   1.0706472783198525e-05   4.142810796121921e-06
-6.478021145328765e-05   1.2670463802961097e-05   1.8683493342160984e-05
-6.478021145328765e-05   1.2670463802961097e-05   1.8683493342160984e-05
-6.478021145328765e-05   1.2670463802961097e-05   1.8683493342160984e-05
-6.478021145328765e-05   1.2670463802961097e-05   1.8683493342160984e-05
3.556362421356518e-05   -4.610560420567969e-06   3.5719663669235915e-05
3.556362421356518e-05   -4.610560420567969e-06   3.5719663669235915e-05
3.556362421356518e-05   -4.610560420567969e-06   3.5719663669235915e-05
3.556362421356518e-05   -4.610560420567969e-06   3.5719663669235915e-05
1.4753191303129004e-05   -2.258306951949743e-06   2.4469608996796188e-06
1.4753191303129004e-05   -2.258306951949743e-06   2.4469608996796188e-06
1.4753191303129004e-05   -2.258306951949743e-06   2.4469608996796188e-06
1.4753191303129004e-05   -2.258306951949743e-06   2.4469608996796188e-06
1.3822407446440388e-05   -5.598690310741616e-06   3.212171511711589e-05
1.3822407446440388e-05   -5.598690310741616e-06   3.212171511711589e-05
1.3822407446440388e-05   -5.598690310741616e-06   3.212171511711589e-05
1.3822407446440388e-05   -5.598690310741616e-06   3.212171511711589e-05
3.3583302043643955e-05   -3.1411881673995383e-06   -2.2876104975619684e-06
3.3583302043643955e-05   -3.1411881673995383e-06   -2.2876104975619684e-06
3.3583302043643955e-05   -3.1411881673995383e-06   -2.2876104975619684e-06
3.3583302043643955e-05   -3.1411881673995383e-06   -2.2876104975619684e-06
2.3214704794282697e-05   -3.996496282086641e-06   1.55065697868531e-05
2.3214704794282697e-05   -3.996496282086641e-06   1.55065697868531e-05
2.3214704794282697e-05   -3.996496282086641e-06   1.55065697868531e-05
2.3214704794282697e-05   -3.996496282086641e-06   1.55065697868531e-05
3.358330204364402e-05   -5.598690310741616e-06   3.064721383111099e-05
3.358330204364402e-05   -5.598690310741616e-06   3.064721383111099e-05
3.358330204364402e-05   -5.598690310741616e-06   3.064721383111099e-05
3.358330204364402e-05   -5.598690310741616e-06   3.064721383111099e-05
1.382240744644034e-05   -3.1411881673995383e-06   -8.131092115567975e-07
1.382240744644034e-05   -3.1411881673995383e-06   -8.131092115567975e-07
1.382240744644034e-05   -3.1411881673995383e-06   -8.131092115567975e-07
1.382240744644034e-05   -3.1411881673995383e-06   -8.131092115567975e-07
1.277749459577188e-05   -5.8630761172392964e-06   2.9448938197597146e-05
1.277749459577188e-05   -5.8630761172392964e-06   2.9448938197597146e-05
1.277749459577188e-05   -5.8630761172392964e-06   2.9448938197597146e-05
1.277749459577188e-05   -5.8630761172392964e-06   2.9448938197597146e-05
3.188383660233989e-05   -3.4456538318813554e-06   -3.845418517897545e-06
3.188383660233989e-05   -3.4456538318813554e-06   -3.845418517897545e-06
3.188383660233989e-05   -3.4456538318813554e-06   -3.845418517897545e-06
3.188383660233989e-05   -3.4456538318813554e-06   -3.845418517897545e-06
2.2331282887902787e-05   -4.370792264680578e-06   1.2630587399177929e-05
2.2331282887902787e-05   -4.370792264680578e-06   1.2630587399177929e-05
2.2331282887902787e-05   -4.370792264680578e-06   1.2630587399177929e-05
2.2331282887902787e-05   -4.370792264680578e-06   1.2630587399177929e-05
3.188383660233994e-05   -5.8630761172392964e-06   2.7998484826382165e-05
3.188383660233994e-05   -5.8630761172392964e-06   2.7998484826382165e-05
3.188383660233994e-05   -5.8630761172392964e-06   2.7998484826382165e-05
3.188383660233994e-05   -5.8630761172392964e-06   2.7998484826382165e-05
1.277749459577186e-05   -3.4456538318813554e-06   -2.394965146683024e-06
1.277749459577186e-05   -3.4456538318813554e-06   -2.394965146683024e-06
1.277749459577186e-05   -3.4456538318813554e-06   -2.394965146683024e-06
1.277749459577186e-05   -3.4456538318813554e-06   -2.394965146683024e-06
1.184104694484797e-05   -6.112052422506831e-06   2.598226063655327e-05
1.184104694484797e-05   -6.112052422506831e-06   2.598226063655327e-05
1.184104694484797e-05   -6.112052422506831e-06   2.598226063655327e-05
1.184104694484797e-05   -6.112052422506831e-06   2.598226063655327e-05
2.995714373391489e-05   -3.849851882508758e-06   -5.568554335890353e-06
2.995714373391489e-05   -3.849851882508758e-06   -5.568554335890353e-06
2.995714373391489e-05   -3.849851882508758e-06   -5.568554335890353e-06
2.995714373391489e-05   -3.849851882508758e-06   -5.568554335890353e-06
2.0702366089035195e-05   -4.445318637623288e-06   1.0213355125310904e-05
2.0702366089035195e-05   -4.445318637623288e-06   1.0213355125310904e-05
2.0702366089035195e-05   -4.445318637623288e-06   1.0213355125310904e-05
2.0702366089035195e-05   -4.445318637623288e-06   1.0213355125310904e-05
1.4753191303129051e-05   -1.976823285707724e-08   4.420564611199839e-05
1.4753191303129051e-05   -1.976823285707724e-08   4.420564611199839e-05
1.4753191303129051e-05   -1.976823285707724e-08   4.420564611199839e-05
1.4753191303129051e-05   -1.976823285707724e-08   4.420564611199839e-05
-4.779644160889752e-06   1.1729517384925087e-06   1.2366552321443772e-05
-4.779644160889752e-06   1.1729517384925087e-06   1.2366552321443772e-05
-4.779644160889752e-06   1.1729517384925087e-06   1.2366552321443772e-05
-4.779644160889752e-06   1.1729517384925087e-06   1.2366552321443772e-05
-5.634689327537807e-06   -8.79991421333555e-07   4.429228112928134e-05
-5.634689327537807e-06   -8.79991421333555e-07   4.429228112928134e-05
-5.634689327537807e-06   -8.79991421333555e-07   4.429228112928134e-05
-5.634689327537807e-06   -8.79991421333555e-07   4.429228112928134e-05
1.382240744644034e-05   2.7821063275325006e-07   1.1168865273532565e-05
1.382240744644034e-05   2.7821063275325006e-07   1.1168865273532565e-05
1.382240744644034e-05   2.7821063275325006e-07   1.1168865273532565e-05
1.382240744644034e-05   2.7821063275325006e-07   1.1168865273532565e-05
4.401244277512041e-06   6.122354920690826e-08   2.7000996138541668e-05
4.401244277512041e-06   6.122354920690826e-08   2.7000996138541668e-05
4.401244277512041e-06   6.122354920690826e-08   2.7000996138541668e-05
4.401244277512041e-06   6.122354920690826e-08   2.7000996138541668e-05
1.3822407446440374e-05   -8.799914213331213e-07   4.359735989682939e-05
1.3822407446440374e-05   -8.799914213331213e-07   4.359735989682939e-05
1.3822407446440374e-05   -8.799914213331213e-07   4.359735989682939e-05
1.3822407446440374e-05   -8.799914213331213e-07   4.359735989682939e-05
-5.634689327537834e-06   2.7821063275325006e-07   1.1863786505984667e-05
-5.634689327537834e-06   2.7821063275325006e-07   1.1863786505984667e-05
-5.634689327537834e-06   2.7821063275325006e-07   1.1863786505984667e-05
-5.634689327537834e-06   2.7821063275325006e-07   1.1863786505984667e-05
-6.508798500317638e-06   -1.5587708952114095e-06   4.376698599262933e-05
-6.508798500317638e-06   -1.5587708952114095e-06   4.376698599262933e-05
-6.508798500317638e-06   -1.5587708952114095e-06   4.376698599262933e-05
-6.508798500317638e-06   -1.5587708952114095e-06   4.376698599262933e-05
1.277749459577186e-05   -4.546231900390621e-07   1.0960675542710052e-05
1.277749459577186e-05   -4.546231900390621e-07   1.0960675542710052e-05
1.277749459577186e-05   -4.546231900390621e-07   1.0960675542710052e-05
1.277749459577186e-05   -4.546231900390621e-07   1.0960675542710052e-05
3.461663358920843e-06   -5.359674280472522e-07   2.6535867480268448e-05
3.461663358920843e-06   -5.359674280472522e-07   2.6535867480268448e-05
3.461663358920843e-06   -5.359674280472522e-07   2.6535867480268448e-05
3.461663358920843e-06   -5.359674280472522e-07   2.6535867480268448e-05
1.27774945957719e-05   -1.5587708952114095e-06   4.3104497369525745e-05
1.27774945957719e-05   -1.5587708952114095e-06   4.3104497369525745e-05
1.27774945957719e-05   -1.5587708952114095e-06   4.3104497369525745e-05
1.27774945957719e-05   -1.5587708952114095e-06   4.3104497369525745e-05
-6.508798500317665e-06   -4.546231900390621e-07   1.1623164165813858e-05
-6.508798500317665e-06   -4.546231900390621e-07   1.1623164165813858e-05
-6.508798500317665e-06   -4.546231900390621e-07   1.1623164165813858e-05
-6.508798500317665e-06   -4.546231900390621e-07   1.1623164165813858e-05
-7.375478286975078e-06   -2.1882972914507616e-06   4.416957732728184e-05
-7.375478286975078e-06   -2.1882972914507616e-06   4.416957732728184e-05
-7.375478286975078e-06   -2.1882972914507616e-06   4.416957732728184e-05
-7.375478286975078e-06   -2.1882972914507616e-06   4.416957732728184e-05
1.1841046944847922e-05   -1.1776811830789026e-06   1.1535665609220373e-05
1.1841046944847922e-05   -1.1776811830789026e-06   1.1535665609220373e-05
1.1841046944847922e-05   -1.1776811830789026e-06   1.1535665609220373e-05
1.1841046944847922e-05   -1.1776811830789026e-06   1.1535665609220373e-05
2.7185488259726207e-06   -1.0346915495741335e-06   2.6654035360576533e-05
2.7185488259726207e-06   -1.0346915495741335e-06   2.6654035360576533e-05
2.7185488259726207e-06   -1.0346915495741335e-06   2.6654035360576533e-05
2.7185488259726207e-06   -1.0346915495741335e-06   2.6654035360576533e-05
-4.779644160889725e-06   4.468091050778122e-06   4.798065136884708e-05
-4.779644160889725e-06   4.468091050778122e-06   4.798065136884708e-05
-4.779644160889725e-06   4.468091050778122e-06   4.798065136884708e-05
-4.779644160889725e-06   4.468091050778122e-06   4.798065136884708e-05
-2.3992460446846473e-05   4.394613407612477e-06   1.5915204306353112e-05
-2.3992460446846473e-05   4.394613407612477e-06   1.5915204306353112e-05
-2.3992460446846473e-05   4.394613407612477e-06   1.5915204306353112e-05
-2.3992460446846473e-05   4.394613407612477e-06   1.5915204306353112e-05
-2.4835786279639883e-05   3.7114303623082823e-06   4.766729821264397e-05
-2.4835786279639883e-05   3.7114303623082823e-06   4.766729821264397e-05
-2.4835786279639883e-05   3.7114303623082823e-06   4.766729821264397e-05
-2.4835786279639883e-05   3.7114303623082823e-06   4.766729821264397e-05
-5.634689327537807e-06   3.5807900067024064e-06   1.5743854172504024e-05
-5.634689327537807e-06   3.5807900067024064e-06   1.5743854172504024e-05
-5.634689327537807e-06   3.5807900067024064e-06   1.5743854172504024e-05
-5.634689327537807e-06   3.5807900067024064e-06   1.5743854172504024e-05
-1.4847513523742195e-05   3.939183919368129e-06   3.088352481857954e-05
-1.4847513523742195e-05   3.939183919368129e-06   3.088352481857954e-05
-1.4847513523742195e-05   3.939183919368129e-06   3.088352481857954e-05
-1.4847513523742195e-05   3.939183919368129e-06   3.088352481857954e-05
-5.634689327537807e-06   3.7114303623078486e-06   4.774568242600749e-05
-5.634689327537807e-06   3.7114303623078486e-06   4.774568242600749e-05
-5.634689327537807e-06   3.7114303623078486e-06   4.774568242600749e-05
-5.634689327537807e-06   3.7114303623078486e-06   4.774568242600749e-05
-2.4835786279639883e-05   3.5807900067024064e-06   1.5665469959140824e-05
-2.4835786279639883e-05   3.5807900067024064e-06   1.5665469959140824e-05
-2.4835786279639883e-05   3.5807900067024064e-06   1.5665469959140824e-05
-2.4835786279639883e-05   3.5807900067024064e-06   1.5665469959140824e-05
-2.5699496882693098e-05   2.9667415685956725e-06   4.7913184831253506e-05
-2.5699496882693098e-05   2.9667415685956725e-06   4.7913184831253506e-05
-2.5699496882693098e-05   2.9667415685956725e-06   4.7913184831253506e-05
-2.5699496882693098e-05   2.9667415685956725e-06   4.7913184831253506e-05
-6.508798500317638e-06   2.776277368702132e-06   1.604296604723089e-05
-6.508798500317638e-06   2.776277368702132e-06   1.604296604723089e-05
-6.508798500317638e-06   2.776277368702132e-06   1.604296604723089e-05
-6.508798500317638e-06   2.776277368702132e-06   1.604296604723089e-05
-1.5620111400705734e-05   3.3481665686870346e-06   3.088535402788776e-05
-1.5620111400705734e-05   3.3481665686870346e-06   3.088535402788776e-05
-1.5620111400705734e-05   3.3481665686870346e-06   3.088535402788776e-05
-1.5620111400705734e-05   3.3481665686870346e-06   3.088535402788776e-05
-6.508798500317665e-06   2.9667415685956725e-06   4.802746335118985e-05
-6.508798500317665e-06   2.9667415685956725e-06   4.802746335118985e-05
-6.508798500317665e-06   2.9667415685956725e-06   4.802746335118985e-05
-6.508798500317665e-06   2.9667415685956725e-06   4.802746335118985e-05
-2.5699496882693098e-05   2.776277368702132e-06   1.5928687527294767e-05
-2.5699496882693098e-05   2.776277368702132e-06   1.5928687527294767e-05
-2.5699496882693098e-05   2.776277368702132e-06   1.5928687527294767e-05
-2.5699496882693098e-05   2.776277368702132e-06   1.5928687527294767e-05
-2.6553254660120968e-05   2.2600325002299602e-06   4.855960661991391e-05
-2.6553254660120968e-05   2.2600325002299602e-06   4.855960661991391e-05
-2.6553254660120968e-05   2.2600325002299602e-06   4.855960661991391e-05
-2.6553254660120968e-05   2.2600325002299602e-06   4.855960661991391e-05
-7.375478286975051e-06   2.0016353841165874e-06   1.675168426767211e-05
-7.375478286975051e-06   2.0016353841165874e-06   1.675168426767211e-05
-7.375478286975051e-06   2.0016353841165874e-06   1.675168426767211e-05
-7.375478286975051e-06   2.0016353841165874e-06   1.675168426767211e-05
-1.6428108847523144e-05   2.7709571675266914e-06   3.137780879853918e-05
-1.6428108847523144e-05   2.7709571675266914e-06   3.137780879853918e-05
-1.6428108847523144e-05   2.7709571675266914e-06   3.137780879853918e-05
-1.6428108847523144e-05   2.7709571675266914e-06   3.137780879853918e-05
-2.3992460446846473e-05   8.785759847662958e-06   4.2427086557963534e-05
-2.3992460446846473e-05   8.785759847662958e-06   4.2427086557963534e-05
-2.3992460446846473e-05   8.785759847662958e-06   4.2427086557963534e-05
-2.3992460446846473e-05   8.785759847662958e-06   4.2427086557963534e-05
-4.2877045572442876e-05   7.5281645209698995e-06   1.0198220819287117e-05
-4.2877045572442876e-05   7.5281645209698995e-06   1.0198220819287117e-05
-4.2877045572442876e-05   7.5281645209698995e-06   1.0198220819287117e-05
-4.2877045572442876e-05   7.5281645209698995e-06   1.0198220819287117e-05
-4.378136085321266e-05   8.060407162288966e-06   4.1863042718147435e-05
-4.378136085321266e-05   8.060407162288966e-06   4.1863042718147435e-05
-4.378136085321266e-05   8.060407162288966e-06   4.1863042718147435e-05
-4.378136085321266e-05   8.060407162288966e-06   4.1863042718147435e-05
-2.4835786279639774e-05   6.732586422983702e-06   1.1083777539109435e-05
-2.4835786279639774e-05   6.732586422983702e-06   1.1083777539109435e-05
-2.4835786279639774e-05   6.732586422983702e-06   1.1083777539109435e-05
-2.4835786279639774e-05   6.732586422983702e-06   1.1083777539109435e-05
-3.377613440128571e-05   7.64533516973108e-06   2.5436708493805282e-05
-3.377613440128571e-05   7.64533516973108e-06   2.5436708493805282e-05
-3.377613440128571e-05   7.64533516973108e-06   2.5436708493805282e-05
-3.377613440128571e-05   7.64533516973108e-06   2.5436708493805282e-05
-2.4835786279639883e-05   8.060407162288966e-06   4.2659735161730983e-05
-2.4835786279639883e-05   8.060407162288966e-06   4.2659735161730983e-05
-2.4835786279639883e-05   8.060407162288966e-06   4.2659735161730983e-05
-2.4835786279639883e-05   8.060407162288966e-06   4.2659735161730983e-05
-4.3781360853212606e-05   6.732586422983702e-06   1.0287085095526537e-05
-4.3781360853212606e-05   6.732586422983702e-06   1.0287085095526537e-05
-4.3781360853212606e-05   6.732586422983702e-06   1.0287085095526537e-05
-4.3781360853212606e-05   6.732586422983702e-06   1.0287085095526537e-05
-4.479938348526572e-05   7.385219271349719e-06   4.329537244060055e-05
-4.479938348526572e-05   7.385219271349719e-06   4.329537244060055e-05
-4.479938348526572e-05   7.385219271349719e-06   4.329537244060055e-05
-4.479938348526572e-05   7.385219271349719e-06   4.329537244060055e-05
-2.5699496882693044e-05   5.997045587012237e-06   1.229513231358197e-05
-2.5699496882693044e-05   5.997045587012237e-06   1.229513231358197e-05
-2.5699496882693044e-05   5.997045587012237e-06   1.229513231358197e-05
-2.5699496882693044e-05   5.997045587012237e-06   1.229513231358197e-05
-3.440380671678424e-05   7.103127155687946e-06   2.6138666429195993e-05
-3.440380671678424e-05   7.103127155687946e-06   2.6138666429195993e-05
-3.440380671678424e-05   7.103127155687946e-06   2.6138666429195993e-05
-3.440380671678424e-05   7.103127155687946e-06   2.6138666429195993e-05
-2.5699496882693098e-05   7.385219271349719e-06   4.412827665120265e-05
-2.5699496882693098e-05   7.385219271349719e-06   4.412827665120265e-05
-2.5699496882693098e-05   7.385219271349719e-06   4.412827665120265e-05
-2.5699496882693098e-05   7.385219271349719e-06   4.412827665120265e-05
-4.479938348526561e-05   5.997045587011803e-06   1.1462228102979491e-05
-4.479938348526561e-05   5.997045587011803e-06   1.1462228102979491e-05
-4.479938348526561e-05   5.997045587011803e-06   1.1462228102979491e-05
-4.479938348526561e-05   5.997045587011803e-06   1.1462228102979491e-05
-4.570494686951588e-05   6.5995652795101944e-06   4.450646331068727e-05
-4.570494686951588e-05   6.5995652795101944e-06   4.450646331068727e-05
-4.570494686951588e-05   6.5995652795101944e-06   4.450646331068727e-05
-4.570494686951588e-05   6.5995652795101944e-06   4.450646331068727e-05
-2.6553254660120914e-05   5.175403235709204e-06   1.3441473521309723e-05
-2.6553254660120914e-05   5.175403235709204e-06   1.3441473521309723e-05
-2.6553254660120914e-05   5.175403235709204e-06   1.3441473521309723e-05
-2.6553254660120914e-05   5.175403235709204e-06   1.3441473521309723e-05
-3.54234255142767e-05   6.533113486590324e-06   2.741046546104152e-05
-3.54234255142767e-05   6.533113486590324e-06   2.741046546104152e-05
-3.54234255142767e-05   6.533113486590324e-06   2.741046546104152e-05
-3.54234255142767e-05   6.533113486590324e-06   2.741046546104152e-05
-4.2877045572442876e-05   1.209940854504871e-05   2.0372317347339434e-05
-4.2877045572442876e-05   1.209940854504871e-05   2.0372317347339434e-05
-4.2877045572442876e-05   1.209940854504871e-05   2.0372317347339434e-05
-4.2877045572442876e-05   1.209940854504871e-05   2.0372317347339434e-05
-6.056786186181887e-05   9.865779215788208e-06   -1.0452554065843323e-05
-6.056786186181887e-05   9.865779215788208e-06   -1.0452554065843323e-05
-6.056786186181887e-05   9.865779215788208e-06   -1.0452554065843323e-05
-6.056786186181887e-05   9.865779215788208e-06   -1.0452554065843323e-05
-6.245746865764321e-05   1.2036311185759443e-05   2.610549540964669e-05
-6.245746865764321e-05   1.2036311185759443e-05   2.610549540964669e-05
-6.245746865764321e-05   1.2036311185759443e-05   2.610549540964669e-05
-6.245746865764321e-05   1.2036311185759443e-05   2.610549540964669e-05
-4.37813608532125e-05   9.60897255093858e-06   -3.5649477501783133e-06
-4.37813608532125e-05   9.60897255093858e-06   -3.5649477501783133e-06
-4.37813608532125e-05   9.60897255093858e-06   -3.5649477501783133e-06
-4.37813608532125e-05   9.60897255093858e-06   -3.5649477501783133e-06
-5.045676050019924e-05   1.0705239876095292e-05   6.902957933039677e-06
-5.045676050019924e-05   1.0705239876095292e-05   6.902957933039677e-06
-5.045676050019924e-05   1.0705239876095292e-05   6.902957933039677e-06
-5.045676050019924e-05   1.0705239876095292e-05   6.902957933039677e-06
-4.3781360853212606e-05   1.2036311185759443e-05   2.7561898590539383e-05
-4.3781360853212606e-05   1.2036311185759443e-05   2.7561898590539383e-05
-4.3781360853212606e-05   1.2036311185759443e-05   2.7561898590539383e-05
-4.3781360853212606e-05   1.2036311185759443e-05   2.7561898590539383e-05
-6.245746865764332e-05   9.608972550939014e-06   -5.02135093107068e-06
-6.245746865764332e-05   9.608972550939014e-06   -5.02135093107068e-06
-6.245746865764332e-05   9.608972550939014e-06   -5.02135093107068e-06
-6.245746865764332e-05   9.608972550939014e-06   -5.02135093107068e-06
-6.410691082747038e-05   1.1790170022490248e-05   3.1082524869958245e-05
-6.410691082747038e-05   1.1790170022490248e-05   3.1082524869958245e-05
-6.410691082747038e-05   1.1790170022490248e-05   3.1082524869958245e-05
-6.410691082747038e-05   1.1790170022490248e-05   3.1082524869958245e-05
-4.479938348526556e-05   9.297288415200701e-06   3.990415973239951e-07
-4.479938348526556e-05   9.297288415200701e-06   3.990415973239951e-07
-4.479938348526556e-05   9.297288415200701e-06   3.990415973239951e-07
-4.479938348526556e-05   9.297288415200701e-06   3.990415973239951e-07
-5.245515001827089e-05   1.0711024109001308e-05   1.231041106938759e-05
-5.245515001827089e-05   1.0711024109001308e-05   1.231041106938759e-05
-5.245515001827089e-05   1.0711024109001308e-05   1.231041106938759e-05
-5.245515001827089e-05   1.0711024109001308e-05   1.231041106938759e-05
-4.479938348526572e-05   1.1790170022490248e-05   3.257825383433193e-05
-4.479938348526572e-05   1.1790170022490248e-05   3.257825383433193e-05
-4.479938348526572e-05   1.1790170022490248e-05   3.257825383433193e-05
-4.479938348526572e-05   1.1790170022490248e-05   3.257825383433193e-05
-6.410691082747038e-05   9.297288415200701e-06   -1.09668736704969e-06
-6.410691082747038e-05   9.297288415200701e-06   -1.09668736704969e-06
-6.410691082747038e-05   9.297288415200701e-06   -1.09668736704969e-06
-6.410691082747038e-05   9.297288415200701e-06   -1.09668736704969e-06
-6.602095240014916e-05   1.0706472783198525e-05   3.973439284964521e-05
-6.602095240014916e-05   1.0706472783198525e-05   3.973439284964521e-05
-6.602095240014916e-05   1.0706472783198525e-05   3.973439284964521e-05
-6.602095240014916e-05   1.0706472783198525e-05   3.973439284964521e-05
-4.5704946869515664e-05   8.253082323056524e-06   7.346417908008092e-06
-4.5704946869515664e-05   8.253082323056524e-06   7.346417908008092e-06
-4.5704946869515664e-05   8.253082323056524e-06   7.346417908008092e-06
-4.5704946869515664e-05   8.253082323056524e-06   7.346417908008092e-06
-5.290624685448645e-05   1.0256434226102278e-05   1.8146573407798157e-05
-5.290624685448645e-05   1.0256434226102278e-05   1.8146573407798157e-05
-5.290624685448645e-05   1.0256434226102278e-05   1.8146573407798157e-05
-5.290624685448645e-05   1.0256434226102278e-05   1.8146573407798157e-05
1.9686253474119882e-05   -2.258306951949743e-06   2.8068699082714043e-05
1.9686253474119882e-05   -2.258306951949743e-06   2.8068699082714043e-05
1.9686253474119882e-05   -2.258306951949743e-06   2.8068699082714043e-05
1.9686253474119882e-05   -2.258306951949743e-06   2.8068699082714043e-05
5.122786237907231e-06   6.685239476215098e-08   5.191349297053397e-06
5.122786237907231e-06   6.685239476215098e-08   5.191349297053397e-06
5.122786237907231e-06   6.685239476215098e-08   5.191349297053397e-06
5.122786237907231e-06   6.685239476215098e-08   5.191349297053397e-06
4.427603681926141e-06   -3.1411881673995383e-06   2.617873398551014e-05
4.427603681926141e-06   -3.1411881673995383e-06   2.617873398551014e-05
4.427603681926141e-06   -3.1411881673995383e-06   2.617873398551014e-05
4.427603681926141e-06   -3.1411881673995383e-06   2.617873398551014e-05
1.7968634118240516e-05   -7.23654188964501e-07   2.159829537925253e-06
1.7968634118240516e-05   -7.23654188964501e-07   2.159829537925253e-06
1.7968634118240516e-05   -7.23654188964501e-07   2.159829537925253e-06
1.7968634118240516e-05   -7.23654188964501e-07   2.159829537925253e-06
1.1103386698919199e-05   -1.6259910320549215e-06   1.4143310675982217e-05
1.1103386698919199e-05   -1.6259910320549215e-06   1.4143310675982217e-05
1.1103386698919199e-05   -1.6259910320549215e-06   1.4143310675982217e-05
1.1103386698919199e-05   -1.6259910320549215e-06   1.4143310675982217e-05
1.7968634118240543e-05   -3.1411881673995383e-06   2.4728213598448944e-05
1.7968634118240543e-05   -3.1411881673995383e-06   2.4728213598448944e-05
1.7968634118240543e-05   -3.1411881673995383e-06   2.4728213598448944e-05
1.7968634118240543e-05   -3.1411881673995383e-06   2.4728213598448944e-05
4.427603681926134e-06   -7.23654188964501e-07   3.6103499249863676e-06
4.427603681926134e-06   -7.23654188964501e-07   3.6103499249863676e-06
4.427603681926134e-06   -7.23654188964501e-07   3.6103499249863676e-06
4.427603681926134e-06   -7.23654188964501e-07   3.6103499249863676e-06
3.6179355729453713e-06   -3.4456538318809217e-06   2.4575686011251482e-05
3.6179355729453713e-06   -3.4456538318809217e-06   2.4575686011251482e-05
3.6179355729453713e-06   -3.4456538318809217e-06   2.4575686011251482e-05
3.6179355729453713e-06   -3.4456538318809217e-06   2.4575686011251482e-05
1.6514937052906025e-05   -1.065262806143781e-06   1.6524489292080342e-06
1.6514937052906025e-05   -1.065262806143781e-06   1.6524489292080342e-06
1.6514937052906025e-05   -1.065262806143781e-06   1.6524489292080342e-06
1.6514937052906025e-05   -1.065262806143781e-06   1.6524489292080342e-06
1.0271445709105583e-05   -1.9709741653954962e-06   1.2601694651093154e-05
1.0271445709105583e-05   -1.9709741653954962e-06   1.2601694651093154e-05
1.0271445709105583e-05   -1.9709741653954962e-06   1.2601694651093154e-05
1.0271445709105583e-05   -1.9709741653954962e-06   1.2601694651093154e-05
1.6514937052906052e-05   -3.4456538318813554e-06   2.3147451395809024e-05
1.6514937052906052e-05   -3.4456538318813554e-06   2.3147451395809024e-05
1.6514937052906052e-05   -3.4456538318813554e-06   2.3147451395809024e-05
1.6514937052906052e-05   -3.4456538318813554e-06   2.3147451395809024e-05
3.617935572945358e-06   -1.065262806143781e-06   3.080683544650492e-06
3.617935572945358e-06   -1.065262806143781e-06   3.080683544650492e-06
3.617935572945358e-06   -1.065262806143781e-06   3.080683544650492e-06
3.617935572945358e-06   -1.065262806143781e-06   3.080683544650492e-06
2.9166940086389727e-06   -3.849851882508758e-06   2.272781387175661e-05
2.9166940086389727e-06   -3.849851882508758e-06   2.272781387175661e-05
2.9166940086389727e-06   -3.849851882508758e-06   2.272781387175661e-05
2.9166940086389727e-06   -3.849851882508758e-06   2.272781387175661e-05
1.4813508488326771e-05   -1.6357513886781049e-06   1.5713294426457597e-06
1.4813508488326771e-05   -1.6357513886781049e-06   1.5713294426457597e-06
1.4813508488326771e-05   -1.6357513886781049e-06   1.5713294426457597e-06
1.4813508488326771e-05   -1.6357513886781049e-06   1.5713294426457597e-06
9.0508624549643e-06   -2.150358916659656e-06   1.1484504015038771e-05
9.0508624549643e-06   -2.150358916659656e-06   1.1484504015038771e-05
9.0508624549643e-06   -2.150358916659656e-06   1.1484504015038771e-05
9.0508624549643e-06   -2.150358916659656e-06   1.1484504015038771e-05
5.122786237907241e-06   1.1729517384925087e-06   3.866775412969558e-05
5.122786237907241e-06   1.1729517384925087e-06   3.866775412969558e-05
5.122786237907241e-06   1.1729517384925087e-06   3.866775412969558e-05
5.122786237907241e-06   1.1729517384925087e-06   3.866775412969558e-05
-8.149357883950684e-06   2.2241973027113844e-06   1.717826126513048e-05
-8.149357883950684e-06   2.2241973027113844e-06   1.717826126513048e-05
-8.149357883950684e-06   2.2241973027113844e-06   1.717826126513048e-05
-8.149357883950684e-06   2.2241973027113844e-06   1.717826126513048e-05
-8.759774297754442e-06   2.7821063275325006e-07   3.879171621455862e-05
-8.759774297754442e-06   2.7821063275325006e-07   3.879171621455862e-05
-8.759774297754442e-06   2.7821063275325006e-07   3.879171621455862e-05
-8.759774297754442e-06   2.7821063275325006e-07   3.879171621455862e-05
4.427603681926134e-06   1.3298902060187093e-06   1.618174517113208e-05
4.427603681926134e-06   1.3298902060187093e-06   1.618174517113208e-05
4.427603681926134e-06   1.3298902060187093e-06   1.618174517113208e-05
4.427603681926134e-06   1.3298902060187093e-06   1.618174517113208e-05
-1.938631395186881e-06   1.162597826520357e-06   2.68925123940207e-05
-1.938631395186881e-06   1.162597826520357e-06   2.68925123940207e-05
-1.938631395186881e-06   1.162597826520357e-06   2.68925123940207e-05
-1.938631395186881e-06   1.162597826520357e-06   2.68925123940207e-05
4.427603681926141e-06   2.7821063275325006e-07   3.816070847059922e-05
4.427603681926141e-06   2.7821063275325006e-07   3.816070847059922e-05
4.427603681926141e-06   2.7821063275325006e-07   3.816070847059922e-05
4.427603681926141e-06   2.7821063275325006e-07   3.816070847059922e-05
-8.759774297754442e-06   1.3298902060189261e-06   1.6812752915091548e-05
-8.759774297754442e-06   1.3298902060189261e-06   1.6812752915091548e-05
-8.759774297754442e-06   1.3298902060189261e-06   1.6812752915091548e-05
-8.759774297754442e-06   1.3298902060189261e-06   1.6812752915091548e-05
-9.387896037821574e-06   -4.546231900390621e-07   3.854682535898925e-05
-9.387896037821574e-06   -4.546231900390621e-07   3.854682535898925e-05
-9.387896037821574e-06   -4.546231900390621e-07   3.854682535898925e-05
-9.387896037821574e-06   -4.546231900390621e-07   3.854682535898925e-05
3.617935572945358e-06   5.712079072020797e-07   1.625494068269983e-05
3.617935572945358e-06   5.712079072020797e-07   1.625494068269983e-05
3.617935572945358e-06   5.712079072020797e-07   1.625494068269983e-05
3.617935572945358e-06   5.712079072020797e-07   1.625494068269983e-05
-2.58988545314391e-06   5.383891150049884e-07   2.662100033483416e-05
-2.58988545314391e-06   5.383891150049884e-07   2.662100033483416e-05
-2.58988545314391e-06   5.383891150049884e-07   2.662100033483416e-05
-2.58988545314391e-06   5.383891150049884e-07   2.662100033483416e-05
3.6179355729453713e-06   -4.546231900394958e-07   3.793132670064478e-05
3.6179355729453713e-06   -4.546231900394958e-07   3.793132670064478e-05
3.6179355729453713e-06   -4.546231900394958e-07   3.793132670064478e-05
3.6179355729453713e-06   -4.546231900394958e-07   3.793132670064478e-05
-9.387896037821601e-06   5.712079072022966e-07   1.6870439341044657e-05
-9.387896037821601e-06   5.712079072022966e-07   1.6870439341044657e-05
-9.387896037821601e-06   5.712079072022966e-07   1.6870439341044657e-05
-9.387896037821601e-06   5.712079072022966e-07   1.6870439341044657e-05
-1.0006510151856589e-05   -1.1776811830789026e-06   3.9058301543371454e-05
-1.0006510151856589e-05   -1.1776811830789026e-06   3.9058301543371454e-05
-1.0006510151856589e-05   -1.1776811830789026e-06   3.9058301543371454e-05
-1.0006510151856589e-05   -1.1776811830789026e-06   3.9058301543371454e-05
2.916694008638959e-06   -2.0503443224099624e-07   1.6936039892043e-05
2.916694008638959e-06   -2.0503443224099624e-07   1.6936039892043e-05
2.916694008638959e-06   -2.0503443224099624e-07   1.6936039892043e-05
2.916694008638959e-06   -2.0503443224099624e-07   1.6936039892043e-05
-3.141862685748144e-06   -2.2630383472981713e-08   2.6924191953427872e-05
-3.141862685748144e-06   -2.2630383472981713e-08   2.6924191953427872e-05
-3.141862685748144e-06   -2.2630383472981713e-08   2.6924191953427872e-05
-3.141862685748144e-06   -2.2630383472981713e-08   2.6924191953427872e-05
-8.149357883950684e-06   4.394613407612477e-06   4.289124003903572e-05
-8.149357883950684e-06   4.394613407612477e-06   4.289124003903572e-05
-8.149357883950684e-06   4.394613407612477e-06   4.289124003903572e-05
-8.149357883950684e-06   4.394613407612477e-06   4.289124003903572e-05
-2.1199599770631013e-05   4.140265782250291e-06   2.098822831935116e-05
-2.1199599770631013e-05   4.140265782250291e-06   2.098822831935116e-05
-2.1199599770631013e-05   4.140265782250291e-06   2.098822831935116e-05
-2.1199599770631013e-05   4.140265782250291e-06   2.098822831935116e-05
-2.178503184863085e-05   3.5807900067024064e-06   4.251231135158208e-05
-2.178503184863085e-05   3.5807900067024064e-06   4.251231135158208e-05
-2.178503184863085e-05   3.5807900067024064e-06   4.251231135158208e-05
-2.178503184863085e-05   3.5807900067024064e-06   4.251231135158208e-05
-8.759774297754415e-06   3.3150024575420278e-06   2.0963021296284596e-05
-8.759774297754415e-06   3.3150024575420278e-06   2.0963021296284596e-05
-8.759774297754415e-06   3.3150024575420278e-06   2.0963021296284596e-05
-8.759774297754415e-06   3.3150024575420278e-06   2.0963021296284596e-05
-1.5001133502840795e-05   3.766201791364967e-06   3.109456703780268e-05
-1.5001133502840795e-05   3.766201791364967e-06   3.109456703780268e-05
-1.5001133502840795e-05   3.766201791364967e-06   3.109456703780268e-05
-1.5001133502840795e-05   3.766201791364967e-06   3.109456703780268e-05
-8.759774297754442e-06   3.5807900067024064e-06   4.267178388107852e-05
-8.759774297754442e-06   3.5807900067024064e-06   4.267178388107852e-05
-8.759774297754442e-06   3.5807900067024064e-06   4.267178388107852e-05
-8.759774297754442e-06   3.5807900067024064e-06   4.267178388107852e-05
-2.1785031848630797e-05   3.3150024575422446e-06   2.0803548766788423e-05
-2.1785031848630797e-05   3.3150024575422446e-06   2.0803548766788423e-05
-2.1785031848630797e-05   3.3150024575422446e-06   2.0803548766788423e-05
-2.1785031848630797e-05   3.3150024575422446e-06   2.0803548766788423e-05
-2.2389757821014863e-05   2.7762773687025656e-06   4.279722595468922e-05
-2.2389757821014863e-05   2.7762773687025656e-06   4.279722595468922e-05
-2.2389757821014863e-05   2.7762773687025656e-06   4.279722595468922e-05
-2.2389757821014863e-05   2.7762773687025656e-06   4.279722595468922e-05
-9.387896037821547e-06   2.493941892506594e-06   2.12968576017513e-05
-9.387896037821547e-06   2.493941892506594e-06   2.12968576017513e-05
-9.387896037821547e-06   2.493941892506594e-06   2.12968576017513e-05
-9.387896037821547e-06   2.493941892506594e-06   2.12968576017513e-05
-1.5522585070111626e-05   3.138121556619123e-06   3.1134831523766716e-05
-1.5522585070111626e-05   3.138121556619123e-06   3.1134831523766716e-05
-1.5522585070111626e-05   3.138121556619123e-06   3.1134831523766716e-05
-1.5522585070111626e-05   3.138121556619123e-06   3.1134831523766716e-05
-9.387896037821601e-06   2.7762773687025656e-06   4.296662724040672e-05
-9.387896037821601e-06   2.7762773687025656e-06   4.296662724040672e-05
-9.387896037821601e-06   2.7762773687025656e-06   4.296662724040672e-05
-9.387896037821601e-06   2.7762773687025656e-06   4.296662724040672e-05
-2.2389757821014863e-05   2.493941892506594e-06   2.1127456316033912e-05
-2.2389757821014863e-05   2.493941892506594e-06   2.1127456316033912e-05
-2.2389757821014863e-05   2.493941892506594e-06   2.1127456316033912e-05
-2.2389757821014863e-05   2.493941892506594e-06   2.1127456316033912e-05
-2.2985106638485908e-05   2.0016353841161537e-06   4.349149806569144e-05
-2.2985106638485908e-05   2.0016353841161537e-06   4.349149806569144e-05
-2.2985106638485908e-05   2.0016353841161537e-06   4.349149806569144e-05
-2.2985106638485908e-05   2.0016353841161537e-06   4.349149806569144e-05
-1.0006510151856589e-05   1.7075479322682316e-06   2.2036956392418295e-05
-1.0006510151856589e-05   1.7075479322682316e-06   2.2036956392418295e-05
-1.0006510151856589e-05   1.7075479322682316e-06   2.2036956392418295e-05
-1.0006510151856589e-05   1.7075479322682316e-06   2.2036956392418295e-05
-1.607712260084277e-05   2.5225189049502862e-06   3.1665661223786393e-05
-1.607712260084277e-05   2.5225189049502862e-06   3.1665661223786393e-05
-1.607712260084277e-05   2.5225189049502862e-06   3.1665661223786393e-05
-1.607712260084277e-05   2.5225189049502862e-06   3.1665661223786393e-05
-2.1199599770631013e-05   7.5281645209698995e-06   3.7776205172768314e-05
-2.1199599770631013e-05   7.5281645209698995e-06   3.7776205172768314e-05
-2.1199599770631013e-05   7.5281645209698995e-06   3.7776205172768314e-05
-2.1199599770631013e-05   7.5281645209698995e-06   3.7776205172768314e-05
-3.400814609003284e-05   6.144607668128301e-06   1.5598493862059993e-05
-3.400814609003284e-05   6.144607668128301e-06   1.5598493862059993e-05
-3.400814609003284e-05   6.144607668128301e-06   1.5598493862059993e-05
-3.400814609003284e-05   6.144607668128301e-06   1.5598493862059993e-05
-3.464596647722706e-05   6.732586422983702e-06   3.707825143579803e-05
-3.464596647722706e-05   6.732586422983702e-06   3.707825143579803e-05
-3.464596647722706e-05   6.732586422983702e-06   3.707825143579803e-05
-3.464596647722706e-05   6.732586422983702e-06   3.707825143579803e-05
-2.178503184863085e-05   5.31197393006228e-06   1.6495727883891016e-05
-2.178503184863085e-05   5.31197393006228e-06   1.6495727883891016e-05
-2.178503184863085e-05   5.31197393006228e-06   1.6495727883891016e-05
-2.178503184863085e-05   5.31197393006228e-06   1.6495727883891016e-05
-2.784250159917334e-05   6.325743122404491e-06   2.5983249286057873e-05
-2.784250159917334e-05   6.325743122404491e-06   2.5983249286057873e-05
-2.784250159917334e-05   6.325743122404491e-06   2.5983249286057873e-05
-2.784250159917334e-05   6.325743122404491e-06   2.5983249286057873e-05
-2.178503184863085e-05   6.732586422984136e-06   3.7930618931551014e-05
-2.178503184863085e-05   6.732586422984136e-06   3.7930618931551014e-05
-2.178503184863085e-05   6.732586422984136e-06   3.7930618931551014e-05
-2.178503184863085e-05   6.732586422984136e-06   3.7930618931551014e-05
-3.4645966477227e-05   5.311973930062063e-06   1.564336038813814e-05
-3.4645966477227e-05   5.311973930062063e-06   1.564336038813814e-05
-3.4645966477227e-05   5.311973930062063e-06   1.564336038813814e-05
-3.4645966477227e-05   5.311973930062063e-06   1.564336038813814e-05
-3.54016727178163e-05   5.997045587011803e-06   3.829875617037868e-05
-3.54016727178163e-05   5.997045587011803e-06   3.829875617037868e-05
-3.54016727178163e-05   5.997045587011803e-06   3.829875617037868e-05
-3.54016727178163e-05   5.997045587011803e-06   3.829875617037868e-05
-2.238975782101481e-05   4.555521302681848e-06   1.747714591297442e-05
-2.238975782101481e-05   4.555521302681848e-06   1.747714591297442e-05
-2.238975782101481e-05   4.555521302681848e-06   1.747714591297442e-05
-2.238975782101481e-05   4.555521302681848e-06   1.747714591297442e-05
-2.8256730132054936e-05   5.736535506329927e-06   2.6546824575852273e-05
-2.8256730132054936e-05   5.736535506329927e-06   2.6546824575852273e-05
-2.8256730132054936e-05   5.736535506329927e-06   2.6546824575852273e-05
-2.8256730132054936e-05   5.736535506329927e-06   2.6546824575852273e-05
-2.2389757821014863e-05   5.997045587011803e-06   3.916367074097648e-05
-2.2389757821014863e-05   5.997045587011803e-06   3.916367074097648e-05
-2.2389757821014863e-05   5.997045587011803e-06   3.916367074097648e-05
-2.2389757821014863e-05   5.997045587011803e-06   3.916367074097648e-05
-3.5401672717816194e-05   4.555521302681848e-06   1.6612231342376296e-05
-3.5401672717816194e-05   4.555521302681848e-06   1.6612231342376296e-05
-3.5401672717816194e-05   4.555521302681848e-06   1.6612231342376296e-05
-3.5401672717816194e-05   4.555521302681848e-06   1.6612231342376296e-05
-3.605060052965452e-05   5.175403235709638e-06   3.9479710924587895e-05
-3.605060052965452e-05   5.175403235709638e-06   3.9479710924587895e-05
-3.605060052965452e-05   5.175403235709638e-06   3.9479710924587895e-05
-3.605060052965452e-05   5.175403235709638e-06   3.9479710924587895e-05
-2.29851066384858e-05   3.7477121283609627e-06   1.856050243704958e-05
-2.29851066384858e-05   3.7477121283609627e-06   1.856050243704958e-05
-2.29851066384858e-05   3.7477121283609627e-06   1.856050243704958e-05
-2.29851066384858e-05   3.7477121283609627e-06   1.856050243704958e-05
-2.896728561691808e-05   5.147109124325512e-06   2.769116253685945e-05
-2.896728561691808e-05   5.147109124325512e-06   2.769116253685945e-05
-2.896728561691808e-05   5.147109124325512e-06   2.769116253685945e-05
-2.896728561691808e-05   5.147109124325512e-06   2.769116253685945e-05
-3.4008146090033005e-05   9.865779215788208e-06   1.763547377348876e-05
-3.4008146090033005e-05   9.865779215788208e-06   1.763547377348876e-05
-3.4008146090033005e-05   9.865779215788208e-06   1.763547377348876e-05
-3.4008146090033005e-05   9.865779215788208e-06   1.763547377348876e-05
-4.554175935186401e-05   7.550680853633503e-06   -2.976274013522396e-06
-4.554175935186401e-05   7.550680853633503e-06   -2.976274013522396e-06
-4.554175935186401e-05   7.550680853633503e-06   -2.976274013522396e-06
-4.554175935186401e-05   7.550680853633503e-06   -2.976274013522396e-06
-4.7176093664924893e-05   9.608972550939014e-06   2.173459006057834e-05
-4.7176093664924893e-05   9.608972550939014e-06   2.173459006057834e-05
-4.7176093664924893e-05   9.608972550939014e-06   2.173459006057834e-05
-4.7176093664924893e-05   9.608972550939014e-06   2.173459006057834e-05
-3.464596647722695e-05   7.1229250017473215e-06   2.3426732772635975e-06
-3.464596647722695e-05   7.1229250017473215e-06   2.3426732772635975e-06
-3.464596647722695e-05   7.1229250017473215e-06   2.3426732772635975e-06
-3.464596647722695e-05   7.1229250017473215e-06   2.3426732772635975e-06
-3.887426902016242e-05   8.381498185616471e-06   8.634700271836055e-06
-3.887426902016242e-05   8.381498185616471e-06   8.634700271836055e-06
-3.887426902016242e-05   8.381498185616471e-06   8.634700271836055e-06
-3.887426902016242e-05   8.381498185616471e-06   8.634700271836055e-06
-3.464596647722695e-05   9.60897255093858e-06   2.3226218590092964e-05
-3.464596647722695e-05   9.60897255093858e-06   2.3226218590092964e-05
-3.464596647722695e-05   9.60897255093858e-06   2.3226218590092964e-05
-3.464596647722695e-05   9.60897255093858e-06   2.3226218590092964e-05
-4.7176093664924893e-05   7.1229250017473215e-06   8.510447477488641e-07
-4.7176093664924893e-05   7.1229250017473215e-06   8.510447477488641e-07
-4.7176093664924893e-05   7.1229250017473215e-06   8.510447477488641e-07
-4.7176093664924893e-05   7.1229250017473215e-06   8.510447477488641e-07
-4.858401063064389e-05   9.297288415200701e-06   2.5717197432328486e-05
-4.858401063064389e-05   9.297288415200701e-06   2.5717197432328486e-05
-4.858401063064389e-05   9.297288415200701e-06   2.5717197432328486e-05
-4.858401063064389e-05   9.297288415200701e-06   2.5717197432328486e-05
-3.5401672717816194e-05   6.76666802787722e-06   5.265006476676899e-06
-3.5401672717816194e-05   6.76666802787722e-06   5.265006476676899e-06
-3.5401672717816194e-05   6.76666802787722e-06   5.265006476676899e-06
-3.5401672717816194e-05   6.76666802787722e-06   5.265006476676899e-06
-4.044171250075181e-05   8.269846037201219e-06   1.2763165975976072e-05
-4.044171250075181e-05   8.269846037201219e-06   1.2763165975976072e-05
-4.044171250075181e-05   8.269846037201219e-06   1.2763165975976072e-05
-4.044171250075181e-05   8.269846037201219e-06   1.2763165975976072e-05
-3.54016727178163e-05   9.297288415200701e-06   2.723556966472275e-05
-3.54016727178163e-05   9.297288415200701e-06   2.723556966472275e-05
-3.54016727178163e-05   9.297288415200701e-06   2.723556966472275e-05
-3.54016727178163e-05   9.297288415200701e-06   2.723556966472275e-05
-4.858401063064389e-05   6.76666802787722e-06   3.7466342442826913e-06
-4.858401063064389e-05   6.76666802787722e-06   3.7466342442826913e-06
-4.858401063064389e-05   6.76666802787722e-06   3.7466342442826913e-06
-4.858401063064389e-05   6.76666802787722e-06   3.7466342442826913e-06
-5.026992587204627e-05   8.253082323056524e-06   3.276703061213908e-05
-5.026992587204627e-05   8.253082323056524e-06   3.276703061213908e-05
-5.026992587204627e-05   8.253082323056524e-06   3.276703061213908e-05
-5.026992587204627e-05   8.253082323056524e-06   3.276703061213908e-05
-3.6050600529654415e-05   5.799545780677722e-06   1.054027696691356e-05
-3.6050600529654415e-05   5.799545780677722e-06   1.054027696691356e-05
-3.6050600529654415e-05   5.799545780677722e-06   1.054027696691356e-05
-3.6050600529654415e-05   5.799545780677722e-06   1.054027696691356e-05
-4.08361173009246e-05   7.830063953069306e-06   1.729782734892992e-05
-4.08361173009246e-05   7.830063953069306e-06   1.729782734892992e-05
-4.08361173009246e-05   7.830063953069306e-06   1.729782734892992e-05
-4.08361173009246e-05   7.830063953069306e-06   1.729782734892992e-05
3.836350683245716e-06   6.685239476215098e-08   2.0908993072682718e-05
3.836350683245716e-06   6.685239476215098e-08   2.0908993072682718e-05
3.836350683245716e-06   6.685239476215098e-08   2.0908993072682718e-05
3.836350683245716e-06   6.685239476215098e-08   2.0908993072682718e-05
-4.464642151945323e-06   2.2965132809790734e-06   8.411801545761023e-06
-4.464642151945323e-06   2.2965132809790734e-06   8.411801545761023e-06
-4.464642151945323e-06   2.2965132809790734e-06   8.411801545761023e-06
-4.464642151945323e-06   2.2965132809790734e-06   8.411801545761023e-06
-4.9553256192811e-06   -7.23654188964501e-07   2.0637345973505486e-05
-4.9553256192811e-06   -7.23654188964501e-07   2.0637345973505486e-05
-4.9553256192811e-06   -7.23654188964501e-07   2.0637345973505486e-05
-4.9553256192811e-06   -7.23654188964501e-07   2.0637345973505486e-05
2.3416403252400256e-06   1.5591845686272442e-06   7.106032811415392e-06
2.3416403252400256e-06   1.5591845686272442e-06   7.106032811415392e-06
2.3416403252400256e-06   1.5591845686272442e-06   7.106032811415392e-06
2.3416403252400256e-06   1.5591845686272442e-06   7.106032811415392e-06
-1.001810947172386e-06   6.739028512365609e-07   1.3209620629203766e-05
-1.001810947172386e-06   6.739028512365609e-07   1.3209620629203766e-05
-1.001810947172386e-06   6.739028512365609e-07   1.3209620629203766e-05
-1.001810947172386e-06   6.739028512365609e-07   1.3209620629203766e-05
2.3416403252400256e-06   -7.23654188964501e-07   1.9267642718950656e-05
2.3416403252400256e-06   -7.23654188964501e-07   1.9267642718950656e-05
2.3416403252400256e-06   -7.23654188964501e-07   1.9267642718950656e-05
2.3416403252400256e-06   -7.23654188964501e-07   1.9267642718950656e-05
-4.9553256192811e-06   1.5591845686272442e-06   8.475736065970303e-06
-4.9553256192811e-06   1.5591845686272442e-06   8.475736065970303e-06
-4.9553256192811e-06   1.5591845686272442e-06   8.475736065970303e-06
-4.9553256192811e-06   1.5591845686272442e-06   8.475736065970303e-06
-5.5611969804047215e-06   -1.065262806143781e-06   2.010647886086154e-05
-5.5611969804047215e-06   -1.065262806143781e-06   2.010647886086154e-05
-5.5611969804047215e-06   -1.065262806143781e-06   2.010647886086154e-05
-5.5611969804047215e-06   -1.065262806143781e-06   2.010647886086154e-05
1.0453442069439407e-06   1.152200393295848e-06   7.765098962283183e-06
1.0453442069439407e-06   1.152200393295848e-06   7.765098962283183e-06
1.0453442069439407e-06   1.152200393295848e-06   7.765098962283183e-06
1.0453442069439407e-06   1.152200393295848e-06   7.765098962283183e-06
-1.8096029858928546e-06   3.5964011601196874e-07   1.2998880450048223e-05
-1.8096029858928546e-06   3.5964011601196874e-07   1.2998880450048223e-05
-1.8096029858928546e-06   3.5964011601196874e-07   1.2998880450048223e-05
-1.8096029858928546e-06   3.5964011601196874e-07   1.2998880450048223e-05
1.0453442069439407e-06   -1.0652628061439979e-06   1.8776000941197503e-05
1.0453442069439407e-06   -1.0652628061439979e-06   1.8776000941197503e-05
1.0453442069439407e-06   -1.0652628061439979e-06   1.8776000941197503e-05
1.0453442069439407e-06   -1.0652628061439979e-06   1.8776000941197503e-05
-5.561196980404708e-06   1.152200393295848e-06   9.09557688194714e-06
-5.561196980404708e-06   1.152200393295848e-06   9.09557688194714e-06
-5.561196980404708e-06   1.152200393295848e-06   9.09557688194714e-06
-5.561196980404708e-06   1.152200393295848e-06   9.09557688194714e-06
-6.067087145248843e-06   -1.6357513886781049e-06   1.993100675300283e-05
-6.067087145248843e-06   -1.6357513886781049e-06   1.993100675300283e-05
-6.067087145248843e-06   -1.6357513886781049e-06   1.993100675300283e-05
-6.067087145248843e-06   -1.6357513886781049e-06   1.993100675300283e-05
-5.803678344710507e-07   2.879277657943848e-07   9.632267075689776e-06
-5.803678344710507e-07   2.879277657943848e-07   9.632267075689776e-06
-5.803678344710507e-07   2.879277657943848e-07   9.632267075689776e-06
-5.803678344710507e-07   2.879277657943848e-07   9.632267075689776e-06
-2.675731044824235e-06   6.994101151513131e-08   1.3255331145512698e-05
-2.675731044824235e-06   6.994101151513131e-08   1.3255331145512698e-05
-2.675731044824235e-06   6.994101151513131e-08   1.3255331145512698e-05
-2.675731044824235e-06   6.994101151513131e-08   1.3255331145512698e-05
-4.464642151945323e-06   2.2241973027113844e-06   3.360295423395811e-05
-4.464642151945323e-06   2.2241973027113844e-06   3.360295423395811e-05
-4.464642151945323e-06   2.2241973027113844e-06   3.360295423395811e-05
-4.464642151945323e-06   2.2241973027113844e-06   3.360295423395811e-05
-1.1414879050994549e-05   2.661985200079443e-06   2.2281898807297116e-05
-1.1414879050994549e-05   2.661985200079443e-06   2.2281898807297116e-05
-1.1414879050994549e-05   2.661985200079443e-06   2.2281898807297116e-05
-1.1414879050994549e-05   2.661985200079443e-06   2.2281898807297116e-05
-1.1784342621768719e-05   1.3298902060187093e-06   3.351359400161438e-05
-1.1784342621768719e-05   1.3298902060187093e-06   3.351359400161438e-05
-1.1784342621768719e-05   1.3298902060187093e-06   3.351359400161438e-05
-1.1784342621768719e-05   1.3298902060187093e-06   3.351359400161438e-05
-4.9553256192811e-06   1.8379781759570932e-06   2.1827046215505286e-05
-4.9553256192811e-06   1.8379781759570932e-06   2.1827046215505286e-05
-4.9553256192811e-06   1.8379781759570932e-06   2.1827046215505286e-05
-4.9553256192811e-06   1.8379781759570932e-06   2.1827046215505286e-05
-8.202246681031617e-06   1.9185610445635135e-06   2.7190231597259073e-05
-8.202246681031617e-06   1.9185610445635135e-06   2.7190231597259073e-05
-8.202246681031617e-06   1.9185610445635135e-06   2.7190231597259073e-05
-8.202246681031617e-06   1.9185610445635135e-06   2.7190231597259073e-05
-4.9553256192811e-06   1.3298902060187093e-06   3.3208741219651044e-05
-4.9553256192811e-06   1.3298902060187093e-06   3.3208741219651044e-05
-4.9553256192811e-06   1.3298902060187093e-06   3.3208741219651044e-05
-4.9553256192811e-06   1.3298902060187093e-06   3.3208741219651044e-05
-1.1784342621768692e-05   1.8379781759570932e-06   2.213189899746837e-05
-1.1784342621768692e-05   1.8379781759570932e-06   2.213189899746837e-05
-1.1784342621768692e-05   1.8379781759570932e-06   2.213189899746837e-05
-1.1784342621768692e-05   1.8379781759570932e-06   2.213189899746837e-05
-1.2165339060524004e-05   5.712079072022966e-07   3.358380586222678e-05
-1.2165339060524004e-05   5.712079072022966e-07   3.358380586222678e-05
-1.2165339060524004e-05   5.712079072022966e-07   3.358380586222678e-05
-1.2165339060524004e-05   5.712079072022966e-07   3.358380586222678e-05
-5.561196980404708e-06   1.0763243460624062e-06   2.227383253204551e-05
-5.561196980404708e-06   1.0763243460624062e-06   2.227383253204551e-05
-5.561196980404708e-06   1.0763243460624062e-06   2.227383253204551e-05
-5.561196980404708e-06   1.0763243460624062e-06   2.227383253204551e-05
-8.579298430641907e-06   1.3157865108109033e-06   2.716032431692545e-05
-8.579298430641907e-06   1.3157865108109033e-06   2.716032431692545e-05
-8.579298430641907e-06   1.3157865108109033e-06   2.716032431692545e-05
-8.579298430641907e-06   1.3157865108109033e-06   2.716032431692545e-05
-5.5611969804047215e-06   5.712079072022966e-07   3.3280735998910804e-05
-5.5611969804047215e-06   5.712079072022966e-07   3.3280735998910804e-05
-5.5611969804047215e-06   5.712079072022966e-07   3.3280735998910804e-05
-5.5611969804047215e-06   5.712079072022966e-07   3.3280735998910804e-05
-1.2165339060524004e-05   1.0763243460624062e-06   2.2576902395361515e-05
-1.2165339060524004e-05   1.0763243460624062e-06   2.2576902395361515e-05
-1.2165339060524004e-05   1.0763243460624062e-06   2.2576902395361515e-05
-1.2165339060524004e-05   1.0763243460624062e-06   2.2576902395361515e-05
-1.2538853160055577e-05   -2.0503443224099624e-07   3.4240325234966614e-05
-1.2538853160055577e-05   -2.0503443224099624e-07   3.4240325234966614e-05
-1.2538853160055577e-05   -2.0503443224099624e-07   3.4240325234966614e-05
-1.2538853160055577e-05   -2.0503443224099624e-07   3.4240325234966614e-05
-6.067087145248843e-06   2.5007944920007324e-07   2.318098021475747e-05
-6.067087145248843e-06   2.5007944920007324e-07   2.318098021475747e-05
-6.067087145248843e-06   2.5007944920007324e-07   2.318098021475747e-05
-6.067087145248843e-06   2.5007944920007324e-07   2.318098021475747e-05
-8.956286741387003e-06   7.22360187407553e-07   2.7712944432063474e-05
-8.956286741387003e-06   7.22360187407553e-07   2.7712944432063474e-05
-8.956286741387003e-06   7.22360187407553e-07   2.7712944432063474e-05
-8.956286741387003e-06   7.22360187407553e-07   2.7712944432063474e-05
-1.1414879050994549e-05   4.140265782250291e-06   3.7828202601817e-05
-1.1414879050994549e-05   4.140265782250291e-06   3.7828202601817e-05
-1.1414879050994549e-05   4.140265782250291e-06   3.7828202601817e-05
-1.1414879050994549e-05   4.140265782250291e-06   3.7828202601817e-05
-1.834698864361785e-05   3.18551266485171e-06   2.5701834743672557e-05
-1.834698864361785e-05   3.18551266485171e-06   2.5701834743672557e-05
-1.834698864361785e-05   3.18551266485171e-06   2.5701834743672557e-05
-1.834698864361785e-05   3.18551266485171e-06   2.5701834743672557e-05
-1.865929465882265e-05   3.3150024575420278e-06   3.7127520754857285e-05
-1.865929465882265e-05   3.3150024575420278e-06   3.7127520754857285e-05
-1.865929465882265e-05   3.3150024575420278e-06   3.7127520754857285e-05
-1.865929465882265e-05   3.3150024575420278e-06   3.7127520754857285e-05
-1.1784342621768692e-05   2.421099744291883e-06   2.6205608987717633e-05
-1.1784342621768692e-05   2.421099744291883e-06   2.6205608987717633e-05
-1.1784342621768692e-05   2.421099744291883e-06   2.6205608987717633e-05
-1.1784342621768692e-05   2.421099744291883e-06   2.6205608987717633e-05
-1.5058533323556667e-05   3.203306104785416e-06   3.1193269674401514e-05
-1.5058533323556667e-05   3.203306104785416e-06   3.1193269674401514e-05
-1.5058533323556667e-05   3.203306104785416e-06   3.1193269674401514e-05
-1.5058533323556667e-05   3.203306104785416e-06   3.1193269674401514e-05
-1.1784342621768692e-05   3.3150024575420278e-06   3.766386238280737e-05
-1.1784342621768692e-05   3.3150024575420278e-06   3.766386238280737e-05
-1.1784342621768692e-05   3.3150024575420278e-06   3.766386238280737e-05
-1.1784342621768692e-05   3.3150024575420278e-06   3.766386238280737e-05
-1.865929465882265e-05   2.421099744291883e-06   2.5669267359767654e-05
-1.865929465882265e-05   2.421099744291883e-06   2.5669267359767654e-05
-1.865929465882265e-05   2.421099744291883e-06   2.5669267359767654e-05
-1.865929465882265e-05   2.421099744291883e-06   2.5669267359767654e-05
-1.8994101897004873e-05   2.4939418925063774e-06   3.7500322805446426e-05
-1.8994101897004873e-05   2.4939418925063774e-06   3.7500322805446426e-05
-1.8994101897004873e-05   2.4939418925063774e-06   3.7500322805446426e-05
-1.8994101897004873e-05   2.4939418925063774e-06   3.7500322805446426e-05
-1.2165339060524004e-05   1.644106363361342e-06   2.662895272879869e-05
-1.2165339060524004e-05   1.644106363361342e-06   2.662895272879869e-05
-1.2165339060524004e-05   1.644106363361342e-06   2.662895272879869e-05
-1.2165339060524004e-05   1.644106363361342e-06   2.662895272879869e-05
-1.5325343386272223e-05   2.5907478796828934e-06   3.1327641695252754e-05
-1.5325343386272223e-05   2.5907478796828934e-06   3.1327641695252754e-05
-1.5325343386272223e-05   2.5907478796828934e-06   3.1327641695252754e-05
-1.5325343386272223e-05   2.5907478796828934e-06   3.1327641695252754e-05
-1.2165339060524004e-05   2.493941892506594e-06   3.801022412293332e-05
-1.2165339060524004e-05   2.493941892506594e-06   3.801022412293332e-05
-1.2165339060524004e-05   2.493941892506594e-06   3.801022412293332e-05
-1.2165339060524004e-05   2.493941892506594e-06   3.801022412293332e-05
-1.8994101897004873e-05   1.644106363361342e-06   2.6119051411311526e-05
-1.8994101897004873e-05   1.644106363361342e-06   2.6119051411311526e-05
-1.8994101897004873e-05   1.644106363361342e-06   2.6119051411311526e-05
-1.8994101897004873e-05   1.644106363361342e-06   2.6119051411311526e-05
-1.932198675551241e-05   1.7075479322682316e-06   3.827739337382177e-05
-1.932198675551241e-05   1.7075479322682316e-06   3.827739337382177e-05
-1.932198675551241e-05   1.7075479322682316e-06   3.827739337382177e-05
-1.932198675551241e-05   1.7075479322682316e-06   3.827739337382177e-05
-1.2538853160055577e-05   9.071140805725405e-07   2.7452431025744685e-05
-1.2538853160055577e-05   9.071140805725405e-07   2.7452431025744685e-05
-1.2538853160055577e-05   9.071140805725405e-07   2.7452431025744685e-05
-1.2538853160055577e-05   9.071140805725405e-07   2.7452431025744685e-05
-1.5622651522425224e-05   1.98724321703609e-06   3.194401748114913e-05
-1.5622651522425224e-05   1.98724321703609e-06   3.194401748114913e-05
-1.5622651522425224e-05   1.98724321703609e-06   3.194401748114913e-05
-1.5622651522425224e-05   1.98724321703609e-06   3.194401748114913e-05
-1.834698864361785e-05   6.144607668128518e-06   3.2695750385792035e-05
-1.834698864361785e-05   6.144607668128518e-06   3.2695750385792035e-05
-1.834698864361785e-05   6.144607668128518e-06   3.2695750385792035e-05
-1.834698864361785e-05   6.144607668128518e-06   3.2695750385792035e-05
-2.516228836836051e-05   4.302137243368661e-06   2.0231435256364916e-05
-2.516228836836051e-05   4.302137243368661e-06   2.0231435256364916e-05
-2.516228836836051e-05   4.302137243368661e-06   2.0231435256364916e-05
-2.516228836836051e-05   4.302137243368661e-06   2.0231435256364916e-05
-2.5505310539743165e-05   5.31197393006228e-06   3.173120276247707e-05
-2.5505310539743165e-05   5.31197393006228e-06   3.173120276247707e-05
-2.5505310539743165e-05   5.31197393006228e-06   3.173120276247707e-05
-2.5505310539743165e-05   5.31197393006228e-06   3.173120276247707e-05
-1.865929465882265e-05   3.497812080924083e-06   2.1409673403758982e-05
-1.865929465882265e-05   3.497812080924083e-06   2.1409673403758982e-05
-1.865929465882265e-05   3.497812080924083e-06   2.1409673403758982e-05
-1.865929465882265e-05   3.497812080924083e-06   2.1409673403758982e-05
-2.1872062221521945e-05   4.774258418114522e-06   2.5998418205943567e-05
-2.1872062221521945e-05   4.774258418114522e-06   2.5998418205943567e-05
-2.1872062221521945e-05   4.774258418114522e-06   2.5998418205943567e-05
-2.1872062221521945e-05   4.774258418114522e-06   2.5998418205943567e-05
-1.865929465882265e-05   5.31197393006228e-06   3.2819699871959986e-05
-1.865929465882265e-05   5.31197393006228e-06   3.2819699871959986e-05
-1.865929465882265e-05   5.31197393006228e-06   3.2819699871959986e-05
-1.865929465882265e-05   5.31197393006228e-06   3.2819699871959986e-05
-2.550531053974311e-05   3.497812080924083e-06   2.0321176294276226e-05
-2.550531053974311e-05   3.497812080924083e-06   2.0321176294276226e-05
-2.550531053974311e-05   3.497812080924083e-06   2.0321176294276226e-05
-2.550531053974311e-05   3.497812080924083e-06   2.0321176294276226e-05
-2.5980134966479228e-05   4.555521302681848e-06   3.2786309302725936e-05
-2.5980134966479228e-05   4.555521302681848e-06   3.2786309302725936e-05
-2.5980134966479228e-05   4.555521302681848e-06   3.2786309302725936e-05
-2.5980134966479228e-05   4.555521302681848e-06   3.2786309302725936e-05
-1.8994101897004873e-05   2.7826828032466704e-06   2.2206623953263064e-05
-1.8994101897004873e-05   2.7826828032466704e-06   2.2206623953263064e-05
-1.8994101897004873e-05   2.7826828032466704e-06   2.2206623953263064e-05
-1.8994101897004873e-05   2.7826828032466704e-06   2.2206623953263064e-05
-2.205858279558497e-05   4.180555427937913e-06   2.647536854274849e-05
-2.205858279558497e-05   4.180555427937913e-06   2.647536854274849e-05
-2.205858279558497e-05   4.180555427937913e-06   2.647536854274849e-05
-2.205858279558497e-05   4.180555427937913e-06   2.647536854274849e-05
-1.8994101897004873e-05   4.555521302681848e-06   3.385001240238661e-05
-1.8994101897004873e-05   4.555521302681848e-06   3.385001240238661e-05
-1.8994101897004873e-05   4.555521302681848e-06   3.385001240238661e-05
-1.8994101897004873e-05   4.555521302681848e-06   3.385001240238661e-05
-2.5980134966479174e-05   2.7826828032468873e-06   2.1142920853602174e-05
-2.5980134966479174e-05   2.7826828032468873e-06   2.1142920853602174e-05
-2.5980134966479174e-05   2.7826828032468873e-06   2.1142920853602174e-05
-2.5980134966479174e-05   2.7826828032468873e-06   2.1142920853602174e-05
-2.6360970651255022e-05   3.747712128360746e-06   3.396154367994774e-05
-2.6360970651255022e-05   3.747712128360746e-06   3.396154367994774e-05
-2.6360970651255022e-05   3.747712128360746e-06   3.396154367994774e-05
-2.6360970651255022e-05   3.747712128360746e-06   3.396154367994774e-05
-1.9321986755512356e-05   2.054631779003927e-06   2.3245752063324457e-05
-1.9321986755512356e-05   2.054631779003927e-06   2.3245752063324457e-05
-1.9321986755512356e-05   2.054631779003927e-06   2.3245752063324457e-05
-1.9321986755512356e-05   2.054631779003927e-06   2.3245752063324457e-05
-2.2451432212896975e-05   3.6164926100644076e-06   2.752437799366297e-05
-2.2451432212896975e-05   3.6164926100644076e-06   2.752437799366297e-05
-2.2451432212896975e-05   3.6164926100644076e-06   2.752437799366297e-05
-2.2451432212896975e-05   3.6164926100644076e-06   2.752437799366297e-05
-2.516228836836051e-05   7.55068085363372e-06   1.4404559272646403e-05
-2.516228836836051e-05   7.55068085363372e-06   1.4404559272646403e-05
-2.516228836836051e-05   7.55068085363372e-06   1.4404559272646403e-05
-2.516228836836051e-05   7.55068085363372e-06   1.4404559272646403e-05
-3.0491927382184612e-05   5.075270102505034e-06   4.036581132262375e-06
-3.0491927382184612e-05   5.075270102505034e-06   4.036581132262375e-06
-3.0491927382184612e-05   5.075270102505034e-06   4.036581132262375e-06
-3.0491927382184612e-05   5.075270102505034e-06   4.036581132262375e-06
-3.179620417828491e-05   7.1229250017473215e-06   1.6880721670370314e-05
-3.179620417828491e-05   7.1229250017473215e-06   1.6880721670370314e-05
-3.179620417828491e-05   7.1229250017473215e-06   1.6880721670370314e-05
-3.179620417828491e-05   7.1229250017473215e-06   1.6880721670370314e-05
-2.550531053974311e-05   4.539935033027152e-06   7.945692920699314e-06
-2.550531053974311e-05   4.539935033027152e-06   7.945692920699314e-06
-2.550531053974311e-05   4.539935033027152e-06   7.945692920699314e-06
-2.550531053974311e-05   4.539935033027152e-06   7.945692920699314e-06
-2.725965237893968e-05   6.012510774729921e-06   9.986050541005431e-06
-2.725965237893968e-05   6.012510774729921e-06   9.986050541005431e-06
-2.725965237893968e-05   6.012510774729921e-06   9.986050541005431e-06
-2.725965237893968e-05   6.012510774729921e-06   9.986050541005431e-06
-2.550531053974311e-05   7.1229250017473215e-06   1.8430515651602416e-05
-2.550531053974311e-05   7.1229250017473215e-06   1.8430515651602416e-05
-2.550531053974311e-05   7.1229250017473215e-06   1.8430515651602416e-05
-2.550531053974311e-05   7.1229250017473215e-06   1.8430515651602416e-05
-3.1796204178285016e-05   4.5399350330269355e-06   6.395898939467212e-06
-3.1796204178285016e-05   4.5399350330269355e-06   6.395898939467212e-06
-3.1796204178285016e-05   4.5399350330269355e-06   6.395898939467212e-06
-3.1796204178285016e-05   4.5399350330269355e-06   6.395898939467212e-06
-3.291657421025033e-05   6.76666802787722e-06   1.988271245568856e-05
-3.291657421025033e-05   6.76666802787722e-06   1.988271245568856e-05
-3.291657421025033e-05   6.76666802787722e-06   1.988271245568856e-05
-3.291657421025033e-05   6.76666802787722e-06   1.988271245568856e-05
-2.5980134966479174e-05   4.172714725647359e-06   9.878352364074499e-06
-2.5980134966479174e-05   4.172714725647359e-06   9.878352364074499e-06
-2.5980134966479174e-05   4.172714725647359e-06   9.878352364074499e-06
-2.5980134966479174e-05   4.172714725647359e-06   9.878352364074499e-06
-2.836377168437799e-05   5.801708599832613e-06   1.287368390272877e-05
-2.836377168437799e-05   5.801708599832613e-06   1.287368390272877e-05
-2.836377168437799e-05   5.801708599832613e-06   1.287368390272877e-05
-2.836377168437799e-05   5.801708599832613e-06   1.287368390272877e-05
-2.5980134966479174e-05   6.766668027877003e-06   2.143908443702643e-05
-2.5980134966479174e-05   6.766668027877003e-06   2.143908443702643e-05
-2.5980134966479174e-05   6.766668027877003e-06   2.143908443702643e-05
-2.5980134966479174e-05   6.766668027877003e-06   2.143908443702643e-05
-3.291657421025044e-05   4.172714725647359e-06   8.321980382736651e-06
-3.291657421025044e-05   4.172714725647359e-06   8.321980382736651e-06
-3.291657421025044e-05   4.172714725647359e-06   8.321980382736651e-06
-3.291657421025044e-05   4.172714725647359e-06   8.321980382736651e-06
-3.434449094174847e-05   5.799545780677939e-06   2.5317168349214955e-05
-3.434449094174847e-05   5.799545780677939e-06   2.5317168349214955e-05
-3.434449094174847e-05   5.799545780677939e-06   2.5317168349214955e-05
-3.434449094174847e-05   5.799545780677939e-06   2.5317168349214955e-05
-2.6360970651254968e-05   3.331604905668171e-06   1.3492065723398334e-05
-2.6360970651254968e-05   3.331604905668171e-06   1.3492065723398334e-05
-2.6360970651254968e-05   3.331604905668171e-06   1.3492065723398334e-05
-2.6360970651254968e-05   3.331604905668171e-06   1.3492065723398334e-05
-2.8681124674889328e-05   5.400431611033395e-06   1.6117693072903276e-05
-2.8681124674889328e-05   5.400431611033395e-06   1.6117693072903276e-05
-2.8681124674889328e-05   5.400431611033395e-06   1.6117693072903276e-05
-2.8681124674889328e-05   5.400431611033395e-06   1.6117693072903276e-05
-1.2681481884954435e-05   2.2965132809790734e-06   1.4881041418569755e-05
-1.2681481884954435e-05   2.2965132809790734e-06   1.4881041418569755e-05
-1.2681481884954435e-05   2.2965132809790734e-06   1.4881041418569755e-05
-1.2681481884954435e-05   2.2965132809790734e-06   1.4881041418569755e-05
-1.3781593263347284e-05   4.3218143827419625e-06   1.4262703115639408e-05
-1.3781593263347284e-05   4.3218143827419625e-06   1.4262703115639408e-05
-1.3781593263347284e-05   4.3218143827419625e-06   1.4262703115639408e-05
-1.3781593263347284e-05   4.3218143827419625e-06   1.4262703115639408e-05
-1.4131668501433365e-05   1.5591845686272442e-06   1.600926790102015e-05
-1.4131668501433365e-05   1.5591845686272442e-06   1.600926790102015e-05
-1.4131668501433365e-05   1.5591845686272442e-06   1.600926790102015e-05
-1.4131668501433365e-05   1.5591845686272442e-06   1.600926790102015e-05
-1.4163323693462882e-05   3.3796407620973216e-06   1.4969752838320504e-05
-1.4163323693462882e-05   3.3796407620973216e-06   1.4969752838320504e-05
-1.4163323693462882e-05   3.3796407620973216e-06   1.4969752838320504e-05
-1.4163323693462882e-05   3.3796407620973216e-06   1.4969752838320504e-05
-1.3346885227013637e-05   2.702232198566624e-06   1.4015467199023535e-05
-1.3346885227013637e-05   2.702232198566624e-06   1.4015467199023535e-05
-1.3346885227013637e-05   2.702232198566624e-06   1.4015467199023535e-05
-1.3346885227013637e-05   2.702232198566624e-06   1.4015467199023535e-05
-1.416332369346291e-05   1.5591845686272442e-06   1.4916994184937735e-05
-1.416332369346291e-05   1.5591845686272442e-06   1.4916994184937735e-05
-1.416332369346291e-05   1.5591845686272442e-06   1.4916994184937735e-05
-1.416332369346291e-05   1.5591845686272442e-06   1.4916994184937735e-05
-1.4131668501433365e-05   3.3796407620973216e-06   1.606202655440262e-05
-1.4131668501433365e-05   3.3796407620973216e-06   1.606202655440262e-05
-1.4131668501433365e-05   3.3796407620973216e-06   1.606202655440262e-05
-1.4131668501433365e-05   3.3796407620973216e-06   1.606202655440262e-05
-1.4586199035230421e-05   1.1522003932956312e-06   1.652936563878351e-05
-1.4586199035230421e-05   1.1522003932956312e-06   1.652936563878351e-05
-1.4586199035230421e-05   1.1522003932956312e-06   1.652936563878351e-05
-1.4586199035230421e-05   1.1522003932956312e-06   1.652936563878351e-05
-1.5603544990701717e-05   2.727077221088359e-06   1.7280016134559885e-05
-1.5603544990701717e-05   2.727077221088359e-06   1.7280016134559885e-05
-1.5603544990701717e-05   2.727077221088359e-06   1.7280016134559885e-05
-1.5603544990701717e-05   2.727077221088359e-06   1.7280016134559885e-05
-1.4229373644070957e-05   2.2954805806211197e-06   1.5248688541121675e-05
-1.4229373644070957e-05   2.2954805806211197e-06   1.5248688541121675e-05
-1.4229373644070957e-05   2.2954805806211197e-06   1.5248688541121675e-05
-1.4229373644070957e-05   2.2954805806211197e-06   1.5248688541121675e-05
-1.5603544990701744e-05   1.152200393295848e-06   1.558443954210759e-05
-1.5603544990701744e-05   1.152200393295848e-06   1.558443954210759e-05
-1.5603544990701744e-05   1.152200393295848e-06   1.558443954210759e-05
-1.5603544990701744e-05   1.152200393295848e-06   1.558443954210759e-05
-1.4586199035230421e-05   2.727077221088359e-06   1.822494223123537e-05
-1.4586199035230421e-05   2.727077221088359e-06   1.822494223123537e-05
-1.4586199035230421e-05   2.727077221088359e-06   1.822494223123537e-05
-1.4586199035230421e-05   2.727077221088359e-06   1.822494223123537e-05
-1.4873909196529524e-05   2.87927765794168e-07   1.819086247328394e-05
-1.4873909196529524e-05   2.87927765794168e-07   1.819086247328394e-05
-1.4873909196529524e-05   2.87927765794168e-07   1.819086247328394e-05
-1.4873909196529524e-05   2.87927765794168e-07   1.819086247328394e-05
-1.7136347669759755e-05   1.1213511860930963e-06   2.1461539209821287e-05
-1.7136347669759755e-05   1.1213511860930963e-06   2.1461539209821287e-05
-1.7136347669759755e-05   1.1213511860930963e-06   2.1461539209821287e-05
-1.7136347669759755e-05   1.1213511860930963e-06   2.1461539209821287e-05
-1.4843675731001976e-05   1.7947182927083565e-06   1.7236399047922048e-05
-1.4843675731001976e-05   1.7947182927083565e-06   1.7236399047922048e-05
-1.4843675731001976e-05   1.7947182927083565e-06   1.7236399047922048e-05
-1.4843675731001976e-05   1.7947182927083565e-06   1.7236399047922048e-05
-1.3781593263347264e-05   2.661985200079443e-06   2.970364660274255e-05
-1.3781593263347264e-05   2.661985200079443e-06   2.970364660274255e-05
-1.3781593263347264e-05   2.661985200079443e-06   2.970364660274255e-05
-1.3781593263347264e-05   2.661985200079443e-06   2.970364660274255e-05
-1.3916466354412166e-05   1.1178549587775172e-06   2.8552379972853305e-05
-1.3916466354412166e-05   1.1178549587775172e-06   2.8552379972853305e-05
-1.3916466354412166e-05   1.1178549587775172e-06   2.8552379972853305e-05
-1.3916466354412166e-05   1.1178549587775172e-06   2.8552379972853305e-05
-1.402233582888107e-05   1.83797817595731e-06   2.8580667488729058e-05
-1.402233582888107e-05   1.83797817595731e-06   2.8580667488729058e-05
-1.402233582888107e-05   1.83797817595731e-06   2.8580667488729058e-05
-1.402233582888107e-05   1.83797817595731e-06   2.8580667488729058e-05
-1.4131668501433365e-05   5.381272395805397e-07   2.9542799171475574e-05
-1.4131668501433365e-05   5.381272395805397e-07   2.9542799171475574e-05
-1.4131668501433365e-05   5.381272395805397e-07   2.9542799171475574e-05
-1.4131668501433365e-05   5.381272395805397e-07   2.9542799171475574e-05
-1.3919108892007983e-05   1.361788942711795e-06   2.8694336133887793e-05
-1.3919108892007983e-05   1.361788942711795e-06   2.8694336133887793e-05
-1.3919108892007983e-05   1.361788942711795e-06   2.8694336133887793e-05
-1.3919108892007983e-05   1.361788942711795e-06   2.8694336133887793e-05
-1.4131668501433352e-05   1.83797817595731e-06   2.9360578050554556e-05
-1.4131668501433352e-05   1.83797817595731e-06   2.9360578050554556e-05
-1.4131668501433352e-05   1.83797817595731e-06   2.9360578050554556e-05
-1.4131668501433352e-05   1.83797817595731e-06   2.9360578050554556e-05
-1.4022335828881043e-05   5.381272395805397e-07   2.8762888609649507e-05
-1.4022335828881043e-05   5.381272395805397e-07   2.8762888609649507e-05
-1.4022335828881043e-05   5.381272395805397e-07   2.8762888609649507e-05
-1.4022335828881043e-05   5.381272395805397e-07   2.8762888609649507e-05
-1.4153969695423769e-05   1.0763243460624062e-06   2.8980192692061482e-05
-1.4153969695423769e-05   1.0763243460624062e-06   2.8980192692061482e-05
-1.4153969695423769e-05   1.0763243460624062e-06   2.8980192692061482e-05
-1.4153969695423769e-05   1.0763243460624062e-06   2.8980192692061482e-05
-1.4586199035230421e-05   -1.3605664863822718e-07   3.0428003521892658e-05
-1.4586199035230421e-05   -1.3605664863822718e-07   3.0428003521892658e-05
-1.4586199035230421e-05   -1.3605664863822718e-07   3.0428003521892658e-05
-1.4586199035230421e-05   -1.3605664863822718e-07   3.0428003521892658e-05
-1.4049347727983747e-05   8.805207665843473e-07   2.8923304894014394e-05
-1.4049347727983747e-05   8.805207665843473e-07   2.8923304894014394e-05
-1.4049347727983747e-05   8.805207665843473e-07   2.8923304894014394e-05
-1.4049347727983747e-05   8.805207665843473e-07   2.8923304894014394e-05
-1.4586199035230421e-05   1.0763243460621894e-06   2.9707621288881255e-05
-1.4586199035230421e-05   1.0763243460621894e-06   2.9707621288881255e-05
-1.4586199035230421e-05   1.0763243460621894e-06   2.9707621288881255e-05
-1.4586199035230421e-05   1.0763243460621894e-06   2.9707621288881255e-05
-1.4153969695423688e-05   -1.3605664863822718e-07   2.9700574925072356e-05
-1.4153969695423688e-05   -1.3605664863822718e-07   2.9700574925072356e-05
-1.4153969695423688e-05   -1.3605664863822718e-07   2.9700574925072356e-05
-1.4153969695423688e-05   -1.3605664863822718e-07   2.9700574925072356e-05
-1.4248399013614863e-05   2.5007944920007324e-07   2.982140664216208e-05
-1.4248399013614863e-05   2.5007944920007324e-07   2.982140664216208e-05
-1.4248399013614863e-05   2.5007944920007324e-07   2.982140664216208e-05
-1.4248399013614863e-05   2.5007944920007324e-07   2.982140664216208e-05
-1.4873909196529504e-05   -1.0231896799765394e-06   3.1627885091192246e-05
-1.4873909196529504e-05   -1.0231896799765394e-06   3.1627885091192246e-05
-1.4873909196529504e-05   -1.0231896799765394e-06   3.1627885091192246e-05
-1.4873909196529504e-05   -1.0231896799765394e-06   3.1627885091192246e-05
-1.4257372662923238e-05   3.1378313231013484e-07   2.9798140514475857e-05
-1.4257372662923238e-05   3.1378313231013484e-07   2.9798140514475857e-05
-1.4257372662923238e-05   3.1378313231013484e-07   2.9798140514475857e-05
-1.4257372662923238e-05   3.1378313231013484e-07   2.9798140514475857e-05
-1.391646635441222e-05   3.1855126648519267e-06   3.2769956264776224e-05
-1.391646635441222e-05   3.1855126648519267e-06   3.2769956264776224e-05
-1.391646635441222e-05   3.1855126648519267e-06   3.2769956264776224e-05
-1.391646635441222e-05   3.1855126648519267e-06   3.2769956264776224e-05
-1.4944063805173897e-05   3.098695186056497e-07   2.9331907959092278e-05
-1.4944063805173897e-05   3.098695186056497e-07   2.9331907959092278e-05
-1.4944063805173897e-05   3.098695186056497e-07   2.9331907959092278e-05
-1.4944063805173897e-05   3.098695186056497e-07   2.9331907959092278e-05
-1.4977233485949056e-05   2.421099744291883e-06   3.109309587200114e-05
-1.4977233485949056e-05   2.421099744291883e-06   3.109309587200114e-05
-1.4977233485949056e-05   2.421099744291883e-06   3.109309587200114e-05
-1.4977233485949056e-05   2.421099744291883e-06   3.109309587200114e-05
-1.4022335828881043e-05   -1.8103626733692937e-07   3.106288138386476e-05
-1.4022335828881043e-05   -1.8103626733692937e-07   3.106288138386476e-05
-1.4022335828881043e-05   -1.8103626733692937e-07   3.106288138386476e-05
-1.4022335828881043e-05   -1.8103626733692937e-07   3.106288138386476e-05
-1.4439717611044022e-05   1.38611057410188e-06   3.081822958260651e-05
-1.4439717611044022e-05   1.38611057410188e-06   3.081822958260651e-05
-1.4439717611044022e-05   1.38611057410188e-06   3.081822958260651e-05
-1.4439717611044022e-05   1.38611057410188e-06   3.081822958260651e-05
-1.402233582888107e-05   2.421099744291883e-06   3.2654377478978105e-05
-1.402233582888107e-05   2.421099744291883e-06   3.2654377478978105e-05
-1.402233582888107e-05   2.421099744291883e-06   3.2654377478978105e-05
-1.402233582888107e-05   2.421099744291883e-06   3.2654377478978105e-05
-1.4977233485949056e-05   -1.810362673370378e-07   2.9501599776887607e-05
-1.4977233485949056e-05   -1.810362673370378e-07   2.9501599776887607e-05
-1.4977233485949056e-05   -1.810362673370378e-07   2.9501599776887607e-05
-1.4977233485949056e-05   -1.810362673370378e-07   2.9501599776887607e-05
-1.5040299140324238e-05   1.644106363361342e-06   3.158439616279471e-05
-1.5040299140324238e-05   1.644106363361342e-06   3.158439616279471e-05
-1.5040299140324238e-05   1.644106363361342e-06   3.158439616279471e-05
-1.5040299140324238e-05   1.644106363361342e-06   3.158439616279471e-05
-1.4153969695423715e-05   -7.689717411455072e-07   3.1555027283997603e-05
-1.4153969695423715e-05   -7.689717411455072e-07   3.1555027283997603e-05
-1.4153969695423715e-05   -7.689717411455072e-07   3.1555027283997603e-05
-1.4153969695423715e-05   -7.689717411455072e-07   3.1555027283997603e-05
-1.4444344011201537e-05   8.993589753359538e-07   3.1037986047070636e-05
-1.4444344011201537e-05   8.993589753359538e-07   3.1037986047070636e-05
-1.4444344011201537e-05   8.993589753359538e-07   3.1037986047070636e-05
-1.4444344011201537e-05   8.993589753359538e-07   3.1037986047070636e-05
-1.4153969695423769e-05   1.644106363361342e-06   3.3032243025498276e-05
-1.4153969695423769e-05   1.644106363361342e-06   3.3032243025498276e-05
-1.4153969695423769e-05   1.644106363361342e-06   3.3032243025498276e-05
-1.4153969695423769e-05   1.644106363361342e-06   3.3032243025498276e-05
-1.5040299140324184e-05   -7.689717411455072e-07   3.010718042129344e-05
-1.5040299140324184e-05   -7.689717411455072e-07   3.010718042129344e-05
-1.5040299140324184e-05   -7.689717411455072e-07   3.010718042129344e-05
-1.5040299140324184e-05   -7.689717411455072e-07   3.010718042129344e-05
-1.5079270093365515e-05   9.071140805725405e-07   3.2459456484600644e-05
-1.5079270093365515e-05   9.071140805725405e-07   3.2459456484600644e-05
-1.5079270093365515e-05   9.071140805725405e-07   3.2459456484600644e-05
-1.5079270093365515e-05   9.071140805725405e-07   3.2459456484600644e-05
-1.4248399013614863e-05   -1.3601069855673784e-06   3.2435003991366465e-05
-1.4248399013614863e-05   -1.3601069855673784e-06   3.2435003991366465e-05
-1.4248399013614863e-05   -1.3601069855673784e-06   3.2435003991366465e-05
-1.4248399013614863e-05   -1.3601069855673784e-06   3.2435003991366465e-05
-1.4472793888289614e-05   3.9877142092624787e-07   3.1753668405260806e-05
-1.4472793888289614e-05   3.9877142092624787e-07   3.1753668405260806e-05
-1.4472793888289614e-05   3.9877142092624787e-07   3.1753668405260806e-05
-1.4472793888289614e-05   3.9877142092624787e-07   3.1753668405260806e-05
-1.4944063805173897e-05   4.302137243368661e-06   2.6679653144576774e-05
-1.4944063805173897e-05   4.302137243368661e-06   2.6679653144576774e-05
-1.4944063805173897e-05   4.302137243368661e-06   2.6679653144576774e-05
-1.4944063805173897e-05   4.302137243368661e-06   2.6679653144576774e-05
-1.644756311844315e-05   1.4106618344365135e-06   2.243893571043546e-05
-1.644756311844315e-05   1.4106618344365135e-06   2.243893571043546e-05
-1.644756311844315e-05   1.4106618344365135e-06   2.243893571043546e-05
-1.644756311844315e-05   1.4106618344365135e-06   2.243893571043546e-05
-1.6470983977022078e-05   3.497812080924083e-06   2.519340524146773e-05
-1.6470983977022078e-05   3.497812080924083e-06   2.519340524146773e-05
-1.6470983977022078e-05   3.497812080924083e-06   2.519340524146773e-05
-1.6470983977022078e-05   3.497812080924083e-06   2.519340524146773e-05
-1.4977233485949056e-05   7.643176233823427e-07   2.434391776420428e-05
-1.4977233485949056e-05   7.643176233823427e-07   2.434391776420428e-05
-1.4977233485949056e-05   7.643176233823427e-07   2.434391776420428e-05
-1.4977233485949056e-05   7.643176233823427e-07   2.434391776420428e-05
-1.5668794599028326e-05   2.55385337602867e-06   2.4422798167748547e-05
-1.5668794599028326e-05   2.55385337602867e-06   2.4422798167748547e-05
-1.5668794599028326e-05   2.55385337602867e-06   2.4422798167748547e-05
-1.5668794599028326e-05   2.55385337602867e-06   2.4422798167748547e-05
-1.4977233485949056e-05   3.497812080924083e-06   2.6833501915992362e-05
-1.4977233485949056e-05   3.497812080924083e-06   2.6833501915992362e-05
-1.4977233485949056e-05   3.497812080924083e-06   2.6833501915992362e-05
-1.4977233485949056e-05   3.497812080924083e-06   2.6833501915992362e-05
-1.6470983977022078e-05   7.643176233824512e-07   2.270382108967945e-05
-1.6470983977022078e-05   7.643176233824512e-07   2.270382108967945e-05
-1.6470983977022078e-05   7.643176233824512e-07   2.270382108967945e-05
-1.6470983977022078e-05   7.643176233824512e-07   2.270382108967945e-05
-1.6646671938212146e-05   2.7826828032466704e-06   2.6129021636038616e-05
-1.6646671938212146e-05   2.7826828032466704e-06   2.6129021636038616e-05
-1.6646671938212146e-05   2.7826828032466704e-06   2.6129021636038616e-05
-1.6646671938212146e-05   2.7826828032466704e-06   2.6129021636038616e-05
-1.5040299140324238e-05   2.1110435540080096e-07   2.4994680708266092e-05
-1.5040299140324238e-05   2.1110435540080096e-07   2.4994680708266092e-05
-1.5040299140324238e-05   2.1110435540080096e-07   2.4994680708266092e-05
-1.5040299140324238e-05   2.1110435540080096e-07   2.4994680708266092e-05
-1.5620829289291496e-05   2.0222821454861893e-06   2.487552428249236e-05
-1.5620829289291496e-05   2.0222821454861893e-06   2.487552428249236e-05
-1.5620829289291496e-05   2.0222821454861893e-06   2.487552428249236e-05
-1.5620829289291496e-05   2.0222821454861893e-06   2.487552428249236e-05
-1.5040299140324238e-05   2.7826828032468873e-06   2.767196870474538e-05
-1.5040299140324238e-05   2.7826828032468873e-06   2.767196870474538e-05
-1.5040299140324238e-05   2.7826828032468873e-06   2.767196870474538e-05
-1.5040299140324238e-05   2.7826828032468873e-06   2.767196870474538e-05
-1.6646671938212146e-05   2.1110435540069254e-07   2.3451733639558544e-05
-1.6646671938212146e-05   2.1110435540069254e-07   2.3451733639558544e-05
-1.6646671938212146e-05   2.1110435540069254e-07   2.3451733639558544e-05
-1.6646671938212146e-05   2.1110435540069254e-07   2.3451733639558544e-05
-1.675042772098168e-05   2.054631779003927e-06   2.729241067795079e-05
-1.675042772098168e-05   2.054631779003927e-06   2.729241067795079e-05
-1.675042772098168e-05   2.054631779003927e-06   2.729241067795079e-05
-1.675042772098168e-05   2.054631779003927e-06   2.729241067795079e-05
-1.5079270093365515e-05   -3.464134797411412e-07   2.5947775120503712e-05
-1.5079270093365515e-05   -3.464134797411412e-07   2.5947775120503712e-05
-1.5079270093365515e-05   -3.464134797411412e-07   2.5947775120503712e-05
-1.5079270093365515e-05   -3.464134797411412e-07   2.5947775120503712e-05
-1.5695734782554115e-05   1.5478349129653332e-06   2.5838667233527035e-05
-1.5695734782554115e-05   1.5478349129653332e-06   2.5838667233527035e-05
-1.5695734782554115e-05   1.5478349129653332e-06   2.5838667233527035e-05
-1.5695734782554115e-05   1.5478349129653332e-06   2.5838667233527035e-05
-1.6447563118443097e-05   5.075270102504817e-06   1.0235160225792093e-05
-1.6447563118443097e-05   5.075270102504817e-06   1.0235160225792093e-05
-1.6447563118443097e-05   5.075270102504817e-06   1.0235160225792093e-05
-1.6447563118443097e-05   5.075270102504817e-06   1.0235160225792093e-05
-1.6193667207192448e-05   2.3190958698541316e-06   9.004615538286151e-06
-1.6193667207192448e-05   2.3190958698541316e-06   9.004615538286151e-06
-1.6193667207192448e-05   2.3190958698541316e-06   9.004615538286151e-06
-1.6193667207192448e-05   2.3190958698541316e-06   9.004615538286151e-06
-1.7026130611648947e-05   4.539935033027152e-06   1.1211419044363131e-05
-1.7026130611648947e-05   4.539935033027152e-06   1.1211419044363131e-05
-1.7026130611648947e-05   4.539935033027152e-06   1.1211419044363131e-05
-1.7026130611648947e-05   4.539935033027152e-06   1.1211419044363131e-05
-1.6470983977022024e-05   1.8624303271477663e-06   1.189267747684589e-05
-1.6470983977022024e-05   1.8624303271477663e-06   1.189267747684589e-05
-1.6470983977022024e-05   1.8624303271477663e-06   1.189267747684589e-05
-1.6470983977022024e-05   1.8624303271477663e-06   1.189267747684589e-05
-1.599788028302184e-05   3.5684666331746093e-06   1.0080549536562833e-05
-1.599788028302184e-05   3.5684666331746093e-06   1.0080549536562833e-05
-1.599788028302184e-05   3.5684666331746093e-06   1.0080549536562833e-05
-1.599788028302184e-05   3.5684666331746093e-06   1.0080549536562833e-05
-1.647098397702197e-05   4.5399350330269355e-06   1.2817921867890221e-05
-1.647098397702197e-05   4.5399350330269355e-06   1.2817921867890221e-05
-1.647098397702197e-05   4.5399350330269355e-06   1.2817921867890221e-05
-1.647098397702197e-05   4.5399350330269355e-06   1.2817921867890221e-05
-1.7026130611649056e-05   1.862430327147658e-06   1.0286174653318368e-05
-1.7026130611649056e-05   1.862430327147658e-06   1.0286174653318368e-05
-1.7026130611649056e-05   1.862430327147658e-06   1.0286174653318368e-05
-1.7026130611649056e-05   1.862430327147658e-06   1.0286174653318368e-05
-1.775748985821321e-05   4.172714725647359e-06   1.3299007541876665e-05
-1.775748985821321e-05   4.172714725647359e-06   1.3299007541876665e-05
-1.775748985821321e-05   4.172714725647359e-06   1.3299007541876665e-05
-1.775748985821321e-05   4.172714725647359e-06   1.3299007541876665e-05
-1.6646671938212092e-05   1.5636387179240353e-06   1.3013089946508878e-05
-1.6646671938212092e-05   1.5636387179240353e-06   1.3013089946508878e-05
-1.6646671938212092e-05   1.5636387179240353e-06   1.3013089946508878e-05
-1.6646671938212092e-05   1.5636387179240353e-06   1.3013089946508878e-05
-1.6589839029613514e-05   3.300568807647385e-06   1.1876210378343292e-05
-1.6589839029613514e-05   3.300568807647385e-06   1.1876210378343292e-05
-1.6589839029613514e-05   3.300568807647385e-06   1.1876210378343292e-05
-1.6589839029613514e-05   3.300568807647385e-06   1.1876210378343292e-05
-1.6646671938212038e-05   4.172714725647359e-06   1.4864453146510507e-05
-1.6646671938212038e-05   4.172714725647359e-06   1.4864453146510507e-05
-1.6646671938212038e-05   4.172714725647359e-06   1.4864453146510507e-05
-1.6646671938212038e-05   4.172714725647359e-06   1.4864453146510507e-05
-1.775748985821332e-05   1.5636387179240353e-06   1.1447644341874656e-05
-1.775748985821332e-05   1.5636387179240353e-06   1.1447644341874656e-05
-1.775748985821332e-05   1.5636387179240353e-06   1.1447644341874656e-05
-1.775748985821332e-05   1.5636387179240353e-06   1.1447644341874656e-05
-1.884797172184091e-05   3.331604905668171e-06   1.7134535161853013e-05
-1.884797172184091e-05   3.331604905668171e-06   1.7134535161853013e-05
-1.884797172184091e-05   3.331604905668171e-06   1.7134535161853013e-05
-1.884797172184091e-05   3.331604905668171e-06   1.7134535161853013e-05
-1.675042772098168e-05   9.648759293586677e-07   1.5058665879539852e-05
-1.675042772098168e-05   9.648759293586677e-07   1.5058665879539852e-05
-1.675042772098168e-05   9.648759293586677e-07   1.5058665879539852e-05
-1.675042772098168e-05   9.648759293586677e-07   1.5058665879539852e-05
-1.6789674074163123e-05   2.9837621732661454e-06   1.3912744721829816e-05
-1.6789674074163123e-05   2.9837621732661454e-06   1.3912744721829816e-05
-1.6789674074163123e-05   2.9837621732661454e-06   1.3912744721829816e-05
-1.6789674074163123e-05   2.9837621732661454e-06   1.3912744721829816e-05
-3.264625115345673e-05   4.3218143827419625e-06   1.24150598277647e-05
-3.264625115345673e-05   4.3218143827419625e-06   1.24150598277647e-05
-3.264625115345673e-05   4.3218143827419625e-06   1.24150598277647e-05
-3.264625115345673e-05   4.3218143827419625e-06   1.24150598277647e-05
-2.1995590451019358e-05   5.989796916999377e-06   3.116695051904819e-05
-2.1995590451019358e-05   5.989796916999377e-06   3.116695051904819e-05
-2.1995590451019358e-05   5.989796916999377e-06   3.116695051904819e-05
-2.1995590451019358e-05   5.989796916999377e-06   3.116695051904819e-05
-2.1981948228990294e-05   3.3796407620973216e-06   1.4145137542175966e-05
-2.1981948228990294e-05   3.3796407620973216e-06   1.4145137542175966e-05
-2.1981948228990294e-05   3.3796407620973216e-06   1.4145137542175966e-05
-2.1981948228990294e-05   3.3796407620973216e-06   1.4145137542175966e-05
-3.5934876867329234e-05   2.4493135095168123e-06   3.795821495762279e-05
-3.5934876867329234e-05   2.4493135095168123e-06   3.795821495762279e-05
-3.5934876867329234e-05   2.4493135095168123e-06   3.795821495762279e-05
-3.5934876867329234e-05   2.4493135095168123e-06   3.795821495762279e-05
-2.668852643983211e-05   3.5547555250086717e-06   2.188436570249911e-05
-2.668852643983211e-05   3.5547555250086717e-06   2.188436570249911e-05
-2.668852643983211e-05   3.5547555250086717e-06   2.188436570249911e-05
-2.668852643983211e-05   3.5547555250086717e-06   2.188436570249911e-05
-3.59348768673293e-05   3.3796407620973216e-06   1.4703333893724326e-05
-3.59348768673293e-05   3.3796407620973216e-06   1.4703333893724326e-05
-3.59348768673293e-05   3.3796407620973216e-06   1.4703333893724326e-05
-3.59348768673293e-05   3.3796407620973216e-06   1.4703333893724326e-05
-2.1981948228990294e-05   2.4493135095168123e-06   3.7400018606074514e-05
-2.1981948228990294e-05   2.4493135095168123e-06   3.7400018606074514e-05
-2.1981948228990294e-05   2.4493135095168123e-06   3.7400018606074514e-05
-2.1981948228990294e-05   2.4493135095168123e-06   3.7400018606074514e-05
-2.2273866585213407e-05   2.727077221088359e-06   1.5841790957040478e-05
-2.2273866585213407e-05   2.727077221088359e-06   1.5841790957040478e-05
-2.2273866585213407e-05   2.727077221088359e-06   1.5841790957040478e-05
-2.2273866585213407e-05   2.727077221088359e-06   1.5841790957040478e-05
-3.605414537357978e-05   1.7656735328055724e-06   3.938576448395393e-05
-3.605414537357978e-05   1.7656735328055724e-06   3.938576448395393e-05
-3.605414537357978e-05   1.7656735328055724e-06   3.938576448395393e-05
-3.605414537357978e-05   1.7656735328055724e-06   3.938576448395393e-05
-2.846613862427474e-05   2.229203483253869e-06   2.6460968598176262e-05
-2.846613862427474e-05   2.229203483253869e-06   2.6460968598176262e-05
-2.846613862427474e-05   2.229203483253869e-06   2.6460968598176262e-05
-2.846613862427474e-05   2.229203483253869e-06   2.6460968598176262e-05
-3.605414537357985e-05   2.727077221088359e-06   1.641863317001016e-05
-3.605414537357985e-05   2.727077221088359e-06   1.641863317001016e-05
-3.605414537357985e-05   2.727077221088359e-06   1.641863317001016e-05
-3.605414537357985e-05   2.727077221088359e-06   1.641863317001016e-05
-2.227386658521336e-05   1.7656735328055724e-06   3.8808922270984285e-05
-2.227386658521336e-05   1.7656735328055724e-06   3.8808922270984285e-05
-2.227386658521336e-05   1.7656735328055724e-06   3.8808922270984285e-05
-2.227386658521336e-05   1.7656735328055724e-06   3.8808922270984285e-05
-2.202827213458618e-05   1.1213511860930963e-06   1.8810941533182655e-05
-2.202827213458618e-05   1.1213511860930963e-06   1.8810941533182655e-05
-2.202827213458618e-05   1.1213511860930963e-06   1.8810941533182655e-05
-2.202827213458618e-05   1.1213511860930963e-06   1.8810941533182655e-05
-3.6431923286833575e-05   -1.1368060341701786e-06   4.417192111908607e-05
-3.6431923286833575e-05   -1.1368060341701786e-06   4.417192111908607e-05
-3.6431923286833575e-05   -1.1368060341701786e-06   4.417192111908607e-05
-3.6431923286833575e-05   -1.1368060341701786e-06   4.417192111908607e-05
-2.8023611132589903e-05   1.0911444465313896e-06   2.88212972402591e-05
-2.8023611132589903e-05   1.0911444465313896e-06   2.88212972402591e-05
-2.8023611132589903e-05   1.0911444465313896e-06   2.88212972402591e-05
-2.8023611132589903e-05   1.0911444465313896e-06   2.88212972402591e-05
-2.19955904510194e-05   1.1178549587775172e-06   2.8632004350314278e-05
-2.19955904510194e-05   1.1178549587775172e-06   2.8632004350314278e-05
-2.19955904510194e-05   1.1178549587775172e-06   2.8632004350314278e-05
-2.19955904510194e-05   1.1178549587775172e-06   2.8632004350314278e-05
-1.347494570766081e-05   -6.69043949940145e-06   3.814810224767127e-05
-1.347494570766081e-05   -6.69043949940145e-06   3.814810224767127e-05
-1.347494570766081e-05   -6.69043949940145e-06   3.814810224767127e-05
-1.347494570766081e-05   -6.69043949940145e-06   3.814810224767127e-05
-1.3497242287682928e-05   5.381272395805397e-07   2.4019649041550338e-05
-1.3497242287682928e-05   5.381272395805397e-07   2.4019649041550338e-05
-1.3497242287682928e-05   5.381272395805397e-07   2.4019649041550338e-05
-1.3497242287682928e-05   5.381272395805397e-07   2.4019649041550338e-05
-2.1981948228990294e-05   -5.4723079565840256e-06   4.176708672809481e-05
-2.1981948228990294e-05   -5.4723079565840256e-06   4.176708672809481e-05
-2.1981948228990294e-05   -5.4723079565840256e-06   4.176708672809481e-05
-2.1981948228990294e-05   -5.4723079565840256e-06   4.176708672809481e-05
-1.764145783343634e-05   -3.3071898134428776e-06   3.3233865182953734e-05
-1.764145783343634e-05   -3.3071898134428776e-06   3.3233865182953734e-05
-1.764145783343634e-05   -3.3071898134428776e-06   3.3233865182953734e-05
-1.764145783343634e-05   -3.3071898134428776e-06   3.3233865182953734e-05
-2.1981948228990307e-05   5.381272395805397e-07   2.7625910159248838e-05
-2.1981948228990307e-05   5.381272395805397e-07   2.7625910159248838e-05
-2.1981948228990307e-05   5.381272395805397e-07   2.7625910159248838e-05
-2.1981948228990307e-05   5.381272395805397e-07   2.7625910159248838e-05
-1.34972422876829e-05   -5.4723079565840256e-06   3.816082561039616e-05
-1.34972422876829e-05   -5.4723079565840256e-06   3.816082561039616e-05
-1.34972422876829e-05   -5.4723079565840256e-06   3.816082561039616e-05
-1.34972422876829e-05   -5.4723079565840256e-06   3.816082561039616e-05
-1.3543161079363283e-05   -1.3605664863822718e-07   2.476743667464889e-05
-1.3543161079363283e-05   -1.3605664863822718e-07   2.476743667464889e-05
-1.3543161079363283e-05   -1.3605664863822718e-07   2.476743667464889e-05
-1.3543161079363283e-05   -1.3605664863822718e-07   2.476743667464889e-05
-2.227386658521336e-05   -5.5984159370530795e-06   4.259602809078103e-05
-2.227386658521336e-05   -5.5984159370530795e-06   4.259602809078103e-05
-2.227386658521336e-05   -5.5984159370530795e-06   4.259602809078103e-05
-2.227386658521336e-05   -5.5984159370530795e-06   4.259602809078103e-05
-1.7507634950104807e-05   -2.8891362307849593e-06   3.302674087517243e-05
-1.7507634950104807e-05   -2.8891362307849593e-06   3.302674087517243e-05
-1.7507634950104807e-05   -2.8891362307849593e-06   3.302674087517243e-05
-1.7507634950104807e-05   -2.8891362307849593e-06   3.302674087517243e-05
-2.2273866585213407e-05   -1.3605664863822718e-07   2.8044852247697833e-05
-2.2273866585213407e-05   -1.3605664863822718e-07   2.8044852247697833e-05
-2.2273866585213407e-05   -1.3605664863822718e-07   2.8044852247697833e-05
-2.2273866585213407e-05   -1.3605664863822718e-07   2.8044852247697833e-05
-1.3543161079363256e-05   -5.5984159370530795e-06   3.931861251773214e-05
-1.3543161079363256e-05   -5.5984159370530795e-06   3.931861251773214e-05
-1.3543161079363256e-05   -5.5984159370530795e-06   3.931861251773214e-05
-1.3543161079363256e-05   -5.5984159370530795e-06   3.931861251773214e-05
-1.3402447674807006e-05   -1.0231896799765394e-06   2.5698232824273855e-05
-1.3402447674807006e-05   -1.0231896799765394e-06   2.5698232824273855e-05
-1.3402447674807006e-05   -1.0231896799765394e-06   2.5698232824273855e-05
-1.3402447674807006e-05   -1.0231896799765394e-06   2.5698232824273855e-05
-2.2028272134586126e-05   -5.654857243477115e-06   4.285360746200594e-05
-2.2028272134586126e-05   -5.654857243477115e-06   4.285360746200594e-05
-2.2028272134586126e-05   -5.654857243477115e-06   4.285360746200594e-05
-2.2028272134586126e-05   -5.654857243477115e-06   4.285360746200594e-05
-1.7581590346956788e-05   -3.2478248589755615e-06   3.399825171858953e-05
-1.7581590346956788e-05   -3.2478248589755615e-06   3.399825171858953e-05
-1.7581590346956788e-05   -3.2478248589755615e-06   3.399825171858953e-05
-1.7581590346956788e-05   -3.2478248589755615e-06   3.399825171858953e-05
-1.347494570766081e-05   3.098695186056497e-07   2.645194154939361e-05
-1.347494570766081e-05   3.098695186056497e-07   2.645194154939361e-05
-1.347494570766081e-05   3.098695186056497e-07   2.645194154939361e-05
-1.347494570766081e-05   3.098695186056497e-07   2.645194154939361e-05
-9.891684684523153e-06   -5.225882392797859e-06   2.9102592107781107e-05
-9.891684684523153e-06   -5.225882392797859e-06   2.9102592107781107e-05
-9.891684684523153e-06   -5.225882392797859e-06   2.9102592107781107e-05
-9.891684684523153e-06   -5.225882392797859e-06   2.9102592107781107e-05
-9.797918017645491e-06   -1.8103626733692937e-07   2.334882440340792e-05
-9.797918017645491e-06   -1.8103626733692937e-07   2.334882440340792e-05
-9.797918017645491e-06   -1.8103626733692937e-07   2.334882440340792e-05
-9.797918017645491e-06   -1.8103626733692937e-07   2.334882440340792e-05
-1.34972422876829e-05   -5.132398621266561e-06   3.24851822658282e-05
-1.34972422876829e-05   -5.132398621266561e-06   3.24851822658282e-05
-1.34972422876829e-05   -5.132398621266561e-06   3.24851822658282e-05
-1.34972422876829e-05   -5.132398621266561e-06   3.24851822658282e-05
-1.1592949656669729e-05   -2.642298234862878e-06   2.7817300982297647e-05
-1.1592949656669729e-05   -2.642298234862878e-06   2.7817300982297647e-05
-1.1592949656669729e-05   -2.642298234862878e-06   2.7817300982297647e-05
-1.1592949656669729e-05   -2.642298234862878e-06   2.7817300982297647e-05
-1.34972422876829e-05   -1.8103626733692937e-07   2.631964181576559e-05
-1.34972422876829e-05   -1.8103626733692937e-07   2.631964181576559e-05
-1.34972422876829e-05   -1.8103626733692937e-07   2.631964181576559e-05
-1.34972422876829e-05   -1.8103626733692937e-07   2.631964181576559e-05
-9.797918017645545e-06   -5.132398621266561e-06   2.9514364853470504e-05
-9.797918017645545e-06   -5.132398621266561e-06   2.9514364853470504e-05
-9.797918017645545e-06   -5.132398621266561e-06   2.9514364853470504e-05
-9.797918017645545e-06   -5.132398621266561e-06   2.9514364853470504e-05
-9.715671579177832e-06   -7.689717411455072e-07   2.3909111292189783e-05
-9.715671579177832e-06   -7.689717411455072e-07   2.3909111292189783e-05
-9.715671579177832e-06   -7.689717411455072e-07   2.3909111292189783e-05
-9.715671579177832e-06   -7.689717411455072e-07   2.3909111292189783e-05
-1.3543161079363256e-05   -5.2902679767857525e-06   3.30010382005495e-05
-1.3543161079363256e-05   -5.2902679767857525e-06   3.30010382005495e-05
-1.3543161079363256e-05   -5.2902679767857525e-06   3.30010382005495e-05
-1.3543161079363256e-05   -5.2902679767857525e-06   3.30010382005495e-05
-1.1485199353945531e-05   -2.820606050235228e-06   2.808930483558914e-05
-1.1485199353945531e-05   -2.820606050235228e-06   2.808930483558914e-05
-1.1485199353945531e-05   -2.820606050235228e-06   2.808930483558914e-05
-1.1485199353945531e-05   -2.820606050235228e-06   2.808930483558914e-05
-1.3543161079363256e-05   -7.689717411455072e-07   2.6621889033574082e-05
-1.3543161079363256e-05   -7.689717411455072e-07   2.6621889033574082e-05
-1.3543161079363256e-05   -7.689717411455072e-07   2.6621889033574082e-05
-1.3543161079363256e-05   -7.689717411455072e-07   2.6621889033574082e-05
-9.715671579177832e-06   -5.290267976785807e-06   3.028826045916545e-05
-9.715671579177832e-06   -5.290267976785807e-06   3.028826045916545e-05
-9.715671579177832e-06   -5.290267976785807e-06   3.028826045916545e-05
-9.715671579177832e-06   -5.290267976785807e-06   3.028826045916545e-05
-9.517608234640886e-06   -1.3601069855674868e-06   2.477589658440491e-05
-9.517608234640886e-06   -1.3601069855674868e-06   2.477589658440491e-05
-9.517608234640886e-06   -1.3601069855674868e-06   2.477589658440491e-05
-9.517608234640886e-06   -1.3601069855674868e-06   2.477589658440491e-05
-1.3402447674806979e-05   -5.515801348149666e-06   3.374404560223081e-05
-1.3402447674806979e-05   -5.515801348149666e-06   3.374404560223081e-05
-1.3402447674806979e-05   -5.515801348149666e-06   3.374404560223081e-05
-1.3402447674806979e-05   -5.515801348149666e-06   3.374404560223081e-05
-1.1358829468322175e-05   -3.0794085951083927e-06   2.8876179606264648e-05
-1.1358829468322175e-05   -3.0794085951083927e-06   2.8876179606264648e-05
-1.1358829468322175e-05   -3.0794085951083927e-06   2.8876179606264648e-05
-1.1358829468322175e-05   -3.0794085951083927e-06   2.8876179606264648e-05
-9.891684684523098e-06   1.4106618344365135e-06   1.7972403399253885e-05
-9.891684684523098e-06   1.4106618344365135e-06   1.7972403399253885e-05
-9.891684684523098e-06   1.4106618344365135e-06   1.7972403399253885e-05
-9.891684684523098e-06   1.4106618344365135e-06   1.7972403399253885e-05
-8.221538818667623e-06   -2.142159469156312e-06   1.862428706019074e-05
-8.221538818667623e-06   -2.142159469156312e-06   1.862428706019074e-05
-8.221538818667623e-06   -2.142159469156312e-06   1.862428706019074e-05
-8.221538818667623e-06   -2.142159469156312e-06   1.862428706019074e-05
-8.038748236184091e-06   7.643176233823427e-07   1.6226756877005342e-05
-8.038748236184091e-06   7.643176233823427e-07   1.6226756877005342e-05
-8.038748236184091e-06   7.643176233823427e-07   1.6226756877005342e-05
-8.038748236184091e-06   7.643176233823427e-07   1.6226756877005342e-05
-9.797918017645491e-06   -2.509658232816383e-06   2.1123092026494017e-05
-9.797918017645491e-06   -2.509658232816383e-06   2.1123092026494017e-05
-9.797918017645491e-06   -2.509658232816383e-06   2.1123092026494017e-05
-9.797918017645491e-06   -2.509658232816383e-06   2.1123092026494017e-05
-8.921612757185844e-06   -4.883371039854454e-07   1.844979058176295e-05
-8.921612757185844e-06   -4.883371039854454e-07   1.844979058176295e-05
-8.921612757185844e-06   -4.883371039854454e-07   1.844979058176295e-05
-8.921612757185844e-06   -4.883371039854454e-07   1.844979058176295e-05
-9.797918017645491e-06   7.643176233823427e-07   1.819114239072473e-05
-9.797918017645491e-06   7.643176233823427e-07   1.819114239072473e-05
-9.797918017645491e-06   7.643176233823427e-07   1.819114239072473e-05
-9.797918017645491e-06   7.643176233823427e-07   1.819114239072473e-05
-8.038748236184091e-06   -2.509658232816383e-06   1.9158706512774684e-05
-8.038748236184091e-06   -2.509658232816383e-06   1.9158706512774684e-05
-8.038748236184091e-06   -2.509658232816383e-06   1.9158706512774684e-05
-8.038748236184091e-06   -2.509658232816383e-06   1.9158706512774684e-05
-7.952821996986084e-06   2.1110435540080096e-07   1.699566287204535e-05
-7.952821996986084e-06   2.1110435540080096e-07   1.699566287204535e-05
-7.952821996986084e-06   2.1110435540080096e-07   1.699566287204535e-05
-7.952821996986084e-06   2.1110435540080096e-07   1.699566287204535e-05
-9.715671579177832e-06   -2.790476823127659e-06   2.1734694216148575e-05
-9.715671579177832e-06   -2.790476823127659e-06   2.1734694216148575e-05
-9.715671579177832e-06   -2.790476823127659e-06   2.1734694216148575e-05
-9.715671579177832e-06   -2.790476823127659e-06   2.1734694216148575e-05
-8.74055773793418e-06   -8.830004689019608e-07   1.8965018668206323e-05
-8.74055773793418e-06   -8.830004689019608e-07   1.8965018668206323e-05
-8.74055773793418e-06   -8.830004689019608e-07   1.8965018668206323e-05
-8.74055773793418e-06   -8.830004689019608e-07   1.8965018668206323e-05
-9.715671579177778e-06   2.1110435540080096e-07   1.8796611579162273e-05
-9.715671579177778e-06   2.1110435540080096e-07   1.8796611579162273e-05
-9.715671579177778e-06   2.1110435540080096e-07   1.8796611579162273e-05
-9.715671579177778e-06   2.1110435540080096e-07   1.8796611579162273e-05
-7.952821996986084e-06   -2.7904768231276048e-06   1.9933745509031543e-05
-7.952821996986084e-06   -2.7904768231276048e-06   1.9933745509031543e-05
-7.952821996986084e-06   -2.7904768231276048e-06   1.9933745509031543e-05
-7.952821996986084e-06   -2.7904768231276048e-06   1.9933745509031543e-05
-7.814823329587318e-06   -3.4641347974103277e-07   1.79612741835766e-05
-7.814823329587318e-06   -3.4641347974103277e-07   1.79612741835766e-05
-7.814823329587318e-06   -3.4641347974103277e-07   1.79612741835766e-05
-7.814823329587318e-06   -3.4641347974103277e-07   1.79612741835766e-05
-9.517608234640886e-06   -3.159290429156881e-06   2.248697519498179e-05
-9.517608234640886e-06   -3.159290429156881e-06   2.248697519498179e-05
-9.517608234640886e-06   -3.159290429156881e-06   2.248697519498179e-05
-9.517608234640886e-06   -3.159290429156881e-06   2.248697519498179e-05
-8.59801122114786e-06   -1.2283141508098944e-06   1.9795727738819045e-05
-8.59801122114786e-06   -1.2283141508098944e-06   1.9795727738819045e-05
-8.59801122114786e-06   -1.2283141508098944e-06   1.9795727738819045e-05
-8.59801122114786e-06   -1.2283141508098944e-06   1.9795727738819045e-05
-8.221538818667623e-06   2.3190958698541316e-06   4.060094984539506e-06
-8.221538818667623e-06   2.3190958698541316e-06   4.060094984539506e-06
-8.221538818667623e-06   2.3190958698541316e-06   4.060094984539506e-06
-8.221538818667623e-06   2.3190958698541316e-06   4.060094984539506e-06
-4.715205096840957e-06   -2.433124866342562e-07   8.36653950702401e-06
-4.715205096840957e-06   -2.433124866342562e-07   8.36653950702401e-06
-4.715205096840957e-06   -2.433124866342562e-07   8.36653950702401e-06
-4.715205096840957e-06   -2.433124866342562e-07   8.36653950702401e-06
-4.9781561912548e-06   1.862430327147658e-06   4.095516950404759e-06
-4.9781561912548e-06   1.862430327147658e-06   4.095516950404759e-06
-4.9781561912548e-06   1.862430327147658e-06   4.095516950404759e-06
-4.9781561912548e-06   1.862430327147658e-06   4.095516950404759e-06
-8.038748236184091e-06   -3.3773019579791744e-07   1.0516600005721017e-05
-8.038748236184091e-06   -3.3773019579791744e-07   1.0516600005721017e-05
-8.038748236184091e-06   -3.3773019579791744e-07   1.0516600005721017e-05
-8.038748236184091e-06   -3.3773019579791744e-07   1.0516600005721017e-05
-6.265402195875815e-06   1.1912666559296464e-06   6.643625160837998e-06
-6.265402195875815e-06   1.1912666559296464e-06   6.643625160837998e-06
-6.265402195875815e-06   1.1912666559296464e-06   6.643625160837998e-06
-6.265402195875815e-06   1.1912666559296464e-06   6.643625160837998e-06
-8.038748236184091e-06   1.8624303271477663e-06   5.415613264171584e-06
-8.038748236184091e-06   1.8624303271477663e-06   5.415613264171584e-06
-8.038748236184091e-06   1.8624303271477663e-06   5.415613264171584e-06
-8.038748236184091e-06   1.8624303271477663e-06   5.415613264171584e-06
-4.978156191254692e-06   -3.3773019579786323e-07   9.19650369195365e-06
-4.978156191254692e-06   -3.3773019579786323e-07   9.19650369195365e-06
-4.978156191254692e-06   -3.3773019579786323e-07   9.19650369195365e-06
-4.978156191254692e-06   -3.3773019579786323e-07   9.19650369195365e-06
-5.193181332946721e-06   1.5636387179240353e-06   5.339207260261726e-06
-5.193181332946721e-06   1.5636387179240353e-06   5.339207260261726e-06
-5.193181332946721e-06   1.5636387179240353e-06   5.339207260261726e-06
-5.193181332946721e-06   1.5636387179240353e-06   5.339207260261726e-06
-7.952821996986084e-06   -4.660478132996167e-07   1.1156420285727783e-05
-7.952821996986084e-06   -4.660478132996167e-07   1.1156420285727783e-05
-7.952821996986084e-06   -4.660478132996167e-07   1.1156420285727783e-05
-7.952821996986084e-06   -4.660478132996167e-07   1.1156420285727783e-05
-6.3694025392484e-06   9.644677267299593e-07   7.659078532146744e-06
-6.3694025392484e-06   9.644677267299593e-07   7.659078532146744e-06
-6.3694025392484e-06   9.644677267299593e-07   7.659078532146744e-06
-6.3694025392484e-06   9.644677267299593e-07   7.659078532146744e-06
-7.952821996986084e-06   1.563638717923927e-06   6.557019178995765e-06
-7.952821996986084e-06   1.563638717923927e-06   6.557019178995765e-06
-7.952821996986084e-06   1.563638717923927e-06   6.557019178995765e-06
-7.952821996986084e-06   1.563638717923927e-06   6.557019178995765e-06
-5.193181332946721e-06   -4.660478132996167e-07   9.938608366993743e-06
-5.193181332946721e-06   -4.660478132996167e-07   9.938608366993743e-06
-5.193181332946721e-06   -4.660478132996167e-07   9.938608366993743e-06
-5.193181332946721e-06   -4.660478132996167e-07   9.938608366993743e-06
-5.732934900230628e-06   9.648759293586677e-07   7.561830348031982e-06
-5.732934900230628e-06   9.648759293586677e-07   7.561830348031982e-06
-5.732934900230628e-06   9.648759293586677e-07   7.561830348031982e-06
-5.732934900230628e-06   9.648759293586677e-07   7.561830348031982e-06
-7.814823329587318e-06   -6.200603203544014e-07   1.1982606146787177e-05
-7.814823329587318e-06   -6.200603203544014e-07   1.1982606146787177e-05
-7.814823329587318e-06   -6.200603203544014e-07   1.1982606146787177e-05
-7.814823329587318e-06   -6.200603203544014e-07   1.1982606146787177e-05
-6.378593733174034e-06   8.119201994092684e-07   8.729701840906861e-06
-6.378593733174034e-06   8.119201994092684e-07   8.729701840906861e-06
-6.378593733174034e-06   8.119201994092684e-07   8.729701840906861e-06
-6.378593733174034e-06   8.119201994092684e-07   8.729701840906861e-06
-7.622240425449746e-05   5.989796916999431e-06   3.235896580788006e-05
-7.622240425449746e-05   5.989796916999431e-06   3.235896580788006e-05
-7.622240425449746e-05   5.989796916999431e-06   3.235896580788006e-05
-7.622240425449746e-05   5.989796916999431e-06   3.235896580788006e-05
-1.795414248436995e-05   -3.687292303256089e-05   0.00010375510345502318
-1.795414248436995e-05   -3.687292303256089e-05   0.00010375510345502318
-1.795414248436995e-05   -3.687292303256089e-05   0.00010375510345502318
-1.795414248436995e-05   -3.687292303256089e-05   0.00010375510345502318
-2.1049585189883958e-05   2.4493135095168123e-06   1.7793491528753596e-05
-2.1049585189883958e-05   2.4493135095168123e-06   1.7793491528753596e-05
-2.1049585189883958e-05   2.4493135095168123e-06   1.7793491528753596e-05
-2.1049585189883958e-05   2.4493135095168123e-06   1.7793491528753596e-05
-6.951679165300025e-05   -2.860305797721533e-05   0.0001172035918593199
-6.951679165300025e-05   -2.860305797721533e-05   0.0001172035918593199
-6.951679165300025e-05   -2.860305797721533e-05   0.0001172035918593199
-6.951679165300025e-05   -2.860305797721533e-05   0.0001172035918593199
-4.63592875028484e-05   -1.4242526739742512e-05   6.999143286658309e-05
-4.63592875028484e-05   -1.4242526739742512e-05   6.999143286658309e-05
-4.63592875028484e-05   -1.4242526739742512e-05   6.999143286658309e-05
-4.63592875028484e-05   -1.4242526739742512e-05   6.999143286658309e-05
-6.951679165300013e-05   2.4493135095168123e-06   3.6424914420792845e-05
-6.951679165300013e-05   2.4493135095168123e-06   3.6424914420792845e-05
-6.951679165300013e-05   2.4493135095168123e-06   3.6424914420792845e-05
-6.951679165300013e-05   2.4493135095168123e-06   3.6424914420792845e-05
-2.1049585189884e-05   -2.860305797721533e-05   9.857216896728063e-05
-2.1049585189884e-05   -2.860305797721533e-05   9.857216896728063e-05
-2.1049585189884e-05   -2.860305797721533e-05   9.857216896728063e-05
-2.1049585189884e-05   -2.860305797721533e-05   9.857216896728063e-05
-2.1513564833416078e-05   1.7656735328056266e-06   1.9550792418690467e-05
-2.1513564833416078e-05   1.7656735328056266e-06   1.9550792418690467e-05
-2.1513564833416078e-05   1.7656735328056266e-06   1.9550792418690467e-05
-2.1513564833416078e-05   1.7656735328056266e-06   1.9550792418690467e-05
-6.55883739478872e-05   -2.4610656216496872e-05   0.00010883460545905703
-6.55883739478872e-05   -2.4610656216496872e-05   0.00010883460545905703
-6.55883739478872e-05   -2.4610656216496872e-05   0.00010883460545905703
-6.55883739478872e-05   -2.4610656216496872e-05   0.00010883460545905703
-4.4963270066197754e-05   -1.3487353083397306e-05   6.778545044304823e-05
-4.4963270066197754e-05   -1.3487353083397306e-05   6.778545044304823e-05
-4.4963270066197754e-05   -1.3487353083397306e-05   6.778545044304823e-05
-4.4963270066197754e-05   -1.3487353083397306e-05   6.778545044304823e-05
-6.55883739478871e-05   1.7656735328056266e-06   3.537659026827192e-05
-6.55883739478871e-05   1.7656735328056266e-06   3.537659026827192e-05
-6.55883739478871e-05   1.7656735328056266e-06   3.537659026827192e-05
-6.55883739478871e-05   1.7656735328056266e-06   3.537659026827192e-05
-2.151356483341612e-05   -2.4610656216496872e-05   9.300880760947553e-05
-2.151356483341612e-05   -2.4610656216496872e-05   9.300880760947553e-05
-2.151356483341612e-05   -2.4610656216496872e-05   9.300880760947553e-05
-2.151356483341612e-05   -2.4610656216496872e-05   9.300880760947553e-05
-2.3541244147795212e-05   -1.1368060341701244e-06   2.4493361046111164e-05
-2.3541244147795212e-05   -1.1368060341701244e-06   2.4493361046111164e-05
-2.3541244147795212e-05   -1.1368060341701244e-06   2.4493361046111164e-05
-2.3541244147795212e-05   -1.1368060341701244e-06   2.4493361046111164e-05
-6.0556788719415396e-05   -1.9313597777290266e-05   9.709201037801671e-05
-6.0556788719415396e-05   -1.9313597777290266e-05   9.709201037801671e-05
-6.0556788719415396e-05   -1.9313597777290266e-05   9.709201037801671e-05
-6.0556788719415396e-05   -1.9313597777290266e-05   9.709201037801671e-05
-4.323552524440753e-05   -1.2447378945354084e-05   6.410350662050861e-05
-4.323552524440753e-05   -1.2447378945354084e-05   6.410350662050861e-05
-4.323552524440753e-05   -1.2447378945354084e-05   6.410350662050861e-05
-4.323552524440753e-05   -1.2447378945354084e-05   6.410350662050861e-05
-1.795414248436991e-05   -6.69043949940145e-06   1.8307462241674312e-05
-1.795414248436991e-05   -6.69043949940145e-06   1.8307462241674312e-05
-1.795414248436991e-05   -6.69043949940145e-06   1.8307462241674312e-05
-1.795414248436991e-05   -6.69043949940145e-06   1.8307462241674312e-05
-6.264428852320456e-06   -1.1327389614069274e-05   3.5008148226289466e-05
-6.264428852320456e-06   -1.1327389614069274e-05   3.5008148226289466e-05
-6.264428852320456e-06   -1.1327389614069274e-05   3.5008148226289466e-05
-6.264428852320456e-06   -1.1327389614069274e-05   3.5008148226289466e-05
-6.9839041197485615e-06   -5.4723079565840256e-06   1.6407179799983625e-05
-6.9839041197485615e-06   -5.4723079565840256e-06   1.6407179799983625e-05
-6.9839041197485615e-06   -5.4723079565840256e-06   1.6407179799983625e-05
-6.9839041197485615e-06   -5.4723079565840256e-06   1.6407179799983625e-05
-2.1049585189884e-05   -1.5061274374567937e-05   4.5603361434332865e-05
-2.1049585189884e-05   -1.5061274374567937e-05   4.5603361434332865e-05
-2.1049585189884e-05   -1.5061274374567937e-05   4.5603361434332865e-05
-2.1049585189884e-05   -1.5061274374567937e-05   4.5603361434332865e-05
-1.2382034167170006e-05   -7.906578915205177e-06   2.6864625787525185e-05
-1.2382034167170006e-05   -7.906578915205177e-06   2.6864625787525185e-05
-1.2382034167170006e-05   -7.906578915205177e-06   2.6864625787525185e-05
-1.2382034167170006e-05   -7.906578915205177e-06   2.6864625787525185e-05
-2.1049585189883945e-05   -5.4723079565840256e-06   2.2160559650773713e-05
-2.1049585189883945e-05   -5.4723079565840256e-06   2.2160559650773713e-05
-2.1049585189883945e-05   -5.4723079565840256e-06   2.2160559650773713e-05
-2.1049585189883945e-05   -5.4723079565840256e-06   2.2160559650773713e-05
-6.9839041197485615e-06   -1.5061274374567937e-05   3.984998158354252e-05
-6.9839041197485615e-06   -1.5061274374567937e-05   3.984998158354252e-05
-6.9839041197485615e-06   -1.5061274374567937e-05   3.984998158354252e-05
-6.9839041197485615e-06   -1.5061274374567937e-05   3.984998158354252e-05
-7.5992320801161176e-06   -5.5984159370530795e-06   1.8446507002159852e-05
-7.5992320801161176e-06   -5.5984159370530795e-06   1.8446507002159852e-05
-7.5992320801161176e-06   -5.5984159370530795e-06   1.8446507002159852e-05
-7.5992320801161176e-06   -5.5984159370530795e-06   1.8446507002159852e-05
-2.151356483341612e-05   -1.3750734664265531e-05   4.6528452827320426e-05
-2.151356483341612e-05   -1.3750734664265531e-05   4.6528452827320426e-05
-2.151356483341612e-05   -1.3750734664265531e-05   4.6528452827320426e-05
-2.151356483341612e-05   -1.3750734664265531e-05   4.6528452827320426e-05
-1.3946489148656677e-05   -9.680182171617257e-06   3.147432852379926e-05
-1.3946489148656677e-05   -9.680182171617257e-06   3.147432852379926e-05
-1.3946489148656677e-05   -9.680182171617257e-06   3.147432852379926e-05
-1.3946489148656677e-05   -9.680182171617257e-06   3.147432852379926e-05
-2.1513564833416078e-05   -5.5984159370530795e-06   2.3337898238487236e-05
-2.1513564833416078e-05   -5.5984159370530795e-06   2.3337898238487236e-05
-2.1513564833416078e-05   -5.5984159370530795e-06   2.3337898238487236e-05
-2.1513564833416078e-05   -5.5984159370530795e-06   2.3337898238487236e-05
-7.599232080116145e-06   -1.3750734664265531e-05   4.1637061590992975e-05
-7.599232080116145e-06   -1.3750734664265531e-05   4.1637061590992975e-05
-7.599232080116145e-06   -1.3750734664265531e-05   4.1637061590992975e-05
-7.599232080116145e-06   -1.3750734664265531e-05   4.1637061590992975e-05
-8.597808681098972e-06   -5.654857243477169e-06   2.0166853886070693e-05
-8.597808681098972e-06   -5.654857243477169e-06   2.0166853886070693e-05
-8.597808681098972e-06   -5.654857243477169e-06   2.0166853886070693e-05
-8.597808681098972e-06   -5.654857243477169e-06   2.0166853886070693e-05
-2.354124414779524e-05   -1.2926670302007741e-05   4.943566749901593e-05
-2.354124414779524e-05   -1.2926670302007741e-05   4.943566749901593e-05
-2.354124414779524e-05   -1.2926670302007741e-05   4.943566749901593e-05
-2.354124414779524e-05   -1.2926670302007741e-05   4.943566749901593e-05
-1.4851560497239588e-05   -8.836190939550976e-06   3.249857379728253e-05
-1.4851560497239588e-05   -8.836190939550976e-06   3.249857379728253e-05
-1.4851560497239588e-05   -8.836190939550976e-06   3.249857379728253e-05
-1.4851560497239588e-05   -8.836190939550976e-06   3.249857379728253e-05
-6.264428852320456e-06   -5.225882392797859e-06   9.801233179825529e-06
-6.264428852320456e-06   -5.225882392797859e-06   9.801233179825529e-06
-6.264428852320456e-06   -5.225882392797859e-06   9.801233179825529e-06
-6.264428852320456e-06   -5.225882392797859e-06   9.801233179825529e-06
-3.488734772925939e-06   -3.1063396755873338e-06   1.5699115609142688e-05
-3.488734772925939e-06   -3.1063396755873338e-06   1.5699115609142688e-05
-3.488734772925939e-06   -3.1063396755873338e-06   1.5699115609142688e-05
-3.488734772925939e-06   -3.1063396755873338e-06   1.5699115609142688e-05
-3.34609759954969e-06   -5.132398621266561e-06   1.1359840222331663e-05
-3.34609759954969e-06   -5.132398621266561e-06   1.1359840222331663e-05
-3.34609759954969e-06   -5.132398621266561e-06   1.1359840222331663e-05
-3.34609759954969e-06   -5.132398621266561e-06   1.1359840222331663e-05
-6.9839041197485615e-06   -4.085225676406801e-06   1.679454732241367e-05
-6.9839041197485615e-06   -4.085225676406801e-06   1.679454732241367e-05
-6.9839041197485615e-06   -4.085225676406801e-06   1.679454732241367e-05
-6.9839041197485615e-06   -4.085225676406801e-06   1.679454732241367e-05
-4.7037493965017616e-06   -4.162284164480892e-06   1.3040524543179912e-05
-4.7037493965017616e-06   -4.162284164480892e-06   1.3040524543179912e-05
-4.7037493965017616e-06   -4.162284164480892e-06   1.3040524543179912e-05
-4.7037493965017616e-06   -4.162284164480892e-06   1.3040524543179912e-05
-6.983904119748534e-06   -5.132398621266506e-06   1.0731536455415723e-05
-6.983904119748534e-06   -5.132398621266506e-06   1.0731536455415723e-05
-6.983904119748534e-06   -5.132398621266506e-06   1.0731536455415723e-05
-6.983904119748534e-06   -5.132398621266506e-06   1.0731536455415723e-05
-3.34609759954969e-06   -4.085225676406801e-06   1.7422851089329556e-05
-3.34609759954969e-06   -4.085225676406801e-06   1.7422851089329556e-05
-3.34609759954969e-06   -4.085225676406801e-06   1.7422851089329556e-05
-3.34609759954969e-06   -4.085225676406801e-06   1.7422851089329556e-05
-3.344798600298535e-06   -5.290267976785807e-06   1.2141341397491675e-05
-3.344798600298535e-06   -5.290267976785807e-06   1.2141341397491675e-05
-3.344798600298535e-06   -5.290267976785807e-06   1.2141341397491675e-05
-3.344798600298535e-06   -5.290267976785807e-06   1.2141341397491675e-05
-7.599232080116145e-06   -5.269586789261698e-06   1.9219655151339707e-05
-7.599232080116145e-06   -5.269586789261698e-06   1.9219655151339707e-05
-7.599232080116145e-06   -5.269586789261698e-06   1.9219655151339707e-05
-7.599232080116145e-06   -5.269586789261698e-06   1.9219655151339707e-05
-4.979011165464665e-06   -4.551329721070858e-06   1.4421666052672898e-05
-4.979011165464665e-06   -4.551329721070858e-06   1.4421666052672898e-05
-4.979011165464665e-06   -4.551329721070858e-06   1.4421666052672898e-05
-4.979011165464665e-06   -4.551329721070858e-06   1.4421666052672898e-05
-7.5992320801161176e-06   -5.290267976785807e-06   1.2128932684977187e-05
-7.5992320801161176e-06   -5.290267976785807e-06   1.2128932684977187e-05
-7.5992320801161176e-06   -5.290267976785807e-06   1.2128932684977187e-05
-7.5992320801161176e-06   -5.290267976785807e-06   1.2128932684977187e-05
-3.344798600298535e-06   -5.269586789261698e-06   1.9232063863854195e-05
-3.344798600298535e-06   -5.269586789261698e-06   1.9232063863854195e-05
-3.344798600298535e-06   -5.269586789261698e-06   1.9232063863854195e-05
-3.344798600298535e-06   -5.269586789261698e-06   1.9232063863854195e-05
-3.383120905114511e-06   -5.515801348149666e-06   1.3308045686514212e-05
-3.383120905114511e-06   -5.515801348149666e-06   1.3308045686514212e-05
-3.383120905114511e-06   -5.515801348149666e-06   1.3308045686514212e-05
-3.383120905114511e-06   -5.515801348149666e-06   1.3308045686514212e-05
-8.597808681098972e-06   -6.396212811285607e-06   2.2527438857703104e-05
-8.597808681098972e-06   -6.396212811285607e-06   2.2527438857703104e-05
-8.597808681098972e-06   -6.396212811285607e-06   2.2527438857703104e-05
-8.597808681098972e-06   -6.396212811285607e-06   2.2527438857703104e-05
-5.29094633394507e-06   -4.976635379715327e-06   1.616425515350449e-05
-5.29094633394507e-06   -4.976635379715327e-06   1.616425515350449e-05
-5.29094633394507e-06   -4.976635379715327e-06   1.616425515350449e-05
-5.29094633394507e-06   -4.976635379715327e-06   1.616425515350449e-05
-3.488734772925939e-06   -2.142159469156258e-06   2.72634654471728e-06
-3.488734772925939e-06   -2.142159469156258e-06   2.72634654471728e-06
-3.488734772925939e-06   -2.142159469156258e-06   2.72634654471728e-06
-3.488734772925939e-06   -2.142159469156258e-06   2.72634654471728e-06
-2.5774324178015704e-06   6.011249000016739e-07   5.891154424752447e-06
-2.5774324178015704e-06   6.011249000016739e-07   5.891154424752447e-06
-2.5774324178015704e-06   6.011249000016739e-07   5.891154424752447e-06
-2.5774324178015704e-06   6.011249000016739e-07   5.891154424752447e-06
-2.080025849021932e-06   -2.509658232816383e-06   4.627602649145968e-06
-2.080025849021932e-06   -2.509658232816383e-06   4.627602649145968e-06
-2.080025849021932e-06   -2.509658232816383e-06   4.627602649145968e-06
-2.080025849021932e-06   -2.509658232816383e-06   4.627602649145968e-06
-3.34609759954969e-06   2.554005235016972e-07   5.07868697956779e-06
-3.34609759954969e-06   2.554005235016972e-07   5.07868697956779e-06
-3.34609759954969e-06   2.554005235016972e-07   5.07868697956779e-06
-3.34609759954969e-06   2.554005235016972e-07   5.07868697956779e-06
-2.6962646500031952e-06   -9.86294488881218e-07   4.740649071086414e-06
-2.6962646500031952e-06   -9.86294488881218e-07   4.740649071086414e-06
-2.6962646500031952e-06   -9.86294488881218e-07   4.740649071086414e-06
-2.6962646500031952e-06   -9.86294488881218e-07   4.740649071086414e-06
-3.34609759954969e-06   -2.509658232816383e-06   2.968567395355095e-06
-3.34609759954969e-06   -2.509658232816383e-06   2.968567395355095e-06
-3.34609759954969e-06   -2.509658232816383e-06   2.968567395355095e-06
-3.34609759954969e-06   -2.509658232816383e-06   2.968567395355095e-06
-2.080025849021932e-06   2.554005235016972e-07   6.737722233358663e-06
-2.080025849021932e-06   2.554005235016972e-07   6.737722233358663e-06
-2.080025849021932e-06   2.554005235016972e-07   6.737722233358663e-06
-2.080025849021932e-06   2.554005235016972e-07   6.737722233358663e-06
-1.8047500006836267e-06   -2.790476823127659e-06   5.083047744406429e-06
-1.8047500006836267e-06   -2.790476823127659e-06   5.083047744406429e-06
-1.8047500006836267e-06   -2.790476823127659e-06   5.083047744406429e-06
-1.8047500006836267e-06   -2.790476823127659e-06   5.083047744406429e-06
-3.344798600298535e-06   -2.983558399081743e-07   6.154522820499427e-06
-3.344798600298535e-06   -2.983558399081743e-07   6.154522820499427e-06
-3.344798600298535e-06   -2.983558399081743e-07   6.154522820499427e-06
-3.344798600298535e-06   -2.983558399081743e-07   6.154522820499427e-06
-2.4387716303698494e-06   -1.2675899308368737e-06   5.2260183251756805e-06
-2.4387716303698494e-06   -1.2675899308368737e-06   5.2260183251756805e-06
-2.4387716303698494e-06   -1.2675899308368737e-06   5.2260183251756805e-06
-2.4387716303698494e-06   -1.2675899308368737e-06   5.2260183251756805e-06
-3.3447986002984806e-06   -2.790476823127659e-06   3.587775154474562e-06
-3.3447986002984806e-06   -2.790476823127659e-06   3.587775154474562e-06
-3.3447986002984806e-06   -2.790476823127659e-06   3.587775154474562e-06
-3.3447986002984806e-06   -2.790476823127659e-06   3.587775154474562e-06
-1.8047500006836267e-06   -2.983558399081743e-07   7.649795410431077e-06
-1.8047500006836267e-06   -2.983558399081743e-07   7.649795410431077e-06
-1.8047500006836267e-06   -2.983558399081743e-07   7.649795410431077e-06
-1.8047500006836267e-06   -2.983558399081743e-07   7.649795410431077e-06
-1.3821727769979713e-06   -3.159290429156881e-06   5.5742673531973585e-06
-1.3821727769979713e-06   -3.159290429156881e-06   5.5742673531973585e-06
-1.3821727769979713e-06   -3.159290429156881e-06   5.5742673531973585e-06
-1.3821727769979713e-06   -3.159290429156881e-06   5.5742673531973585e-06
-3.383120905114511e-06   -1.4428313351854695e-06   7.879305443675368e-06
-3.383120905114511e-06   -1.4428313351854695e-06   7.879305443675368e-06
-3.383120905114511e-06   -1.4428313351854695e-06   7.879305443675368e-06
-3.383120905114511e-06   -1.4428313351854695e-06   7.879305443675368e-06
-2.2262817939826002e-06   -1.7005953901661928e-06   6.10589869144446e-06
-2.2262817939826002e-06   -1.7005953901661928e-06   6.10589869144446e-06
-2.2262817939826002e-06   -1.7005953901661928e-06   6.10589869144446e-06
-2.2262817939826002e-06   -1.7005953901661928e-06   6.10589869144446e-06
-2.5774324178015704e-06   -2.433124866342562e-07   -4.347985373061823e-06
-2.5774324178015704e-06   -2.433124866342562e-07   -4.347985373061823e-06
-2.5774324178015704e-06   -2.433124866342562e-07   -4.347985373061823e-06
-2.5774324178015704e-06   -2.433124866342562e-07   -4.347985373061823e-06
-4.65373424121218e-07   3.7470917153763585e-07   -4.570740553580229e-07
-4.65373424121218e-07   3.7470917153763585e-07   -4.570740553580229e-07
-4.65373424121218e-07   3.7470917153763585e-07   -4.570740553580229e-07
-4.65373424121218e-07   3.7470917153763585e-07   -4.570740553580229e-07
2.3585510126964554e-08   -3.3773019579791744e-07   -3.4215698423258663e-06
2.3585510126964554e-08   -3.3773019579791744e-07   -3.4215698423258663e-06
2.3585510126964554e-08   -3.3773019579791744e-07   -3.4215698423258663e-06
2.3585510126964554e-08   -3.3773019579791744e-07   -3.4215698423258663e-06
-2.080025849021932e-06   6.504931635053083e-07   -5.084849259929993e-07
-2.080025849021932e-06   6.504931635053083e-07   -5.084849259929993e-07
-2.080025849021932e-06   6.504931635053083e-07   -5.084849259929993e-07
-2.080025849021932e-06   6.504931635053083e-07   -5.084849259929993e-07
-1.165348983200485e-06   1.715625159616355e-07   -1.7455879805027648e-06
-1.165348983200485e-06   1.715625159616355e-07   -1.7455879805027648e-06
-1.165348983200485e-06   1.715625159616355e-07   -1.7455879805027648e-06
-1.165348983200485e-06   1.715625159616355e-07   -1.7455879805027648e-06
-2.080025849021932e-06   -3.3773019579791744e-07   -4.014503857907754e-06
-2.080025849021932e-06   -3.3773019579791744e-07   -4.014503857907754e-06
-2.080025849021932e-06   -3.3773019579791744e-07   -4.014503857907754e-06
-2.080025849021932e-06   -3.3773019579791744e-07   -4.014503857907754e-06
2.3585510126964554e-08   6.504931635053083e-07   8.444908958899714e-08
2.3585510126964554e-08   6.504931635053083e-07   8.444908958899714e-08
2.3585510126964554e-08   6.504931635053083e-07   8.444908958899714e-08
2.3585510126964554e-08   6.504931635053083e-07   8.444908958899714e-08
2.821515496336229e-07   -4.660478132996709e-07   -3.0769120882999292e-06
2.821515496336229e-07   -4.660478132996709e-07   -3.0769120882999292e-06
2.821515496336229e-07   -4.660478132996709e-07   -3.0769120882999292e-06
2.821515496336229e-07   -4.660478132996709e-07   -3.0769120882999292e-06
-1.8047500006836267e-06   5.628945043623511e-07   -2.1610822836858144e-07
-1.8047500006836267e-06   5.628945043623511e-07   -2.1610822836858144e-07
-1.8047500006836267e-06   5.628945043623511e-07   -2.1610822836858144e-07
-1.8047500006836267e-06   5.628945043623511e-07   -2.1610822836858144e-07
-8.028505948221129e-07   1.1253037325830708e-07   -1.6157220928081318e-06
-8.028505948221129e-07   1.1253037325830708e-07   -1.6157220928081318e-06
-8.028505948221129e-07   1.1253037325830708e-07   -1.6157220928081318e-06
-8.028505948221129e-07   1.1253037325830708e-07   -1.6157220928081318e-06
-1.8047500006836267e-06   -4.660478132996167e-07   -3.694277478897168e-06
-1.8047500006836267e-06   -4.660478132996167e-07   -3.694277478897168e-06
-1.8047500006836267e-06   -4.660478132996167e-07   -3.694277478897168e-06
-1.8047500006836267e-06   -4.660478132996167e-07   -3.694277478897168e-06
2.821515496336229e-07   5.628945043623511e-07   4.012571622286033e-07
2.821515496336229e-07   5.628945043623511e-07   4.012571622286033e-07
2.821515496336229e-07   5.628945043623511e-07   4.012571622286033e-07
2.821515496336229e-07   5.628945043623511e-07   4.012571622286033e-07
6.055125315901789e-07   -6.200603203544014e-07   -2.573906853493846e-06
6.055125315901789e-07   -6.200603203544014e-07   -2.573906853493846e-06
6.055125315901789e-07   -6.200603203544014e-07   -2.573906853493846e-06
6.055125315901789e-07   -6.200603203544014e-07   -2.573906853493846e-06
-1.3821727769979713e-06   4.940541327353958e-07   7.043332229874234e-08
-1.3821727769979713e-06   4.940541327353958e-07   7.043332229874234e-08
-1.3821727769979713e-06   4.940541327353958e-07   7.043332229874234e-08
-1.3821727769979713e-06   4.940541327353958e-07   7.043332229874234e-08
-4.742101364537928e-07   4.223090408416678e-08   -1.1717438080838163e-06
-4.742101364537928e-07   4.223090408416678e-08   -1.1717438080838163e-06
-4.742101364537928e-07   4.223090408416678e-08   -1.1717438080838163e-06
-4.742101364537928e-07   4.223090408416678e-08   -1.1717438080838163e-06
              </DataArray>   
             <DataArray type="Float64" NumberOfComponents="3" Name="Stress" format="ascii">   
-3.9515062736340107   -0.9878765684085027   -0.9878765684085027
-3.9515062736340107   -0.9878765684085027   -0.9878765684085027
-3.9515062736340107   -0.9878765684085027   -0.9878765684085027
-3.9515062736340107   -0.9878765684085027   -0.9878765684085027
-2.2868135569839967   -0.072213996568534   -0.045756242211083153
-2.2868135569839967   -0.072213996568534   -0.045756242211083153
-2.2868135569839967   -0.072213996568534   -0.045756242211083153
-2.2868135569839967   -0.072213996568534   -0.045756242211083153
-2.465148803784564   -0.616287200946141   -0.616287200946141
-2.465148803784564   -0.616287200946141   -0.616287200946141
-2.465148803784564   -0.616287200946141   -0.616287200946141
-2.465148803784564   -0.616287200946141   -0.616287200946141
-3.8085198077229165   -0.31257430116952756   -0.11947907127347987
-3.8085198077229165   -0.31257430116952756   -0.11947907127347987
-3.8085198077229165   -0.31257430116952756   -0.11947907127347987
-3.8085198077229165   -0.31257430116952756   -0.11947907127347987
-2.987061847189889   -0.48960009302268287   -0.00823521873499404
-2.987061847189889   -0.48960009302268287   -0.00823521873499404
-2.987061847189889   -0.48960009302268287   -0.00823521873499404
-2.987061847189889   -0.48960009302268287   -0.00823521873499404
-4.135676814704802   -1.0339192036762006   -1.0339192036762006
-4.135676814704802   -1.0339192036762006   -1.0339192036762006
-4.135676814704802   -1.0339192036762006   -1.0339192036762006
-4.135676814704802   -1.0339192036762006   -1.0339192036762006
-2.21555846471895   0.02749103364426675   -0.012113740208478774
-2.21555846471895   0.02749103364426675   -0.012113740208478774
-2.21555846471895   0.02749103364426675   -0.012113740208478774
-2.21555846471895   0.02749103364426675   -0.012113740208478774
-2.4723095021176658   -0.6180773755294164   -0.6180773755294164
-2.4723095021176658   -0.6180773755294164   -0.6180773755294164
-2.4723095021176658   -0.6180773755294164   -0.6180773755294164
-2.4723095021176658   -0.6180773755294164   -0.6180773755294164
-3.9367510875923233   -0.3156379790748288   -0.17510572403192567
-3.9367510875923233   -0.3156379790748288   -0.17510572403192567
-3.9367510875923233   -0.3156379790748288   -0.17510572403192567
-3.9367510875923233   -0.3156379790748288   -0.17510572403192567
-3.098696172098863   -0.46104131690188543   -0.1644703307419055
-3.098696172098863   -0.46104131690188543   -0.1644703307419055
-3.098696172098863   -0.46104131690188543   -0.1644703307419055
-3.098696172098863   -0.46104131690188543   -0.1644703307419055
-4.265113718856643   -1.0662784297141608   -1.0662784297141608
-4.265113718856643   -1.0662784297141608   -1.0662784297141608
-4.265113718856643   -1.0662784297141608   -1.0662784297141608
-4.265113718856643   -1.0662784297141608   -1.0662784297141608
-2.2093134473559615   0.06719649860730575   0.011629024142381622
-2.2093134473559615   0.06719649860730575   0.011629024142381622
-2.2093134473559615   0.06719649860730575   0.011629024142381622
-2.2093134473559615   0.06719649860730575   0.011629024142381622
-2.4712450872649856   -0.6178112718162464   -0.6178112718162464
-2.4712450872649856   -0.6178112718162464   -0.6178112718162464
-2.4712450872649856   -0.6178112718162464   -0.6178112718162464
-2.4712450872649856   -0.6178112718162464   -0.6178112718162464
-4.165763784856234   -0.2770002717777752   -0.10494584091725637
-4.165763784856234   -0.2770002717777752   -0.10494584091725637
-4.165763784856234   -0.2770002717777752   -0.10494584091725637
-4.165763784856234   -0.2770002717777752   -0.10494584091725637
-3.181605557901404   -0.45393057792220565   -0.2972898978111742
-3.181605557901404   -0.45393057792220565   -0.2972898978111742
-3.181605557901404   -0.45393057792220565   -0.2972898978111742
-3.181605557901404   -0.45393057792220565   -0.2972898978111742
-2.514688343586753   -0.6286720858966882   -0.6286720858966882
-2.514688343586753   -0.6286720858966882   -0.6286720858966882
-2.514688343586753   -0.6286720858966882   -0.6286720858966882
-2.514688343586753   -0.6286720858966882   -0.6286720858966882
-1.048922031370434   -0.069637379335005   -0.02264600106638568
-1.048922031370434   -0.069637379335005   -0.02264600106638568
-1.048922031370434   -0.069637379335005   -0.02264600106638568
-1.048922031370434   -0.069637379335005   -0.02264600106638568
-1.1014110317996024   -0.2753527579499006   -0.2753527579499006
-1.1014110317996024   -0.2753527579499006   -0.2753527579499006
-1.1014110317996024   -0.2753527579499006   -0.2753527579499006
-1.1014110317996024   -0.2753527579499006   -0.2753527579499006
-2.289616392520665   -0.26919861297339887   -0.08571373259938893
-2.289616392520665   -0.26919861297339887   -0.08571373259938893
-2.289616392520665   -0.26919861297339887   -0.08571373259938893
-2.289616392520665   -0.26919861297339887   -0.08571373259938893
-1.6885636026230406   -0.3198237997261945   0.013229381230276237
-1.6885636026230406   -0.3198237997261945   0.013229381230276237
-1.6885636026230406   -0.3198237997261945   0.013229381230276237
-1.6885636026230406   -0.3198237997261945   0.013229381230276237
-2.4651488037845617   -0.6162872009461404   -0.6162872009461404
-2.4651488037845617   -0.6162872009461404   -0.6162872009461404
-2.4651488037845617   -0.6162872009461404   -0.6162872009461404
-2.4651488037845617   -0.6162872009461404   -0.6162872009461404
-0.9898149761714241   0.007799474387121058   -0.0005247121460303233
-0.9898149761714241   0.007799474387121058   -0.0005247121460303233
-0.9898149761714241   0.007799474387121058   -0.0005247121460303233
-0.9898149761714241   0.007799474387121058   -0.0005247121460303233
-1.0770369915768492   -0.2692592478942123   -0.2692592478942123
-1.0770369915768492   -0.2692592478942123   -0.2692592478942123
-1.0770369915768492   -0.2692592478942123   -0.2692592478942123
-1.0770369915768492   -0.2692592478942123   -0.2692592478942123
-2.284060507665373   -0.2196645193922942   -0.0752452594050756
-2.284060507665373   -0.2196645193922942   -0.0752452594050756
-2.284060507665373   -0.2196645193922942   -0.0752452594050756
-2.284060507665373   -0.2196645193922942   -0.0752452594050756
-1.6652598463145594   -0.2692922035854569   -0.0870889884241763
-1.6652598463145594   -0.2692922035854569   -0.0870889884241763
-1.6652598463145594   -0.2692922035854569   -0.0870889884241763
-1.6652598463145594   -0.2692922035854569   -0.0870889884241763
-2.4723095021176658   -0.6180773755294164   -0.6180773755294164
-2.4723095021176658   -0.6180773755294164   -0.6180773755294164
-2.4723095021176658   -0.6180773755294164   -0.6180773755294164
-2.4723095021176658   -0.6180773755294164   -0.6180773755294164
-0.9507132982520056   0.06722830711546102   0.025871663720332935
-0.9507132982520056   0.06722830711546102   0.025871663720332935
-0.9507132982520056   0.06722830711546102   0.025871663720332935
-0.9507132982520056   0.06722830711546102   0.025871663720332935
-1.054876968825224   -0.263719242206306   -0.263719242206306
-1.054876968825224   -0.263719242206306   -0.263719242206306
-1.054876968825224   -0.263719242206306   -0.263719242206306
-1.054876968825224   -0.263719242206306   -0.263719242206306
-2.2675039450066725   -0.16955704769310997   -0.047359784647844405
-2.2675039450066725   -0.16955704769310997   -0.047359784647844405
-2.2675039450066725   -0.16955704769310997   -0.047359784647844405
-2.2675039450066725   -0.16955704769310997   -0.047359784647844405
-1.6737194715157173   -0.2383664859836375   -0.194061311973451
-1.6737194715157173   -0.2383664859836375   -0.194061311973451
-1.6737194715157173   -0.2383664859836375   -0.194061311973451
-1.6737194715157173   -0.2383664859836375   -0.194061311973451
-1.144961505877953   -0.28624037646948824   -0.28624037646948824
-1.144961505877953   -0.28624037646948824   -0.28624037646948824
-1.144961505877953   -0.28624037646948824   -0.28624037646948824
-1.144961505877953   -0.28624037646948824   -0.28624037646948824
0.13644242056763678   0.009022211417229725   0.0011091667793009241
0.13644242056763678   0.009022211417229725   0.0011091667793009241
0.13644242056763678   0.009022211417229725   0.0011091667793009241
0.13644242056763678   0.009022211417229725   0.0011091667793009241
0.17705279682298222   0.044263199205745556   0.044263199205745556
0.17705279682298222   0.044263199205745556   0.044263199205745556
0.17705279682298222   0.044263199205745556   0.044263199205745556
0.17705279682298222   0.044263199205745556   0.044263199205745556
-1.035426979648334   -0.17897145024041222   -0.04181380490304713
-1.035426979648334   -0.17897145024041222   -0.04181380490304713
-1.035426979648334   -0.17897145024041222   -0.04181380490304713
-1.035426979648334   -0.17897145024041222   -0.04181380490304713
-0.44296848020908747   -0.11238331072088166   0.07533550504912356
-0.44296848020908747   -0.11238331072088166   0.07533550504912356
-0.44296848020908747   -0.11238331072088166   0.07533550504912356
-0.44296848020908747   -0.11238331072088166   0.07533550504912356
-1.1014110317996024   -0.2753527579499006   -0.2753527579499006
-1.1014110317996024   -0.2753527579499006   -0.2753527579499006
-1.1014110317996024   -0.2753527579499006   -0.2753527579499006
-1.1014110317996024   -0.2753527579499006   -0.2753527579499006
0.18017882390024006   0.07778648184122351   0.02637005195655539
0.18017882390024006   0.07778648184122351   0.02637005195655539
0.18017882390024006   0.07778648184122351   0.02637005195655539
0.18017882390024006   0.07778648184122351   0.02637005195655539
0.1988890320755628   0.0497222580188907   0.0497222580188907
0.1988890320755628   0.0497222580188907   0.0497222580188907
0.1988890320755628   0.0497222580188907   0.0497222580188907
0.1988890320755628   0.0497222580188907   0.0497222580188907
-0.9990528349380361   -0.1205546115146586   -0.028043101079709233
-0.9990528349380361   -0.1205546115146586   -0.028043101079709233
-0.9990528349380361   -0.1205546115146586   -0.028043101079709233
-0.9990528349380361   -0.1205546115146586   -0.028043101079709233
-0.42516723228331743   -0.06949136140227789   -0.025670300635221122
-0.42516723228331743   -0.06949136140227789   -0.025670300635221122
-0.42516723228331743   -0.06949136140227789   -0.025670300635221122
-0.42516723228331743   -0.06949136140227789   -0.025670300635221122
-1.0770369915768492   -0.2692592478942123   -0.2692592478942123
-1.0770369915768492   -0.2692592478942123   -0.2692592478942123
-1.0770369915768492   -0.2692592478942123   -0.2692592478942123
-1.0770369915768492   -0.2692592478942123   -0.2692592478942123
0.21527984617374002   0.13683355185781   0.0445650346708559
0.21527984617374002   0.13683355185781   0.0445650346708559
0.21527984617374002   0.13683355185781   0.0445650346708559
0.21527984617374002   0.13683355185781   0.0445650346708559
0.22833901788739405   0.05708475447184851   0.05708475447184851
0.22833901788739405   0.05708475447184851   0.05708475447184851
0.22833901788739405   0.05708475447184851   0.05708475447184851
0.22833901788739405   0.05708475447184851   0.05708475447184851
-0.9594631128799731   -0.050871036715007145   0.0005018320286455796
-0.9594631128799731   -0.050871036715007145   0.0005018320286455796
-0.9594631128799731   -0.050871036715007145   0.0005018320286455796
-0.9594631128799731   -0.050871036715007145   0.0005018320286455796
-0.41269749657814797   -0.028142453585496843   -0.1257745885039732
-0.41269749657814797   -0.028142453585496843   -0.1257745885039732
-0.41269749657814797   -0.028142453585496843   -0.1257745885039732
-0.41269749657814797   -0.028142453585496843   -0.1257745885039732
0.14935127214258992   0.03733781803564748   0.03733781803564748
0.14935127214258992   0.03733781803564748   0.03733781803564748
0.14935127214258992   0.03733781803564748   0.03733781803564748
0.14935127214258992   0.03733781803564748   0.03733781803564748
1.4338406583698238   0.13153064264404607   0.044084112483392016
1.4338406583698238   0.13153064264404607   0.044084112483392016
1.4338406583698238   0.13153064264404607   0.044084112483392016
1.4338406583698238   0.13153064264404607   0.044084112483392016
1.5566085718299867   0.38915214295749667   0.38915214295749667
1.5566085718299867   0.38915214295749667   0.38915214295749667
1.5566085718299867   0.38915214295749667   0.38915214295749667
1.5566085718299867   0.38915214295749667   0.38915214295749667
0.1349106010721701   -0.10098578411611145   -0.02119879622646085
0.1349106010721701   -0.10098578411611145   -0.02119879622646085
0.1349106010721701   -0.10098578411611145   -0.02119879622646085
0.1349106010721701   -0.10098578411611145   -0.02119879622646085
0.8177635405272117   0.10179798636629817   0.14861006733146237
0.8177635405272117   0.10179798636629817   0.14861006733146237
0.8177635405272117   0.10179798636629817   0.14861006733146237
0.8177635405272117   0.10179798636629817   0.14861006733146237
0.17705279682298283   0.04426319920574571   0.04426319920574571
0.17705279682298283   0.04426319920574571   0.04426319920574571
0.17705279682298283   0.04426319920574571   0.04426319920574571
0.17705279682298283   0.04426319920574571   0.04426319920574571
1.4505786002268326   0.18001538378329815   0.06813904411592472
1.4505786002268326   0.18001538378329815   0.06813904411592472
1.4505786002268326   0.18001538378329815   0.06813904411592472
1.4505786002268326   0.18001538378329815   0.06813904411592472
1.5496956148975698   0.38742390372439245   0.38742390372439245
1.5496956148975698   0.38742390372439245   0.38742390372439245
1.5496956148975698   0.38742390372439245   0.38742390372439245
1.5496956148975698   0.38742390372439245   0.38742390372439245
0.1702354497068965   -0.043872897129327924   4.950132377638805e-05
0.1702354497068965   -0.043872897129327924   4.950132377638805e-05
0.1702354497068965   -0.043872897129327924   4.950132377638805e-05
0.1702354497068965   -0.043872897129327924   4.950132377638805e-05
0.8114777096373075   0.13350776205773884   0.03869685975755497
0.8114777096373075   0.13350776205773884   0.03869685975755497
0.8114777096373075   0.13350776205773884   0.03869685975755497
0.8114777096373075   0.13350776205773884   0.03869685975755497
0.19888903207556297   0.04972225801889074   0.04972225801889074
0.19888903207556297   0.04972225801889074   0.04972225801889074
0.19888903207556297   0.04972225801889074   0.04972225801889074
0.19888903207556297   0.04972225801889074   0.04972225801889074
1.457766842591706   0.2305535586389767   0.08465038728048989
1.457766842591706   0.2305535586389767   0.08465038728048989
1.457766842591706   0.2305535586389767   0.08465038728048989
1.457766842591706   0.2305535586389767   0.08465038728048989
1.5794719632864302   0.39486799082160756   0.39486799082160756
1.5794719632864302   0.39486799082160756   0.39486799082160756
1.5794719632864302   0.39486799082160756   0.39486799082160756
1.5794719632864302   0.39486799082160756   0.39486799082160756
0.21660807470209612   0.031709019176866915   0.023805773840338506
0.21660807470209612   0.031709019176866915   0.023805773840338506
0.21660807470209612   0.031709019176866915   0.023805773840338506
0.21660807470209612   0.031709019176866915   0.023805773840338506
0.8238297265288468   0.18105502020199332   -0.06321862712224112
0.8238297265288468   0.18105502020199332   -0.06321862712224112
0.8238297265288468   0.18105502020199332   -0.06321862712224112
0.8238297265288468   0.18105502020199332   -0.06321862712224112
1.5541307859381512   0.3885326964845378   0.3885326964845378
1.5541307859381512   0.3885326964845378   0.3885326964845378
1.5541307859381512   0.3885326964845378   0.3885326964845378
1.5541307859381512   0.3885326964845378   0.3885326964845378
3.222339121189812   0.24554808361856867   0.08392094219234449
3.222339121189812   0.24554808361856867   0.08392094219234449
3.222339121189812   0.24554808361856867   0.08392094219234449
3.222339121189812   0.24554808361856867   0.08392094219234449
3.2934194640245305   0.8233548660061326   0.8233548660061326
3.2934194640245305   0.8233548660061326   0.8233548660061326
3.2934194640245305   0.8233548660061326   0.8233548660061326
3.2934194640245305   0.8233548660061326   0.8233548660061326
1.3836019438830987   -0.07871591239723741   -0.008012941422210068
1.3836019438830987   -0.07871591239723741   -0.008012941422210068
1.3836019438830987   -0.07871591239723741   -0.008012941422210068
1.3836019438830987   -0.07871591239723741   -0.008012941422210068
2.298348246226527   0.3252115392514835   0.2595416294651182
2.298348246226527   0.3252115392514835   0.2595416294651182
2.298348246226527   0.3252115392514835   0.2595416294651182
2.298348246226527   0.3252115392514835   0.2595416294651182
1.5566085718299856   0.3891521429574964   0.3891521429574964
1.5566085718299856   0.3891521429574964   0.3891521429574964
1.5566085718299856   0.3891521429574964   0.3891521429574964
1.5566085718299856   0.3891521429574964   0.3891521429574964
3.051940823325618   0.2870147978993845   0.15230173061837177
3.051940823325618   0.2870147978993845   0.15230173061837177
3.051940823325618   0.2870147978993845   0.15230173061837177
3.051940823325618   0.2870147978993845   0.15230173061837177
3.1947432634914312   0.7986858158728578   0.7986858158728578
3.1947432634914312   0.7986858158728578   0.7986858158728578
3.1947432634914312   0.7986858158728578   0.7986858158728578
3.1947432634914312   0.7986858158728578   0.7986858158728578
1.388208868260024   -0.04353995558737217   0.010954029848428568
1.388208868260024   -0.04353995558737217   0.010954029848428568
1.388208868260024   -0.04353995558737217   0.010954029848428568
1.388208868260024   -0.04353995558737217   0.010954029848428568
2.2299066683642503   0.334525274382771   0.1244664379652964
2.2299066683642503   0.334525274382771   0.1244664379652964
2.2299066683642503   0.334525274382771   0.1244664379652964
2.2299066683642503   0.334525274382771   0.1244664379652964
1.5496956148975698   0.38742390372439245   0.38742390372439245
1.5496956148975698   0.38742390372439245   0.38742390372439245
1.5496956148975698   0.38742390372439245   0.38742390372439245
1.5496956148975698   0.38742390372439245   0.38742390372439245
2.9534224864666903   0.2878879261739077   0.10287982044815394
2.9534224864666903   0.2878879261739077   0.10287982044815394
2.9534224864666903   0.2878879261739077   0.10287982044815394
2.9534224864666903   0.2878879261739077   0.10287982044815394
3.048014256154737   0.7620035640386843   0.7620035640386843
3.048014256154737   0.7620035640386843   0.7620035640386843
3.048014256154737   0.7620035640386843   0.7620035640386843
3.048014256154737   0.7620035640386843   0.7620035640386843
1.439331335000529   0.04515022181604095   0.043882618397667286
1.439331335000529   0.04515022181604095   0.043882618397667286
1.439331335000529   0.04515022181604095   0.043882618397667286
1.439331335000529   0.04515022181604095   0.043882618397667286
2.134974450602702   0.36262613192192183   -0.03260108877611601
2.134974450602702   0.36262613192192183   -0.03260108877611601
2.134974450602702   0.36262613192192183   -0.03260108877611601
2.134974450602702   0.36262613192192183   -0.03260108877611601
-3.1252127200465534   -0.22375327024967717   0.034946552445761225
-3.1252127200465534   -0.22375327024967717   0.034946552445761225
-3.1252127200465534   -0.22375327024967717   0.034946552445761225
-3.1252127200465534   -0.22375327024967717   0.034946552445761225
-1.9890134777285753   -0.045662216400722155   -0.012780718532776833
-1.9890134777285753   -0.045662216400722155   -0.012780718532776833
-1.9890134777285753   -0.045662216400722155   -0.012780718532776833
-1.9890134777285753   -0.045662216400722155   -0.012780718532776833
-2.0026835476748452   0.08082424675799232   0.04167740831605213
-2.0026835476748452   0.08082424675799232   0.04167740831605213
-2.0026835476748452   0.08082424675799232   0.04167740831605213
-2.0026835476748452   0.08082424675799232   0.04167740831605213
-3.171840123977277   -0.2162418542837234   -0.03745415878450058
-3.171840123977277   -0.2162418542837234   -0.03745415878450058
-3.171840123977277   -0.2162418542837234   -0.03745415878450058
-3.171840123977277   -0.2162418542837234   -0.03745415878450058
-2.4709456551091358   -0.08431372013937372   -0.00967409943192489
-2.4709456551091358   -0.08431372013937372   -0.00967409943192489
-2.4709456551091358   -0.08431372013937372   -0.00967409943192489
-2.4709456551091358   -0.08431372013937372   -0.00967409943192489
-3.14889058931202   -0.1537852593175345   0.014836919575592994
-3.14889058931202   -0.1537852593175345   0.014836919575592994
-3.14889058931202   -0.1537852593175345   0.014836919575592994
-3.14889058931202   -0.1537852593175345   0.014836919575592994
-2.0289725270710157   0.015028207060895804   -0.02397144896766594
-2.0289725270710157   0.015028207060895804   -0.02397144896766594
-2.0289725270710157   0.015028207060895804   -0.02397144896766594
-2.0289725270710157   0.015028207060895804   -0.02397144896766594
-2.0052065551441918   0.11519141585073478   0.04749671814776493
-2.0052065551441918   0.11519141585073478   0.04749671814776493
-2.0052065551441918   0.11519141585073478   0.04749671814776493
-2.0052065551441918   0.11519141585073478   0.04749671814776493
-3.19125833827178   -0.19052163489487506   -0.04945715383440513
-3.19125833827178   -0.19052163489487506   -0.04945715383440513
-3.19125833827178   -0.19052163489487506   -0.04945715383440513
-3.19125833827178   -0.19052163489487506   -0.04945715383440513
-2.5405048759722697   -0.05649907049364078   -0.024034014191035236
-2.5405048759722697   -0.05649907049364078   -0.024034014191035236
-2.5405048759722697   -0.05649907049364078   -0.024034014191035236
-2.5405048759722697   -0.05649907049364078   -0.024034014191035236
-3.1340861023455853   -0.09242279919897034   0.13830519010063294
-3.1340861023455853   -0.09242279919897034   0.13830519010063294
-3.1340861023455853   -0.09242279919897034   0.13830519010063294
-3.1340861023455853   -0.09242279919897034   0.13830519010063294
-2.038532823228783   0.04093854799643193   -0.04488175442086667
-2.038532823228783   0.04093854799643193   -0.04488175442086667
-2.038532823228783   0.04093854799643193   -0.04488175442086667
-2.038532823228783   0.04093854799643193   -0.04488175442086667
-1.968885875586195   0.20064533959860253   0.08640430669459317
-1.968885875586195   0.20064533959860253   0.08640430669459317
-1.968885875586195   0.20064533959860253   0.08640430669459317
-1.968885875586195   0.20064533959860253   0.08640430669459317
-3.1033489094646893   -0.15384555273477574   -0.08096410309055313
-3.1033489094646893   -0.15384555273477574   -0.08096410309055313
-3.1033489094646893   -0.15384555273477574   -0.08096410309055313
-3.1033489094646893   -0.15384555273477574   -0.08096410309055313
-2.443559207165225   0.02266398336051878   0.054110472456088604
-2.443559207165225   0.02266398336051878   0.054110472456088604
-2.443559207165225   0.02266398336051878   0.054110472456088604
-2.443559207165225   0.02266398336051878   0.054110472456088604
-2.0384927964765893   -0.270158531564727   -0.03568099710884052
-2.0384927964765893   -0.270158531564727   -0.03568099710884052
-2.0384927964765893   -0.270158531564727   -0.03568099710884052
-2.0384927964765893   -0.270158531564727   -0.03568099710884052
-0.9388230081263594   -0.02072219738162384   0.010000182813513572
-0.9388230081263594   -0.02072219738162384   0.010000182813513572
-0.9388230081263594   -0.02072219738162384   0.010000182813513572
-0.9388230081263594   -0.02072219738162384   0.010000182813513572
-0.952711182388781   0.018156150512754266   0.01415487469949641
-0.952711182388781   0.018156150512754266   0.01415487469949641
-0.952711182388781   0.018156150512754266   0.01415487469949641
-0.952711182388781   0.018156150512754266   0.01415487469949641
-2.078977913781031   -0.19777417749480009   -0.0611959979620835
-2.078977913781031   -0.19777417749480009   -0.0611959979620835
-2.078977913781031   -0.19777417749480009   -0.0611959979620835
-2.078977913781031   -0.19777417749480009   -0.0611959979620835
-1.5021985460522236   -0.12189703214092057   -0.03437460480878045
-1.5021985460522236   -0.12189703214092057   -0.03437460480878045
-1.5021985460522236   -0.12189703214092057   -0.03437460480878045
-1.5021985460522236   -0.12189703214092057   -0.03437460480878045
-2.0770467657504286   -0.2161706901335421   -0.03314374517033775
-2.0770467657504286   -0.2161706901335421   -0.03314374517033775
-2.0770467657504286   -0.2161706901335421   -0.03314374517033775
-2.0770467657504286   -0.2161706901335421   -0.03314374517033775
-0.9509345480242574   0.040260445546622475   0.0009337514882555298
-0.9509345480242574   0.040260445546622475   0.0009337514882555298
-0.9509345480242574   0.040260445546622475   0.0009337514882555298
-0.9509345480242574   0.040260445546622475   0.0009337514882555298
-0.9492469748682669   0.06620108093289317   0.019269209423755138
-0.9492469748682669   0.06620108093289317   0.019269209423755138
-0.9492469748682669   0.06620108093289317   0.019269209423755138
-0.9492469748682669   0.06620108093289317   0.019269209423755138
-2.0799799941053205   -0.14500039751703098   -0.06617866329011353
-2.0799799941053205   -0.14500039751703098   -0.06617866329011353
-2.0799799941053205   -0.14500039751703098   -0.06617866329011353
-2.0799799941053205   -0.14500039751703098   -0.06617866329011353
-1.4994127463696842   -0.06786715366091628   -0.016337460865044715
-1.4994127463696842   -0.06786715366091628   -0.016337460865044715
-1.4994127463696842   -0.06786715366091628   -0.016337460865044715
-1.4994127463696842   -0.06786715366091628   -0.016337460865044715
-2.0718687999615724   -0.1635847866568328   -0.007038303431569373
-2.0718687999615724   -0.1635847866568328   -0.007038303431569373
-2.0718687999615724   -0.1635847866568328   -0.007038303431569373
-2.0718687999615724   -0.1635847866568328   -0.007038303431569373
-0.9504749619125664   0.09166867717214838   -0.012338322036979044
-0.9504749619125664   0.09166867717214838   -0.012338322036979044
-0.9504749619125664   0.09166867717214838   -0.012338322036979044
-0.9504749619125664   0.09166867717214838   -0.012338322036979044
-0.9334699882663728   0.11447565983686686   0.03876979626174043
-0.9334699882663728   0.11447565983686686   0.03876979626174043
-0.9334699882663728   0.11447565983686686   0.03876979626174043
-0.9334699882663728   0.11447565983686686   0.03876979626174043
-2.057848639440037   -0.08402628809468171   -0.07373788488134095
-2.057848639440037   -0.08402628809468171   -0.07373788488134095
-2.057848639440037   -0.08402628809468171   -0.07373788488134095
-2.057848639440037   -0.08402628809468171   -0.07373788488134095
-1.4932861498542753   -0.01674064618188581   0.00750293271285761
-1.4932861498542753   -0.01674064618188581   0.00750293271285761
-1.4932861498542753   -0.01674064618188581   0.00750293271285761
-1.4932861498542753   -0.01674064618188581   0.00750293271285761
-0.990037957174555   -0.22487920787407356   -0.0419175519350236
-0.990037957174555   -0.22487920787407356   -0.0419175519350236
-0.990037957174555   -0.22487920787407356   -0.0419175519350236
-0.990037957174555   -0.22487920787407356   -0.0419175519350236
0.1032706297779484   0.023481148796436556   0.03856956041506892
0.1032706297779484   0.023481148796436556   0.03856956041506892
0.1032706297779484   0.023481148796436556   0.03856956041506892
0.1032706297779484   0.023481148796436556   0.03856956041506892
0.09847427110572582   0.05678518730385843   0.0030681320642442743
0.09847427110572582   0.05678518730385843   0.0030681320642442743
0.09847427110572582   0.05678518730385843   0.0030681320642442743
0.09847427110572582   0.05678518730385843   0.0030681320642442743
-0.9943299098207009   -0.1490215449152655   -0.026761067032083023
-0.9943299098207009   -0.1490215449152655   -0.026761067032083023
-0.9943299098207009   -0.1490215449152655   -0.026761067032083023
-0.9943299098207009   -0.1490215449152655   -0.026761067032083023
-0.4499635545618924   -0.0745164657398382   -0.014203675972643
-0.4499635545618924   -0.0745164657398382   -0.014203675972643
-0.4499635545618924   -0.0745164657398382   -0.014203675972643
-0.4499635545618924   -0.0745164657398382   -0.014203675972643
-1.0012051263456196   -0.17149671459470706   -0.03866197997723582
-1.0012051263456196   -0.17149671459470706   -0.03866197997723582
-1.0012051263456196   -0.17149671459470706   -0.03866197997723582
-1.0012051263456196   -0.17149671459470706   -0.03866197997723582
0.10917870979501301   0.08308957914766926   0.03028593366686943
0.10917870979501301   0.08308957914766926   0.03028593366686943
0.10917870979501301   0.08308957914766926   0.03028593366686943
0.10917870979501301   0.08308957914766926   0.03028593366686943
0.10613232529978785   0.1096788874192622   0.017939233352072873
0.10613232529978785   0.1096788874192622   0.017939233352072873
0.10613232529978785   0.1096788874192622   0.017939233352072873
0.10613232529978785   0.1096788874192622   0.017939233352072873
-0.9912213157825996   -0.09102143586856462   -0.03337997834645036
-0.9912213157825996   -0.09102143586856462   -0.03337997834645036
-0.9912213157825996   -0.09102143586856462   -0.03337997834645036
-0.9912213157825996   -0.09102143586856462   -0.03337997834645036
-0.44301957232566463   -0.01829758187465949   0.0053214971435011985
-0.44301957232566463   -0.01829758187465949   0.0053214971435011985
-0.44301957232566463   -0.01829758187465949   0.0053214971435011985
-0.44301957232566463   -0.01829758187465949   0.0053214971435011985
-0.9938696928116263   -0.11786501895455416   -0.019778280405594654
-0.9938696928116263   -0.11786501895455416   -0.019778280405594654
-0.9938696928116263   -0.11786501895455416   -0.019778280405594654
-0.9938696928116263   -0.11786501895455416   -0.019778280405594654
0.1128999381683166   0.1406417063447536   0.02081447876922448
0.1128999381683166   0.1406417063447536   0.02081447876922448
0.1128999381683166   0.1406417063447536   0.02081447876922448
0.1128999381683166   0.1406417063447536   0.02081447876922448
0.10849971077639142   0.1685308552651053   0.02954846827284525
0.10849971077639142   0.1685308552651053   0.02954846827284525
0.10849971077639142   0.1685308552651053   0.02954846827284525
0.10849971077639142   0.1685308552651053   0.02954846827284525
-0.9783299976818883   -0.029009605294742974   -0.04204498568422208
-0.9783299976818883   -0.029009605294742974   -0.04204498568422208
-0.9783299976818883   -0.029009605294742974   -0.04204498568422208
-0.9783299976818883   -0.029009605294742974   -0.04204498568422208
-0.432009839738442   0.04049480587694286   0.026696545722369847
-0.432009839738442   0.04049480587694286   0.026696545722369847
-0.432009839738442   0.04049480587694286   0.026696545722369847
-0.432009839738442   0.04049480587694286   0.026696545722369847
0.04761218905508887   -0.16481681049678115   -0.05142468390601103
0.04761218905508887   -0.16481681049678115   -0.05142468390601103
0.04761218905508887   -0.16481681049678115   -0.05142468390601103
0.04761218905508887   -0.16481681049678115   -0.05142468390601103
1.1802150547807262   0.08151971901244412   0.07075159315081514
1.1802150547807262   0.08151971901244412   0.07075159315081514
1.1802150547807262   0.08151971901244412   0.07075159315081514
1.1802150547807262   0.08151971901244412   0.07075159315081514
1.1787219334940287   0.10975738480149749   -0.011294284060276522
1.1787219334940287   0.10975738480149749   -0.011294284060276522
1.1787219334940287   0.10975738480149749   -0.011294284060276522
1.1787219334940287   0.10975738480149749   -0.011294284060276522
0.06809241479798975   -0.09907804152530655   0.007022079354728948
0.06809241479798975   -0.09907804152530655   0.007022079354728948
0.06809241479798975   -0.09907804152530655   0.007022079354728948
0.06809241479798975   -0.09907804152530655   0.007022079354728948
0.6110429002711227   -0.01408191012376886   0.0013253205500526263
0.6110429002711227   -0.01408191012376886   0.0013253205500526263
0.6110429002711227   -0.01408191012376886   0.0013253205500526263
0.6110429002711227   -0.01408191012376886   0.0013253205500526263
0.05473979851428618   -0.12045332841684588   -0.03836571517224907
0.05473979851428618   -0.12045332841684588   -0.03836571517224907
0.05473979851428618   -0.12045332841684588   -0.03836571517224907
0.05473979851428618   -0.12045332841684588   -0.03836571517224907
1.1989509232859061   0.13800904520120902   0.06159900449939059
1.1989509232859061   0.13800904520120902   0.06159900449939059
1.1989509232859061   0.13800904520120902   0.06159900449939059
1.1989509232859061   0.13800904520120902   0.06159900449939059
1.1879539724696222   0.16206574533336132   0.012024190874495275
1.1879539724696222   0.16206574533336132   0.012024190874495275
1.1879539724696222   0.16206574533336132   0.012024190874495275
1.1879539724696222   0.16206574533336132   0.012024190874495275
0.07045409710561568   -0.047246762915818565   -0.0035262572837072206
0.07045409710561568   -0.047246762915818565   -0.0035262572837072206
0.07045409710561568   -0.047246762915818565   -0.0035262572837072206
0.07045409710561568   -0.047246762915818565   -0.0035262572837072206
0.6191312266471022   0.03592166194720735   0.0253211725541538
0.6191312266471022   0.03592166194720735   0.0253211725541538
0.6191312266471022   0.03592166194720735   0.0253211725541538
0.6191312266471022   0.03592166194720735   0.0253211725541538
0.060735353419768504   -0.07138013698105092   -0.02798660164771058
0.060735353419768504   -0.07138013698105092   -0.02798660164771058
0.060735353419768504   -0.07138013698105092   -0.02798660164771058
0.060735353419768504   -0.07138013698105092   -0.02798660164771058
1.2026477967116054   0.19117419995472612   0.056384857463026655
1.2026477967116054   0.19117419995472612   0.056384857463026655
1.2026477967116054   0.19117419995472612   0.056384857463026655
1.2026477967116054   0.19117419995472612   0.056384857463026655
1.1688269550651749   0.2224395625946803   0.02523961056632478
1.1688269550651749   0.2224395625946803   0.02523961056632478
1.1688269550651749   0.2224395625946803   0.02523961056632478
1.1688269550651749   0.2224395625946803   0.02523961056632478
0.06976618146559514   0.0169602423535334   -0.012548565369564231
0.06976618146559514   0.0169602423535334   -0.012548565369564231
0.06976618146559514   0.0169602423535334   -0.012548565369564231
0.06976618146559514   0.0169602423535334   -0.012548565369564231
0.6282204708348094   0.09309054202183253   0.047527942407657606
0.6282204708348094   0.09309054202183253   0.047527942407657606
0.6282204708348094   0.09309054202183253   0.047527942407657606
0.6282204708348094   0.09309054202183253   0.047527942407657606
1.0873191923930703   -0.21723474211187704   -0.0949732576631429
1.0873191923930703   -0.21723474211187704   -0.0949732576631429
1.0873191923930703   -0.21723474211187704   -0.0949732576631429
1.0873191923930703   -0.21723474211187704   -0.0949732576631429
2.238440678196599   0.1478473567839847   0.0688276376382073
2.238440678196599   0.1478473567839847   0.0688276376382073
2.238440678196599   0.1478473567839847   0.0688276376382073
2.238440678196599   0.1478473567839847   0.0688276376382073
2.2636834859780604   0.07033231665776413   -0.142853338242168
2.2636834859780604   0.07033231665776413   -0.142853338242168
2.2636834859780604   0.07033231665776413   -0.142853338242168
2.2636834859780604   0.07033231665776413   -0.142853338242168
1.1583110201870688   -0.04471525685266009   0.041123791059062456
1.1583110201870688   -0.04471525685266009   0.041123791059062456
1.1583110201870688   -0.04471525685266009   0.041123791059062456
1.1583110201870688   -0.04471525685266009   0.041123791059062456
1.603092324129795   -0.027893583374971165   -0.04002148831306217
1.603092324129795   -0.027893583374971165   -0.04002148831306217
1.603092324129795   -0.027893583374971165   -0.04002148831306217
1.603092324129795   -0.027893583374971165   -0.04002148831306217
1.1178621632798966   -0.14285702524943605   -0.06297872508000911
1.1178621632798966   -0.14285702524943605   -0.06297872508000911
1.1178621632798966   -0.14285702524943605   -0.06297872508000911
1.1178621632798966   -0.14285702524943605   -0.06297872508000911
2.3246653568498643   0.18900709901917473   0.04338123375544119
2.3246653568498643   0.18900709901917473   0.04338123375544119
2.3246653568498643   0.18900709901917473   0.04338123375544119
2.3246653568498643   0.18900709901917473   0.04338123375544119
2.2884989016338966   0.12788471089348602   -0.03221267112115296
2.2884989016338966   0.12788471089348602   -0.03221267112115296
2.2884989016338966   0.12788471089348602   -0.03221267112115296
2.2884989016338966   0.12788471089348602   -0.03221267112115296
1.1535892404890593   -0.018882152162296773   0.021148428467319694
1.1535892404890593   -0.018882152162296773   0.021148428467319694
1.1535892404890593   -0.018882152162296773   0.021148428467319694
1.1535892404890593   -0.018882152162296773   0.021148428467319694
1.6868685724368424   0.04212811630252372   0.027697526420188648
1.6868685724368424   0.04212811630252372   0.027697526420188648
1.6868685724368424   0.04212811630252372   0.027697526420188648
1.6868685724368424   0.04212811630252372   0.027697526420188648
1.1211549202048616   -0.10926884682606702   -0.05063647828988696
1.1211549202048616   -0.10926884682606702   -0.05063647828988696
1.1211549202048616   -0.10926884682606702   -0.05063647828988696
1.1211549202048616   -0.10926884682606702   -0.05063647828988696
2.3182034750281364   0.21554165866730096   0.02865324807623136
2.3182034750281364   0.21554165866730096   0.02865324807623136
2.3182034750281364   0.21554165866730096   0.02865324807623136
2.3182034750281364   0.21554165866730096   0.02865324807623136
2.2845319395202632   0.19554025438049116   -0.049367823299816024
2.2845319395202632   0.19554025438049116   -0.049367823299816024
2.2845319395202632   0.19554025438049116   -0.049367823299816024
2.2845319395202632   0.19554025438049116   -0.049367823299816024
1.1297737736260327   0.04069837759192246   0.011714888373351398
1.1297737736260327   0.04069837759192246   0.011714888373351398
1.1297737736260327   0.04069837759192246   0.011714888373351398
1.1297737736260327   0.04069837759192246   0.011714888373351398
1.6436388433609763   0.07377938159526554   0.02046828926164379
1.6436388433609763   0.07377938159526554   0.02046828926164379
1.6436388433609763   0.07377938159526554   0.02046828926164379
1.6436388433609763   0.07377938159526554   0.02046828926164379
-2.4580074903468145   -0.11165909110223676   0.12622892057788915
-2.4580074903468145   -0.11165909110223676   0.12622892057788915
-2.4580074903468145   -0.11165909110223676   0.12622892057788915
-2.4580074903468145   -0.11165909110223676   0.12622892057788915
-1.6319293904954268   -0.06180242290370058   -0.0328453888702729
-1.6319293904954268   -0.06180242290370058   -0.0328453888702729
-1.6319293904954268   -0.06180242290370058   -0.0328453888702729
-1.6319293904954268   -0.06180242290370058   -0.0328453888702729
-1.573252448234365   0.13215343619895947   0.1059346178860023
-1.573252448234365   0.13215343619895947   0.1059346178860023
-1.573252448234365   0.13215343619895947   0.1059346178860023
-1.573252448234365   0.13215343619895947   0.1059346178860023
-2.469386234055244   -0.17622699360838534   -0.05148500283182686
-2.469386234055244   -0.17622699360838534   -0.05148500283182686
-2.469386234055244   -0.17622699360838534   -0.05148500283182686
-2.469386234055244   -0.17622699360838534   -0.05148500283182686
-1.9505556719762491   -0.030163574254290226   -0.0034600716830939238
-1.9505556719762491   -0.030163574254290226   -0.0034600716830939238
-1.9505556719762491   -0.030163574254290226   -0.0034600716830939238
-1.9505556719762491   -0.030163574254290226   -0.0034600716830939238
-2.4007943044447915   -0.02624360691492983   0.14149125852698158
-2.4007943044447915   -0.02624360691492983   0.14149125852698158
-2.4007943044447915   -0.02624360691492983   0.14149125852698158
-2.4007943044447915   -0.02624360691492983   0.14149125852698158
-1.6310380803682984   -0.007023653017979137   -0.043816453566726074
-1.6310380803682984   -0.007023653017979137   -0.043816453566726074
-1.6310380803682984   -0.007023653017979137   -0.043816453566726074
-1.6310380803682984   -0.007023653017979137   -0.043816453566726074
-1.566883714662942   0.16388839063971566   0.09821835022971115
-1.566883714662942   0.16388839063971566   0.09821835022971115
-1.566883714662942   0.16388839063971566   0.09821835022971115
-1.566883714662942   0.16388839063971566   0.09821835022971115
-2.431258667691458   -0.14746590686950312   -0.07051339062423795
-2.431258667691458   -0.14746590686950312   -0.07051339062423795
-2.431258667691458   -0.14746590686950312   -0.07051339062423795
-2.431258667691458   -0.14746590686950312   -0.07051339062423795
-1.9548049549211497   0.0071237454212697005   0.022598871120774022
-1.9548049549211497   0.0071237454212697005   0.022598871120774022
-1.9548049549211497   0.0071237454212697005   0.022598871120774022
-1.9548049549211497   0.0071237454212697005   0.022598871120774022
-2.3673763833042045   0.0036938431283547457   0.09773828131416912
-2.3673763833042045   0.0036938431283547457   0.09773828131416912
-2.3673763833042045   0.0036938431283547457   0.09773828131416912
-2.3673763833042045   0.0036938431283547457   0.09773828131416912
-1.6272038275026646   0.016290812189392656   -0.05578463551856737
-1.6272038275026646   0.016290812189392656   -0.05578463551856737
-1.6272038275026646   0.016290812189392656   -0.05578463551856737
-1.6272038275026646   0.016290812189392656   -0.05578463551856737
-1.5684430152851048   0.1849147356593418   0.07793144470044977
-1.5684430152851048   0.1849147356593418   0.07793144470044977
-1.5684430152851048   0.1849147356593418   0.07793144470044977
-1.5684430152851048   0.1849147356593418   0.07793144470044977
-2.3817358203094177   -0.11693589881485006   -0.0899386645064751
-2.3817358203094177   -0.11693589881485006   -0.0899386645064751
-2.3817358203094177   -0.11693589881485006   -0.0899386645064751
-2.3817358203094177   -0.11693589881485006   -0.0899386645064751
-1.8987048647643783   0.040499889360870345   0.046906026725606204
-1.8987048647643783   0.040499889360870345   0.046906026725606204
-1.8987048647643783   0.040499889360870345   0.046906026725606204
-1.8987048647643783   0.040499889360870345   0.046906026725606204
-1.6368895901634724   -0.1551877603121593   0.03573895019795709
-1.6368895901634724   -0.1551877603121593   0.03573895019795709
-1.6368895901634724   -0.1551877603121593   0.03573895019795709
-1.6368895901634724   -0.1551877603121593   0.03573895019795709
-0.8262003314364297   -0.02976255149952256   0.0016050049131901695
-0.8262003314364297   -0.02976255149952256   0.0016050049131901695
-0.8262003314364297   -0.02976255149952256   0.0016050049131901695
-0.8262003314364297   -0.02976255149952256   0.0016050049131901695
-0.8028384090805749   0.08120961610156968   0.05758346531930919
-0.8028384090805749   0.08120961610156968   0.05758346531930919
-0.8028384090805749   0.08120961610156968   0.05758346531930919
-0.8028384090805749   0.08120961610156968   0.05758346531930919
-1.662937755342559   -0.15304325349755565   -0.05729522795847036
-1.662937755342559   -0.15304325349755565   -0.05729522795847036
-1.662937755342559   -0.15304325349755565   -0.05729522795847036
-1.662937755342559   -0.15304325349755565   -0.05729522795847036
-1.227824330940788   -0.060250109487355624   -0.024814527897696358
-1.227824330940788   -0.060250109487355624   -0.024814527897696358
-1.227824330940788   -0.060250109487355624   -0.024814527897696358
-1.227824330940788   -0.060250109487355624   -0.024814527897696358
-1.631778393421457   -0.08916950683380792   0.034627834983303435
-1.631778393421457   -0.08916950683380792   0.034627834983303435
-1.631778393421457   -0.08916950683380792   0.034627834983303435
-1.631778393421457   -0.08916950683380792   0.034627834983303435
-0.827678269629115   0.02365537081038921   -0.009061592132205129
-0.827678269629115   0.02365537081038921   -0.009061592132205129
-0.827678269629115   0.02365537081038921   -0.009061592132205129
-0.827678269629115   0.02365537081038921   -0.009061592132205129
-0.8003293858523091   0.13413124557735223   0.04982894392879071
-0.8003293858523091   0.13413124557735223   0.04982894392879071
-0.8003293858523091   0.13413124557735223   0.04982894392879071
-0.8003293858523091   0.13413124557735223   0.04982894392879071
-1.6535613359828238   -0.10363749303662295   -0.06764387269335992
-1.6535613359828238   -0.10363749303662295   -0.06764387269335992
-1.6535613359828238   -0.10363749303662295   -0.06764387269335992
-1.6535613359828238   -0.10363749303662295   -0.06764387269335992
-1.214457493819191   -0.006689610078153718   -5.395812092051644e-05
-1.214457493819191   -0.006689610078153718   -5.395812092051644e-05
-1.214457493819191   -0.006689610078153718   -5.395812092051644e-05
-1.214457493819191   -0.006689610078153718   -5.395812092051644e-05
-1.6217643935443478   -0.0354840628786115   0.02318740934101053
-1.6217643935443478   -0.0354840628786115   0.02318740934101053
-1.6217643935443478   -0.0354840628786115   0.02318740934101053
-1.6217643935443478   -0.0354840628786115   0.02318740934101053
-0.826980137832737   0.0711240058773914   -0.020417576273375176
-0.826980137832737   0.0711240058773914   -0.020417576273375176
-0.826980137832737   0.0711240058773914   -0.020417576273375176
-0.826980137832737   0.0711240058773914   -0.020417576273375176
-0.8001250104424344   0.18973500129753335   0.03734493308212432
-0.8001250104424344   0.18973500129753335   0.03734493308212432
-0.8001250104424344   0.18973500129753335   0.03734493308212432
-0.8001250104424344   0.18973500129753335   0.03734493308212432
-1.6456392129185784   -0.05033744397329365   -0.0727973638342874
-1.6456392129185784   -0.05033744397329365   -0.0727973638342874
-1.6456392129185784   -0.05033744397329365   -0.0727973638342874
-1.6456392129185784   -0.05033744397329365   -0.0727973638342874
-1.2152879959852818   0.04241258793070607   0.018863523872125615
-1.2152879959852818   0.04241258793070607   0.018863523872125615
-1.2152879959852818   0.04241258793070607   0.018863523872125615
-1.2152879959852818   0.04241258793070607   0.018863523872125615
-0.8570147093899176   -0.17727976532575532   -0.00494967102802437
-0.8570147093899176   -0.17727976532575532   -0.00494967102802437
-0.8570147093899176   -0.17727976532575532   -0.00494967102802437
-0.8570147093899176   -0.17727976532575532   -0.00494967102802437
-0.027965534790132803   0.008913656899421868   0.03660263220198854
-0.027965534790132803   0.008913656899421868   0.03660263220198854
-0.027965534790132803   0.008913656899421868   0.03660263220198854
-0.027965534790132803   0.008913656899421868   0.03660263220198854
-0.03113215033273914   0.05246747428695184   0.01748626949103447
-0.03113215033273914   0.05246747428695184   0.01748626949103447
-0.03113215033273914   0.05246747428695184   0.01748626949103447
-0.03113215033273914   0.05246747428695184   0.01748626949103447
-0.857623588675928   -0.11367140026756825   -0.021461416288318623
-0.857623588675928   -0.11367140026756825   -0.021461416288318623
-0.857623588675928   -0.11367140026756825   -0.021461416288318623
-0.857623588675928   -0.11367140026756825   -0.021461416288318623
-0.44479110412139644   -0.05553494098157922   -0.013875894248636356
-0.44479110412139644   -0.05553494098157922   -0.013875894248636356
-0.44479110412139644   -0.05553494098157922   -0.013875894248636356
-0.44479110412139644   -0.05553494098157922   -0.013875894248636356
-0.856700799727758   -0.11853940321105644   -0.011979468603980407
-0.856700799727758   -0.11853940321105644   -0.011979468603980407
-0.856700799727758   -0.11853940321105644   -0.011979468603980407
-0.856700799727758   -0.11853940321105644   -0.011979468603980407
-0.027342942711898265   0.062047473799447105   0.02685230808274368
-0.027342942711898265   0.062047473799447105   0.02685230808274368
-0.027342942711898265   0.062047473799447105   0.02685230808274368
-0.027342942711898265   0.062047473799447105   0.02685230808274368
-0.027257113245274897   0.11012871974379798   0.008406597178037975
-0.027257113245274897   0.11012871974379798   0.008406597178037975
-0.027257113245274897   0.11012871974379798   0.008406597178037975
-0.027257113245274897   0.11012871974379798   0.008406597178037975
-0.8555008165970536   -0.06044982377475111   -0.0314471404428209
-0.8555008165970536   -0.06044982377475111   -0.0314471404428209
-0.8555008165970536   -0.06044982377475111   -0.0314471404428209
-0.8555008165970536   -0.06044982377475111   -0.0314471404428209
-0.44050292075099545   -0.0022114254887834472   0.006128039348224718
-0.44050292075099545   -0.0022114254887834472   0.006128039348224718
-0.44050292075099545   -0.0022114254887834472   0.006128039348224718
-0.44050292075099545   -0.0022114254887834472   0.006128039348224718
-0.8542122047627242   -0.0616953325037371   -0.02375857254218809
-0.8542122047627242   -0.0616953325037371   -0.02375857254218809
-0.8542122047627242   -0.0616953325037371   -0.02375857254218809
-0.8542122047627242   -0.0616953325037371   -0.02375857254218809
-0.024654562073370932   0.1152653914790174   0.016282681302338967
-0.024654562073370932   0.1152653914790174   0.016282681302338967
-0.024654562073370932   0.1152653914790174   0.016282681302338967
-0.024654562073370932   0.1152653914790174   0.016282681302338967
-0.026459887944194203   0.16951692525541096   -0.0012824426711465914
-0.026459887944194203   0.16951692525541096   -0.0012824426711465914
-0.026459887944194203   0.16951692525541096   -0.0012824426711465914
-0.026459887944194203   0.16951692525541096   -0.0012824426711465914
-0.8551114175338282   -0.0063195564068681265   -0.041532544670445336
-0.8551114175338282   -0.0063195564068681265   -0.041532544670445336
-0.8551114175338282   -0.0063195564068681265   -0.041532544670445336
-0.8551114175338282   -0.0063195564068681265   -0.041532544670445336
-0.43718024134972056   0.05116247040874422   0.024471447819205835
-0.43718024134972056   0.05116247040874422   0.024471447819205835
-0.43718024134972056   0.05116247040874422   0.024471447819205835
-0.43718024134972056   0.05116247040874422   0.024471447819205835
-0.08436932675425887   -0.19404000839046653   -0.042462662328753155
-0.08436932675425887   -0.19404000839046653   -0.042462662328753155
-0.08436932675425887   -0.19404000839046653   -0.042462662328753155
-0.08436932675425887   -0.19404000839046653   -0.042462662328753155
0.7673348995346991   0.054201141375781275   0.06957923785253346
0.7673348995346991   0.054201141375781275   0.06957923785253346
0.7673348995346991   0.054201141375781275   0.06957923785253346
0.7673348995346991   0.054201141375781275   0.06957923785253346
0.7422483462573436   0.028874573358696143   -0.02737077768461136
0.7422483462573436   0.028874573358696143   -0.02737077768461136
0.7422483462573436   0.028874573358696143   -0.02737077768461136
0.7422483462573436   0.028874573358696143   -0.02737077768461136
-0.05636169023461737   -0.07111218788717734   0.014918232155772555
-0.05636169023461737   -0.07111218788717734   0.014918232155772555
-0.05636169023461737   -0.07111218788717734   0.014918232155772555
-0.05636169023461737   -0.07111218788717734   0.014918232155772555
0.33737231714495586   -0.044830144786887405   -0.007815347747489557
0.33737231714495586   -0.044830144786887405   -0.007815347747489557
0.33737231714495586   -0.044830144786887405   -0.007815347747489557
0.33737231714495586   -0.044830144786887405   -0.007815347747489557
-0.0841000724530174   -0.14158177350927897   -0.05330409331412592
-0.0841000724530174   -0.14158177350927897   -0.05330409331412592
-0.0841000724530174   -0.14158177350927897   -0.05330409331412592
-0.0841000724530174   -0.14158177350927897   -0.05330409331412592
0.7753454822148108   0.10470291271986497   0.06228656274155586
0.7753454822148108   0.10470291271986497   0.06228656274155586
0.7753454822148108   0.10470291271986497   0.06228656274155586
0.7753454822148108   0.10470291271986497   0.06228656274155586
0.7541781796745587   0.08251232750217431   -0.03845488776268585
0.7541781796745587   0.08251232750217431   -0.03845488776268585
0.7541781796745587   0.08251232750217431   -0.03845488776268585
0.7541781796745587   0.08251232750217431   -0.03845488776268585
-0.054797007555310764   -0.02343012915209515   0.0042659745237527275
-0.054797007555310764   -0.02343012915209515   0.0042659745237527275
-0.054797007555310764   -0.02343012915209515   0.0042659745237527275
-0.054797007555310764   -0.02343012915209515   0.0042659745237527275
0.3402758548034055   0.0033953203695318707   0.012056209545804965
0.3402758548034055   0.0033953203695318707   0.012056209545804965
0.3402758548034055   0.0033953203695318707   0.012056209545804965
0.3402758548034055   0.0033953203695318707   0.012056209545804965
-0.08177302431448857   -0.08982981952328697   -0.06421441890094505
-0.08177302431448857   -0.08982981952328697   -0.06421441890094505
-0.08177302431448857   -0.08982981952328697   -0.06421441890094505
-0.08177302431448857   -0.08982981952328697   -0.06421441890094505
0.7869935476296864   0.15475136906931594   0.05338291044581105
0.7869935476296864   0.15475136906931594   0.05338291044581105
0.7869935476296864   0.15475136906931594   0.05338291044581105
0.7869935476296864   0.15475136906931594   0.05338291044581105
0.761509298793549   0.14979483590701317   -0.040118714930126836
0.761509298793549   0.14979483590701317   -0.040118714930126836
0.761509298793549   0.14979483590701317   -0.040118714930126836
0.761509298793549   0.14979483590701317   -0.040118714930126836
-0.054915929230638136   0.03231412214746866   -0.006359845995423451
-0.054915929230638136   0.03231412214746866   -0.006359845995423451
-0.054915929230638136   0.03231412214746866   -0.006359845995423451
-0.054915929230638136   0.03231412214746866   -0.006359845995423451
0.3519639329355996   0.05719586250267715   0.03566476575158281
0.3519639329355996   0.05719586250267715   0.03566476575158281
0.3519639329355996   0.05719586250267715   0.03566476575158281
0.3519639329355996   0.05719586250267715   0.03566476575158281
0.6875315629903731   -0.19262271206963627   -0.08261359142367154
0.6875315629903731   -0.19262271206963627   -0.08261359142367154
0.6875315629903731   -0.19262271206963627   -0.08261359142367154
0.6875315629903731   -0.19262271206963627   -0.08261359142367154
1.5109202855743222   0.11224667939561558   0.07728138080050859
1.5109202855743222   0.11224667939561558   0.07728138080050859
1.5109202855743222   0.11224667939561558   0.07728138080050859
1.5109202855743222   0.11224667939561558   0.07728138080050859
1.4991230290314446   -0.00676946458949973   -0.10995925646951894
1.4991230290314446   -0.00676946458949973   -0.10995925646951894
1.4991230290314446   -0.00676946458949973   -0.10995925646951894
1.4991230290314446   -0.00676946458949973   -0.10995925646951894
0.7490718193729302   -0.016221026910831493   0.05184218816285712
0.7490718193729302   -0.016221026910831493   0.05184218816285712
0.7490718193729302   -0.016221026910831493   0.05184218816285712
0.7490718193729302   -0.016221026910831493   0.05184218816285712
1.0577052238286497   -0.03749222070691177   -0.034639863172680294
1.0577052238286497   -0.03749222070691177   -0.034639863172680294
1.0577052238286497   -0.03749222070691177   -0.034639863172680294
1.0577052238286497   -0.03749222070691177   -0.034639863172680294
0.6881653167194945   -0.16729285513418143   -0.10161849688096984
0.6881653167194945   -0.16729285513418143   -0.10161849688096984
0.6881653167194945   -0.16729285513418143   -0.10161849688096984
0.6881653167194945   -0.16729285513418143   -0.10161849688096984
1.5644074894271462   0.14868032137611512   0.06101325954337417
1.5644074894271462   0.14868032137611512   0.06101325954337417
1.5644074894271462   0.14868032137611512   0.06101325954337417
1.5644074894271462   0.14868032137611512   0.06101325954337417
1.5357170641864941   0.023824747882825847   -0.14744489500450192
1.5357170641864941   0.023824747882825847   -0.14744489500450192
1.5357170641864941   0.023824747882825847   -0.14744489500450192
1.5357170641864941   0.023824747882825847   -0.14744489500450192
0.7545100434254413   0.0071148883785048245   0.03860187011540993
0.7545100434254413   0.0071148883785048245   0.03860187011540993
0.7545100434254413   0.0071148883785048245   0.03860187011540993
0.7545100434254413   0.0071148883785048245   0.03860187011540993
1.1054287806913015   -0.004432871090165685   -0.010602957940720907
1.1054287806913015   -0.004432871090165685   -0.010602957940720907
1.1054287806913015   -0.004432871090165685   -0.010602957940720907
1.1054287806913015   -0.004432871090165685   -0.010602957940720907
0.6959048719674518   -0.1367587760994084   -0.1105503226966306
0.6959048719674518   -0.1367587760994084   -0.1105503226966306
0.6959048719674518   -0.1367587760994084   -0.1105503226966306
0.6959048719674518   -0.1367587760994084   -0.1105503226966306
1.6039900500656628   0.177366226781919   0.04037855549225915
1.6039900500656628   0.177366226781919   0.04037855549225915
1.6039900500656628   0.177366226781919   0.04037855549225915
1.6039900500656628   0.177366226781919   0.04037855549225915
1.5938322336164499   0.1034387765910652   -0.1386415766213523
1.5938322336164499   0.1034387765910652   -0.1386415766213523
1.5938322336164499   0.1034387765910652   -0.1386415766213523
1.5938322336164499   0.1034387765910652   -0.1386415766213523
0.7569533003411075   0.058726284617050484   0.028169844097642192
0.7569533003411075   0.058726284617050484   0.028169844097642192
0.7569533003411075   0.058726284617050484   0.028169844097642192
0.7569533003411075   0.058726284617050484   0.028169844097642192
1.113454059635529   0.03339444676124251   0.015969627376531313
1.113454059635529   0.03339444676124251   0.015969627376531313
1.113454059635529   0.03339444676124251   0.015969627376531313
1.113454059635529   0.03339444676124251   0.015969627376531313
-1.758298548634841   -0.05761623975285696   0.11445468502335941
-1.758298548634841   -0.05761623975285696   0.11445468502335941
-1.758298548634841   -0.05761623975285696   0.11445468502335941
-1.758298548634841   -0.05761623975285696   0.11445468502335941
-1.2295451394793757   -0.0819573441932891   -0.04326954814397492
-1.2295451394793757   -0.0819573441932891   -0.04326954814397492
-1.2295451394793757   -0.0819573441932891   -0.04326954814397492
-1.2295451394793757   -0.0819573441932891   -0.04326954814397492
-1.157402592022659   0.11599044421406379   0.09761854424783353
-1.157402592022659   0.11599044421406379   0.09761854424783353
-1.157402592022659   0.11599044421406379   0.09761854424783353
-1.157402592022659   0.11599044421406379   0.09761854424783353
-1.7584432726828187   -0.14470282886205096   -0.06328431913221128
-1.7584432726828187   -0.14470282886205096   -0.06328431913221128
-1.7584432726828187   -0.14470282886205096   -0.06328431913221128
-1.7584432726828187   -0.14470282886205096   -0.06328431913221128
-1.415419982302543   -0.022597792248969573   -0.0029799940795373903
-1.415419982302543   -0.022597792248969573   -0.0029799940795373903
-1.415419982302543   -0.022597792248969573   -0.0029799940795373903
-1.415419982302543   -0.022597792248969573   -0.0029799940795373903
-1.6928346095219116   0.01115963785558427   0.10889652995468871
-1.6928346095219116   0.01115963785558427   0.10889652995468871
-1.6928346095219116   0.01115963785558427   0.10889652995468871
-1.6928346095219116   0.01115963785558427   0.10889652995468871
-1.2176766642531778   -0.034537431573181204   -0.053223941117503525
-1.2176766642531778   -0.034537431573181204   -0.053223941117503525
-1.2176766642531778   -0.034537431573181204   -0.053223941117503525
-1.2176766642531778   -0.034537431573181204   -0.053223941117503525
-1.146508836312395   0.14008912781329902   0.08251195141071027
-1.146508836312395   0.14008912781329902   0.08251195141071027
-1.146508836312395   0.14008912781329902   0.08251195141071027
-1.146508836312395   0.14008912781329902   0.08251195141071027
-1.7169157066076564   -0.11784420715276511   -0.08002368022569419
-1.7169157066076564   -0.11784420715276511   -0.08002368022569419
-1.7169157066076564   -0.11784420715276511   -0.08002368022569419
-1.7169157066076564   -0.11784420715276511   -0.08002368022569419
-1.4055917771768747   0.00919675515506474   0.014946820101107136
-1.4055917771768747   0.00919675515506474   0.014946820101107136
-1.4055917771768747   0.00919675515506474   0.014946820101107136
-1.4055917771768747   0.00919675515506474   0.014946820101107136
-1.6518567590044013   0.040002102600265876   0.08742474803755063
-1.6518567590044013   0.040002102600265876   0.08742474803755063
-1.6518567590044013   0.040002102600265876   0.08742474803755063
-1.6518567590044013   0.040002102600265876   0.08742474803755063
-1.2067420543274234   -0.012931452351503447   -0.06563355849961859
-1.2067420543274234   -0.012931452351503447   -0.06563355849961859
-1.2067420543274234   -0.012931452351503447   -0.06563355849961859
-1.2067420543274234   -0.012931452351503447   -0.06563355849961859
-1.14047386606799   0.16350506645919616   0.07100420762232822
-1.14047386606799   0.16350506645919616   0.07100420762232822
-1.14047386606799   0.16350506645919616   0.07100420762232822
-1.14047386606799   0.16350506645919616   0.07100420762232822
-1.6612690783356832   -0.08235768882973682   -0.09582441466492239
-1.6612690783356832   -0.08235768882973682   -0.09582441466492239
-1.6612690783356832   -0.08235768882973682   -0.09582441466492239
-1.6612690783356832   -0.08235768882973682   -0.09582441466492239
-1.352893905099922   0.03896421375013959   0.04012619949432436
-1.352893905099922   0.03896421375013959   0.04012619949432436
-1.352893905099922   0.03896421375013959   0.04012619949432436
-1.352893905099922   0.03896421375013959   0.04012619949432436
-1.2158170990091688   -0.09943686999496634   0.04285018000872556
-1.2158170990091688   -0.09943686999496634   0.04285018000872556
-1.2158170990091688   -0.09943686999496634   0.04285018000872556
-1.2158170990091688   -0.09943686999496634   0.04285018000872556
-0.7043901522776138   -0.0531112622755331   -0.006980982594750541
-0.7043901522776138   -0.0531112622755331   -0.006980982594750541
-0.7043901522776138   -0.0531112622755331   -0.006980982594750541
-0.7043901522776138   -0.0531112622755331   -0.006980982594750541
-0.6686148424241068   0.06780760133431318   0.05263613328242189
-0.6686148424241068   0.06780760133431318   0.05263613328242189
-0.6686148424241068   0.06780760133431318   0.05263613328242189
-0.6686148424241068   0.06780760133431318   0.05263613328242189
-1.2340709509537546   -0.11829130382782341   -0.051441502365758375
-1.2340709509537546   -0.11829130382782341   -0.051441502365758375
-1.2340709509537546   -0.11829130382782341   -0.051441502365758375
-1.2340709509537546   -0.11829130382782341   -0.051441502365758375
-0.951859932439304   -0.046457209225934354   -0.019374262679556102
-0.951859932439304   -0.046457209225934354   -0.019374262679556102
-0.951859932439304   -0.046457209225934354   -0.019374262679556102
-0.951859932439304   -0.046457209225934354   -0.019374262679556102
-1.2015828673852695   -0.04230975665386316   0.03501736830270291
-1.2015828673852695   -0.04230975665386316   0.03501736830270291
-1.2015828673852695   -0.04230975665386316   0.03501736830270291
-1.2015828673852695   -0.04230975665386316   0.03501736830270291
-0.6969367077042176   -0.0040077275512732935   -0.017157864232544902
-0.6969367077042176   -0.0040077275512732935   -0.017157864232544902
-0.6969367077042176   -0.0040077275512732935   -0.017157864232544902
-0.6969367077042176   -0.0040077275512732935   -0.017157864232544902
-0.6601083247832449   0.1172147377884854   0.043164270232587384
-0.6601083247832449   0.1172147377884854   0.043164270232587384
-0.6601083247832449   0.1172147377884854   0.043164270232587384
-0.6601083247832449   0.1172147377884854   0.043164270232587384
-1.217478999511369   -0.07164401243029653   -0.060605724340564875
-1.217478999511369   -0.07164401243029653   -0.060605724340564875
-1.217478999511369   -0.07164401243029653   -0.060605724340564875
-1.217478999511369   -0.07164401243029653   -0.060605724340564875
-0.9335864807701358   0.002130420316635462   0.00149714648186354
-0.9335864807701358   0.002130420316635462   0.00149714648186354
-0.9335864807701358   0.002130420316635462   0.00149714648186354
-0.9335864807701358   0.002130420316635462   0.00149714648186354
-1.1825318589961342   0.010495308383710489   0.031990657421602245
-1.1825318589961342   0.010495308383710489   0.031990657421602245
-1.1825318589961342   0.010495308383710489   0.031990657421602245
-1.1825318589961342   0.010495308383710489   0.031990657421602245
-0.6898816597821515   0.04024922249080723   -0.02873688946426361
-0.6898816597821515   0.04024922249080723   -0.02873688946426361
-0.6898816597821515   0.04024922249080723   -0.02873688946426361
-0.6898816597821515   0.04024922249080723   -0.02873688946426361
-0.6518902075666773   0.16984057456751978   0.034343723517863245
-0.6518902075666773   0.16984057456751978   0.034343723517863245
-0.6518902075666773   0.16984057456751978   0.034343723517863245
-0.6518902075666773   0.16984057456751978   0.034343723517863245
-1.2050523885224367   -0.021395002768653026   -0.06698833542205114
-1.2050523885224367   -0.021395002768653026   -0.06698833542205114
-1.2050523885224367   -0.021395002768653026   -0.06698833542205114
-1.2050523885224367   -0.021395002768653026   -0.06698833542205114
-0.926517163136822   0.047823842288672314   0.021362544332326053
-0.926517163136822   0.047823842288672314   0.021362544332326053
-0.926517163136822   0.047823842288672314   0.021362544332326053
-0.926517163136822   0.047823842288672314   0.021362544332326053
-0.7193063873046645   -0.13634143670415902   0.0016680166986159334
-0.7193063873046645   -0.13634143670415902   0.0016680166986159334
-0.7193063873046645   -0.13634143670415902   0.0016680166986159334
-0.7193063873046645   -0.13634143670415902   0.0016680166986159334
-0.18471414643601228   -0.015770374299679094   0.02934125322620229
-0.18471414643601228   -0.015770374299679094   0.02934125322620229
-0.18471414643601228   -0.015770374299679094   0.02934125322620229
-0.18471414643601228   -0.015770374299679094   0.02934125322620229
-0.18015223943273442   0.028116317518178106   0.01000582339721947
-0.18015223943273442   0.028116317518178106   0.01000582339721947
-0.18015223943273442   0.028116317518178106   0.01000582339721947
-0.18015223943273442   0.028116317518178106   0.01000582339721947
-0.71141353294418   -0.07982192642556639   -0.013727791558071193
-0.71141353294418   -0.07982192642556639   -0.013727791558071193
-0.71141353294418   -0.07982192642556639   -0.013727791558071193
-0.71141353294418   -0.07982192642556639   -0.013727791558071193
-0.44965892379050526   -0.048781442656784066   -0.013762108558465016
-0.44965892379050526   -0.048781442656784066   -0.013762108558465016
-0.44965892379050526   -0.048781442656784066   -0.013762108558465016
-0.44965892379050526   -0.048781442656784066   -0.013762108558465016
-0.7102571580647192   -0.0812161663374413   -0.006551677248892822
-0.7102571580647192   -0.0812161663374413   -0.006551677248892822
-0.7102571580647192   -0.0812161663374413   -0.006551677248892822
-0.7102571580647192   -0.0812161663374413   -0.006551677248892822
-0.17713201914217766   0.03368715260007048   0.019536089768110883
-0.17713201914217766   0.03368715260007048   0.019536089768110883
-0.17713201914217766   0.03368715260007048   0.019536089768110883
-0.17713201914217766   0.03368715260007048   0.019536089768110883
-0.16988194682124846   0.08348997996788304   0.0026330084945600622
-0.16988194682124846   0.08348997996788304   0.0026330084945600622
-0.16988194682124846   0.08348997996788304   0.0026330084945600622
-0.16988194682124846   0.08348997996788304   0.0026330084945600622
-0.702899367686159   -0.030022796479016595   -0.0235534100144811
-0.702899367686159   -0.030022796479016595   -0.0235534100144811
-0.702899367686159   -0.030022796479016595   -0.0235534100144811
-0.702899367686159   -0.030022796479016595   -0.0235534100144811
-0.4386903224425   0.0009903011680656576   0.005903831782137766
-0.4386903224425   0.0009903011680656576   0.005903831782137766
-0.4386903224425   0.0009903011680656576   0.005903831782137766
-0.4386903224425   0.0009903011680656576   0.005903831782137766
-0.7002897466108118   -0.026019834926911622   -0.014508266189849954
-0.7002897466108118   -0.026019834926911622   -0.014508266189849954
-0.7002897466108118   -0.026019834926911622   -0.014508266189849954
-0.7002897466108118   -0.026019834926911622   -0.014508266189849954
-0.16863543685904356   0.08334314945333049   0.009012388820138807
-0.16863543685904356   0.08334314945333049   0.009012388820138807
-0.16863543685904356   0.08334314945333049   0.009012388820138807
-0.16863543685904356   0.08334314945333049   0.009012388820138807
-0.16067221517964314   0.13966667445324393   -0.006040592724070162
-0.16067221517964314   0.13966667445324393   -0.006040592724070162
-0.16067221517964314   0.13966667445324393   -0.006040592724070162
-0.16067221517964314   0.13966667445324393   -0.006040592724070162
-0.6954206133684655   0.020355661463438174   -0.03382339238700021
-0.6954206133684655   0.020355661463438174   -0.03382339238700021
-0.6954206133684655   0.020355661463438174   -0.03382339238700021
-0.6954206133684655   0.020355661463438174   -0.03382339238700021
-0.42867514352547903   0.05100043671829871   0.024849930543182283
-0.42867514352547903   0.05100043671829871   0.024849930543182283
-0.42867514352547903   0.05100043671829871   0.024849930543182283
-0.42867514352547903   0.05100043671829871   0.024849930543182283
-0.2284672131129992   -0.1665950163466205   -0.03859943811179244
-0.2284672131129992   -0.1665950163466205   -0.03859943811179244
-0.2284672131129992   -0.1665950163466205   -0.03859943811179244
-0.2284672131129992   -0.1665950163466205   -0.03859943811179244
0.3282207081545593   0.02611520922016   0.06363537106006797
0.3282207081545593   0.02611520922016   0.06363537106006797
0.3282207081545593   0.02611520922016   0.06363537106006797
0.3282207081545593   0.02611520922016   0.06363537106006797
0.30550016077106257   -0.00880109557527696   -0.03538815729040548
0.30550016077106257   -0.00880109557527696   -0.03538815729040548
0.30550016077106257   -0.00880109557527696   -0.03538815729040548
0.30550016077106257   -0.00880109557527696   -0.03538815729040548
-0.1908159511434264   -0.038726153985598685   0.023529736347536308
-0.1908159511434264   -0.038726153985598685   0.023529736347536308
-0.1908159511434264   -0.038726153985598685   0.023529736347536308
-0.1908159511434264   -0.038726153985598685   0.023529736347536308
0.05153033284483454   -0.045699446486613095   -0.009790378853832842
0.05153033284483454   -0.045699446486613095   -0.009790378853832842
0.05153033284483454   -0.045699446486613095   -0.009790378853832842
0.05153033284483454   -0.045699446486613095   -0.009790378853832842
-0.22056076801928637   -0.11643312523228175   -0.04748737678508048
-0.22056076801928637   -0.11643312523228175   -0.04748737678508048
-0.22056076801928637   -0.11643312523228175   -0.04748737678508048
-0.22056076801928637   -0.11643312523228175   -0.04748737678508048
0.34021612646699456   0.07387702449148224   0.05551355112248935
0.34021612646699456   0.07387702449148224   0.05551355112248935
0.34021612646699456   0.07387702449148224   0.05551355112248935
0.34021612646699456   0.07387702449148224   0.05551355112248935
0.3245962695133485   0.04357766550869192   -0.0400883292409712
0.3245962695133485   0.04357766550869192   -0.0400883292409712
0.3245962695133485   0.04357766550869192   -0.0400883292409712
0.3245962695133485   0.04357766550869192   -0.0400883292409712
-0.1834033971194062   0.005809461099170785   0.012706275872485236
-0.1834033971194062   0.005809461099170785   0.012706275872485236
-0.1834033971194062   0.005809461099170785   0.012706275872485236
-0.1834033971194062   0.005809461099170785   0.012706275872485236
0.06167988781079775   -0.0005846706152322773   0.010210555189760556
0.06167988781079775   -0.0005846706152322773   0.010210555189760556
0.06167988781079775   -0.0005846706152322773   0.010210555189760556
0.06167988781079775   -0.0005846706152322773   0.010210555189760556
-0.2121082181054228   -0.06728936646546138   -0.057719001492966396
-0.2121082181054228   -0.06728936646546138   -0.057719001492966396
-0.2121082181054228   -0.06728936646546138   -0.057719001492966396
-0.2121082181054228   -0.06728936646546138   -0.057719001492966396
0.35761180633802986   0.12098720891198805   0.04757981147913552
0.35761180633802986   0.12098720891198805   0.04757981147913552
0.35761180633802986   0.12098720891198805   0.04757981147913552
0.35761180633802986   0.12098720891198805   0.04757981147913552
0.33996850443714566   0.10330052466541464   -0.04631226707347737
0.33996850443714566   0.10330052466541464   -0.04631226707347737
0.33996850443714566   0.10330052466541464   -0.04631226707347737
0.33996850443714566   0.10330052466541464   -0.04631226707347737
-0.17547993742417053   0.05717717640840668   0.0024102940981286514
-0.17547993742417053   0.05717717640840668   0.0024102940981286514
-0.17547993742417053   0.05717717640840668   0.0024102940981286514
-0.17547993742417053   0.05717717640840668   0.0024102940981286514
0.0773853901969931   0.04852419451089025   0.03093271720181881
0.0773853901969931   0.04852419451089025   0.03093271720181881
0.0773853901969931   0.04852419451089025   0.03093271720181881
0.0773853901969931   0.04852419451089025   0.03093271720181881
0.26137798449587224   -0.16834222048568104   -0.07612081752752436
0.26137798449587224   -0.16834222048568104   -0.07612081752752436
0.26137798449587224   -0.16834222048568104   -0.07612081752752436
0.26137798449587224   -0.16834222048568104   -0.07612081752752436
0.7846006807478132   0.07727056131367883   0.0823218475889871
0.7846006807478132   0.07727056131367883   0.0823218475889871
0.7846006807478132   0.07727056131367883   0.0823218475889871
0.7846006807478132   0.07727056131367883   0.0823218475889871
0.7768378311877127   -0.041076199345451814   -0.10019968582502684
0.7768378311877127   -0.041076199345451814   -0.10019968582502684
0.7768378311877127   -0.041076199345451814   -0.10019968582502684
0.7768378311877127   -0.041076199345451814   -0.10019968582502684
0.32939202548585567   0.01385289835498578   0.06141717235329318
0.32939202548585567   0.01385289835498578   0.06141717235329318
0.32939202548585567   0.01385289835498578   0.06141717235329318
0.32939202548585567   0.01385289835498578   0.06141717235329318
0.5100150150919835   -0.034727729757797934   -0.02685874696186958
0.5100150150919835   -0.034727729757797934   -0.02685874696186958
0.5100150150919835   -0.034727729757797934   -0.02685874696186958
0.5100150150919835   -0.034727729757797934   -0.02685874696186958
0.26867363908706354   -0.14027789404809346   -0.08804396723758603
0.26867363908706354   -0.14027789404809346   -0.08804396723758603
0.26867363908706354   -0.14027789404809346   -0.08804396723758603
0.26867363908706354   -0.14027789404809346   -0.08804396723758603
0.8426247059867068   0.11812308145783192   0.06953540736667255
0.8426247059867068   0.11812308145783192   0.06953540736667255
0.8426247059867068   0.11812308145783192   0.06953540736667255
0.8426247059867068   0.11812308145783192   0.06953540736667255
0.8190452496239834   -0.011726557232672075   -0.12014056413901665
0.8190452496239834   -0.011726557232672075   -0.12014056413901665
0.8190452496239834   -0.011726557232672075   -0.12014056413901665
0.8190452496239834   -0.011726557232672075   -0.12014056413901665
0.34054302967705596   0.035349675183374035   0.047873461902879985
0.34054302967705596   0.035349675183374035   0.047873461902879985
0.34054302967705596   0.035349675183374035   0.047873461902879985
0.34054302967705596   0.035349675183374035   0.047873461902879985
0.5527106203950705   -0.005149066970198207   -0.0032806142233624755
0.5527106203950705   -0.005149066970198207   -0.0032806142233624755
0.5527106203950705   -0.005149066970198207   -0.0032806142233624755
0.5527106203950705   -0.005149066970198207   -0.0032806142233624755
0.2803111227265458   -0.1158604577646793   -0.10207593990161534
0.2803111227265458   -0.1158604577646793   -0.10207593990161534
0.2803111227265458   -0.1158604577646793   -0.10207593990161534
0.2803111227265458   -0.1158604577646793   -0.10207593990161534
0.8845558775008793   0.14476229664177506   0.050923721371031114
0.8845558775008793   0.14476229664177506   0.050923721371031114
0.8845558775008793   0.14476229664177506   0.050923721371031114
0.8845558775008793   0.14476229664177506   0.050923721371031114
0.883821357796292   0.05275025169266584   -0.12857837797946559
0.883821357796292   0.05275025169266584   -0.12857837797946559
0.883821357796292   0.05275025169266584   -0.12857837797946559
0.883821357796292   0.05275025169266584   -0.12857837797946559
0.3519567784275691   0.0788985528578401   0.03803107468621303
0.3519567784275691   0.0788985528578401   0.03803107468621303
0.3519567784275691   0.0788985528578401   0.03803107468621303
0.3519567784275691   0.0788985528578401   0.03803107468621303
0.5739090060869958   0.02747724138117072   0.016986022252793463
0.5739090060869958   0.02747724138117072   0.016986022252793463
0.5739090060869958   0.02747724138117072   0.016986022252793463
0.5739090060869958   0.02747724138117072   0.016986022252793463
-1.0552749541844175   -0.017907724414083837   0.10270836545706238
-1.0552749541844175   -0.017907724414083837   0.10270836545706238
-1.0552749541844175   -0.017907724414083837   0.10270836545706238
-1.0552749541844175   -0.017907724414083837   0.10270836545706238
-0.8221963232730051   -0.104201598894478   -0.05088659148013163
-0.8221963232730051   -0.104201598894478   -0.05088659148013163
-0.8221963232730051   -0.104201598894478   -0.05088659148013163
-0.8221963232730051   -0.104201598894478   -0.05088659148013163
-0.7442709615679243   0.0883581754612143   0.08784839136922062
-0.7442709615679243   0.0883581754612143   0.08784839136922062
-0.7442709615679243   0.0883581754612143   0.08784839136922062
-0.7442709615679243   0.0883581754612143   0.08784839136922062
-1.0507712553543045   -0.11442698903824024   -0.06923333801094436
-1.0507712553543045   -0.11442698903824024   -0.06923333801094436
-1.0507712553543045   -0.11442698903824024   -0.06923333801094436
-1.0507712553543045   -0.11442698903824024   -0.06923333801094436
-0.8829450718461004   -0.024349615411820957   -0.01284923555661701
-0.8829450718461004   -0.024349615411820957   -0.01284923555661701
-0.8829450718461004   -0.024349615411820957   -0.01284923555661701
-0.8829450718461004   -0.024349615411820957   -0.01284923555661701
-0.9859960465973684   0.042072186273817175   0.09814353046167906
-0.9859960465973684   0.042072186273817175   0.09814353046167906
-0.9859960465973684   0.042072186273817175   0.09814353046167906
-0.9859960465973684   0.042072186273817175   0.09814353046167906
-0.804554314364702   -0.06364914389067822   -0.06156105326276755
-0.804554314364702   -0.06364914389067822   -0.06156105326276755
-0.804554314364702   -0.06364914389067822   -0.06156105326276755
-0.804554314364702   -0.06364914389067822   -0.06156105326276755
-0.7257556431736576   0.11125634527268918   0.07431901846757842
-0.7257556431736576   0.11125634527268918   0.07431901846757842
-0.7257556431736576   0.11125634527268918   0.07431901846757842
-0.7257556431736576   0.11125634527268918   0.07431901846757842
-1.0025934624592447   -0.08848142380815671   -0.08652687077399983
-1.0025934624592447   -0.08848142380815671   -0.08652687077399983
-1.0025934624592447   -0.08848142380815671   -0.08652687077399983
-1.0025934624592447   -0.08848142380815671   -0.08652687077399983
-0.8577614727826686   0.0056340139236754905   0.006269550851456626
-0.8577614727826686   0.0056340139236754905   0.006269550851456626
-0.8577614727826686   0.0056340139236754905   0.006269550851456626
-0.8577614727826686   0.0056340139236754905   0.006269550851456626
-0.9377562792192188   0.06985661557804668   0.07932100603992719
-0.9377562792192188   0.06985661557804668   0.07932100603992719
-0.9377562792192188   0.06985661557804668   0.07932100603992719
-0.9377562792192188   0.06985661557804668   0.07932100603992719
-0.7863377433502662   -0.0428266110500955   -0.07450852609267242
-0.7863377433502662   -0.0428266110500955   -0.07450852609267242
-0.7863377433502662   -0.0428266110500955   -0.07450852609267242
-0.7863377433502662   -0.0428266110500955   -0.07450852609267242
-0.7107428960887698   0.13973223257949338   0.06409901013431532
-0.7107428960887698   0.13973223257949338   0.06409901013431532
-0.7107428960887698   0.13973223257949338   0.06409901013431532
-0.7107428960887698   0.13973223257949338   0.06409901013431532
-0.9378606555437095   -0.04695201312190364   -0.10014511343396011
-0.9378606555437095   -0.04695201312190364   -0.10014511343396011
-0.9378606555437095   -0.04695201312190364   -0.10014511343396011
-0.9378606555437095   -0.04695201312190364   -0.10014511343396011
-0.806894753843239   0.03517418675842557   0.030010078720448932
-0.806894753843239   0.03517418675842557   0.030010078720448932
-0.806894753843239   0.03517418675842557   0.030010078720448932
-0.806894753843239   0.03517418675842557   0.030010078720448932
-0.7934780076396764   -0.05985996605882392   0.04836335385085798
-0.7934780076396764   -0.05985996605882392   0.04836335385085798
-0.7934780076396764   -0.05985996605882392   0.04836335385085798
-0.7934780076396764   -0.05985996605882392   0.04836335385085798
-0.5816989117241064   -0.0790158513952463   -0.015071359190380357
-0.5816989117241064   -0.0790158513952463   -0.015071359190380357
-0.5816989117241064   -0.0790158513952463   -0.015071359190380357
-0.5816989117241064   -0.0790158513952463   -0.015071359190380357
-0.5382108661938128   0.04015045730493724   0.04490721853810297
-0.5382108661938128   0.04015045730493724   0.04490721853810297
-0.5382108661938128   0.04015045730493724   0.04490721853810297
-0.5382108661938128   0.04015045730493724   0.04490721853810297
-0.8051180607505264   -0.08449859157151665   -0.043530337511043626
-0.8051180607505264   -0.08449859157151665   -0.043530337511043626
-0.8051180607505264   -0.08449859157151665   -0.043530337511043626
-0.8051180607505264   -0.08449859157151665   -0.043530337511043626
-0.6777287561016098   -0.0422091140106135   -0.01820399235163679
-0.6777287561016098   -0.0422091140106135   -0.01820399235163679
-0.6777287561016098   -0.0422091140106135   -0.01820399235163679
-0.6777287561016098   -0.0422091140106135   -0.01820399235163679
-0.7727830652367201   -0.007513513761645968   0.04115956224809427
-0.7727830652367201   -0.007513513761645968   0.04115956224809427
-0.7727830652367201   -0.007513513761645968   0.04115956224809427
-0.7727830652367201   -0.007513513761645968   0.04115956224809427
-0.5669227045190772   -0.033211463316395434   -0.0252900524668868
-0.5669227045190772   -0.033211463316395434   -0.0252900524668868
-0.5669227045190772   -0.033211463316395434   -0.0252900524668868
-0.5669227045190772   -0.033211463316395434   -0.0252900524668868
-0.5222393888274778   0.08671008706792319   0.03592516246664235
-0.5222393888274778   0.08671008706792319   0.03592516246664235
-0.5222393888274778   0.08671008706792319   0.03592516246664235
-0.5222393888274778   0.08671008706792319   0.03592516246664235
-0.781234040218465   -0.03970787652364077   -0.052108744960113404
-0.781234040218465   -0.03970787652364077   -0.052108744960113404
-0.781234040218465   -0.03970787652364077   -0.052108744960113404
-0.781234040218465   -0.03970787652364077   -0.052108744960113404
-0.6546598122714   0.0027106562880589435   0.0019154334135064732
-0.6546598122714   0.0027106562880589435   0.0019154334135064732
-0.6546598122714   0.0027106562880589435   0.0019154334135064732
-0.6546598122714   0.0027106562880589435   0.0019154334135064732
-0.7470024412529411   0.042033932298560006   0.0373074410452898
-0.7470024412529411   0.042033932298560006   0.0373074410452898
-0.7470024412529411   0.042033932298560006   0.0373074410452898
-0.7470024412529411   0.042033932298560006   0.0373074410452898
-0.5522880766535065   0.009151189385213532   -0.0367593789808002
-0.5522880766535065   0.009151189385213532   -0.0367593789808002
-0.5522880766535065   0.009151189385213532   -0.0367593789808002
-0.5522880766535065   0.009151189385213532   -0.0367593789808002
-0.5063197802001063   0.13722324413647286   0.02737029078127856
-0.5063197802001063   0.13722324413647286   0.02737029078127856
-0.5063197802001063   0.13722324413647286   0.02737029078127856
-0.5063197802001063   0.13722324413647286   0.02737029078127856
-0.7614989587793376   0.009188646857870492   -0.05913771759689274
-0.7614989587793376   0.009188646857870492   -0.05913771759689274
-0.7614989587793376   0.009188646857870492   -0.05913771759689274
-0.7614989587793376   0.009188646857870492   -0.05913771759689274
-0.6379689489263617   0.04671677698446078   0.021584070272875844
-0.6379689489263617   0.04671677698446078   0.021584070272875844
-0.6379689489263617   0.04671677698446078   0.021584070272875844
-0.6379689489263617   0.04671677698446078   0.021584070272875844
-0.581028437158265   -0.09920704220054696   0.008472204444115665
-0.581028437158265   -0.09920704220054696   0.008472204444115665
-0.581028437158265   -0.09920704220054696   0.008472204444115665
-0.581028437158265   -0.09920704220054696   0.008472204444115665
-0.3445109354060649   -0.04156772419832356   0.021371530967292905
-0.3445109354060649   -0.04156772419832356   0.021371530967292905
-0.3445109354060649   -0.04156772419832356   0.021371530967292905
-0.3445109354060649   -0.04156772419832356   0.021371530967292905
-0.3326015750741785   -0.0007608417377613502   0.002765674010952592
-0.3326015750741785   -0.0007608417377613502   0.002765674010952592
-0.3326015750741785   -0.0007608417377613502   0.002765674010952592
-0.3326015750741785   -0.0007608417377613502   0.002765674010952592
-0.5652914040996364   -0.04529860524970024   -0.005046408436377912
-0.5652914040996364   -0.04529860524970024   -0.005046408436377912
-0.5652914040996364   -0.04529860524970024   -0.005046408436377912
-0.5652914040996364   -0.04529860524970024   -0.005046408436377912
-0.4565814414487464   -0.04452678728288528   -0.013249103305997299
-0.4565814414487464   -0.04452678728288528   -0.013249103305997299
-0.4565814414487464   -0.04452678728288528   -0.013249103305997299
-0.4565814414487464   -0.04452678728288528   -0.013249103305997299
-0.5646256233767334   -0.04760167351231408   0.0005855634407437825
-0.5646256233767334   -0.04760167351231408   0.0005855634407437825
-0.5646256233767334   -0.04760167351231408   0.0005855634407437825
-0.5646256233767334   -0.04760167351231408   0.0005855634407437825
-0.329664877031083   0.00514470529084983   0.011543617197819
-0.329664877031083   0.00514470529084983   0.011543617197819
-0.329664877031083   0.00514470529084983   0.011543617197819
-0.329664877031083   0.00514470529084983   0.011543617197819
-0.3152605841931954   0.051302324447963385   -0.004566588872514092
-0.3152605841931954   0.051302324447963385   -0.004566588872514092
-0.3152605841931954   0.051302324447963385   -0.004566588872514092
-0.3152605841931954   0.051302324447963385   -0.004566588872514092
-0.5492916888192196   0.0020794218662371633   -0.01470567229038875
-0.5492916888192196   0.0020794218662371633   -0.01470567229038875
-0.5492916888192196   0.0020794218662371633   -0.01470567229038875
-0.5492916888192196   0.0020794218662371633   -0.01470567229038875
-0.43829392530977335   0.0022927051043752505   0.006256760178043115
-0.43829392530977335   0.0022927051043752505   0.006256760178043115
-0.43829392530977335   0.0022927051043752505   0.006256760178043115
-0.43829392530977335   0.0022927051043752505   0.006256760178043115
-0.5473912216340104   0.004303943195572896   -0.0074278576936822535
-0.5473912216340104   0.004303943195572896   -0.0074278576936822535
-0.5473912216340104   0.004303943195572896   -0.0074278576936822535
-0.5473912216340104   0.004303943195572896   -0.0074278576936822535
-0.31390355116798013   0.052335303329057045   0.0011855973724712518
-0.31390355116798013   0.052335303329057045   0.0011855973724712518
-0.31390355116798013   0.052335303329057045   0.0011855973724712518
-0.31390355116798013   0.052335303329057045   0.0011855973724712518
-0.29888260315754533   0.10384042408018423   -0.012937589514190044
-0.29888260315754533   0.10384042408018423   -0.012937589514190044
-0.29888260315754533   0.10384042408018423   -0.012937589514190044
-0.29888260315754533   0.10384042408018423   -0.012937589514190044
-0.5342783516169257   0.04982362473681745   -0.02502294690316325
-0.5342783516169257   0.04982362473681745   -0.02502294690316325
-0.5342783516169257   0.04982362473681745   -0.02502294690316325
-0.5342783516169257   0.04982362473681745   -0.02502294690316325
-0.42099158175792617   0.049279983851711326   0.024978185016640307
-0.42099158175792617   0.049279983851711326   0.024978185016640307
-0.42099158175792617   0.049279983851711326   0.024978185016640307
-0.42099158175792617   0.049279983851711326   0.024978185016640307
-0.37352906563579485   -0.13334932385488985   -0.031937520524796384
-0.37352906563579485   -0.13334932385488985   -0.031937520524796384
-0.37352906563579485   -0.13334932385488985   -0.031937520524796384
-0.37352906563579485   -0.13334932385488985   -0.031937520524796384
-0.11382320877071019   -0.0018030657288074896   0.05604753496953417
-0.11382320877071019   -0.0018030657288074896   0.05604753496953417
-0.11382320877071019   -0.0018030657288074896   0.05604753496953417
-0.11382320877071019   -0.0018030657288074896   0.05604753496953417
-0.12961974486841016   -0.039400012789389885   -0.04103576394643589
-0.12961974486841016   -0.039400012789389885   -0.04103576394643589
-0.12961974486841016   -0.039400012789389885   -0.04103576394643589
-0.12961974486841016   -0.039400012789389885   -0.04103576394643589
-0.3276128658794101   -0.005096926221048466   0.03204530446807889
-0.3276128658794101   -0.005096926221048466   0.03204530446807889
-0.3276128658794101   -0.005096926221048466   0.03204530446807889
-0.3276128658794101   -0.005096926221048466   0.03204530446807889
-0.23612267924215052   -0.0429500365137231   -0.0095593223521418
-0.23612267924215052   -0.0429500365137231   -0.0095593223521418
-0.23612267924215052   -0.0429500365137231   -0.0095593223521418
-0.23612267924215052   -0.0429500365137231   -0.0095593223521418
-0.3580705594625418   -0.08495920071054608   -0.04038088895808526
-0.3580705594625418   -0.08495920071054608   -0.04038088895808526
-0.3580705594625418   -0.08495920071054608   -0.04038088895808526
-0.3580705594625418   -0.08495920071054608   -0.04038088895808526
-0.0951244635081143   0.044499849477271355   0.04754078058838223
-0.0951244635081143   0.044499849477271355   0.04754078058838223
-0.0951244635081143   0.044499849477271355   0.04754078058838223
-0.0951244635081143   0.044499849477271355   0.04754078058838223
-0.10429533106071354   0.009851031333481954   -0.04619393901465155
-0.10429533106071354   0.009851031333481954   -0.04619393901465155
-0.10429533106071354   0.009851031333481954   -0.04619393901465155
-0.10429533106071354   0.009851031333481954   -0.04619393901465155
-0.31284503930898167   0.037445680260374065   0.02136777973614411
-0.31284503930898167   0.037445680260374065   0.02136777973614411
-0.31284503930898167   0.037445680260374065   0.02136777973614411
-0.31284503930898167   0.037445680260374065   0.02136777973614411
-0.21668386190009803   0.0006441035929483432   0.010314927136496815
-0.21668386190009803   0.0006441035929483432   0.010314927136496815
-0.21668386190009803   0.0006441035929483432   0.010314927136496815
-0.21668386190009803   0.0006441035929483432   0.010314927136496815
-0.3423364426620281   -0.038539262114661965   -0.050104294654056594
-0.3423364426620281   -0.038539262114661965   -0.050104294654056594
-0.3423364426620281   -0.038539262114661965   -0.050104294654056594
-0.3423364426620281   -0.038539262114661965   -0.050104294654056594
-0.07104574791114988   0.08959415350503444   0.04031085456161424
-0.07104574791114988   0.08959415350503444   0.04031085456161424
-0.07104574791114988   0.08959415350503444   0.04031085456161424
-0.07104574791114988   0.08959415350503444   0.04031085456161424
-0.0828711010942207   0.06486879426753589   -0.051740452936205786
-0.0828711010942207   0.06486879426753589   -0.051740452936205786
-0.0828711010942207   0.06486879426753589   -0.051740452936205786
-0.0828711010942207   0.06486879426753589   -0.051740452936205786
-0.2977271642350413   0.08560517923772167   0.011074849940792705
-0.2977271642350413   0.08560517923772167   0.011074849940792705
-0.2977271642350413   0.08560517923772167   0.011074849940792705
-0.2977271642350413   0.08560517923772167   0.011074849940792705
-0.1965455723293178   0.04611440801925806   0.030201369569644358
-0.1965455723293178   0.04611440801925806   0.030201369569644358
-0.1965455723293178   0.04611440801925806   0.030201369569644358
-0.1965455723293178   0.04611440801925806   0.030201369569644358
-0.16723171312332671   -0.14343324790234876   -0.06936480462001098
-0.16723171312332671   -0.14343324790234876   -0.06936480462001098
-0.16723171312332671   -0.14343324790234876   -0.06936480462001098
-0.16723171312332671   -0.14343324790234876   -0.06936480462001098
0.06098351624937703   0.04267729476162673   0.08537347347587954
0.06098351624937703   0.04267729476162673   0.08537347347587954
0.06098351624937703   0.04267729476162673   0.08537347347587954
0.06098351624937703   0.04267729476162673   0.08537347347587954
0.06149521129363503   -0.07037559444482708   -0.0918284774535505
0.06149521129363503   -0.07037559444482708   -0.0918284774535505
0.06149521129363503   -0.07037559444482708   -0.0918284774535505
0.06149521129363503   -0.07037559444482708   -0.0918284774535505
-0.09071680280699651   0.04420792021933677   0.06987101335190576
-0.09071680280699651   0.04420792021933677   0.06987101335190576
-0.09071680280699651   0.04420792021933677   0.06987101335190576
-0.09071680280699651   0.04420792021933677   0.06987101335190576
-0.03587810417922692   -0.030359616784587085   -0.01630173814856726
-0.03587810417922692   -0.030359616784587085   -0.01630173814856726
-0.03587810417922692   -0.030359616784587085   -0.01630173814856726
-0.03587810417922692   -0.030359616784587085   -0.01630173814856726
-0.15159566065750812   -0.1105759537338406   -0.07973940194747499
-0.15159566065750812   -0.1105759537338406   -0.07973940194747499
-0.15159566065750812   -0.1105759537338406   -0.07973940194747499
-0.15159566065750812   -0.1105759537338406   -0.07973940194747499
0.12669200241274273   0.0887262127769515   0.07505367092020947
0.12669200241274273   0.0887262127769515   0.07505367092020947
0.12669200241274273   0.0887262127769515   0.07505367092020947
0.12669200241274273   0.0887262127769515   0.07505367092020947
0.10992776331816363   -0.042160197875730124   -0.1090606370337485
0.10992776331816363   -0.042160197875730124   -0.1090606370337485
0.10992776331816363   -0.042160197875730124   -0.1090606370337485
0.10992776331816363   -0.042160197875730124   -0.1090606370337485
-0.07288569704302336   0.06468058201777924   0.056024680389501993
-0.07288569704302336   0.06468058201777924   0.056024680389501993
-0.07288569704302336   0.06468058201777924   0.056024680389501993
-0.07288569704302336   0.06468058201777924   0.056024680389501993
0.004002013879389954   -0.0013425235154284855   0.005249984000457718
0.004002013879389954   -0.0013425235154284855   0.005249984000457718
0.004002013879389954   -0.0013425235154284855   0.005249984000457718
0.004002013879389954   -0.0013425235154284855   0.005249984000457718
-0.1329390591115001   -0.08736145378494473   -0.0922000941501578
-0.1329390591115001   -0.08736145378494473   -0.0922000941501578
-0.1329390591115001   -0.08736145378494473   -0.0922000941501578
-0.1329390591115001   -0.08736145378494473   -0.0922000941501578
0.17430079826581932   0.11420151080617277   0.05644282902262701
0.17430079826581932   0.11420151080617277   0.05644282902262701
0.17430079826581932   0.11420151080617277   0.05644282902262701
0.17430079826581932   0.11420151080617277   0.05644282902262701
0.17774669309165717   0.013096047797474265   -0.11677136527967348
0.17774669309165717   0.013096047797474265   -0.11677136527967348
0.17774669309165717   0.013096047797474265   -0.11677136527967348
0.17774669309165717   0.013096047797474265   -0.11677136527967348
-0.05622318564439593   0.10084281855541319   0.04552510002504078
-0.05622318564439593   0.10084281855541319   0.04552510002504078
-0.05622318564439593   0.10084281855541319   0.04552510002504078
-0.05622318564439593   0.10084281855541319   0.04552510002504078
0.03984205757342247   0.029169093187401945   0.02629572726235277
0.03984205757342247   0.029169093187401945   0.02629572726235277
0.03984205757342247   0.029169093187401945   0.02629572726235277
0.03984205757342247   0.029169093187401945   0.02629572726235277
-0.35110607706324454   0.019698737223420394   0.09752484289959976
-0.35110607706324454   0.019698737223420394   0.09752484289959976
-0.35110607706324454   0.019698737223420394   0.09752484289959976
-0.35110607706324454   0.019698737223420394   0.09752484289959976
-0.4155750390592362   -0.1272295414556337   -0.057561836227632716
-0.4155750390592362   -0.1272295414556337   -0.057561836227632716
-0.4155750390592362   -0.1272295414556337   -0.057561836227632716
-0.4155750390592362   -0.1272295414556337   -0.057561836227632716
-0.33178263327019686   0.05919239191732843   0.0798749446827913
-0.33178263327019686   0.05919239191732843   0.0798749446827913
-0.33178263327019686   0.05919239191732843   0.0798749446827913
-0.33178263327019686   0.05919239191732843   0.0798749446827913
-0.3408983958555969   -0.08391218647577565   -0.07413717187295414
-0.3408983958555969   -0.08391218647577565   -0.07413717187295414
-0.3408983958555969   -0.08391218647577565   -0.07413717187295414
-0.3408983958555969   -0.08391218647577565   -0.07413717187295414
-0.35068526079709184   -0.026984629658712185   -0.026592619725890554
-0.35068526079709184   -0.026984629658712185   -0.026592619725890554
-0.35068526079709184   -0.026984629658712185   -0.026592619725890554
-0.35068526079709184   -0.026984629658712185   -0.026592619725890554
-0.27663668350808546   0.07241536134246368   0.09084384204635611
-0.27663668350808546   0.07241536134246368   0.09084384204635611
-0.27663668350808546   0.07241536134246368   0.09084384204635611
-0.27663668350808546   0.07241536134246368   0.09084384204635611
-0.3920297526846333   -0.09312056296783712   -0.06904769750422507
-0.3920297526846333   -0.09312056296783712   -0.06904769750422507
-0.3920297526846333   -0.09312056296783712   -0.06904769750422507
-0.3920297526846333   -0.09312056296783712   -0.06904769750422507
-0.30584305093621944   0.08162108155359891   0.06723524451178364
-0.30584305093621944   0.08162108155359891   0.06723524451178364
-0.30584305093621944   0.08162108155359891   0.06723524451178364
-0.30584305093621944   0.08162108155359891   0.06723524451178364
-0.28547650872270475   -0.05856485514473291   -0.09238119993938902
-0.28547650872270475   -0.05856485514473291   -0.09238119993938902
-0.28547650872270475   -0.05856485514473291   -0.09238119993938902
-0.28547650872270475   -0.05856485514473291   -0.09238119993938902
-0.3097957088868651   0.0016840041937683098   -0.0054547152938174345
-0.3097957088868651   0.0016840041937683098   -0.0054547152938174345
-0.3097957088868651   0.0016840041937683098   -0.0054547152938174345
-0.3097957088868651   0.0016840041937683098   -0.0054547152938174345
-0.2208303132460741   0.09969463720756333   0.07259028509146037
-0.2208303132460741   0.09969463720756333   0.07259028509146037
-0.2208303132460741   0.09969463720756333   0.07259028509146037
-0.2208303132460741   0.09969463720756333   0.07259028509146037
-0.3666993429642299   -0.0728485073500682   -0.08257662672460167
-0.3666993429642299   -0.0728485073500682   -0.08257662672460167
-0.3666993429642299   -0.0728485073500682   -0.08257662672460167
-0.3666993429642299   -0.0728485073500682   -0.08257662672460167
-0.2820987984732632   0.11584406041408433   0.058073397175564125
-0.2820987984732632   0.11584406041408433   0.058073397175564125
-0.2820987984732632   0.11584406041408433   0.058073397175564125
-0.2820987984732632   0.11584406041408433   0.058073397175564125
-0.21150496930415302   -0.010379779495330768   -0.10407921342388107
-0.21150496930415302   -0.010379779495330768   -0.10407921342388107
-0.21150496930415302   -0.010379779495330768   -0.10407921342388107
-0.21150496930415302   -0.010379779495330768   -0.10407921342388107
-0.2605990651423934   0.031614311680277035   0.01719250115988538
-0.2605990651423934   0.031614311680277035   0.01719250115988538
-0.2605990651423934   0.031614311680277035   0.01719250115988538
-0.2605990651423934   0.031614311680277035   0.01719250115988538
-0.37214884954147487   -0.02301971094960812   0.05535928085514839
-0.37214884954147487   -0.02301971094960812   0.05535928085514839
-0.37214884954147487   -0.02301971094960812   0.05535928085514839
-0.37214884954147487   -0.02301971094960812   0.05535928085514839
-0.4607463122612618   -0.10377172806680202   -0.022492074058044896
-0.4607463122612618   -0.10377172806680202   -0.022492074058044896
-0.4607463122612618   -0.10377172806680202   -0.022492074058044896
-0.4607463122612618   -0.10377172806680202   -0.022492074058044896
-0.4105871411389501   0.010525513431403344   0.03705926789198005
-0.4105871411389501   0.010525513431403344   0.03705926789198005
-0.4105871411389501   0.010525513431403344   0.03705926789198005
-0.4105871411389501   0.010525513431403344   0.03705926789198005
-0.37625776816110434   -0.04921322008127523   -0.034095117773134655
-0.37625776816110434   -0.04921322008127523   -0.034095117773134655
-0.37625776816110434   -0.04921322008127523   -0.034095117773134655
-0.37625776816110434   -0.04921322008127523   -0.034095117773134655
-0.405203708120373   -0.03820992662370503   -0.018760148869319974
-0.405203708120373   -0.03820992662370503   -0.018760148869319974
-0.405203708120373   -0.03820992662370503   -0.018760148869319974
-0.405203708120373   -0.03820992662370503   -0.018760148869319974
-0.3447426877477162   0.025946636144799   0.04832042806772431
-0.3447426877477162   0.025946636144799   0.04832042806772431
-0.3447426877477162   0.025946636144799   0.04832042806772431
-0.3447426877477162   0.025946636144799   0.04832042806772431
-0.43895931414878814   -0.061491435391122624   -0.032784648334687826
-0.43895931414878814   -0.061491435391122624   -0.032784648334687826
-0.43895931414878814   -0.061491435391122624   -0.032784648334687826
-0.43895931414878814   -0.061491435391122624   -0.032784648334687826
-0.3874176314593539   0.05513313039778921   0.0282798808878948
-0.3874176314593539   0.05513313039778921   0.0282798808878948
-0.3874176314593539   0.05513313039778921   0.0282798808878948
-0.3874176314593539   0.05513313039778921   0.0282798808878948
-0.3453157825034751   -0.006188784080391127   -0.04231854769050502
-0.3453157825034751   -0.006188784080391127   -0.04231854769050502
-0.3453157825034751   -0.006188784080391127   -0.04231854769050502
-0.3453157825034751   -0.006188784080391127   -0.04231854769050502
-0.37754634844189755   0.0034424247400141605   0.0007590266655054245
-0.37754634844189755   0.0034424247400141605   0.0007590266655054245
-0.37754634844189755   0.0034424247400141605   0.0007590266655054245
-0.37754634844189755   0.0034424247400141605   0.0007590266655054245
-0.31227006647158406   0.07320909741289668   0.04351215097566242
-0.31227006647158406   0.07320909741289668   0.04351215097566242
-0.31227006647158406   0.07320909741289668   0.04351215097566242
-0.31227006647158406   0.07320909741289668   0.04351215097566242
-0.4171137904887562   -0.02091519409300094   -0.044152589768334374
-0.4171137904887562   -0.02091519409300094   -0.044152589768334374
-0.4171137904887562   -0.02091519409300094   -0.044152589768334374
-0.4171137904887562   -0.02091519409300094   -0.044152589768334374
-0.36413789695503757   0.10447550683174917   0.01993552044820073
-0.36413789695503757   0.10447550683174917   0.01993552044820073
-0.36413789695503757   0.10447550683174917   0.01993552044820073
-0.36413789695503757   0.10447550683174917   0.01993552044820073
-0.3185916917171826   0.041531988646025336   -0.0500789972759735
-0.3185916917171826   0.041531988646025336   -0.0500789972759735
-0.3185916917171826   0.041531988646025336   -0.0500789972759735
-0.3185916917171826   0.041531988646025336   -0.0500789972759735
-0.3514011154348011   0.04642359314812655   0.020613509553017682
-0.3514011154348011   0.04642359314812655   0.020613509553017682
-0.3514011154348011   0.04642359314812655   0.020613509553017682
-0.3514011154348011   0.04642359314812655   0.020613509553017682
-0.44495623811728896   -0.06282814767918815   0.015514716274194004
-0.44495623811728896   -0.06282814767918815   0.015514716274194004
-0.44495623811728896   -0.06282814767918815   0.015514716274194004
-0.44495623811728896   -0.06282814767918815   0.015514716274194004
-0.5058376096096467   -0.06537297021992615   0.013621306259234665
-0.5058376096096467   -0.06537297021992615   0.013621306259234665
-0.5058376096096467   -0.06537297021992615   0.013621306259234665
-0.5058376096096467   -0.06537297021992615   0.013621306259234665
-0.4872434213206348   -0.029637511751891235   -0.004788923726334594
-0.4872434213206348   -0.029637511751891235   -0.004788923726334594
-0.4872434213206348   -0.029637511751891235   -0.004788923726334594
-0.4872434213206348   -0.029637511751891235   -0.004788923726334594
-0.4210073719687662   -0.008938693699593409   0.004422320873896705
-0.4210073719687662   -0.008938693699593409   0.004422320873896705
-0.4210073719687662   -0.008938693699593409   0.004422320873896705
-0.4210073719687662   -0.008938693699593409   0.004422320873896705
-0.4654578855742602   -0.039329868874109185   -0.012434272494840132
-0.4654578855742602   -0.039329868874109185   -0.012434272494840132
-0.4654578855742602   -0.039329868874109185   -0.012434272494840132
-0.4654578855742602   -0.039329868874109185   -0.012434272494840132
-0.4213640697935539   -0.013969857575946612   0.00766999562630764
-0.4213640697935539   -0.013969857575946612   0.00766999562630764
-0.4213640697935539   -0.013969857575946612   0.00766999562630764
-0.4213640697935539   -0.013969857575946612   0.00766999562630764
-0.48392527689532855   -0.0216449012750195   0.003809187923328579
-0.48392527689532855   -0.0216449012750195   0.003809187923328579
-0.48392527689532855   -0.0216449012750195   0.003809187923328579
-0.48392527689532855   -0.0216449012750195   0.003809187923328579
-0.4629127723432102   0.01986391566141822   -0.012162119790492774
-0.4629127723432102   0.01986391566141822   -0.012162119790492774
-0.4629127723432102   0.01986391566141822   -0.012162119790492774
-0.4629127723432102   0.01986391566141822   -0.012162119790492774
-0.39791623955256145   0.035998097630720066   -0.005078126811073946
-0.39791623955256145   0.035998097630720066   -0.005078126811073946
-0.39791623955256145   0.035998097630720066   -0.005078126811073946
-0.39791623955256145   0.035998097630720066   -0.005078126811073946
-0.4400455705938766   0.004930910291209248   0.00683095021523477
-0.4400455705938766   0.004930910291209248   0.00683095021523477
-0.4400455705938766   0.004930910291209248   0.00683095021523477
-0.4400455705938766   0.004930910291209248   0.00683095021523477
-0.3971261228624831   0.03535648364139016   -0.0004859293713601817
-0.3971261228624831   0.03535648364139016   -0.0004859293713601817
-0.3971261228624831   0.03535648364139016   -0.0004859293713601817
-0.3971261228624831   0.03535648364139016   -0.0004859293713601817
-0.46112084538455866   0.02308757329947672   -0.006426142635293425
-0.46112084538455866   0.02308757329947672   -0.006426142635293425
-0.46112084538455866   0.02308757329947672   -0.006426142635293425
-0.46112084538455866   0.02308757329947672   -0.006426142635293425
-0.4396164803713994   0.06966226931224036   -0.020491595271575173
-0.4396164803713994   0.06966226931224036   -0.020491595271575173
-0.4396164803713994   0.06966226931224036   -0.020491595271575173
-0.4396164803713994   0.06966226931224036   -0.020491595271575173
-0.3758968130084314   0.08111883538887829   -0.015502388375893572
-0.3758968130084314   0.08111883538887829   -0.015502388375893572
-0.3758968130084314   0.08111883538887829   -0.015502388375893572
-0.3758968130084314   0.08111883538887829   -0.015502388375893572
-0.4158021374820565   0.04927152742569753   0.025195438832207137
-0.4158021374820565   0.04927152742569753   0.025195438832207137
-0.4158021374820565   0.04927152742569753   0.025195438832207137
-0.4158021374820565   0.04927152742569753   0.025195438832207137
-0.5204471598195635   -0.09941437161211811   -0.025385043398165705
-0.5204471598195635   -0.09941437161211811   -0.025385043398165705
-0.5204471598195635   -0.09941437161211811   -0.025385043398165705
-0.5204471598195635   -0.09941437161211811   -0.025385043398165705
-0.5546901373706724   -0.027771038438897916   0.04814942172912752
-0.5546901373706724   -0.027771038438897916   0.04814942172912752
-0.5546901373706724   -0.027771038438897916   0.04814942172912752
-0.5546901373706724   -0.027771038438897916   0.04814942172912752
-0.563530018935896   -0.06812089636406624   -0.047157393190554744
-0.563530018935896   -0.06812089636406624   -0.047157393190554744
-0.563530018935896   -0.06812089636406624   -0.047157393190554744
-0.563530018935896   -0.06812089636406624   -0.047157393190554744
-0.46627584121966187   0.029836009204518565   0.040575455822119834
-0.46627584121966187   0.029836009204518565   0.040575455822119834
-0.46627584121966187   0.029836009204518565   0.040575455822119834
-0.46627584121966187   0.029836009204518565   0.040575455822119834
-0.5240622746656551   -0.03868117394899617   -0.007808677797369705
-0.5240622746656551   -0.03868117394899617   -0.007808677797369705
-0.5240622746656551   -0.03868117394899617   -0.007808677797369705
-0.5240622746656551   -0.03868117394899617   -0.007808677797369705
-0.4974911942480199   -0.0521789273428478   -0.03348637277230791
-0.4974911942480199   -0.0521789273428478   -0.03348637277230791
-0.4974911942480199   -0.0521789273428478   -0.03348637277230791
-0.4974911942480199   -0.0521789273428478   -0.03348637277230791
-0.5292090998662116   0.01699960622462071   0.039326699569180286
-0.5292090998662116   0.01699960622462071   0.039326699569180286
-0.5292090998662116   0.01699960622462071   0.039326699569180286
-0.5292090998662116   0.01699960622462071   0.039326699569180286
-0.5316862746576212   -0.021177534441649465   -0.052907058425303306
-0.5316862746576212   -0.021177534441649465   -0.052907058425303306
-0.5316862746576212   -0.021177534441649465   -0.052907058425303306
-0.5316862746576212   -0.021177534441649465   -0.052907058425303306
-0.4443540968577212   0.07036897426042617   0.030126199037939942
-0.4443540968577212   0.07036897426042617   0.030126199037939942
-0.4443540968577212   0.07036897426042617   0.030126199037939942
-0.4443540968577212   0.07036897426042617   0.030126199037939942
-0.49521838370483634   0.003931659454997016   0.012072685949981257
-0.49521838370483634   0.003931659454997016   0.012072685949981257
-0.49521838370483634   0.003931659454997016   0.012072685949981257
-0.49521838370483634   0.003931659454997016   0.012072685949981257
-0.474603374153995   -0.007774821077054364   -0.042976392105954005
-0.474603374153995   -0.007774821077054364   -0.042976392105954005
-0.474603374153995   -0.007774821077054364   -0.042976392105954005
-0.474603374153995   -0.007774821077054364   -0.042976392105954005
-0.49829836171411074   0.06010489654307766   0.032750075307525606
-0.49829836171411074   0.06010489654307766   0.032750075307525606
-0.49829836171411074   0.06010489654307766   0.032750075307525606
-0.49829836171411074   0.06010489654307766   0.032750075307525606
-0.5038142374823331   0.03056297894727611   -0.05804907826417407
-0.5038142374823331   0.03056297894727611   -0.05804907826417407
-0.5038142374823331   0.03056297894727611   -0.05804907826417407
-0.5038142374823331   0.03056297894727611   -0.05804907826417407
-0.4223715341783935   0.11557433338304247   0.019821071622651995
-0.4223715341783935   0.11557433338304247   0.019821071622651995
-0.4223715341783935   0.11557433338304247   0.019821071622651995
-0.4223715341783935   0.11557433338304247   0.019821071622651995
-0.47068071582988136   0.04624766844991732   0.031092965488975458
-0.47068071582988136   0.04624766844991732   0.031092965488975458
-0.47068071582988136   0.04624766844991732   0.031092965488975458
-0.47068071582988136   0.04624766844991732   0.031092965488975458
-0.5951346026191259   -0.1183248435813824   -0.06351909937066318
-0.5951346026191259   -0.1183248435813824   -0.06351909937066318
-0.5951346026191259   -0.1183248435813824   -0.06351909937066318
-0.5951346026191259   -0.1183248435813824   -0.06351909937066318
-0.6569184977547144   0.009427831191255037   0.08650608003950182
-0.6569184977547144   0.009427831191255037   0.08650608003950182
-0.6569184977547144   0.009427831191255037   0.08650608003950182
-0.6569184977547144   0.009427831191255037   0.08650608003950182
-0.6478857171268103   -0.09811169973473327   -0.0845581720986307
-0.6478857171268103   -0.09811169973473327   -0.0845581720986307
-0.6478857171268103   -0.09811169973473327   -0.0845581720986307
-0.6478857171268103   -0.09811169973473327   -0.0845581720986307
-0.5100531729661649   0.07456243166351843   0.07754350863051229
-0.5100531729661649   0.07456243166351843   0.07754350863051229
-0.5100531729661649   0.07456243166351843   0.07754350863051229
-0.5100531729661649   0.07456243166351843   0.07754350863051229
-0.5783817778583248   -0.025318194550625533   -0.003965704104304933
-0.5783817778583248   -0.025318194550625533   -0.003965704104304933
-0.5783817778583248   -0.025318194550625533   -0.003965704104304933
-0.5783817778583248   -0.025318194550625533   -0.003965704104304933
-0.5710707396097131   -0.08036120699693755   -0.07262068592678007
-0.5710707396097131   -0.08036120699693755   -0.07262068592678007
-0.5710707396097131   -0.08036120699693755   -0.07262068592678007
-0.5710707396097131   -0.08036120699693755   -0.07262068592678007
-0.5835846464508074   0.06009544295818131   0.07874003858846917
-0.5835846464508074   0.06009544295818131   0.07874003858846917
-0.5835846464508074   0.06009544295818131   0.07874003858846917
-0.5835846464508074   0.06009544295818131   0.07874003858846917
-0.5929756363632429   -0.0706951685440007   -0.10076413309917809
-0.5929756363632429   -0.0706951685440007   -0.10076413309917809
-0.5929756363632429   -0.0706951685440007   -0.10076413309917809
-0.5929756363632429   -0.0706951685440007   -0.10076413309917809
-0.48540228994558443   0.09387265865404161   0.06346267203918912
-0.48540228994558443   0.09387265865404161   0.06346267203918912
-0.48540228994558443   0.09387265865404161   0.06346267203918912
-0.48540228994558443   0.09387265865404161   0.06346267203918912
-0.5411242004727919   0.00332097016983679   0.015123951575306535
-0.5411242004727919   0.00332097016983679   0.015123951575306535
-0.5411242004727919   0.00332097016983679   0.015123951575306535
-0.5411242004727919   0.00332097016983679   0.015123951575306535
-0.5452287404293324   -0.05779362256873834   -0.08400329915677683
-0.5452287404293324   -0.05779362256873834   -0.08400329915677683
-0.5452287404293324   -0.05779362256873834   -0.08400329915677683
-0.5452287404293324   -0.05779362256873834   -0.08400329915677683
-0.5297091531082747   0.08441114544999849   0.06046196918166374
-0.5297091531082747   0.08441114544999849   0.06046196918166374
-0.5297091531082747   0.08441114544999849   0.06046196918166374
-0.5297091531082747   0.08441114544999849   0.06046196918166374
-0.5209695367054759   -0.023231020508740027   -0.11009774423461459
-0.5209695367054759   -0.023231020508740027   -0.11009774423461459
-0.5209695367054759   -0.023231020508740027   -0.11009774423461459
-0.5209695367054759   -0.023231020508740027   -0.11009774423461459
-0.4633147345125136   0.12273799507747032   0.05227342045472357
-0.4633147345125136   0.12273799507747032   0.05227342045472357
-0.4633147345125136   0.12273799507747032   0.05227342045472357
-0.4633147345125136   0.12273799507747032   0.05227342045472357
-0.490342758007459   0.031961157895220554   0.03720033660164347
-0.490342758007459   0.031961157895220554   0.03720033660164347
-0.490342758007459   0.031961157895220554   0.03720033660164347
-0.490342758007459   0.031961157895220554   0.03720033660164347
0.359894508910687   0.058268234019746644   0.0944574931794071
0.359894508910687   0.058268234019746644   0.0944574931794071
0.359894508910687   0.058268234019746644   0.0944574931794071
0.359894508910687   0.058268234019746644   0.0944574931794071
-0.009254421750524981   -0.15188673527257046   -0.06245575467326489
-0.009254421750524981   -0.15188673527257046   -0.06245575467326489
-0.009254421750524981   -0.15188673527257046   -0.06245575467326489
-0.009254421750524981   -0.15188673527257046   -0.06245575467326489
0.08025311630510175   0.02974530308148668   0.07299876375265894
0.08025311630510175   0.02974530308148668   0.07299876375265894
0.08025311630510175   0.02974530308148668   0.07299876375265894
0.08025311630510175   0.02974530308148668   0.07299876375265894
0.3757263734259584   -0.05348939553426131   -0.07813199435467656
0.3757263734259584   -0.05348939553426131   -0.07813199435467656
0.3757263734259584   -0.05348939553426131   -0.07813199435467656
0.3757263734259584   -0.05348939553426131   -0.07813199435467656
0.1835981183251904   -0.02961657963735135   -0.04494115942974326
0.1835981183251904   -0.02961657963735135   -0.04494115942974326
0.1835981183251904   -0.02961657963735135   -0.04494115942974326
0.1835981183251904   -0.02961657963735135   -0.04494115942974326
0.4399235015330603   0.10412706458821741   0.08523718605835405
0.4399235015330603   0.10412706458821741   0.08523718605835405
0.4399235015330603   0.10412706458821741   0.08523718605835405
0.4399235015330603   0.10412706458821741   0.08523718605835405
0.01999015577461919   -0.12393698946436252   -0.07463374635390466
0.01999015577461919   -0.12393698946436252   -0.07463374635390466
0.01999015577461919   -0.12393698946436252   -0.07463374635390466
0.01999015577461919   -0.12393698946436252   -0.07463374635390466
0.11299709166676972   0.05179423095100456   0.060940630149823864
0.11299709166676972   0.05179423095100456   0.060940630149823864
0.11299709166676972   0.05179423095100456   0.060940630149823864
0.11299709166676972   0.05179423095100456   0.060940630149823864
0.43826301907985343   -0.028577520510701393   -0.09778809009478487
0.43826301907985343   -0.028577520510701393   -0.09778809009478487
0.43826301907985343   -0.028577520510701393   -0.09778809009478487
0.43826301907985343   -0.028577520510701393   -0.09778809009478487
0.24001375336912434   -0.002108839858877172   -0.021074982827352637
0.24001375336912434   -0.002108839858877172   -0.021074982827352637
0.24001375336912434   -0.002108839858877172   -0.021074982827352637
0.24001375336912434   -0.002108839858877172   -0.021074982827352637
0.5031802743687529   0.13107239552436423   0.0671482703146391
0.5031802743687529   0.13107239552436423   0.0671482703146391
0.5031802743687529   0.13107239552436423   0.0671482703146391
0.5031802743687529   0.13107239552436423   0.0671482703146391
0.05193470500676614   -0.10400081645515623   -0.08857625574403317
0.05193470500676614   -0.10400081645515623   -0.08857625574403317
0.05193470500676614   -0.10400081645515623   -0.08857625574403317
0.05193470500676614   -0.10400081645515623   -0.08857625574403317
0.1447817669454681   0.09224090602587483   0.052737477932525756
0.1447817669454681   0.09224090602587483   0.052737477932525756
0.1447817669454681   0.09224090602587483   0.052737477932525756
0.1447817669454681   0.09224090602587483   0.052737477932525756
0.5212593863393317   0.027191486355665297   -0.10785820293976607
0.5212593863393317   0.027191486355665297   -0.10785820293976607
0.5212593863393317   0.027191486355665297   -0.10785820293976607
0.5212593863393317   0.027191486355665297   -0.10785820293976607
0.2874557191178441   0.028693747295267504   0.0015126912852232565
0.2874557191178441   0.028693747295267504   0.0015126912852232565
0.2874557191178441   0.028693747295267504   0.0015126912852232565
0.2874557191178441   0.028693747295267504   0.0015126912852232565
0.049536481674158035   0.015588042472839049   0.06402398470474067
0.049536481674158035   0.015588042472839049   0.06402398470474067
0.049536481674158035   0.015588042472839049   0.06402398470474067
0.049536481674158035   0.015588042472839049   0.06402398470474067
-0.34343272880861053   -0.12891246538414433   -0.028643459879728612
-0.34343272880861053   -0.12891246538414433   -0.028643459879728612
-0.34343272880861053   -0.12891246538414433   -0.028643459879728612
-0.34343272880861053   -0.12891246538414433   -0.028643459879728612
-0.2868879736765151   -0.018659843515914043   0.029301970569082035
-0.2868879736765151   -0.018659843515914043   0.029301970569082035
-0.2868879736765151   -0.018659843515914043   0.029301970569082035
-0.2868879736765151   -0.018659843515914043   0.029301970569082035
0.05214118019874137   -0.015013605390632298   -0.022802008307023988
0.05214118019874137   -0.015013605390632298   -0.022802008307023988
0.05214118019874137   -0.015013605390632298   -0.022802008307023988
0.05214118019874137   -0.015013605390632298   -0.022802008307023988
-0.13498107968839565   -0.03344758136396998   -0.021627675914184824
-0.13498107968839565   -0.03344758136396998   -0.021627675914184824
-0.13498107968839565   -0.03344758136396998   -0.021627675914184824
-0.13498107968839565   -0.03344758136396998   -0.021627675914184824
0.08323803735692559   0.0608655824963422   0.05680308959692256
0.08323803735692559   0.0608655824963422   0.05680308959692256
0.08323803735692559   0.0608655824963422   0.05680308959692256
0.08323803735692559   0.0608655824963422   0.05680308959692256
-0.31512543498186485   -0.09167963555005412   -0.038865543923526834
-0.31512543498186485   -0.09167963555005412   -0.038865543923526834
-0.31512543498186485   -0.09167963555005412   -0.038865543923526834
-0.31512543498186485   -0.09167963555005412   -0.038865543923526834
-0.25702281849422803   0.024076776910884418   0.0207162932566256
-0.25702281849422803   0.024076776910884418   0.0207162932566256
-0.25702281849422803   0.024076776910884418   0.0207162932566256
-0.25702281849422803   0.024076776910884418   0.0207162932566256
0.08939619819388392   0.025579611427982214   -0.03084921769158278
0.08939619819388392   0.025579611427982214   -0.03084921769158278
0.08939619819388392   0.025579611427982214   -0.03084921769158278
0.08939619819388392   0.025579611427982214   -0.03084921769158278
-0.10333084263998957   0.004280808502499959   -0.002605037996107666
-0.10333084263998957   0.004280808502499959   -0.002605037996107666
-0.10333084263998957   0.004280808502499959   -0.002605037996107666
-0.10333084263998957   0.004280808502499959   -0.002605037996107666
0.1217976397452995   0.1058709418384669   0.05086665965501045
0.1217976397452995   0.1058709418384669   0.05086665965501045
0.1217976397452995   0.1058709418384669   0.05086665965501045
0.1217976397452995   0.1058709418384669   0.05086665965501045
-0.28667441344158046   -0.05346470689553705   -0.05000019767371476
-0.28667441344158046   -0.05346470689553705   -0.05000019767371476
-0.28667441344158046   -0.05346470689553705   -0.05000019767371476
-0.28667441344158046   -0.05346470689553705   -0.05000019767371476
-0.2269838189789055   0.07237567845762775   0.012531579043761502
-0.2269838189789055   0.07237567845762775   0.012531579043761502
-0.2269838189789055   0.07237567845762775   0.012531579043761502
-0.2269838189789055   0.07237567845762775   0.012531579043761502
0.12222064556800291   0.07157640117652503   -0.03940362410545034
0.12222064556800291   0.07157640117652503   -0.03940362410545034
0.12222064556800291   0.07157640117652503   -0.03940362410545034
0.12222064556800291   0.07157640117652503   -0.03940362410545034
-0.06836149349073017   0.04590365559431531   0.017663125139421067
-0.06836149349073017   0.04590365559431531   0.017663125139421067
-0.06836149349073017   0.04590365559431531   0.017663125139421067
-0.06836149349073017   0.04590365559431531   0.017663125139421067
-0.3122789862682283   -0.024785791096567505   0.022998578534609463
-0.3122789862682283   -0.024785791096567505   0.022998578534609463
-0.3122789862682283   -0.024785791096567505   0.022998578534609463
-0.3122789862682283   -0.024785791096567505   0.022998578534609463
-0.6715814139508157   -0.09142662880130059   0.0059823307844452805
-0.6715814139508157   -0.09142662880130059   0.0059823307844452805
-0.6715814139508157   -0.09142662880130059   0.0059823307844452805
-0.6715814139508157   -0.09142662880130059   0.0059823307844452805
-0.645399902735381   -0.0572343496792385   -0.012663428257775385
-0.645399902735381   -0.0572343496792385   -0.012663428257775385
-0.645399902735381   -0.0572343496792385   -0.012663428257775385
-0.645399902735381   -0.0572343496792385   -0.012663428257775385
-0.28138784181709753   0.023828979795713884   0.01431380655454563
-0.28138784181709753   0.023828979795713884   0.01431380655454563
-0.28138784181709753   0.023828979795713884   0.01431380655454563
-0.28138784181709753   0.023828979795713884   0.01431380655454563
-0.47836121770781365   -0.03433500160948563   -0.012569508720525528
-0.47836121770781365   -0.03433500160948563   -0.012569508720525528
-0.47836121770781365   -0.03433500160948563   -0.012569508720525528
-0.47836121770781365   -0.03433500160948563   -0.012569508720525528
-0.2817727161822008   0.021056213489907452   0.015162201034835655
-0.2817727161822008   0.021056213489907452   0.015162201034835655
-0.2817727161822008   0.021056213489907452   0.015162201034835655
-0.2817727161822008   0.021056213489907452   0.015162201034835655
-0.642566473929761   -0.05201302893292559   -0.003717604975988373
-0.642566473929761   -0.05201302893292559   -0.003717604975988373
-0.642566473929761   -0.05201302893292559   -0.003717604975988373
-0.642566473929761   -0.05201302893292559   -0.003717604975988373
-0.6140038666715673   -0.010186783735676275   -0.019914906524049758
-0.6140038666715673   -0.010186783735676275   -0.019914906524049758
-0.6140038666715673   -0.010186783735676275   -0.019914906524049758
-0.6140038666715673   -0.010186783735676275   -0.019914906524049758
-0.25181696873492254   0.06557520210680484   0.005247116857232649
-0.25181696873492254   0.06557520210680484   0.005247116857232649
-0.25181696873492254   0.06557520210680484   0.005247116857232649
-0.25181696873492254   0.06557520210680484   0.005247116857232649
-0.4459512080943088   0.0070005674170837   0.006587005000425521
-0.4459512080943088   0.0070005674170837   0.006587005000425521
-0.4459512080943088   0.0070005674170837   0.006587005000425521
-0.4459512080943088   0.0070005674170837   0.006587005000425521
-0.2510765422387378   0.06773879395390987   0.006785657491051464
-0.2510765422387378   0.06773879395390987   0.006785657491051464
-0.2510765422387378   0.06773879395390987   0.006785657491051464
-0.2510765422387378   0.06773879395390987   0.006785657491051464
-0.6127906293821407   -0.010396711797170777   -0.013638792015427295
-0.6127906293821407   -0.010396711797170777   -0.013638792015427295
-0.6127906293821407   -0.010396711797170777   -0.013638792015427295
-0.6127906293821407   -0.010396711797170777   -0.013638792015427295
-0.5838768535319886   0.03698368039001093   -0.02819812284667332
-0.5838768535319886   0.03698368039001093   -0.02819812284667332
-0.5838768535319886   0.03698368039001093   -0.02819812284667332
-0.5838768535319886   0.03698368039001093   -0.02819812284667332
-0.22351361409351433   0.10744448196111535   -0.005186200032770288
-0.22351361409351433   0.10744448196111535   -0.005186200032770288
-0.22351361409351433   0.10744448196111535   -0.005186200032770288
-0.22351361409351433   0.10744448196111535   -0.005186200032770288
-0.41522412667808395   0.04821960563610142   0.024492823741572495
-0.41522412667808395   0.04821960563610142   0.024492823741572495
-0.41522412667808395   0.04821960563610142   0.024492823741572495
-0.41522412667808395   0.04821960563610142   0.024492823741572495
-0.6712693584653397   -0.06457797593462582   -0.0193060446548446
-0.6712693584653397   -0.06457797593462582   -0.0193060446548446
-0.6712693584653397   -0.06457797593462582   -0.0193060446548446
-0.6712693584653397   -0.06457797593462582   -0.0193060446548446
-0.9960913199709513   -0.056203768664396164   0.039997227783342304
-0.9960913199709513   -0.056203768664396164   0.039997227783342304
-0.9960913199709513   -0.056203768664396164   0.039997227783342304
-0.9960913199709513   -0.056203768664396164   0.039997227783342304
-0.9962155039506629   -0.09498677425617061   -0.05359879875032513
-0.9962155039506629   -0.09498677425617061   -0.05359879875032513
-0.9962155039506629   -0.09498677425617061   -0.05359879875032513
-0.9962155039506629   -0.09498677425617061   -0.05359879875032513
-0.6094824532203659   0.06083501745605588   0.04885445218200577
-0.6094824532203659   0.06083501745605588   0.04885445218200577
-0.6094824532203659   0.06083501745605588   0.04885445218200577
-0.6094824532203659   0.06083501745605588   0.04885445218200577
-0.8136987291232105   -0.034730350194033255   -0.0052742852323599335
-0.8136987291232105   -0.034730350194033255   -0.0052742852323599335
-0.8136987291232105   -0.034730350194033255   -0.0052742852323599335
-0.8136987291232105   -0.034730350194033255   -0.0052742852323599335
-0.6404950218751364   -0.01849799401513122   -0.026875379620654567
-0.6404950218751364   -0.01849799401513122   -0.026875379620654567
-0.6404950218751364   -0.01849799401513122   -0.026875379620654567
-0.6404950218751364   -0.01849799401513122   -0.026875379620654567
-0.9631842936147117   -0.01363512110380058   0.030205599777069415
-0.9631842936147117   -0.01363512110380058   0.030205599777069415
-0.9631842936147117   -0.01363512110380058   0.030205599777069415
-0.9631842936147117   -0.01363512110380058   0.030205599777069415
-0.956923854296513   -0.05009734536173832   -0.05963564163415183
-0.956923854296513   -0.05009734536173832   -0.05963564163415183
-0.956923854296513   -0.05009734536173832   -0.05963564163415183
-0.956923854296513   -0.05009734536173832   -0.05963564163415183
-0.5804408755270042   0.09883595414328458   0.038877311319805014
-0.5804408755270042   0.09883595414328458   0.038877311319805014
-0.5804408755270042   0.09883595414328458   0.038877311319805014
-0.5804408755270042   0.09883595414328458   0.038877311319805014
-0.7748768729715587   0.006931222304858431   0.014455955523879863
-0.7748768729715587   0.006931222304858431   0.014455955523879863
-0.7748768729715587   0.006931222304858431   0.014455955523879863
-0.7748768729715587   0.006931222304858431   0.014455955523879863
-0.6104275135756583   0.023904221794355363   -0.03612414657453836
-0.6104275135756583   0.023904221794355363   -0.03612414657453836
-0.6104275135756583   0.023904221794355363   -0.03612414657453836
-0.6104275135756583   0.023904221794355363   -0.03612414657453836
-0.9246657895701933   0.027105813664856288   0.024451522970852707
-0.9246657895701933   0.027105813664856288   0.024451522970852707
-0.9246657895701933   0.027105813664856288   0.024451522970852707
-0.9246657895701933   0.027105813664856288   0.024451522970852707
-0.921766874405021   -0.0011061148902789808   -0.06418582951732778
-0.921766874405021   -0.0011061148902789808   -0.06418582951732778
-0.921766874405021   -0.0011061148902789808   -0.06418582951732778
-0.921766874405021   -0.0011061148902789808   -0.06418582951732778
-0.551699758578702   0.140843589837563   0.0288274424722072
-0.551699758578702   0.140843589837563   0.0288274424722072
-0.551699758578702   0.140843589837563   0.0288274424722072
-0.551699758578702   0.140843589837563   0.0288274424722072
-0.7457409880448218   0.04581993666210715   0.03214944340047405
-0.7457409880448218   0.04581993666210715   0.03214944340047405
-0.7457409880448218   0.04581993666210715   0.03214944340047405
-0.7457409880448218   0.04581993666210715   0.03214944340047405
-1.023124465431562   -0.09282419332403019   -0.05854807486007686
-1.023124465431562   -0.09282419332403019   -0.05854807486007686
-1.023124465431562   -0.09282419332403019   -0.05854807486007686
-1.023124465431562   -0.09282419332403019   -0.05854807486007686
-1.3657904428109906   -0.023770231137343556   0.08644990575484884
-1.3657904428109906   -0.023770231137343556   0.08644990575484884
-1.3657904428109906   -0.023770231137343556   0.08644990575484884
-1.3657904428109906   -0.023770231137343556   0.08644990575484884
-1.3464746642015866   -0.12384240854926346   -0.07805920119797552
-1.3464746642015866   -0.12384240854926346   -0.07805920119797552
-1.3464746642015866   -0.12384240854926346   -0.07805920119797552
-1.3464746642015866   -0.12384240854926346   -0.07805920119797552
-0.9289051818351306   0.10274235702315077   0.08522368054801509
-0.9289051818351306   0.10274235702315077   0.08522368054801509
-0.9289051818351306   0.10274235702315077   0.08522368054801509
-0.9289051818351306   0.10274235702315077   0.08522368054801509
-1.1158266950470852   -0.01976792396892904   0.009171221922800184
-1.1158266950470852   -0.01976792396892904   0.009171221922800184
-1.1158266950470852   -0.01976792396892904   0.009171221922800184
-1.1158266950470852   -0.01976792396892904   0.009171221922800184
-0.989766831824809   -0.050131203591464085   -0.06621100878575614
-0.989766831824809   -0.050131203591464085   -0.06621100878575614
-0.989766831824809   -0.050131203591464085   -0.06621100878575614
-0.989766831824809   -0.050131203591464085   -0.06621100878575614
-1.28378487527113   0.03085929100612672   0.08068804389889427
-1.28378487527113   0.03085929100612672   0.08068804389889427
-1.28378487527113   0.03085929100612672   0.08068804389889427
-1.28378487527113   0.03085929100612672   0.08068804389889427
-1.2844089936065006   -0.0971979170550423   -0.09288350284531419
-1.2844089936065006   -0.0971979170550423   -0.09288350284531419
-1.2844089936065006   -0.0971979170550423   -0.09288350284531419
-1.2844089936065006   -0.0971979170550423   -0.09288350284531419
-0.8968764345380023   0.12025826331956918   0.07024584847708527
-0.8968764345380023   0.12025826331956918   0.07024584847708527
-0.8968764345380023   0.12025826331956918   0.07024584847708527
-0.8968764345380023   0.12025826331956918   0.07024584847708527
-1.0804888197636615   0.008178161460575567   0.025118664158779024
-1.0804888197636615   0.008178161460575567   0.025118664158779024
-1.0804888197636615   0.008178161460575567   0.025118664158779024
-1.0804888197636615   0.008178161460575567   0.025118664158779024
-0.9559054658367465   -0.028207266559533373   -0.07643377813752375
-0.9559054658367465   -0.028207266559533373   -0.07643377813752375
-0.9559054658367465   -0.028207266559533373   -0.07643377813752375
-0.9559054658367465   -0.028207266559533373   -0.07643377813752375
-1.2231401939338182   0.05350738119799808   0.06275519726504582
-1.2231401939338182   0.05350738119799808   0.06275519726504582
-1.2231401939338182   0.05350738119799808   0.06275519726504582
-1.2231401939338182   0.05350738119799808   0.06275519726504582
-1.2080126076752968   -0.05736713938579879   -0.10355437869890012
-1.2080126076752968   -0.05736713938579879   -0.10355437869890012
-1.2080126076752968   -0.05736713938579879   -0.10355437869890012
-1.2080126076752968   -0.05736713938579879   -0.10355437869890012
-0.8687094898663608   0.1414777984225387   0.05851717986315569
-0.8687094898663608   0.1414777984225387   0.05851717986315569
-0.8687094898663608   0.1414777984225387   0.05851717986315569
-0.8687094898663608   0.1414777984225387   0.05851717986315569
-1.0146909063495366   0.03438206118268475   0.04755060985911373
-1.0146909063495366   0.03438206118268475   0.04755060985911373
-1.0146909063495366   0.03438206118268475   0.04755060985911373
-1.0146909063495366   0.03438206118268475   0.04755060985911373
1.0866986945466992   0.09869490491332514   0.09449932995898891
1.0866986945466992   0.09869490491332514   0.09449932995898891
1.0866986945466992   0.09869490491332514   0.09449932995898891
1.0866986945466992   0.09869490491332514   0.09449932995898891
0.39827966246588786   -0.18111341901871444   -0.062214603714839736
0.39827966246588786   -0.18111341901871444   -0.062214603714839736
0.39827966246588786   -0.18111341901871444   -0.062214603714839736
0.39827966246588786   -0.18111341901871444   -0.062214603714839736
0.4921870733211503   -0.0009675816720401131   0.06801637506117625
0.4921870733211503   -0.0009675816720401131   0.06801637506117625
0.4921870733211503   -0.0009675816720401131   0.06801637506117625
0.4921870733211503   -0.0009675816720401131   0.06801637506117625
1.106639283479387   -0.02547454904810592   -0.07941181570890386
1.106639283479387   -0.02547454904810592   -0.07941181570890386
1.106639283479387   -0.02547454904810592   -0.07941181570890386
1.106639283479387   -0.02547454904810592   -0.07941181570890386
0.723526342521835   -0.032881854459625076   -0.06996585005716835
0.723526342521835   -0.032881854459625076   -0.06996585005716835
0.723526342521835   -0.032881854459625076   -0.06996585005716835
0.723526342521835   -0.032881854459625076   -0.06996585005716835
1.1715924346016777   0.13773841145226481   0.08214097940217324
1.1715924346016777   0.13773841145226481   0.08214097940217324
1.1715924346016777   0.13773841145226481   0.08214097940217324
1.1715924346016777   0.13773841145226481   0.08214097940217324
0.431821395730878   -0.15959306864039083   -0.07518652592181947
0.431821395730878   -0.15959306864039083   -0.07518652592181947
0.431821395730878   -0.15959306864039083   -0.07518652592181947
0.431821395730878   -0.15959306864039083   -0.07518652592181947
0.5293359464806974   0.020415880129646957   0.05610598570611288
0.5293359464806974   0.020415880129646957   0.05610598570611288
0.5293359464806974   0.020415880129646957   0.05610598570611288
0.5293359464806974   0.020415880129646957   0.05610598570611288
1.174234567910594   -0.001163042639684836   -0.1000857405396398
1.174234567910594   -0.001163042639684836   -0.1000857405396398
1.174234567910594   -0.001163042639684836   -0.1000857405396398
1.174234567910594   -0.001163042639684836   -0.1000857405396398
0.7940634777134806   -0.006608179339953446   -0.042346235637268054
0.7940634777134806   -0.006608179339953446   -0.042346235637268054
0.7940634777134806   -0.006608179339953446   -0.042346235637268054
0.7940634777134806   -0.006608179339953446   -0.042346235637268054
1.239921226222045   0.1639572005102319   0.06322730786768993
1.239921226222045   0.1639572005102319   0.06322730786768993
1.239921226222045   0.1639572005102319   0.06322730786768993
1.239921226222045   0.1639572005102319   0.06322730786768993
0.4685393779027793   -0.13981427328673707   -0.08764670376708607
0.4685393779027793   -0.13981427328673707   -0.08764670376708607
0.4685393779027793   -0.13981427328673707   -0.08764670376708607
0.4685393779027793   -0.13981427328673707   -0.08764670376708607
0.5664310812483889   0.06752302342134825   0.04862778747959149
0.5664310812483889   0.06752302342134825   0.04862778747959149
0.5664310812483889   0.06752302342134825   0.04862778747959149
0.5664310812483889   0.06752302342134825   0.04862778747959149
1.2629735118841117   0.062247662994226655   -0.10798115743982808
1.2629735118841117   0.062247662994226655   -0.10798115743982808
1.2629735118841117   0.062247662994226655   -0.10798115743982808
1.2629735118841117   0.062247662994226655   -0.10798115743982808
0.8377166457286965   0.025330741667389495   -0.018425656312397475
0.8377166457286965   0.025330741667389495   -0.018425656312397475
0.8377166457286965   0.025330741667389495   -0.018425656312397475
0.8377166457286965   0.025330741667389495   -0.018425656312397475
0.47307119920424234   0.05520245365501302   0.07542720730320528
0.47307119920424234   0.05520245365501302   0.07542720730320528
0.47307119920424234   0.05520245365501302   0.07542720730320528
0.47307119920424234   0.05520245365501302   0.07542720730320528
-0.22997447517692368   -0.16896913561708826   -0.032573418274908734
-0.22997447517692368   -0.16896913561708826   -0.032573418274908734
-0.22997447517692368   -0.16896913561708826   -0.032573418274908734
-0.22997447517692368   -0.16896913561708826   -0.032573418274908734
-0.1653252712709231   -0.0493691552939924   0.02288669364584003
-0.1653252712709231   -0.0493691552939924   0.02288669364584003
-0.1653252712709231   -0.0493691552939924   0.02288669364584003
-0.1653252712709231   -0.0493691552939924   0.02288669364584003
0.47697999346184144   0.0010543731704272807   -0.010040979077820686
0.47697999346184144   0.0010543731704272807   -0.010040979077820686
0.47697999346184144   0.0010543731704272807   -0.010040979077820686
0.47697999346184144   0.0010543731704272807   -0.010040979077820686
0.13246756543715188   -0.035818073547793275   -0.029848280324797277
0.13246756543715188   -0.035818073547793275   -0.029848280324797277
0.13246756543715188   -0.035818073547793275   -0.029848280324797277
0.13246756543715188   -0.035818073547793275   -0.029848280324797277
0.5112176219967651   0.09483532665318402   0.06736621011403383
0.5112176219967651   0.09483532665318402   0.06736621011403383
0.5112176219967651   0.09483532665318402   0.06736621011403383
0.5112176219967651   0.09483532665318402   0.06736621011403383
-0.19680770446614837   -0.14039491343705188   -0.04349971418722669
-0.19680770446614837   -0.14039491343705188   -0.04349971418722669
-0.19680770446614837   -0.14039491343705188   -0.04349971418722669
-0.19680770446614837   -0.14039491343705188   -0.04349971418722669
-0.1307102661501225   -0.009376202616600016   0.014478176429512466
-0.1307102661501225   -0.009376202616600016   0.014478176429512466
-0.1307102661501225   -0.009376202616600016   0.014478176429512466
-0.1307102661501225   -0.009376202616600016   0.014478176429512466
0.5176822973115112   0.03695779322287507   -0.018704173233038884
0.5176822973115112   0.03695779322287507   -0.018704173233038884
0.5176822973115112   0.03695779322287507   -0.018704173233038884
0.5176822973115112   0.03695779322287507   -0.018704173233038884
0.16592446214025167   -0.004205086964282345   -0.011874952056020422
0.16592446214025167   -0.004205086964282345   -0.011874952056020422
0.16592446214025167   -0.004205086964282345   -0.011874952056020422
0.16592446214025167   -0.004205086964282345   -0.011874952056020422
0.5532870764242633   0.13648594476924372   0.05979157078434547
0.5532870764242633   0.13648594476924372   0.05979157078434547
0.5532870764242633   0.13648594476924372   0.05979157078434547
0.5532870764242633   0.13648594476924372   0.05979157078434547
-0.1635522921643513   -0.10614160106444664   -0.05296655519378496
-0.1635522921643513   -0.10614160106444664   -0.05296655519378496
-0.1635522921643513   -0.10614160106444664   -0.05296655519378496
-0.1635522921643513   -0.10614160106444664   -0.05296655519378496
-0.09653642664618436   0.036926853924671134   0.006105711849406092
-0.09653642664618436   0.036926853924671134   0.006105711849406092
-0.09653642664618436   0.036926853924671134   0.006105711849406092
-0.09653642664618436   0.036926853924671134   0.006105711849406092
0.5537987488211797   0.07968426974246698   -0.026695120977565174
0.5537987488211797   0.07968426974246698   -0.026695120977565174
0.5537987488211797   0.07968426974246698   -0.026695120977565174
0.5537987488211797   0.07968426974246698   -0.026695120977565174
0.2071952456841681   0.03453946605754535   0.009101070834466957
0.2071952456841681   0.03453946605754535   0.009101070834466957
0.2071952456841681   0.03453946605754535   0.009101070834466957
0.2071952456841681   0.03453946605754535   0.009101070834466957
-0.18087363633425035   0.011925657191164452   0.032035983130205184
-0.18087363633425035   0.011925657191164452   0.032035983130205184
-0.18087363633425035   0.011925657191164452   0.032035983130205184
-0.18087363633425035   0.011925657191164452   0.032035983130205184
-0.8457452736307436   -0.1491338291065712   -0.0042658772072418395
-0.8457452736307436   -0.1491338291065712   -0.0042658772072418395
-0.8457452736307436   -0.1491338291065712   -0.0042658772072418395
-0.8457452736307436   -0.1491338291065712   -0.0042658772072418395
-0.8046731504208848   -0.08766768894355681   -0.019884228538020562
-0.8046731504208848   -0.08766768894355681   -0.019884228538020562
-0.8046731504208848   -0.08766768894355681   -0.019884228538020562
-0.8046731504208848   -0.08766768894355681   -0.019884228538020562
-0.151373847137129   0.021945103803625375   0.02132955521719293
-0.151373847137129   0.021945103803625375   0.02132955521719293
-0.151373847137129   0.021945103803625375   0.02132955521719293
-0.151373847137129   0.021945103803625375   0.02132955521719293
-0.4965417087166488   -0.04588141923878869   -0.01862610141415208
-0.4965417087166488   -0.04588141923878869   -0.01862610141415208
-0.4965417087166488   -0.04588141923878869   -0.01862610141415208
-0.4965417087166488   -0.04588141923878869   -0.01862610141415208
-0.14454884964835818   0.053178288509572604   0.024221357955099852
-0.14454884964835818   0.053178288509572604   0.024221357955099852
-0.14454884964835818   0.053178288509572604   0.024221357955099852
-0.14454884964835818   0.053178288509572604   0.024221357955099852
-0.8096654457415657   -0.1170681714814141   -0.015445222603567732
-0.8096654457415657   -0.1170681714814141   -0.015445222603567732
-0.8096654457415657   -0.1170681714814141   -0.015445222603567732
-0.8096654457415657   -0.1170681714814141   -0.015445222603567732
-0.7665272891833238   -0.04378928937744281   -0.02686502011560439
-0.7665272891833238   -0.04378928937744281   -0.02686502011560439
-0.7665272891833238   -0.04378928937744281   -0.02686502011560439
-0.7665272891833238   -0.04378928937744281   -0.02686502011560439
-0.11767919626638343   0.058210294242891855   0.012047028988715812
-0.11767919626638343   0.058210294242891855   0.012047028988715812
-0.11767919626638343   0.058210294242891855   0.012047028988715812
-0.11767919626638343   0.058210294242891855   0.012047028988715812
-0.45807152218075275   -0.009165429401928618   -0.00029000223703935443
-0.45807152218075275   -0.009165429401928618   -0.00029000223703935443
-0.45807152218075275   -0.009165429401928618   -0.00029000223703935443
-0.45807152218075275   -0.009165429401928618   -0.00029000223703935443
-0.10944606799299121   0.09607045983621529   0.015352504762353558
-0.10944606799299121   0.09607045983621529   0.015352504762353558
-0.10944606799299121   0.09607045983621529   0.015352504762353558
-0.10944606799299121   0.09607045983621529   0.015352504762353558
-0.7730565461509772   -0.07994558366502733   -0.023355010666286452
-0.7730565461509772   -0.07994558366502733   -0.023355010666286452
-0.7730565461509772   -0.07994558366502733   -0.023355010666286452
-0.7730565461509772   -0.07994558366502733   -0.023355010666286452
-0.731022402409212   -6.374640390793829e-05   -0.035218553542189
-0.731022402409212   -6.374640390793829e-05   -0.035218553542189
-0.731022402409212   -6.374640390793829e-05   -0.035218553542189
-0.731022402409212   -6.374640390793829e-05   -0.035218553542189
-0.08550736499811852   0.09525593630171683   0.0029219377126935182
-0.08550736499811852   0.09525593630171683   0.0029219377126935182
-0.08550736499811852   0.09525593630171683   0.0029219377126935182
-0.08550736499811852   0.09525593630171683   0.0029219377126935182
-0.4227261069510141   0.027410752965107296   0.017161285632646378
-0.4227261069510141   0.027410752965107296   0.017161285632646378
-0.4227261069510141   0.027410752965107296   0.017161285632646378
-0.4227261069510141   0.027410752965107296   0.017161285632646378
-0.8240728723233158   -0.0323392205390588   -0.012698479237606392
-0.8240728723233158   -0.0323392205390588   -0.012698479237606392
-0.8240728723233158   -0.0323392205390588   -0.012698479237606392
-0.8240728723233158   -0.0323392205390588   -0.012698479237606392
-1.4472181072908679   -0.12072089316730295   0.028095652839388335
-1.4472181072908679   -0.12072089316730295   0.028095652839388335
-1.4472181072908679   -0.12072089316730295   0.028095652839388335
-1.4472181072908679   -0.12072089316730295   0.028095652839388335
-1.4271089190087927   -0.12443153520447928   -0.059851845332243324
-1.4271089190087927   -0.12443153520447928   -0.059851845332243324
-1.4271089190087927   -0.12443153520447928   -0.059851845332243324
-1.4271089190087927   -0.12443153520447928   -0.059851845332243324
-0.761227886678322   0.05600836268890533   0.053666038542337806
-0.761227886678322   0.05600836268890533   0.053666038542337806
-0.761227886678322   0.05600836268890533   0.053666038542337806
-0.761227886678322   0.05600836268890533   0.053666038542337806
-1.107192672407209   -0.04837154734165677   -0.0064847636879380305
-1.107192672407209   -0.04837154734165677   -0.0064847636879380305
-1.107192672407209   -0.04837154734165677   -0.0064847636879380305
-1.107192672407209   -0.04837154734165677   -0.0064847636879380305
-0.7845811540105572   0.01218833314635831   -0.01928026857629083
-0.7845811540105572   0.01218833314635831   -0.01928026857629083
-0.7845811540105572   0.01218833314635831   -0.01928026857629083
-0.7845811540105572   0.01218833314635831   -0.01928026857629083
-1.4036832275584215   -0.08053908154379416   0.013384158258939953
-1.4036832275584215   -0.08053908154379416   0.013384158258939953
-1.4036832275584215   -0.08053908154379416   0.013384158258939953
-1.4036832275584215   -0.08053908154379416   0.013384158258939953
-1.3772911949368853   -0.08154929505830599   -0.06619861527826643
-1.3772911949368853   -0.08154929505830599   -0.06619861527826643
-1.3772911949368853   -0.08154929505830599   -0.06619861527826643
-1.3772911949368853   -0.08154929505830599   -0.06619861527826643
-0.725700060240138   0.09060028869157405   0.04288154653131544
-0.725700060240138   0.09060028869157405   0.04288154653131544
-0.725700060240138   0.09060028869157405   0.04288154653131544
-0.725700060240138   0.09060028869157405   0.04288154653131544
-1.0565433615082969   -0.007782401387411514   0.011893291095343345
-1.0565433615082969   -0.007782401387411514   0.011893291095343345
-1.0565433615082969   -0.007782401387411514   0.011893291095343345
-1.0565433615082969   -0.007782401387411514   0.011893291095343345
-0.7476217683149169   0.05199914357628266   -0.028125848727291847
-0.7476217683149169   0.05199914357628266   -0.028125848727291847
-0.7476217683149169   0.05199914357628266   -0.028125848727291847
-0.7476217683149169   0.05199914357628266   -0.028125848727291847
-1.35423207499873   -0.04181073807963864   0.009358427433844005
-1.35423207499873   -0.04181073807963864   0.009358427433844005
-1.35423207499873   -0.04181073807963864   0.009358427433844005
-1.35423207499873   -0.04181073807963864   0.009358427433844005
-1.3327422191433245   -0.0350493499011999   -0.06959479565698476
-1.3327422191433245   -0.0350493499011999   -0.06959479565698476
-1.3327422191433245   -0.0350493499011999   -0.06959479565698476
-1.3327422191433245   -0.0350493499011999   -0.06959479565698476
-0.6912898935929594   0.12866067296404154   0.034719571171130864
-0.6912898935929594   0.12866067296404154   0.034719571171130864
-0.6912898935929594   0.12866067296404154   0.034719571171130864
-0.6912898935929594   0.12866067296404154   0.034719571171130864
-1.0221961190985196   0.026936376692724473   0.02775383654740271
-1.0221961190985196   0.026936376692724473   0.02775383654740271
-1.0221961190985196   0.026936376692724473   0.02775383654740271
-1.0221961190985196   0.026936376692724473   0.02775383654740271
-1.4533939208657887   -0.06940147461648061   -0.054102833586038235
-1.4533939208657887   -0.06940147461648061   -0.054102833586038235
-1.4533939208657887   -0.06940147461648061   -0.054102833586038235
-1.4533939208657887   -0.06940147461648061   -0.054102833586038235
-2.0709467104191766   -0.07460754864665237   0.0937859095813758
-2.0709467104191766   -0.07460754864665237   0.0937859095813758
-2.0709467104191766   -0.07460754864665237   0.0937859095813758
-2.0709467104191766   -0.07460754864665237   0.0937859095813758
-2.0307876293914653   -0.14899788090049426   -0.07159506151387547
-2.0307876293914653   -0.14899788090049426   -0.07159506151387547
-2.0307876293914653   -0.14899788090049426   -0.07159506151387547
-2.0307876293914653   -0.14899788090049426   -0.07159506151387547
-1.3479930019864848   0.11600946003424323   0.09528674454057341
-1.3479930019864848   0.11600946003424323   0.09528674454057341
-1.3479930019864848   0.11600946003424323   0.09528674454057341
-1.3479930019864848   0.11600946003424323   0.09528674454057341
-1.6492555549727492   -0.02039543226812862   0.0189977632187084
-1.6492555549727492   -0.02039543226812862   0.0189977632187084
-1.6492555549727492   -0.02039543226812862   0.0189977632187084
-1.6492555549727492   -0.02039543226812862   0.0189977632187084
-1.4066557865567908   -0.02188003640510483   -0.060137681871602636
-1.4066557865567908   -0.02188003640510483   -0.060137681871602636
-1.4066557865567908   -0.02188003640510483   -0.060137681871602636
-1.4066557865567908   -0.02188003640510483   -0.060137681871602636
-1.9711757609700051   -0.010159300609994704   0.0876257003029043
-1.9711757609700051   -0.010159300609994704   0.0876257003029043
-1.9711757609700051   -0.010159300609994704   0.0876257003029043
-1.9711757609700051   -0.010159300609994704   0.0876257003029043
-1.9554925900963205   -0.12237417598020567   -0.08430019246340949
-1.9554925900963205   -0.12237417598020567   -0.08430019246340949
-1.9554925900963205   -0.12237417598020567   -0.08430019246340949
-1.9554925900963205   -0.12237417598020567   -0.08430019246340949
-1.3061581597475262   0.13243356456695493   0.0754837010432688
-1.3061581597475262   0.13243356456695493   0.0754837010432688
-1.3061581597475262   0.13243356456695493   0.0754837010432688
-1.3061581597475262   0.13243356456695493   0.0754837010432688
-1.6102212995642684   0.008656896107634093   0.0343234309076277
-1.6102212995642684   0.008656896107634093   0.0343234309076277
-1.6102212995642684   0.008656896107634093   0.0343234309076277
-1.6102212995642684   0.008656896107634093   0.0343234309076277
-1.3615051535540612   -0.00040015905296836296   -0.06841754436948196
-1.3615051535540612   -0.00040015905296836296   -0.06841754436948196
-1.3615051535540612   -0.00040015905296836296   -0.06841754436948196
-1.3615051535540612   -0.00040015905296836296   -0.06841754436948196
-1.8992035567678769   0.011401587161611104   0.06336921103696157
-1.8992035567678769   0.011401587161611104   0.06336921103696157
-1.8992035567678769   0.011401587161611104   0.06336921103696157
-1.8992035567678769   0.011401587161611104   0.06336921103696157
-1.8732510285680928   -0.09034128590700041   -0.09603670308280801
-1.8732510285680928   -0.09034128590700041   -0.09603670308280801
-1.8732510285680928   -0.09034128590700041   -0.09603670308280801
-1.8732510285680928   -0.09034128590700041   -0.09603670308280801
-1.2693650356075967   0.14795649099371344   0.06428528112674109
-1.2693650356075967   0.14795649099371344   0.06428528112674109
-1.2693650356075967   0.14795649099371344   0.06428528112674109
-1.2693650356075967   0.14795649099371344   0.06428528112674109
-1.5273325706402985   0.03283208516840708   0.057431885644003505
-1.5273325706402985   0.03283208516840708   0.057431885644003505
-1.5273325706402985   0.03283208516840708   0.057431885644003505
-1.5273325706402985   0.03283208516840708   0.057431885644003505
1.8268639485067246   0.13644996286839356   0.09701801967986357
1.8268639485067246   0.13644996286839356   0.09701801967986357
1.8268639485067246   0.13644996286839356   0.09701801967986357
1.8268639485067246   0.13644996286839356   0.09701801967986357
0.8062454788659184   -0.21559648705761636   -0.04448163956154444
0.8062454788659184   -0.21559648705761636   -0.04448163956154444
0.8062454788659184   -0.21559648705761636   -0.04448163956154444
0.8062454788659184   -0.21559648705761636   -0.04448163956154444
0.8993416130345576   -0.03771627703621208   0.0666772147953947
0.8993416130345576   -0.03771627703621208   0.0666772147953947
0.8993416130345576   -0.03771627703621208   0.0666772147953947
0.8993416130345576   -0.03771627703621208   0.0666772147953947
1.847220534951994   -0.003840722486869619   -0.06979038096148853
1.847220534951994   -0.003840722486869619   -0.06979038096148853
1.847220534951994   -0.003840722486869619   -0.06979038096148853
1.847220534951994   -0.003840722486869619   -0.06979038096148853
1.2661221493461234   -0.03856870188824402   -0.09919485359811175
1.2661221493461234   -0.03856870188824402   -0.09919485359811175
1.2661221493461234   -0.03856870188824402   -0.09919485359811175
1.2661221493461234   -0.03856870188824402   -0.09919485359811175
1.9117130373251807   0.1676573721219547   0.08117403629560539
1.9117130373251807   0.1676573721219547   0.08117403629560539
1.9117130373251807   0.1676573721219547   0.08117403629560539
1.9117130373251807   0.1676573721219547   0.08117403629560539
0.8410382352434825   -0.20302524706292524   -0.05953070413325558
0.8410382352434825   -0.20302524706292524   -0.05953070413325558
0.8410382352434825   -0.20302524706292524   -0.05953070413325558
0.8410382352434825   -0.20302524706292524   -0.05953070413325558
0.9358259907469326   -0.018042717294382837   0.05392446335059305
0.9358259907469326   -0.018042717294382837   0.05392446335059305
0.9358259907469326   -0.018042717294382837   0.05392446335059305
0.9358259907469326   -0.018042717294382837   0.05392446335059305
1.9108609864391   0.017860148725322822   -0.08725069889655714
1.9108609864391   0.017860148725322822   -0.08725069889655714
1.9108609864391   0.017860148725322822   -0.08725069889655714
1.9108609864391   0.017860148725322822   -0.08725069889655714
1.3459609572984355   -0.015359153865996678   -0.06744475815540113
1.3459609572984355   -0.015359153865996678   -0.06744475815540113
1.3459609572984355   -0.015359153865996678   -0.06744475815540113
1.3459609572984355   -0.015359153865996678   -0.06744475815540113
1.9749828292677787   0.19103957544508307   0.06017908852707659
1.9749828292677787   0.19103957544508307   0.06017908852707659
1.9749828292677787   0.19103957544508307   0.06017908852707659
1.9749828292677787   0.19103957544508307   0.06017908852707659
0.8771255176234058   -0.18580077430899106   -0.07181984525243255
0.8771255176234058   -0.18580077430899106   -0.07181984525243255
0.8771255176234058   -0.18580077430899106   -0.07181984525243255
0.8771255176234058   -0.18580077430899106   -0.07181984525243255
0.9688662941805984   0.03447787267776528   0.04727710868137822
0.9688662941805984   0.03447787267776528   0.04727710868137822
0.9688662941805984   0.03447787267776528   0.04727710868137822
0.9688662941805984   0.03447787267776528   0.04727710868137822
1.9891201101071279   0.08133968022971338   -0.09138668210168696
1.9891201101071279   0.08133968022971338   -0.09138668210168696
1.9891201101071279   0.08133968022971338   -0.09138668210168696
1.9891201101071279   0.08133968022971338   -0.09138668210168696
1.3759703888915698   0.015858209187746886   -0.045440933756751914
1.3759703888915698   0.015858209187746886   -0.045440933756751914
1.3759703888915698   0.015858209187746886   -0.045440933756751914
1.3759703888915698   0.015858209187746886   -0.045440933756751914
0.8919269465077777   0.07965972891070591   0.0886694826794223
0.8919269465077777   0.07965972891070591   0.0886694826794223
0.8919269465077777   0.07965972891070591   0.0886694826794223
0.8919269465077777   0.07965972891070591   0.0886694826794223
-0.10948310540774489   -0.2658247483294128   -0.025303142668973655
-0.10948310540774489   -0.2658247483294128   -0.025303142668973655
-0.10948310540774489   -0.2658247483294128   -0.025303142668973655
-0.10948310540774489   -0.2658247483294128   -0.025303142668973655
-0.029220886194432708   -0.09364935585026027   0.02264125547495429
-0.029220886194432708   -0.09364935585026027   0.02264125547495429
-0.029220886194432708   -0.09364935585026027   0.02264125547495429
-0.029220886194432708   -0.09364935585026027   0.02264125547495429
0.8844710021249913   -0.04972906607536795   0.004336949286719044
0.8844710021249913   -0.04972906607536795   0.004336949286719044
0.8844710021249913   -0.04972906607536795   0.004336949286719044
0.8844710021249913   -0.04972906607536795   0.004336949286719044
0.39833346941849573   -0.07430044645164215   -0.047362607078191045
0.39833346941849573   -0.07430044645164215   -0.047362607078191045
0.39833346941849573   -0.07430044645164215   -0.047362607078191045
0.39833346941849573   -0.07430044645164215   -0.047362607078191045
0.9311755780234982   0.1096065320325954   0.07852423067130182
0.9311755780234982   0.1096065320325954   0.07852423067130182
0.9311755780234982   0.1096065320325954   0.07852423067130182
0.9311755780234982   0.1096065320325954   0.07852423067130182
-0.07267227558426442   -0.2497317674495465   -0.03853327987491807
-0.07267227558426442   -0.2497317674495465   -0.03853327987491807
-0.07267227558426442   -0.2497317674495465   -0.03853327987491807
-0.07267227558426442   -0.2497317674495465   -0.03853327987491807
0.007987598141979965   -0.0584715064167306   0.013844027738464
0.007987598141979965   -0.0584715064167306   0.013844027738464
0.007987598141979965   -0.0584715064167306   0.013844027738464
0.007987598141979965   -0.0584715064167306   0.013844027738464
0.9225552509891841   -0.023208084300834958   -0.0072638684316972055
0.9225552509891841   -0.023208084300834958   -0.0072638684316972055
0.9225552509891841   -0.023208084300834958   -0.0072638684316972055
0.9225552509891841   -0.023208084300834958   -0.0072638684316972055
0.4306848182063845   -0.05270921570435935   -0.03071835545553714
0.4306848182063845   -0.05270921570435935   -0.03071835545553714
0.4306848182063845   -0.05270921570435935   -0.03071835545553714
0.4306848182063845   -0.05270921570435935   -0.03071835545553714
0.9717691694054613   0.14552960846504656   0.07006803088380706
0.9717691694054613   0.14552960846504656   0.07006803088380706
0.9717691694054613   0.14552960846504656   0.07006803088380706
0.9717691694054613   0.14552960846504656   0.07006803088380706
-0.039298634507528345   -0.22528151341583305   -0.05577712850997509
-0.039298634507528345   -0.22528151341583305   -0.05577712850997509
-0.039298634507528345   -0.22528151341583305   -0.05577712850997509
-0.039298634507528345   -0.22528151341583305   -0.05577712850997509
0.037190223211083076   -0.017308705797084614   0.00494852693477355
0.037190223211083076   -0.017308705797084614   0.00494852693477355
0.037190223211083076   -0.017308705797084614   0.00494852693477355
0.037190223211083076   -0.017308705797084614   0.00494852693477355
0.9510844599891939   0.01059476026631942   -0.017748949864213624
0.9510844599891939   0.01059476026631942   -0.017748949864213624
0.9510844599891939   0.01059476026631942   -0.017748949864213624
0.9510844599891939   0.01059476026631942   -0.017748949864213624
0.47022549616631254   -0.02042814522009212   -0.01288417138651992
0.47022549616631254   -0.02042814522009212   -0.01288417138651992
0.47022549616631254   -0.02042814522009212   -0.01288417138651992
0.47022549616631254   -0.02042814522009212   -0.01288417138651992
-0.03804066774648657   0.02206427247775802   0.04402002483014718
-0.03804066774648657   0.02206427247775802   0.04402002483014718
-0.03804066774648657   0.02206427247775802   0.04402002483014718
-0.03804066774648657   0.02206427247775802   0.04402002483014718
-1.0181789841062343   -0.33380221705827284   -0.02040051611386528
-1.0181789841062343   -0.33380221705827284   -0.02040051611386528
-1.0181789841062343   -0.33380221705827284   -0.02040051611386528
-1.0181789841062343   -0.33380221705827284   -0.02040051611386528
-0.9368877698837974   -0.14370532699630684   -0.021408676035799712
-0.9368877698837974   -0.14370532699630684   -0.021408676035799712
-0.9368877698837974   -0.14370532699630684   -0.021408676035799712
-0.9368877698837974   -0.14370532699630684   -0.021408676035799712
-0.034171837931340994   -0.11557243296003156   0.019809573900184126
-0.034171837931340994   -0.11557243296003156   0.019809573900184126
-0.034171837931340994   -0.11557243296003156   0.019809573900184126
-0.034171837931340994   -0.11557243296003156   0.019809573900184126
-0.5091420493497958   -0.13510500525123123   -0.04233325562702401
-0.5091420493497958   -0.13510500525123123   -0.04233325562702401
-0.5091420493497958   -0.13510500525123123   -0.04233325562702401
-0.5091420493497958   -0.13510500525123123   -0.04233325562702401
0.003282696417650187   0.05576038667347027   0.03574942601163822
0.003282696417650187   0.05576038667347027   0.03574942601163822
0.003282696417650187   0.05576038667347027   0.03574942601163822
0.003282696417650187   0.05576038667347027   0.03574942601163822
-0.9719961699677564   -0.31269201236477645   -0.02796399108712498
-0.9719961699677564   -0.31269201236477645   -0.02796399108712498
-0.9719961699677564   -0.31269201236477645   -0.02796399108712498
-0.9719961699677564   -0.31269201236477645   -0.02796399108712498
-0.8907444924664977   -0.1046475524222171   -0.029176908136714724
-0.8907444924664977   -0.1046475524222171   -0.029176908136714724
-0.8907444924664977   -0.1046475524222171   -0.029176908136714724
-0.8907444924664977   -0.1046475524222171   -0.029176908136714724
0.0005003799779836268   -0.09009264518807363   0.008029075689825346
0.0005003799779836268   -0.09009264518807363   0.008029075689825346
0.0005003799779836268   -0.09009264518807363   0.008029075689825346
0.0005003799779836268   -0.09009264518807363   0.008029075689825346
-0.4643483264059745   -0.10703782321841661   -0.02353803295463884
-0.4643483264059745   -0.10703782321841661   -0.02353803295463884
-0.4643483264059745   -0.10703782321841661   -0.02353803295463884
-0.4643483264059745   -0.10703782321841661   -0.02353803295463884
0.04110036851692566   0.09312006336758574   0.02781630982887614
0.04110036851692566   0.09312006336758574   0.02781630982887614
0.04110036851692566   0.09312006336758574   0.02781630982887614
0.04110036851692566   0.09312006336758574   0.02781630982887614
-0.9313774227204438   -0.28789320269287927   -0.049095909135775564
-0.9313774227204438   -0.28789320269287927   -0.049095909135775564
-0.9313774227204438   -0.28789320269287927   -0.049095909135775564
-0.9313774227204438   -0.28789320269287927   -0.049095909135775564
-0.8581409243559126   -0.06742887190338201   -0.03786854395494525
-0.8581409243559126   -0.06742887190338201   -0.03786854395494525
-0.8581409243559126   -0.06742887190338201   -0.03786854395494525
-0.8581409243559126   -0.06742887190338201   -0.03786854395494525
0.023278133553709276   -0.0697626291121858   -0.012157998036998118
0.023278133553709276   -0.0697626291121858   -0.012157998036998118
0.023278133553709276   -0.0697626291121858   -0.012157998036998118
0.023278133553709276   -0.0697626291121858   -0.012157998036998118
-0.4314889120433717   -0.08087637982195439   -0.011793156489830554
-0.4314889120433717   -0.08087637982195439   -0.011793156489830554
-0.4314889120433717   -0.08087637982195439   -0.011793156489830554
-0.4314889120433717   -0.08087637982195439   -0.011793156489830554
-0.9532056135622244   -0.027837250899892363   -0.0014986295522022297
-0.9532056135622244   -0.027837250899892363   -0.0014986295522022297
-0.9532056135622244   -0.027837250899892363   -0.0014986295522022297
-0.9532056135622244   -0.027837250899892363   -0.0014986295522022297
-1.9308929361457872   -0.35887740984762695   -0.016455134421835334
-1.9308929361457872   -0.35887740984762695   -0.016455134421835334
-1.9308929361457872   -0.35887740984762695   -0.016455134421835334
-1.9308929361457872   -0.35887740984762695   -0.016455134421835334
-1.8434921993422202   -0.1839382343123189   -0.06380263379988527
-1.8434921993422202   -0.1839382343123189   -0.06380263379988527
-1.8434921993422202   -0.1839382343123189   -0.06380263379988527
-1.8434921993422202   -0.1839382343123189   -0.06380263379988527
-0.9194530725005102   -0.12003802144551173   0.04209750532983175
-0.9194530725005102   -0.12003802144551173   0.04209750532983175
-0.9194530725005102   -0.12003802144551173   0.04209750532983175
-0.9194530725005102   -0.12003802144551173   0.04209750532983175
-1.3993689033231322   -0.16231948104362418   -0.02985139196126483
-1.3993689033231322   -0.16231948104362418   -0.02985139196126483
-1.3993689033231322   -0.16231948104362418   -0.02985139196126483
-1.3993689033231322   -0.16231948104362418   -0.02985139196126483
-0.9022326788756575   0.015588739118906264   -0.007427287110322013
-0.9022326788756575   0.015588739118906264   -0.007427287110322013
-0.9022326788756575   0.015588739118906264   -0.007427287110322013
-0.9022326788756575   0.015588739118906264   -0.007427287110322013
-1.8614855576466494   -0.32033795955631084   -0.017369700078024797
-1.8614855576466494   -0.32033795955631084   -0.017369700078024797
-1.8614855576466494   -0.32033795955631084   -0.017369700078024797
-1.8614855576466494   -0.32033795955631084   -0.017369700078024797
-1.777559907225256   -0.143129856546715   -0.07390933267501189
-1.777559907225256   -0.143129856546715   -0.07390933267501189
-1.777559907225256   -0.143129856546715   -0.07390933267501189
-1.777559907225256   -0.143129856546715   -0.07390933267501189
-0.8746207811166491   -0.08937949413811112   0.03617359032842954
-0.8746207811166491   -0.08937949413811112   0.03617359032842954
-0.8746207811166491   -0.08937949413811112   0.03617359032842954
-0.8746207811166491   -0.08937949413811112   0.03617359032842954
-1.331657648112694   -0.12316920083339433   -0.00987042130036285
-1.331657648112694   -0.12316920083339433   -0.00987042130036285
-1.331657648112694   -0.12316920083339433   -0.00987042130036285
-1.331657648112694   -0.12316920083339433   -0.00987042130036285
-0.8559747207468308   0.053311605743210505   -0.013287207703809603
-0.8559747207468308   0.053311605743210505   -0.013287207703809603
-0.8559747207468308   0.053311605743210505   -0.013287207703809603
-0.8559747207468308   0.053311605743210505   -0.013287207703809603
-1.7994080393515326   -0.2890230281844943   -0.03725682166860289
-1.7994080393515326   -0.2890230281844943   -0.03725682166860289
-1.7994080393515326   -0.2890230281844943   -0.03725682166860289
-1.7994080393515326   -0.2890230281844943   -0.03725682166860289
-1.724019459762891   -0.10007972383831548   -0.0762528466707228
-1.724019459762891   -0.10007972383831548   -0.0762528466707228
-1.724019459762891   -0.10007972383831548   -0.0762528466707228
-1.724019459762891   -0.10007972383831548   -0.0762528466707228
-0.8488573294338798   -0.06988849275689032   0.011009051508735025
-0.8488573294338798   -0.06988849275689032   0.011009051508735025
-0.8488573294338798   -0.06988849275689032   0.011009051508735025
-0.8488573294338798   -0.06988849275689032   0.011009051508735025
-1.2941777891151545   -0.09929276794306588   -0.003362892084412726
-1.2941777891151545   -0.09929276794306588   -0.003362892084412726
-1.2941777891151545   -0.09929276794306588   -0.003362892084412726
-1.2941777891151545   -0.09929276794306588   -0.003362892084412726
-1.8779993457543442   -0.0641234800770088   -0.0467411122352389
-1.8779993457543442   -0.0641234800770088   -0.0467411122352389
-1.8779993457543442   -0.0641234800770088   -0.0467411122352389
-1.8779993457543442   -0.0641234800770088   -0.0467411122352389
-2.8316876161292415   -0.24222043547496708   0.10753397936592402
-2.8316876161292415   -0.24222043547496708   0.10753397936592402
-2.8316876161292415   -0.24222043547496708   0.10753397936592402
-2.8316876161292415   -0.24222043547496708   0.10753397936592402
-2.733937776171715   -0.19272396091548488   -0.06243558602289835
-2.733937776171715   -0.19272396091548488   -0.06243558602289835
-2.733937776171715   -0.19272396091548488   -0.06243558602289835
-2.733937776171715   -0.19272396091548488   -0.06243558602289835
-1.7641178043923595   0.05037977728225651   0.09875132935482608
-1.7641178043923595   0.05037977728225651   0.09875132935482608
-1.7641178043923595   0.05037977728225651   0.09875132935482608
-1.7641178043923595   0.05037977728225651   0.09875132935482608
-2.1989988832278744   -0.0761390439990054   0.01026890509486239
-2.1989988832278744   -0.0761390439990054   0.01026890509486239
-2.1989988832278744   -0.0761390439990054   0.01026890509486239
-2.1989988832278744   -0.0761390439990054   0.01026890509486239
-1.8052768809100848   -0.004864599874079778   -0.05179967607744139
-1.8052768809100848   -0.004864599874079778   -0.05179967607744139
-1.8052768809100848   -0.004864599874079778   -0.05179967607744139
-1.8052768809100848   -0.004864599874079778   -0.05179967607744139
-2.6861386211816365   -0.13083950528680177   0.11467573329881178
-2.6861386211816365   -0.13083950528680177   0.11467573329881178
-2.6861386211816365   -0.13083950528680177   0.11467573329881178
-2.6861386211816365   -0.13083950528680177   0.11467573329881178
-2.629109157142188   -0.16212416550265601   -0.07435395191006285
-2.629109157142188   -0.16212416550265601   -0.07435395191006285
-2.629109157142188   -0.16212416550265601   -0.07435395191006285
-2.629109157142188   -0.16212416550265601   -0.07435395191006285
-1.6988912178705717   0.08090624813603475   0.09539800941565985
-1.6988912178705717   0.08090624813603475   0.09539800941565985
-1.6988912178705717   0.08090624813603475   0.09539800941565985
-1.6988912178705717   0.08090624813603475   0.09539800941565985
-2.136888602018848   -0.030716527201009924   0.043727605946512954
-2.136888602018848   -0.030716527201009924   0.043727605946512954
-2.136888602018848   -0.030716527201009924   0.043727605946512954
-2.136888602018848   -0.030716527201009924   0.043727605946512954
-1.7415202308795334   0.019080207194399623   -0.05592101468750059
-1.7415202308795334   0.019080207194399623   -0.05592101468750059
-1.7415202308795334   0.019080207194399623   -0.05592101468750059
-1.7415202308795334   0.019080207194399623   -0.05592101468750059
-2.5851524530581607   -0.09897043348595685   0.08227583649335161
-2.5851524530581607   -0.09897043348595685   0.08227583649335161
-2.5851524530581607   -0.09897043348595685   0.08227583649335161
-2.5851524530581607   -0.09897043348595685   0.08227583649335161
-2.520719367608856   -0.13313988056728943   -0.08984224467701363
-2.520719367608856   -0.13313988056728943   -0.08984224467701363
-2.520719367608856   -0.13313988056728943   -0.08984224467701363
-2.520719367608856   -0.13313988056728943   -0.08984224467701363
-1.6504700381567534   0.11756596109533168   0.07384857642631742
-1.6504700381567534   0.11756596109533168   0.07384857642631742
-1.6504700381567534   0.11756596109533168   0.07384857642631742
-1.6504700381567534   0.11756596109533168   0.07384857642631742
-2.0204745589031416   0.00814185775608639   0.0771719354961838
-2.0204745589031416   0.00814185775608639   0.0771719354961838
-2.0204745589031416   0.00814185775608639   0.0771719354961838
-2.0204745589031416   0.00814185775608639   0.0771719354961838
2.496602476613746   0.14952299039366412   0.09075874994696867
2.496602476613746   0.14952299039366412   0.09075874994696867
2.496602476613746   0.14952299039366412   0.09075874994696867
2.496602476613746   0.14952299039366412   0.09075874994696867
1.1906447176012387   -0.2232859499435722   0.020564638033717164
1.1906447176012387   -0.2232859499435722   0.020564638033717164
1.1906447176012387   -0.2232859499435722   0.020564638033717164
1.1906447176012387   -0.2232859499435722   0.020564638033717164
1.2565780336513   -0.09403157582634114   0.06989785364178615
1.2565780336513   -0.09403157582634114   0.06989785364178615
1.2565780336513   -0.09403157582634114   0.06989785364178615
1.2565780336513   -0.09403157582634114   0.06989785364178615
2.509901809307971   0.020812512878192635   -0.019978599243895168
2.509901809307971   0.020812512878192635   -0.019978599243895168
2.509901809307971   0.020812512878192635   -0.019978599243895168
2.509901809307971   0.020812512878192635   -0.019978599243895168
1.7555582149198128   -0.04811197955958141   -0.1168288650643644
1.7555582149198128   -0.04811197955958141   -0.1168288650643644
1.7555582149198128   -0.04811197955958141   -0.1168288650643644
1.7555582149198128   -0.04811197955958141   -0.1168288650643644
2.557394007530568   0.16650919097551004   0.07178571377177399
2.557394007530568   0.16650919097551004   0.07178571377177399
2.557394007530568   0.16650919097551004   0.07178571377177399
2.557394007530568   0.16650919097551004   0.07178571377177399
1.220498632838006   -0.22831545651435525   0.023784730263330528
1.220498632838006   -0.22831545651435525   0.023784730263330528
1.220498632838006   -0.22831545651435525   0.023784730263330528
1.220498632838006   -0.22831545651435525   0.023784730263330528
1.2816099203309914   -0.0798981127683554   0.05320905974316016
1.2816099203309914   -0.0798981127683554   0.05320905974316016
1.2816099203309914   -0.0798981127683554   0.05320905974316016
1.2816099203309914   -0.0798981127683554   0.05320905974316016
2.554054664131386   0.03675662681456504   -0.005894439257261602
2.554054664131386   0.03675662681456504   -0.005894439257261602
2.554054664131386   0.03675662681456504   -0.005894439257261602
2.554054664131386   0.03675662681456504   -0.005894439257261602
1.8281496002740574   -0.038084274417599595   -0.07976201162837303
1.8281496002740574   -0.038084274417599595   -0.07976201162837303
1.8281496002740574   -0.038084274417599595   -0.07976201162837303
1.8281496002740574   -0.038084274417599595   -0.07976201162837303
2.594218988202072   0.18193220869947963   0.04975159921125437
2.594218988202072   0.18193220869947963   0.04975159921125437
2.594218988202072   0.18193220869947963   0.04975159921125437
2.594218988202072   0.18193220869947963   0.04975159921125437
1.2493851449050155   -0.21713414600855974   0.029321215853485127
1.2493851449050155   -0.21713414600855974   0.029321215853485127
1.2493851449050155   -0.21713414600855974   0.029321215853485127
1.2493851449050155   -0.21713414600855974   0.029321215853485127
1.3184233553784548   -0.02479412381624646   0.048641052397125406
1.3184233553784548   -0.02479412381624646   0.048641052397125406
1.3184233553784548   -0.02479412381624646   0.048641052397125406
1.3184233553784548   -0.02479412381624646   0.048641052397125406
2.599935539869082   0.07319592922090523   -0.0007306320432255431
2.599935539869082   0.07319592922090523   -0.0007306320432255431
2.599935539869082   0.07319592922090523   -0.0007306320432255431
2.599935539869082   0.07319592922090523   -0.0007306320432255431
1.8373214456161684   -0.017667042910436748   -0.05955300869803978
1.8373214456161684   -0.017667042910436748   -0.05955300869803978
1.8373214456161684   -0.017667042910436748   -0.05955300869803978
1.8373214456161684   -0.017667042910436748   -0.05955300869803978
1.256465828693212   0.031418763112146586   0.09496548043786612
1.256465828693212   0.031418763112146586   0.09496548043786612
1.256465828693212   0.031418763112146586   0.09496548043786612
1.256465828693212   0.031418763112146586   0.09496548043786612
0.06727986544036221   -0.445417837868744   0.04596203214426636
0.06727986544036221   -0.445417837868744   0.04596203214426636
0.06727986544036221   -0.445417837868744   0.04596203214426636
0.06727986544036221   -0.445417837868744   0.04596203214426636
0.15329695709141702   -0.18827885525008162   0.04276204844672496
0.15329695709141702   -0.18827885525008162   0.04276204844672496
0.15329695709141702   -0.18827885525008162   0.04276204844672496
0.15329695709141702   -0.18827885525008162   0.04276204844672496
1.2241666294607976   -0.2150974612761859   0.028906718139106197
1.2241666294607976   -0.2150974612761859   0.028906718139106197
1.2241666294607976   -0.2150974612761859   0.028906718139106197
1.2241666294607976   -0.2150974612761859   0.028906718139106197
0.6533360166741154   -0.20002661441989505   -0.07486720323345043
0.6533360166741154   -0.20002661441989505   -0.07486720323345043
0.6533360166741154   -0.20002661441989505   -0.07486720323345043
0.6533360166741154   -0.20002661441989505   -0.07486720323345043
1.2863875428404907   0.04564134746888998   0.07927247629250911
1.2863875428404907   0.04564134746888998   0.07927247629250911
1.2863875428404907   0.04564134746888998   0.07927247629250911
1.2863875428404907   0.04564134746888998   0.07927247629250911
0.10750035817369691   -0.4325933495331822   0.058093548141225054
0.10750035817369691   -0.4325933495331822   0.058093548141225054
0.10750035817369691   -0.4325933495331822   0.058093548141225054
0.10750035817369691   -0.4325933495331822   0.058093548141225054
0.1879138627289773   -0.16247659167813436   0.031034982942012714
0.1879138627289773   -0.16247659167813436   0.031034982942012714
0.1879138627289773   -0.16247659167813436   0.031034982942012714
0.1879138627289773   -0.16247659167813436   0.031034982942012714
1.253781870837265   -0.2016114747165682   0.03578217422273969
1.253781870837265   -0.2016114747165682   0.03578217422273969
1.253781870837265   -0.2016114747165682   0.03578217422273969
1.253781870837265   -0.2016114747165682   0.03578217422273969
0.6828380397683177   -0.1901710179344969   -0.0374319132859733
0.6828380397683177   -0.1901710179344969   -0.0374319132859733
0.6828380397683177   -0.1901710179344969   -0.0374319132859733
0.6828380397683177   -0.1901710179344969   -0.0374319132859733
1.3142888247267983   0.06994374826982933   0.06676172068401001
1.3142888247267983   0.06994374826982933   0.06676172068401001
1.3142888247267983   0.06994374826982933   0.06676172068401001
1.3142888247267983   0.06994374826982933   0.06676172068401001
0.14321116998218258   -0.41822755352179364   0.06327248105169456
0.14321116998218258   -0.41822755352179364   0.06327248105169456
0.14321116998218258   -0.41822755352179364   0.06327248105169456
0.14321116998218258   -0.41822755352179364   0.06327248105169456
0.24102378816785133   -0.12374880456609674   0.020593897795048104
0.24102378816785133   -0.12374880456609674   0.020593897795048104
0.24102378816785133   -0.12374880456609674   0.020593897795048104
0.24102378816785133   -0.12374880456609674   0.020593897795048104
1.2862128034157732   -0.18109950665822838   0.04389367542570294
1.2862128034157732   -0.18109950665822838   0.04389367542570294
1.2862128034157732   -0.18109950665822838   0.04389367542570294
1.2862128034157732   -0.18109950665822838   0.04389367542570294
0.7344470298751166   -0.16625973176752004   0.0061198120257106026
0.7344470298751166   -0.16625973176752004   0.0061198120257106026
0.7344470298751166   -0.16625973176752004   0.0061198120257106026
0.7344470298751166   -0.16625973176752004   0.0061198120257106026
0.14232117150145462   -0.08539328149813756   0.06114400607912205
0.14232117150145462   -0.08539328149813756   0.06114400607912205
0.14232117150145462   -0.08539328149813756   0.06114400607912205
0.14232117150145462   -0.08539328149813756   0.06114400607912205
-1.0655143796674977   -0.7655740975094646   0.06642106720976662
-1.0655143796674977   -0.7655740975094646   0.06642106720976662
-1.0655143796674977   -0.7655740975094646   0.06642106720976662
-1.0655143796674977   -0.7655740975094646   0.06642106720976662
-0.9294392145219371   -0.2976731737658936   0.004573246461470018
-0.9294392145219371   -0.2976731737658936   0.004573246461470018
-0.9294392145219371   -0.2976731737658936   0.004573246461470018
-0.9294392145219371   -0.2976731737658936   0.004573246461470018
0.07579127519942455   -0.5581609149442889   0.025115698680969883
0.07579127519942455   -0.5581609149442889   0.025115698680969883
0.07579127519942455   -0.5581609149442889   0.025115698680969883
0.07579127519942455   -0.5581609149442889   0.025115698680969883
-0.45822261424477395   -0.42976978673409805   -0.08984505140750426
-0.45822261424477395   -0.42976978673409805   -0.08984505140750426
-0.45822261424477395   -0.42976978673409805   -0.08984505140750426
-0.45822261424477395   -0.42976978673409805   -0.08984505140750426
0.1785691173295546   -0.0673477981753525   0.04819179256268376
0.1785691173295546   -0.0673477981753525   0.04819179256268376
0.1785691173295546   -0.0673477981753525   0.04819179256268376
0.1785691173295546   -0.0673477981753525   0.04819179256268376
-1.0084743435786914   -0.7647435774614428   0.07646800487325409
-1.0084743435786914   -0.7647435774614428   0.07646800487325409
-1.0084743435786914   -0.7647435774614428   0.07646800487325409
-1.0084743435786914   -0.7647435774614428   0.07646800487325409
-0.876956664915822   -0.2671597987766342   0.00015035264088960124
-0.876956664915822   -0.2671597987766342   0.00015035264088960124
-0.876956664915822   -0.2671597987766342   0.00015035264088960124
-0.876956664915822   -0.2671597987766342   0.00015035264088960124
0.11227601631644751   -0.545998492062655   0.03636765126388064
0.11227601631644751   -0.545998492062655   0.03636765126388064
0.11227601631644751   -0.545998492062655   0.03636765126388064
0.11227601631644751   -0.545998492062655   0.03636765126388064
-0.4050900200921608   -0.4152084819281529   -0.0335693880837199
-0.4050900200921608   -0.4152084819281529   -0.0335693880837199
-0.4050900200921608   -0.4152084819281529   -0.0335693880837199
-0.4050900200921608   -0.4152084819281529   -0.0335693880837199
0.21170808407163094   -0.043292516593233916   0.030822014570376588
0.21170808407163094   -0.043292516593233916   0.030822014570376588
0.21170808407163094   -0.043292516593233916   0.030822014570376588
0.21170808407163094   -0.043292516593233916   0.030822014570376588
-0.954934280804154   -0.7484113223791811   0.09151379680179031
-0.954934280804154   -0.7484113223791811   0.09151379680179031
-0.954934280804154   -0.7484113223791811   0.09151379680179031
-0.954934280804154   -0.7484113223791811   0.09151379680179031
-0.7903576057119996   -0.23200087333023972   -0.009713479861558832
-0.7903576057119996   -0.23200087333023972   -0.009713479861558832
-0.7903576057119996   -0.23200087333023972   -0.009713479861558832
-0.7903576057119996   -0.23200087333023972   -0.009713479861558832
0.16923601144487704   -0.511847292028761   0.04975350164284073
0.16923601144487704   -0.511847292028761   0.04975350164284073
0.16923601144487704   -0.511847292028761   0.04975350164284073
0.16923601144487704   -0.511847292028761   0.04975350164284073
-0.33611076799554535   -0.3824391375737748   0.025398344566803427
-0.33611076799554535   -0.3824391375737748   0.025398344566803427
-0.33611076799554535   -0.3824391375737748   0.025398344566803427
-0.33611076799554535   -0.3824391375737748   0.025398344566803427
-0.9505964350125847   -0.15369978678471646   0.029136479759575923
-0.9505964350125847   -0.15369978678471646   0.029136479759575923
-0.9505964350125847   -0.15369978678471646   0.029136479759575923
-0.9505964350125847   -0.15369978678471646   0.029136479759575923
-2.3728914668473755   -1.1923945726157126   -0.05663595387052828
-2.3728914668473755   -1.1923945726157126   -0.05663595387052828
-2.3728914668473755   -1.1923945726157126   -0.05663595387052828
-2.3728914668473755   -1.1923945726157126   -0.05663595387052828
-2.1482384386725424   -0.3873378607681425   -0.06561632511128951
-2.1482384386725424   -0.3873378607681425   -0.06561632511128951
-2.1482384386725424   -0.3873378607681425   -0.06561632511128951
-2.1482384386725424   -0.3873378607681425   -0.06561632511128951
-1.0664066925034714   -0.9977456177971317   0.019808300585036992
-1.0664066925034714   -0.9977456177971317   0.019808300585036992
-1.0664066925034714   -0.9977456177971317   0.019808300585036992
-1.0664066925034714   -0.9977456177971317   0.019808300585036992
-1.6326692920176353   -0.7052448716859162   -0.09432799845413152
-1.6326692920176353   -0.7052448716859162   -0.09432799845413152
-1.6326692920176353   -0.7052448716859162   -0.09432799845413152
-1.6326692920176353   -0.7052448716859162   -0.09432799845413152
-0.8885750496878378   -0.11669811547978445   0.02791901234585712
-0.8885750496878378   -0.11669811547978445   0.02791901234585712
-0.8885750496878378   -0.11669811547978445   0.02791901234585712
-0.8885750496878378   -0.11669811547978445   0.02791901234585712
-2.320778824503693   -1.263094106101017   -0.05256200893416765
-2.320778824503693   -1.263094106101017   -0.05256200893416765
-2.320778824503693   -1.263094106101017   -0.05256200893416765
-2.320778824503693   -1.263094106101017   -0.05256200893416765
-2.0784265519574134   -0.35074315393513866   -0.06683893781594391
-2.0784265519574134   -0.35074315393513866   -0.06683893781594391
-2.0784265519574134   -0.35074315393513866   -0.06683893781594391
-2.0784265519574134   -0.35074315393513866   -0.06683893781594391
-1.0155622597927336   -0.9900304647025223   0.02999304418222895
-1.0155622597927336   -0.9900304647025223   0.02999304418222895
-1.0155622597927336   -0.9900304647025223   0.02999304418222895
-1.0155622597927336   -0.9900304647025223   0.02999304418222895
-1.5594942258723683   -0.6863236842765936   -0.06638448517113814
-1.5594942258723683   -0.6863236842765936   -0.06638448517113814
-1.5594942258723683   -0.6863236842765936   -0.06638448517113814
-1.5594942258723683   -0.6863236842765936   -0.06638448517113814
-0.8392085952189647   -0.08765466212879279   0.00938556447733677
-0.8392085952189647   -0.08765466212879279   0.00938556447733677
-0.8392085952189647   -0.08765466212879279   0.00938556447733677
-0.8392085952189647   -0.08765466212879279   0.00938556447733677
-2.254752435136035   -1.253091175113719   -0.04612033253045386
-2.254752435136035   -1.253091175113719   -0.04612033253045386
-2.254752435136035   -1.253091175113719   -0.04612033253045386
-2.254752435136035   -1.253091175113719   -0.04612033253045386
-1.9695717376372834   -0.3113855998303011   -0.07576207565491516
-1.9695717376372834   -0.3113855998303011   -0.07576207565491516
-1.9695717376372834   -0.3113855998303011   -0.07576207565491516
-1.9695717376372834   -0.3113855998303011   -0.07576207565491516
-0.9055686940544803   -0.8906991446097925   0.07292934970560278
-0.9055686940544803   -0.8906991446097925   0.07292934970560278
-0.9055686940544803   -0.8906991446097925   0.07292934970560278
-0.9055686940544803   -0.8906991446097925   0.07292934970560278
-1.4777930106242705   -0.6223696663822817   -0.03720343203138693
-1.4777930106242705   -0.6223696663822817   -0.03720343203138693
-1.4777930106242705   -0.6223696663822817   -0.03720343203138693
-1.4777930106242705   -0.6223696663822817   -0.03720343203138693
-2.1522867276516573   -0.13087368312847059   -0.015133147379178036
-2.1522867276516573   -0.13087368312847059   -0.015133147379178036
-2.1522867276516573   -0.13087368312847059   -0.015133147379178036
-2.1522867276516573   -0.13087368312847059   -0.015133147379178036
-3.80037531472964   -0.7523267317232067   0.03874165611360603
-3.80037531472964   -0.7523267317232067   0.03874165611360603
-3.80037531472964   -0.7523267317232067   0.03874165611360603
-3.80037531472964   -0.7523267317232067   0.03874165611360603
-3.6504383209669653   -0.36269688208848205   -0.08031145092432213
-3.6504383209669653   -0.36269688208848205   -0.08031145092432213
-3.6504383209669653   -0.36269688208848205   -0.08031145092432213
-3.6504383209669653   -0.36269688208848205   -0.08031145092432213
-2.1039358755457003   -0.3892295409651568   0.15778817071991635
-2.1039358755457003   -0.3892295409651568   0.15778817071991635
-2.1039358755457003   -0.3892295409651568   0.15778817071991635
-2.1039358755457003   -0.3892295409651568   0.15778817071991635
-2.808150845808701   -0.43654549690890604   0.040484708318911974
-2.808150845808701   -0.43654549690890604   0.040484708318911974
-2.808150845808701   -0.43654549690890604   0.040484708318911974
-2.808150845808701   -0.43654549690890604   0.040484708318911974
-2.0633728695373015   -0.029122308048620482   0.0004959678453828886
-2.0633728695373015   -0.029122308048620482   0.0004959678453828886
-2.0633728695373015   -0.029122308048620482   0.0004959678453828886
-2.0633728695373015   -0.029122308048620482   0.0004959678453828886
-3.7053386789609855   -0.737141466990654   0.019631344007716045
-3.7053386789609855   -0.737141466990654   0.019631344007716045
-3.7053386789609855   -0.737141466990654   0.019631344007716045
-3.7053386789609855   -0.737141466990654   0.019631344007716045
-3.5676712816895177   -0.3323145271457988   -0.10192580317456224
-3.5676712816895177   -0.3323145271457988   -0.10192580317456224
-3.5676712816895177   -0.3323145271457988   -0.10192580317456224
-3.5676712816895177   -0.3323145271457988   -0.10192580317456224
-2.0320633214561186   -0.36963821011678477   0.1838722708721945
-2.0320633214561186   -0.36963821011678477   0.1838722708721945
-2.0320633214561186   -0.36963821011678477   0.1838722708721945
-2.0320633214561186   -0.36963821011678477   0.1838722708721945
-2.764315471645502   -0.3594539299617714   0.03886286296685699
-2.764315471645502   -0.3594539299617714   0.03886286296685699
-2.764315471645502   -0.3594539299617714   0.03886286296685699
-2.764315471645502   -0.3594539299617714   0.03886286296685699
-1.999335070211995   -0.0022392173501469825   -0.019885465673825875
-1.999335070211995   -0.0022392173501469825   -0.019885465673825875
-1.999335070211995   -0.0022392173501469825   -0.019885465673825875
-1.999335070211995   -0.0022392173501469825   -0.019885465673825875
-3.6057145945387394   -0.7050285815175401   0.08057168695103845
-3.6057145945387394   -0.7050285815175401   0.08057168695103845
-3.6057145945387394   -0.7050285815175401   0.08057168695103845
-3.6057145945387394   -0.7050285815175401   0.08057168695103845
-3.3958168000621147   -0.26904759980526416   -0.11387246617129998
-3.3958168000621147   -0.26904759980526416   -0.11387246617129998
-3.3958168000621147   -0.26904759980526416   -0.11387246617129998
-3.3958168000621147   -0.26904759980526416   -0.11387246617129998
-1.9203112279559655   -0.3435260591724294   0.20268093209381866
-1.9203112279559655   -0.3435260591724294   0.20268093209381866
-1.9203112279559655   -0.3435260591724294   0.20268093209381866
-1.9203112279559655   -0.3435260591724294   0.20268093209381866
-2.598389645467587   -0.2747435333269821   0.07942299664020874
-2.598389645467587   -0.2747435333269821   0.07942299664020874
-2.598389645467587   -0.2747435333269821   0.07942299664020874
-2.598389645467587   -0.2747435333269821   0.07942299664020874
2.734492871469429   0.08908976598528551   0.03859506380981503
2.734492871469429   0.08908976598528551   0.03859506380981503
2.734492871469429   0.08908976598528551   0.03859506380981503
2.734492871469429   0.08908976598528551   0.03859506380981503
1.3970187387850896   -0.07325623894165911   0.028614439113625517
1.3970187387850896   -0.07325623894165911   0.028614439113625517
1.3970187387850896   -0.07325623894165911   0.028614439113625517
1.3970187387850896   -0.07325623894165911   0.028614439113625517
1.342184030082534   -0.19753060938997669   0.056023568640695354
1.342184030082534   -0.19753060938997669   0.056023568640695354
1.342184030082534   -0.19753060938997669   0.056023568640695354
1.342184030082534   -0.19753060938997669   0.056023568640695354
2.7146106218763806   0.15298647048964364   0.02078647375818446
2.7146106218763806   0.15298647048964364   0.02078647375818446
2.7146106218763806   0.15298647048964364   0.02078647375818446
2.7146106218763806   0.15298647048964364   0.02078647375818446
1.9379703273833104   -0.027657644342969412   -0.07151598090968432
1.9379703273833104   -0.027657644342969412   -0.07151598090968432
1.9379703273833104   -0.027657644342969412   -0.07151598090968432
1.9379703273833104   -0.027657644342969412   -0.07151598090968432
2.699498695979496   0.06864189417829802   0.029571420585106922
2.699498695979496   0.06864189417829802   0.029571420585106922
2.699498695979496   0.06864189417829802   0.029571420585106922
2.699498695979496   0.06864189417829802   0.029571420585106922
1.3527949038711111   -0.11768708518693843   0.029234413380543084
1.3527949038711111   -0.11768708518693843   0.029234413380543084
1.3527949038711111   -0.11768708518693843   0.029234413380543084
1.3527949038711111   -0.11768708518693843   0.029234413380543084
1.307258474981723   -0.20214975538013158   0.04636983891891866
1.307258474981723   -0.20214975538013158   0.04636983891891866
1.307258474981723   -0.20214975538013158   0.04636983891891866
1.307258474981723   -0.20214975538013158   0.04636983891891866
2.682659666475819   0.14629474103382217   0.03583439851131383
2.682659666475819   0.14629474103382217   0.03583439851131383
2.682659666475819   0.14629474103382217   0.03583439851131383
2.682659666475819   0.14629474103382217   0.03583439851131383
1.9319951397513089   -0.03816326814906801   -0.08291403699225773
1.9319951397513089   -0.03816326814906801   -0.08291403699225773
1.9319951397513089   -0.03816326814906801   -0.08291403699225773
1.9319951397513089   -0.03816326814906801   -0.08291403699225773
2.660195280623803   0.06093756668457917   0.008869643600453447
2.660195280623803   0.06093756668457917   0.008869643600453447
2.660195280623803   0.06093756668457917   0.008869643600453447
2.660195280623803   0.06093756668457917   0.008869643600453447
1.3216568348009297   -0.12485860706371199   0.04107048969853229
1.3216568348009297   -0.12485860706371199   0.04107048969853229
1.3216568348009297   -0.12485860706371199   0.04107048969853229
1.3216568348009297   -0.12485860706371199   0.04107048969853229
1.270386753123426   -0.1845604462289634   0.0400362774530873
1.270386753123426   -0.1845604462289634   0.0400362774530873
1.270386753123426   -0.1845604462289634   0.0400362774530873
1.270386753123426   -0.1845604462289634   0.0400362774530873
2.633394648970852   0.14776598823785375   0.05142328061863265
2.633394648970852   0.14776598823785375   0.05142328061863265
2.633394648970852   0.14776598823785375   0.05142328061863265
2.633394648970852   0.14776598823785375   0.05142328061863265
1.859215368239316   -0.03852690763198252   -0.11206156605029893
1.859215368239316   -0.03852690763198252   -0.11206156605029893
1.859215368239316   -0.03852690763198252   -0.11206156605029893
1.859215368239316   -0.03852690763198252   -0.11206156605029893
1.3841152950331388   -0.177562468413833   0.06840344982604502
1.3841152950331388   -0.177562468413833   0.06840344982604502
1.3841152950331388   -0.177562468413833   0.06840344982604502
1.3841152950331388   -0.177562468413833   0.06840344982604502
0.2707410798058931   -0.1648640766631411   0.014883681057992426
0.2707410798058931   -0.1648640766631411   0.014883681057992426
0.2707410798058931   -0.1648640766631411   0.014883681057992426
0.2707410798058931   -0.1648640766631411   0.014883681057992426
0.17620178546809842   -0.41573518433107753   0.07368294685734691
0.17620178546809842   -0.41573518433107753   0.07368294685734691
0.17620178546809842   -0.41573518433107753   0.07368294685734691
0.17620178546809842   -0.41573518433107753   0.07368294685734691
1.3917571743679331   0.05345442221599017   0.0529042584617241
1.3917571743679331   0.05345442221599017   0.0529042584617241
1.3917571743679331   0.05345442221599017   0.0529042584617241
1.3917571743679331   0.05345442221599017   0.0529042584617241
0.7933292186541901   -0.1768787783477334   -0.0030078470054184375
0.7933292186541901   -0.1768787783477334   -0.0030078470054184375
0.7933292186541901   -0.1768787783477334   -0.0030078470054184375
0.7933292186541901   -0.1768787783477334   -0.0030078470054184375
1.344882699203333   -0.18528194165379863   0.0572682465085072
1.344882699203333   -0.18528194165379863   0.0572682465085072
1.344882699203333   -0.18528194165379863   0.0572682465085072
1.344882699203333   -0.18528194165379863   0.0572682465085072
0.21124218624157792   -0.18883289485241025   0.02198266124607713
0.21124218624157792   -0.18883289485241025   0.02198266124607713
0.21124218624157792   -0.18883289485241025   0.02198266124607713
0.21124218624157792   -0.18883289485241025   0.02198266124607713
0.13388859103387885   -0.4195506172893893   0.06597974116202004
0.13388859103387885   -0.4195506172893893   0.06597974116202004
0.13388859103387885   -0.4195506172893893   0.06597974116202004
0.13388859103387885   -0.4195506172893893   0.06597974116202004
1.3595449564483422   0.04294220828208861   0.0627102825897947
1.3595449564483422   0.04294220828208861   0.0627102825897947
1.3595449564483422   0.04294220828208861   0.0627102825897947
1.3595449564483422   0.04294220828208861   0.0627102825897947
0.7358915985619987   -0.1885538131273254   -0.03813171188379419
0.7358915985619987   -0.1885538131273254   -0.03813171188379419
0.7358915985619987   -0.1885538131273254   -0.03813171188379419
0.7358915985619987   -0.1885538131273254   -0.03813171188379419
1.3102790459559719   -0.1880032390461427   0.04732617745615983
1.3102790459559719   -0.1880032390461427   0.04732617745615983
1.3102790459559719   -0.1880032390461427   0.04732617745615983
1.3102790459559719   -0.1880032390461427   0.04732617745615983
0.17029750636627422   -0.20146216512113535   0.029935865655742827
0.17029750636627422   -0.20146216512113535   0.029935865655742827
0.17029750636627422   -0.20146216512113535   0.029935865655742827
0.17029750636627422   -0.20146216512113535   0.029935865655742827
0.08653236552714524   -0.41947696161258896   0.05168683854252801
0.08653236552714524   -0.41947696161258896   0.05168683854252801
0.08653236552714524   -0.41947696161258896   0.05168683854252801
0.08653236552714524   -0.41947696161258896   0.05168683854252801
1.322987614167891   0.043476474551490396   0.07500366189496502
1.322987614167891   0.043476474551490396   0.07500366189496502
1.322987614167891   0.043476474551490396   0.07500366189496502
1.322987614167891   0.043476474551490396   0.07500366189496502
0.7007498459660642   -0.18721306992767123   -0.06803450505101148
0.7007498459660642   -0.18721306992767123   -0.06803450505101148
0.7007498459660642   -0.18721306992767123   -0.06803450505101148
0.7007498459660642   -0.18721306992767123   -0.06803450505101148
0.21077300758881187   -0.5113041540318904   0.06148339734132777
0.21077300758881187   -0.5113041540318904   0.06148339734132777
0.21077300758881187   -0.5113041540318904   0.06148339734132777
0.21077300758881187   -0.5113041540318904   0.06148339734132777
-0.8118631130043205   -0.2561024121031378   0.0011166947802543313
-0.8118631130043205   -0.2561024121031378   0.0011166947802543313
-0.8118631130043205   -0.2561024121031378   0.0011166947802543313
-0.8118631130043205   -0.2561024121031378   0.0011166947802543313
-0.9829012333469769   -0.758032138744373   0.0844520882268891
-0.9829012333469769   -0.758032138744373   0.0844520882268891
-0.9829012333469769   -0.758032138744373   0.0844520882268891
-0.9829012333469769   -0.758032138744373   0.0844520882268891
0.24248015950790971   -0.04405389967141582   0.03339353239674156
0.24248015950790971   -0.04405389967141582   0.03339353239674156
0.24248015950790971   -0.04405389967141582   0.03339353239674156
0.24248015950790971   -0.04405389967141582   0.03339353239674156
-0.330852558584001   -0.3868546904169897   0.01450165348197105
-0.330852558584001   -0.3868546904169897   0.01450165348197105
-0.330852558584001   -0.3868546904169897   0.01450165348197105
-0.330852558584001   -0.3868546904169897   0.01450165348197105
0.14533854681781463   -0.5404569054181956   0.044088474693045915
0.14533854681781463   -0.5404569054181956   0.044088474693045915
0.14533854681781463   -0.5404569054181956   0.044088474693045915
0.14533854681781463   -0.5404569054181956   0.044088474693045915
-0.9023015531369005   -0.27817106547761306   0.007589416010504186
-0.9023015531369005   -0.27817106547761306   0.007589416010504186
-0.9023015531369005   -0.27817106547761306   0.007589416010504186
-0.9023015531369005   -0.27817106547761306   0.007589416010504186
-1.041873829083449   -0.7703694028567499   0.06866294269324111
-1.041873829083449   -0.7703694028567499   0.06866294269324111
-1.041873829083449   -0.7703694028567499   0.06866294269324111
-1.041873829083449   -0.7703694028567499   0.06866294269324111
0.20284183304273953   -0.05572819638321451   0.046923530300148605
0.20284183304273953   -0.05572819638321451   0.046923530300148605
0.20284183304273953   -0.05572819638321451   0.046923530300148605
0.20284183304273953   -0.05572819638321451   0.046923530300148605
-0.4045258845435875   -0.4104679095173307   -0.034731133994049326
-0.4045258845435875   -0.4104679095173307   -0.034731133994049326
-0.4045258845435875   -0.4104679095173307   -0.034731133994049326
-0.4045258845435875   -0.4104679095173307   -0.034731133994049326
0.10026655478286306   -0.5500084384155314   0.028327381033083104
0.10026655478286306   -0.5500084384155314   0.028327381033083104
0.10026655478286306   -0.5500084384155314   0.028327381033083104
0.10026655478286306   -0.5500084384155314   0.028327381033083104
-0.9589463104371556   -0.2957369204380283   0.008668053505974826
-0.9589463104371556   -0.2957369204380283   0.008668053505974826
-0.9589463104371556   -0.2957369204380283   0.008668053505974826
-0.9589463104371556   -0.2957369204380283   0.008668053505974826
-1.1057434160418427   -0.7651948239673493   0.057995269436618924
-1.1057434160418427   -0.7651948239673493   0.057995269436618924
-1.1057434160418427   -0.7651948239673493   0.057995269436618924
-1.1057434160418427   -0.7651948239673493   0.057995269436618924
0.15872914857794415   -0.062267362448642574   0.05546115463257614
0.15872914857794415   -0.062267362448642574   0.05546115463257614
0.15872914857794415   -0.062267362448642574   0.05546115463257614
0.15872914857794415   -0.062267362448642574   0.05546115463257614
-0.46426885748660157   -0.4194810789202474   -0.08384832976768358
-0.46426885748660157   -0.4194810789202474   -0.08384832976768358
-0.46426885748660157   -0.4194810789202474   -0.08384832976768358
-0.46426885748660157   -0.4194810789202474   -0.08384832976768358
-0.9214761677738763   -0.8761621002175318   0.07311110904687673
-0.9214761677738763   -0.8761621002175318   0.07311110904687673
-0.9214761677738763   -0.8761621002175318   0.07311110904687673
-0.9214761677738763   -0.8761621002175318   0.07311110904687673
-2.043708539399146   -0.3189357532849145   -0.04748167845220807
-2.043708539399146   -0.3189357532849145   -0.04748167845220807
-2.043708539399146   -0.3189357532849145   -0.04748167845220807
-2.043708539399146   -0.3189357532849145   -0.04748167845220807
-2.342524583362586   -1.270153738141716   -0.06611441027877099
-2.342524583362586   -1.270153738141716   -0.06611441027877099
-2.342524583362586   -1.270153738141716   -0.06611441027877099
-2.342524583362586   -1.270153738141716   -0.06611441027877099
-0.8568930723641532   -0.07239202577690686   0.028852780173533935
-0.8568930723641532   -0.07239202577690686   0.028852780173533935
-0.8568930723641532   -0.07239202577690686   0.028852780173533935
-0.8568930723641532   -0.07239202577690686   0.028852780173533935
-1.5264388858615678   -0.6099409141278518   -0.0528990937142159
-1.5264388858615678   -0.6099409141278518   -0.0528990937142159
-1.5264388858615678   -0.6099409141278518   -0.0528990937142159
-1.5264388858615678   -0.6099409141278518   -0.0528990937142159
-1.0416820120294679   -0.9918826088377718   0.024398664907832962
-1.0416820120294679   -0.9918826088377718   0.024398664907832962
-1.0416820120294679   -0.9918826088377718   0.024398664907832962
-1.0416820120294679   -0.9918826088377718   0.024398664907832962
-2.152941075701039   -0.34586858708460755   -0.04248202302814552
-2.152941075701039   -0.34586858708460755   -0.04248202302814552
-2.152941075701039   -0.34586858708460755   -0.04248202302814552
-2.152941075701039   -0.34586858708460755   -0.04248202302814552
-2.412631642088071   -1.2907351044210453   -0.07646077211504895
-2.412631642088071   -1.2907351044210453   -0.07646077211504895
-2.412631642088071   -1.2907351044210453   -0.07646077211504895
-2.412631642088071   -1.2907351044210453   -0.07646077211504895
-0.9112055650974457   -0.0915066391228513   0.043141498889347485
-0.9112055650974457   -0.0915066391228513   0.043141498889347485
-0.9112055650974457   -0.0915066391228513   0.043141498889347485
-0.9112055650974457   -0.0915066391228513   0.043141498889347485
-1.6120701004372227   -0.6756186073032842   -0.07453065287121904
-1.6120701004372227   -0.6756186073032842   -0.07453065287121904
-1.6120701004372227   -0.6756186073032842   -0.07453065287121904
-1.6120701004372227   -0.6756186073032842   -0.07453065287121904
-1.1019066256513737   -1.0113933627594374   0.009522919756293574
-1.1019066256513737   -1.0113933627594374   0.009522919756293574
-1.1019066256513737   -1.0113933627594374   0.009522919756293574
-1.1019066256513737   -1.0113933627594374   0.009522919756293574
-2.2221269533593015   -0.37104475260962133   -0.043627680282646575
-2.2221269533593015   -0.37104475260962133   -0.043627680282646575
-2.2221269533593015   -0.37104475260962133   -0.043627680282646575
-2.2221269533593015   -0.37104475260962133   -0.043627680282646575
-2.47247373273047   -1.2359117642619066   -0.0862287098789783
-2.47247373273047   -1.2359117642619066   -0.0862287098789783
-2.47247373273047   -1.2359117642619066   -0.0862287098789783
-2.47247373273047   -1.2359117642619066   -0.0862287098789783
-0.9800188275207589   -0.11848128841848761   0.03990467649316157
-0.9800188275207589   -0.11848128841848761   0.03990467649316157
-0.9800188275207589   -0.11848128841848761   0.03990467649316157
-0.9800188275207589   -0.11848128841848761   0.03990467649316157
-1.6908468073433234   -0.6980775618761439   -0.09513125445230447
-1.6908468073433234   -0.6980775618761439   -0.09513125445230447
-1.6908468073433234   -0.6980775618761439   -0.09513125445230447
-1.6908468073433234   -0.6980775618761439   -0.09513125445230447
-2.007021932829103   -0.36500105528600757   0.18201665639906495
-2.007021932829103   -0.36500105528600757   0.18201665639906495
-2.007021932829103   -0.36500105528600757   0.18201665639906495
-2.007021932829103   -0.36500105528600757   0.18201665639906495
-3.5380524281725854   -0.26519697259749886   -0.06325673077037555
-3.5380524281725854   -0.26519697259749886   -0.06325673077037555
-3.5380524281725854   -0.26519697259749886   -0.06325673077037555
-3.5380524281725854   -0.26519697259749886   -0.06325673077037555
-3.755326908039342   -0.7410646300506323   0.05000375778618049
-3.755326908039342   -0.7410646300506323   0.05000375778618049
-3.755326908039342   -0.7410646300506323   0.05000375778618049
-3.755326908039342   -0.7410646300506323   0.05000375778618049
-2.065837479893556   0.029406404015625165   0.017760964909016977
-2.065837479893556   0.029406404015625165   0.017760964909016977
-2.065837479893556   0.029406404015625165   0.017760964909016977
-2.065837479893556   0.029406404015625165   0.017760964909016977
-2.7062286237193303   -0.2603494647899685   0.05448450048131688
-2.7062286237193303   -0.2603494647899685   0.05448450048131688
-2.7062286237193303   -0.2603494647899685   0.05448450048131688
-2.7062286237193303   -0.2603494647899685   0.05448450048131688
-2.121353121535321   -0.3919606601365856   0.161549820852393
-2.121353121535321   -0.3919606601365856   0.161549820852393
-2.121353121535321   -0.3919606601365856   0.161549820852393
-2.121353121535321   -0.3919606601365856   0.161549820852393
-3.690229280358697   -0.3101155798595376   -0.05545715400165606
-3.690229280358697   -0.3101155798595376   -0.05545715400165606
-3.690229280358697   -0.3101155798595376   -0.05545715400165606
-3.690229280358697   -0.3101155798595376   -0.05545715400165606
-3.8477830764252943   -0.7727525663567312   -0.01597975535836116
-3.8477830764252943   -0.7727525663567312   -0.01597975535836116
-3.8477830764252943   -0.7727525663567312   -0.01597975535836116
-3.8477830764252943   -0.7727525663567312   -0.01597975535836116
-2.1310547180943598   0.008016481268609987   0.03267226216383301
-2.1310547180943598   0.008016481268609987   0.03267226216383301
-2.1310547180943598   0.008016481268609987   0.03267226216383301
-2.1310547180943598   0.008016481268609987   0.03267226216383301
-2.868740158740522   -0.3438435160851455   0.022530958088036096
-2.868740158740522   -0.3438435160851455   0.022530958088036096
-2.868740158740522   -0.3438435160851455   0.022530958088036096
-2.868740158740522   -0.3438435160851455   0.022530958088036096
-2.194811521556638   -0.41215113257259783   0.134055858693649
-2.194811521556638   -0.41215113257259783   0.134055858693649
-2.194811521556638   -0.41215113257259783   0.134055858693649
-2.194811521556638   -0.41215113257259783   0.134055858693649
-3.7648640151959087   -0.33342269474840625   -0.04071432081969861
-3.7648640151959087   -0.33342269474840625   -0.04071432081969861
-3.7648640151959087   -0.33342269474840625   -0.04071432081969861
-3.7648640151959087   -0.33342269474840625   -0.04071432081969861
-3.928482981599974   -0.7857206782828488   -0.00012040981427019481
-3.928482981599974   -0.7857206782828488   -0.00012040981427019481
-3.928482981599974   -0.7857206782828488   -0.00012040981427019481
-3.928482981599974   -0.7857206782828488   -0.00012040981427019481
-2.222582857253529   -0.08598015518051233   0.013294058424330582
-2.222582857253529   -0.08598015518051233   0.013294058424330582
-2.222582857253529   -0.08598015518051233   0.013294058424330582
-2.222582857253529   -0.08598015518051233   0.013294058424330582
-2.9040990603033663   -0.41561085362473693   0.035597774248364245
-2.9040990603033663   -0.41561085362473693   0.035597774248364245
-2.9040990603033663   -0.41561085362473693   0.035597774248364245
-2.9040990603033663   -0.41561085362473693   0.035597774248364245
2.392661038354022   0.1096970684797618   -0.05226132334826361
2.392661038354022   0.1096970684797618   -0.05226132334826361
2.392661038354022   0.1096970684797618   -0.05226132334826361
2.392661038354022   0.1096970684797618   -0.05226132334826361
1.2050113124749258   -0.023841871251710944   0.02583716331484215
1.2050113124749258   -0.023841871251710944   0.02583716331484215
1.2050113124749258   -0.023841871251710944   0.02583716331484215
1.2050113124749258   -0.023841871251710944   0.02583716331484215
1.127975091872362   -0.177715144540536   -0.04608607138869539
1.127975091872362   -0.177715144540536   -0.04608607138869539
1.127975091872362   -0.177715144540536   -0.04608607138869539
1.127975091872362   -0.177715144540536   -0.04608607138869539
2.364852487119628   0.1729140425698567   0.030229251144555505
2.364852487119628   0.1729140425698567   0.030229251144555505
2.364852487119628   0.1729140425698567   0.030229251144555505
2.364852487119628   0.1729140425698567   0.030229251144555505
1.6797015682462564   0.004112031116298764   -0.0648946835752745
1.6797015682462564   0.004112031116298764   -0.0648946835752745
1.6797015682462564   0.004112031116298764   -0.0648946835752745
1.6797015682462564   0.004112031116298764   -0.0648946835752745
2.3257905227441897   0.06052654189918072   -0.052693070061939545
2.3257905227441897   0.06052654189918072   -0.052693070061939545
2.3257905227441897   0.06052654189918072   -0.052693070061939545
2.3257905227441897   0.06052654189918072   -0.052693070061939545
1.1648570866554866   -0.06750761346217149   0.028116371448555846
1.1648570866554866   -0.06750761346217149   0.028116371448555846
1.1648570866554866   -0.06750761346217149   0.028116371448555846
1.1648570866554866   -0.06750761346217149   0.028116371448555846
1.086511643543151   -0.18770698706719435   -0.03802621906110089
1.086511643543151   -0.18770698706719435   -0.03802621906110089
1.086511643543151   -0.18770698706719435   -0.03802621906110089
1.086511643543151   -0.18770698706719435   -0.03802621906110089
2.3072220842839863   0.15878072009850708   0.044108109282667035
2.3072220842839863   0.15878072009850708   0.044108109282667035
2.3072220842839863   0.15878072009850708   0.044108109282667035
2.3072220842839863   0.15878072009850708   0.044108109282667035
1.6568879852809975   -0.01693034725088105   -0.07758982110792134
1.6568879852809975   -0.01693034725088105   -0.07758982110792134
1.6568879852809975   -0.01693034725088105   -0.07758982110792134
1.6568879852809975   -0.01693034725088105   -0.07758982110792134
2.2678789874567484   0.04783866214728488   -0.04166531690230195
2.2678789874567484   0.04783866214728488   -0.04166531690230195
2.2678789874567484   0.04783866214728488   -0.04166531690230195
2.2678789874567484   0.04783866214728488   -0.04166531690230195
1.1228427410687711   -0.07977692841759054   0.0356992099173947
1.1228427410687711   -0.07977692841759054   0.0356992099173947
1.1228427410687711   -0.07977692841759054   0.0356992099173947
1.1228427410687711   -0.07977692841759054   0.0356992099173947
1.046329005058955   -0.1851421537871628   -0.026051785594552804
1.046329005058955   -0.1851421537871628   -0.026051785594552804
1.046329005058955   -0.1851421537871628   -0.026051785594552804
1.046329005058955   -0.1851421537871628   -0.026051785594552804
2.2358421564784043   0.14903397554984138   0.05731383683512274
2.2358421564784043   0.14903397554984138   0.05731383683512274
2.2358421564784043   0.14903397554984138   0.05731383683512274
2.2358421564784043   0.14903397554984138   0.05731383683512274
1.574640336822757   -0.029575746122172453   -0.10199002931674155
1.574640336822757   -0.029575746122172453   -0.10199002931674155
1.574640336822757   -0.029575746122172453   -0.10199002931674155
1.574640336822757   -0.029575746122172453   -0.10199002931674155
1.211200535155063   0.022366132739879863   0.010575272723927248
1.211200535155063   0.022366132739879863   0.010575272723927248
1.211200535155063   0.022366132739879863   0.010575272723927248
1.211200535155063   0.022366132739879863   0.010575272723927248
0.11783779730152455   -0.07232383527332971   -0.002608171307564834
0.11783779730152455   -0.07232383527332971   -0.002608171307564834
0.11783779730152455   -0.07232383527332971   -0.002608171307564834
0.11783779730152455   -0.07232383527332971   -0.002608171307564834
0.045249557662632875   -0.23528782752606336   -0.044299373543243314
0.045249557662632875   -0.23528782752606336   -0.044299373543243314
0.045249557662632875   -0.23528782752606336   -0.044299373543243314
0.045249557662632875   -0.23528782752606336   -0.044299373543243314
1.2127119791022265   0.1397812911078654   0.06010192911221757
1.2127119791022265   0.1397812911078654   0.06010192911221757
1.2127119791022265   0.1397812911078654   0.06010192911221757
1.2127119791022265   0.1397812911078654   0.06010192911221757
0.6348785809126717   -0.033260768332707386   -0.025270682676731618
0.6348785809126717   -0.033260768332707386   -0.025270682676731618
0.6348785809126717   -0.033260768332707386   -0.025270682676731618
0.6348785809126717   -0.033260768332707386   -0.025270682676731618
1.177132312646279   0.0036213131394868814   0.018363574800861718
1.177132312646279   0.0036213131394868814   0.018363574800861718
1.177132312646279   0.0036213131394868814   0.018363574800861718
1.177132312646279   0.0036213131394868814   0.018363574800861718
0.08216935921494323   -0.09778771446132141   0.002799521153566499
0.08216935921494323   -0.09778771446132141   0.002799521153566499
0.08216935921494323   -0.09778771446132141   0.002799521153566499
0.08216935921494323   -0.09778771446132141   0.002799521153566499
0.0052711534745601835   -0.24660791885206612   -0.03076655010725836
0.0052711534745601835   -0.24660791885206612   -0.03076655010725836
0.0052711534745601835   -0.24660791885206612   -0.03076655010725836
0.0052711534745601835   -0.24660791885206612   -0.03076655010725836
1.168818057647591   0.11949064671207804   0.06630821768182665
1.168818057647591   0.11949064671207804   0.06630821768182665
1.168818057647591   0.11949064671207804   0.06630821768182665
1.168818057647591   0.11949064671207804   0.06630821768182665
0.5889164351386675   -0.05191612904649909   -0.03578194080083684
0.5889164351386675   -0.05191612904649909   -0.03578194080083684
0.5889164351386675   -0.05191612904649909   -0.03578194080083684
0.5889164351386675   -0.05191612904649909   -0.03578194080083684
1.1352319843613288   -0.00907395255062704   0.02694245051322984
1.1352319843613288   -0.00907395255062704   0.02694245051322984
1.1352319843613288   -0.00907395255062704   0.02694245051322984
1.1352319843613288   -0.00907395255062704   0.02694245051322984
0.038661586160901415   -0.11823896018929073   0.007816654661672445
0.038661586160901415   -0.11823896018929073   0.007816654661672445
0.038661586160901415   -0.11823896018929073   0.007816654661672445
0.038661586160901415   -0.11823896018929073   0.007816654661672445
-0.0376619730312546   -0.24784051532004034   -0.020931700263543157
-0.0376619730312546   -0.24784051532004034   -0.020931700263543157
-0.0376619730312546   -0.24784051532004034   -0.020931700263543157
-0.0376619730312546   -0.24784051532004034   -0.020931700263543157
1.1245344438453313   0.10653359866162365   0.07329965588854957
1.1245344438453313   0.10653359866162365   0.07329965588854957
1.1245344438453313   0.10653359866162365   0.07329965588854957
1.1245344438453313   0.10653359866162365   0.07329965588854957
0.55287242008318   -0.05943003133451019   -0.04484567734938485
0.55287242008318   -0.05943003133451019   -0.04484567734938485
0.55287242008318   -0.05943003133451019   -0.04484567734938485
0.55287242008318   -0.05943003133451019   -0.04484567734938485
0.11973665178942558   -0.06924445410726447   0.0038067199658750016
0.11973665178942558   -0.06924445410726447   0.0038067199658750016
0.11973665178942558   -0.06924445410726447   0.0038067199658750016
0.11973665178942558   -0.06924445410726447   0.0038067199658750016
-0.9328876739978043   -0.10790464373650897   -0.029377810102641937
-0.9328876739978043   -0.10790464373650897   -0.029377810102641937
-0.9328876739978043   -0.10790464373650897   -0.029377810102641937
-0.9328876739978043   -0.10790464373650897   -0.029377810102641937
-1.0135844678978643   -0.3120280733202834   -0.05041270844188357
-1.0135844678978643   -0.3120280733202834   -0.05041270844188357
-1.0135844678978643   -0.3120280733202834   -0.05041270844188357
-1.0135844678978643   -0.3120280733202834   -0.05041270844188357
0.12850508843271746   0.10225033233981379   0.03444012044130245
0.12850508843271746   0.10225033233981379   0.03444012044130245
0.12850508843271746   0.10225033233981379   0.03444012044130245
0.12850508843271746   0.10225033233981379   0.03444012044130245
-0.42583286407759235   -0.09209396003017442   -0.025114663495734487
-0.42583286407759235   -0.09209396003017442   -0.025114663495734487
-0.42583286407759235   -0.09209396003017442   -0.025114663495734487
-0.42583286407759235   -0.09209396003017442   -0.025114663495734487
0.08970559900608027   -0.0772907642679437   0.019983769915870146
0.08970559900608027   -0.0772907642679437   0.019983769915870146
0.08970559900608027   -0.0772907642679437   0.019983769915870146
0.08970559900608027   -0.0772907642679437   0.019983769915870146
-0.9718238825352249   -0.1295258807765243   -0.024111974172445698
-0.9718238825352249   -0.1295258807765243   -0.024111974172445698
-0.9718238825352249   -0.1295258807765243   -0.024111974172445698
-0.9718238825352249   -0.1295258807765243   -0.024111974172445698
-1.060479020835316   -0.3244369230266527   -0.0332992490389869
-1.060479020835316   -0.3244369230266527   -0.0332992490389869
-1.060479020835316   -0.3244369230266527   -0.0332992490389869
-1.060479020835316   -0.3244369230266527   -0.0332992490389869
0.08464171809830143   0.08052234861406611   0.03895600554531564
0.08464171809830143   0.08052234861406611   0.03895600554531564
0.08464171809830143   0.08052234861406611   0.03895600554531564
0.08464171809830143   0.08052234861406611   0.03895600554531564
-0.4646164090125139   -0.10506102430017827   -0.030134812651917538
-0.4646164090125139   -0.10506102430017827   -0.030134812651917538
-0.4646164090125139   -0.10506102430017827   -0.030134812651917538
-0.4646164090125139   -0.10506102430017827   -0.030134812651917538
0.04818658817239534   -0.09050284209278567   0.027705546622636995
0.04818658817239534   -0.09050284209278567   0.027705546622636995
0.04818658817239534   -0.09050284209278567   0.027705546622636995
0.04818658817239534   -0.09050284209278567   0.027705546622636995
-1.023408631286651   -0.15279647269704316   -0.019587751625278416
-1.023408631286651   -0.15279647269704316   -0.019587751625278416
-1.023408631286651   -0.15279647269704316   -0.019587751625278416
-1.023408631286651   -0.15279647269704316   -0.019587751625278416
-1.1125252749389918   -0.3335318220207188   -0.029606719710930485
-1.1125252749389918   -0.3335318220207188   -0.029606719710930485
-1.1125252749389918   -0.3335318220207188   -0.029606719710930485
-1.1125252749389918   -0.3335318220207188   -0.029606719710930485
0.037198678833357174   0.061965982087875446   0.04356506165159606
0.037198678833357174   0.061965982087875446   0.04356506165159606
0.037198678833357174   0.061965982087875446   0.04356506165159606
0.037198678833357174   0.061965982087875446   0.04356506165159606
-0.5150176970561282   -0.12058731451192281   -0.042212860982025695
-0.5150176970561282   -0.12058731451192281   -0.042212860982025695
-0.5150176970561282   -0.12058731451192281   -0.042212860982025695
-0.5150176970561282   -0.12058731451192281   -0.042212860982025695
-0.9188090674535543   -0.08153117285745855   0.014641751739541835
-0.9188090674535543   -0.08153117285745855   0.014641751739541835
-0.9188090674535543   -0.08153117285745855   0.014641751739541835
-0.9188090674535543   -0.08153117285745855   0.014641751739541835
-1.9579643579514323   -0.1262600850088561   -0.051867210441943035
-1.9579643579514323   -0.1262600850088561   -0.051867210441943035
-1.9579643579514323   -0.1262600850088561   -0.051867210441943035
-1.9579643579514323   -0.1262600850088561   -0.051867210441943035
-2.0497344537760793   -0.3267820835709596   -0.05025612738480381
-2.0497344537760793   -0.3267820835709596   -0.05025612738480381
-2.0497344537760793   -0.3267820835709596   -0.05025612738480381
-2.0497344537760793   -0.3267820835709596   -0.05025612738480381
-0.9235665321727147   0.07798462487823982   0.009664271985324935
-0.9235665321727147   0.07798462487823982   0.009664271985324935
-0.9235665321727147   0.07798462487823982   0.009664271985324935
-0.9235665321727147   0.07798462487823982   0.009664271985324935
-1.4504483831837511   -0.10885332891508442   -0.02116486923866366
-1.4504483831837511   -0.10885332891508442   -0.02116486923866366
-1.4504483831837511   -0.10885332891508442   -0.02116486923866366
-1.4504483831837511   -0.10885332891508442   -0.02116486923866366
-0.9520792427186336   -0.0901522892130848   0.0352376333470632
-0.9520792427186336   -0.0901522892130848   0.0352376333470632
-0.9520792427186336   -0.0901522892130848   0.0352376333470632
-0.9520792427186336   -0.0901522892130848   0.0352376333470632
-2.015402491667426   -0.15282591791690098   -0.05255248249560701
-2.015402491667426   -0.15282591791690098   -0.05255248249560701
-2.015402491667426   -0.15282591791690098   -0.05255248249560701
-2.015402491667426   -0.15282591791690098   -0.05255248249560701
-2.1146406595090848   -0.34786625235168256   -0.03522147284316973
-2.1146406595090848   -0.34786625235168256   -0.03522147284316973
-2.1146406595090848   -0.34786625235168256   -0.03522147284316973
-2.1146406595090848   -0.34786625235168256   -0.03522147284316973
-0.9757242124796759   0.054187278098820346   0.011850591613733016
-0.9757242124796759   0.054187278098820346   0.011850591613733016
-0.9757242124796759   0.054187278098820346   0.011850591613733016
-0.9757242124796759   0.054187278098820346   0.011850591613733016
-1.4915651420681082   -0.12057643974461993   -0.021258190368521883
-1.4915651420681082   -0.12057643974461993   -0.021258190368521883
-1.4915651420681082   -0.12057643974461993   -0.021258190368521883
-1.4915651420681082   -0.12057643974461993   -0.021258190368521883
-1.0038934088580456   -0.11136177507391713   0.03655366289461831
-1.0038934088580456   -0.11136177507391713   0.03655366289461831
-1.0038934088580456   -0.11136177507391713   0.03655366289461831
-1.0038934088580456   -0.11136177507391713   0.03655366289461831
-2.082574163292445   -0.17841989934067565   -0.04433534477097768
-2.082574163292445   -0.17841989934067565   -0.04433534477097768
-2.082574163292445   -0.17841989934067565   -0.04433534477097768
-2.082574163292445   -0.17841989934067565   -0.04433534477097768
-2.1881100912209033   -0.37562869575391367   -0.03774109648382454
-2.1881100912209033   -0.37562869575391367   -0.03774109648382454
-2.1881100912209033   -0.37562869575391367   -0.03774109648382454
-2.1881100912209033   -0.37562869575391367   -0.03774109648382454
-1.0320870017153456   0.024847462965142453   0.014205361421419788
-1.0320870017153456   0.024847462965142453   0.014205361421419788
-1.0320870017153456   0.024847462965142453   0.014205361421419788
-1.0320870017153456   0.024847462965142453   0.014205361421419788
-1.5643343655266297   -0.14898760970422037   -0.034479129343261625
-1.5643343655266297   -0.14898760970422037   -0.034479129343261625
-1.5643343655266297   -0.14898760970422037   -0.034479129343261625
-1.5643343655266297   -0.14898760970422037   -0.034479129343261625
-1.8914565433803834   0.08971325499659799   0.0646985224078453
-1.8914565433803834   0.08971325499659799   0.0646985224078453
-1.8914565433803834   0.08971325499659799   0.0646985224078453
-1.8914565433803834   0.08971325499659799   0.0646985224078453
-2.9331130263667498   -0.1461724379020991   -0.03968412879276842
-2.9331130263667498   -0.1461724379020991   -0.03968412879276842
-2.9331130263667498   -0.1461724379020991   -0.03968412879276842
-2.9331130263667498   -0.1461724379020991   -0.03968412879276842
-3.0057076492595973   -0.14882239472193165   0.06648714058733556
-3.0057076492595973   -0.14882239472193165   0.06648714058733556
-3.0057076492595973   -0.14882239472193165   0.06648714058733556
-3.0057076492595973   -0.14882239472193165   0.06648714058733556
-1.9653938989744462   0.06063805391430155   -0.015973490861912742
-1.9653938989744462   0.06063805391430155   -0.015973490861912742
-1.9653938989744462   0.06063805391430155   -0.015973490861912742
-1.9653938989744462   0.06063805391430155   -0.015973490861912742
-2.334813228011797   0.001874643118245034   0.05920451140192151
-2.334813228011797   0.001874643118245034   0.05920451140192151
-2.334813228011797   0.001874643118245034   0.05920451140192151
-2.334813228011797   0.001874643118245034   0.05920451140192151
-1.9447237860550513   0.06639997944281789   0.08161514820653708
-1.9447237860550513   0.06639997944281789   0.08161514820653708
-1.9447237860550513   0.06639997944281789   0.08161514820653708
-1.9447237860550513   0.06639997944281789   0.08161514820653708
-3.0250312971452584   -0.15323785521672617   -0.025715638346177266
-3.0250312971452584   -0.15323785521672617   -0.025715638346177266
-3.0250312971452584   -0.15323785521672617   -0.025715638346177266
-3.0250312971452584   -0.15323785521672617   -0.025715638346177266
-3.097399717518769   -0.17370895431394928   0.09039008367544576
-3.097399717518769   -0.17370895431394928   0.09039008367544576
-3.097399717518769   -0.17370895431394928   0.09039008367544576
-3.097399717518769   -0.17370895431394928   0.09039008367544576
-2.032612417322389   0.04373564148486003   -0.016682155746247457
-2.032612417322389   0.04373564148486003   -0.016682155746247457
-2.032612417322389   0.04373564148486003   -0.016682155746247457
-2.032612417322389   0.04373564148486003   -0.016682155746247457
-2.4528736387664947   -0.02727684107775652   0.03218576947250426
-2.4528736387664947   -0.02727684107775652   0.03218576947250426
-2.4528736387664947   -0.02727684107775652   0.03218576947250426
-2.4528736387664947   -0.02727684107775652   0.03218576947250426
-2.013720229031831   0.04104317673885782   0.08047125045254344
-2.013720229031831   0.04104317673885782   0.08047125045254344
-2.013720229031831   0.04104317673885782   0.08047125045254344
-2.013720229031831   0.04104317673885782   0.08047125045254344
-3.119849272465428   -0.1745738562240592   -0.02099278914774233
-3.119849272465428   -0.1745738562240592   -0.02099278914774233
-3.119849272465428   -0.1745738562240592   -0.02099278914774233
-3.119849272465428   -0.1745738562240592   -0.02099278914774233
-3.2276923731821983   -0.27393745910891215   0.07861705471093998
-3.2276923731821983   -0.27393745910891215   0.07861705471093998
-3.2276923731821983   -0.27393745910891215   0.07861705471093998
-3.2276923731821983   -0.27393745910891215   0.07861705471093998
-2.1101092392033443   -0.0076726267207974375   -0.015692905429183446
-2.1101092392033443   -0.0076726267207974375   -0.015692905429183446
-2.1101092392033443   -0.0076726267207974375   -0.015692905429183446
-2.1101092392033443   -0.0076726267207974375   -0.015692905429183446
-2.5034993836827337   -0.06392044418888693   0.008328639886052827
-2.5034993836827337   -0.06392044418888693   0.008328639886052827
-2.5034993836827337   -0.06392044418888693   0.008328639886052827
-2.5034993836827337   -0.06392044418888693   0.008328639886052827
1.9363314176628728   0.10337829465703807   -0.06938211232935992
1.9363314176628728   0.10337829465703807   -0.06938211232935992
1.9363314176628728   0.10337829465703807   -0.06938211232935992
1.9363314176628728   0.10337829465703807   -0.06938211232935992
0.9604828708423444   -0.0006006424220298678   0.025238822897867906
0.9604828708423444   -0.0006006424220298678   0.025238822897867906
0.9604828708423444   -0.0006006424220298678   0.025238822897867906
0.9604828708423444   -0.0006006424220298678   0.025238822897867906
0.8774618934045466   -0.143323745470676   -0.06356909534302667
0.8774618934045466   -0.143323745470676   -0.06356909534302667
0.8774618934045466   -0.143323745470676   -0.06356909534302667
0.8774618934045466   -0.143323745470676   -0.06356909534302667
1.89967636691391   0.15675534098472027   0.03164014741160229
1.89967636691391   0.15675534098472027   0.03164014741160229
1.89967636691391   0.15675534098472027   0.03164014741160229
1.89967636691391   0.15675534098472027   0.03164014741160229
1.3451542666354797   0.011899143931177747   -0.04425970525798299
1.3451542666354797   0.011899143931177747   -0.04425970525798299
1.3451542666354797   0.011899143931177747   -0.04425970525798299
1.3451542666354797   0.011899143931177747   -0.04425970525798299
1.859109533406044   0.05235988814135878   -0.06679856728435034
1.859109533406044   0.05235988814135878   -0.06679856728435034
1.859109533406044   0.05235988814135878   -0.06679856728435034
1.859109533406044   0.05235988814135878   -0.06679856728435034
0.9162826595688476   -0.040674359970879675   0.027885349978665014
0.9162826595688476   -0.040674359970879675   0.027885349978665014
0.9162826595688476   -0.040674359970879675   0.027885349978665014
0.9162826595688476   -0.040674359970879675   0.027885349978665014
0.8359347640736295   -0.15534549986997293   -0.055235670349375876
0.8359347640736295   -0.15534549986997293   -0.055235670349375876
0.8359347640736295   -0.15534549986997293   -0.055235670349375876
0.8359347640736295   -0.15534549986997293   -0.055235670349375876
1.837549910447803   0.140249735257241   0.04320851953795529
1.837549910447803   0.140249735257241   0.04320851953795529
1.837549910447803   0.140249735257241   0.04320851953795529
1.837549910447803   0.140249735257241   0.04320851953795529
1.312530147920952   -0.009728009057462406   -0.058252880817033795
1.312530147920952   -0.009728009057462406   -0.058252880817033795
1.312530147920952   -0.009728009057462406   -0.058252880817033795
1.312530147920952   -0.009728009057462406   -0.058252880817033795
1.7978573138249117   0.03757099873859371   -0.05257572705782462
1.7978573138249117   0.03757099873859371   -0.05257572705782462
1.7978573138249117   0.03757099873859371   -0.05257572705782462
1.7978573138249117   0.03757099873859371   -0.05257572705782462
0.8740673198836445   -0.05422680416419834   0.034308412994917215
0.8740673198836445   -0.05422680416419834   0.034308412994917215
0.8740673198836445   -0.05422680416419834   0.034308412994917215
0.8740673198836445   -0.05422680416419834   0.034308412994917215
0.7979989363738841   -0.1590211134434377   -0.045118388026752124
0.7979989363738841   -0.1590211134434377   -0.045118388026752124
0.7979989363738841   -0.1590211134434377   -0.045118388026752124
0.7979989363738841   -0.1590211134434377   -0.045118388026752124
1.767511793655246   0.12569447408395495   0.053722931350329545
1.767511793655246   0.12569447408395495   0.053722931350329545
1.767511793655246   0.12569447408395495   0.053722931350329545
1.767511793655246   0.12569447408395495   0.053722931350329545
1.2369151213043441   -0.024657532254242776   -0.07916986424288089
1.2369151213043441   -0.024657532254242776   -0.07916986424288089
1.2369151213043441   -0.024657532254242776   -0.07916986424288089
1.2369151213043441   -0.024657532254242776   -0.07916986424288089
0.9767929037741069   0.10102207442469147   0.00516627070995887
0.9767929037741069   0.10102207442469147   0.00516627070995887
0.9767929037741069   0.10102207442469147   0.00516627070995887
0.9767929037741069   0.10102207442469147   0.00516627070995887
0.0342211594248889   -0.0317287604291412   -0.0038828040478586824
0.0342211594248889   -0.0317287604291412   -0.0038828040478586824
0.0342211594248889   -0.0317287604291412   -0.0038828040478586824
0.0342211594248889   -0.0317287604291412   -0.0038828040478586824
-0.028351855348139166   -0.12909180058460157   -0.04319969489975195
-0.028351855348139166   -0.12909180058460157   -0.04319969489975195
-0.028351855348139166   -0.12909180058460157   -0.04319969489975195
-0.028351855348139166   -0.12909180058460157   -0.04319969489975195
0.957857908740412   0.1418777307530999   0.05320950511250738
0.957857908740412   0.1418777307530999   0.05320950511250738
0.957857908740412   0.1418777307530999   0.05320950511250738
0.957857908740412   0.1418777307530999   0.05320950511250738
0.47757525250163413   0.020204565012353154   -0.005508020126969389
0.47757525250163413   0.020204565012353154   -0.005508020126969389
0.47757525250163413   0.020204565012353154   -0.005508020126969389
0.47757525250163413   0.020204565012353154   -0.005508020126969389
0.9358963423733415   0.07454471562141368   0.01073468840884384
0.9358963423733415   0.07454471562141368   0.01073468840884384
0.9358963423733415   0.07454471562141368   0.01073468840884384
0.9358963423733415   0.07454471562141368   0.01073468840884384
-0.006003318643664095   -0.06137181511551034   0.0008230031535321758
-0.006003318643664095   -0.06137181511551034   0.0008230031535321758
-0.006003318643664095   -0.06137181511551034   0.0008230031535321758
-0.006003318643664095   -0.06137181511551034   0.0008230031535321758
-0.06769162219967317   -0.1485374575428736   -0.037322623745667215
-0.06769162219967317   -0.1485374575428736   -0.037322623745667215
-0.06769162219967317   -0.1485374575428736   -0.037322623745667215
-0.06769162219967317   -0.1485374575428736   -0.037322623745667215
0.9132966216106572   0.11733758590381618   0.05889053156196611
0.9132966216106572   0.11733758590381618   0.05889053156196611
0.9132966216106572   0.11733758590381618   0.05889053156196611
0.9132966216106572   0.11733758590381618   0.05889053156196611
0.42956122652962353   -0.003964878021744472   -0.01924816732086189
0.42956122652962353   -0.003964878021744472   -0.01924816732086189
0.42956122652962353   -0.003964878021744472   -0.01924816732086189
0.42956122652962353   -0.003964878021744472   -0.01924816732086189
0.8921542865287085   0.05416628113595462   0.016350160920091977
0.8921542865287085   0.05416628113595462   0.016350160920091977
0.8921542865287085   0.05416628113595462   0.016350160920091977
0.8921542865287085   0.05416628113595462   0.016350160920091977
-0.04651031640516127   -0.08532718206244749   0.00537362974646621
-0.04651031640516127   -0.08532718206244749   0.00537362974646621
-0.04651031640516127   -0.08532718206244749   0.00537362974646621
-0.04651031640516127   -0.08532718206244749   0.00537362974646621
-0.10663881521734885   -0.16029178233733973   -0.029653990043587406
-0.10663881521734885   -0.16029178233733973   -0.029653990043587406
-0.10663881521734885   -0.16029178233733973   -0.029653990043587406
-0.10663881521734885   -0.16029178233733973   -0.029653990043587406
0.8709162232143588   0.09660281519856061   0.06384411753361187
0.8709162232143588   0.09660281519856061   0.06384411753361187
0.8709162232143588   0.09660281519856061   0.06384411753361187
0.8709162232143588   0.09660281519856061   0.06384411753361187
0.3939969512490797   -0.019478246917431552   -0.029393548873491777
0.3939969512490797   -0.019478246917431552   -0.029393548873491777
0.3939969512490797   -0.019478246917431552   -0.029393548873491777
0.3939969512490797   -0.019478246917431552   -0.029393548873491777
0.06616982740320333   0.10217397803927947   0.021957797375292756
0.06616982740320333   0.10217397803927947   0.021957797375292756
0.06616982740320333   0.10217397803927947   0.021957797375292756
0.06616982740320333   0.10217397803927947   0.021957797375292756
-0.8631927858906705   -0.05569188070752548   -0.02972294075398041
-0.8631927858906705   -0.05569188070752548   -0.02972294075398041
-0.8631927858906705   -0.05569188070752548   -0.02972294075398041
-0.8631927858906705   -0.05569188070752548   -0.02972294075398041
-0.9120131548122741   -0.11819347489697068   -0.02726067249762828
-0.9120131548122741   -0.11819347489697068   -0.02726067249762828
-0.9120131548122741   -0.11819347489697068   -0.02726067249762828
-0.9120131548122741   -0.11819347489697068   -0.02726067249762828
0.034487858947999536   0.11615899004479026   0.02574808595154974
0.034487858947999536   0.11615899004479026   0.02574808595154974
0.034487858947999536   0.11615899004479026   0.02574808595154974
0.034487858947999536   0.11615899004479026   0.02574808595154974
-0.4181152945873708   0.013100271940657479   0.0015656211335096197
-0.4181152945873708   0.013100271940657479   0.0015656211335096197
-0.4181152945873708   0.013100271940657479   0.0015656211335096197
-0.4181152945873708   0.013100271940657479   0.0015656211335096197
0.02778062715632725   0.0807429995032258   0.027627917534752744
0.02778062715632725   0.0807429995032258   0.027627917534752744
0.02778062715632725   0.0807429995032258   0.027627917534752744
0.02778062715632725   0.0807429995032258   0.027627917534752744
-0.9042348019281995   -0.08170636326300376   -0.024856019711221373
-0.9042348019281995   -0.08170636326300376   -0.024856019711221373
-0.9042348019281995   -0.08170636326300376   -0.024856019711221373
-0.9042348019281995   -0.08170636326300376   -0.024856019711221373
-0.9542349342006727   -0.13956456731753947   -0.022601921813738286
-0.9542349342006727   -0.13956456731753947   -0.022601921813738286
-0.9542349342006727   -0.13956456731753947   -0.022601921813738286
-0.9542349342006727   -0.13956456731753947   -0.022601921813738286
-0.006084588635869127   0.09091164529357182   0.0312634412369076
-0.006084588635869127   0.09091164529357182   0.0312634412369076
-0.006084588635869127   0.09091164529357182   0.0312634412369076
-0.006084588635869127   0.09091164529357182   0.0312634412369076
-0.4585627518225638   -0.007791102833588512   -0.008774127302053323
-0.4585627518225638   -0.007791102833588512   -0.008774127302053323
-0.4585627518225638   -0.007791102833588512   -0.008774127302053323
-0.4585627518225638   -0.007791102833588512   -0.008774127302053323
-0.0118176362264387   0.060117705296307486   0.03339214328132406
-0.0118176362264387   0.060117705296307486   0.03339214328132406
-0.0118176362264387   0.060117705296307486   0.03339214328132406
-0.0118176362264387   0.060117705296307486   0.03339214328132406
-0.9475789252039238   -0.10784766591410488   -0.021038778233421387
-0.9475789252039238   -0.10784766591410488   -0.021038778233421387
-0.9475789252039238   -0.10784766591410488   -0.021038778233421387
-0.9475789252039238   -0.10784766591410488   -0.021038778233421387
-0.9961764040922937   -0.15639421787184749   -0.014860855221367802
-0.9961764040922937   -0.15639421787184749   -0.014860855221367802
-0.9961764040922937   -0.15639421787184749   -0.014860855221367802
-0.9961764040922937   -0.15639421787184749   -0.014860855221367802
-0.04811535983283219   0.06712787255686216   0.035543631984793954
-0.04811535983283219   0.06712787255686216   0.035543631984793954
-0.04811535983283219   0.06712787255686216   0.035543631984793954
-0.04811535983283219   0.06712787255686216   0.035543631984793954
-0.502081643112655   -0.029039461347604295   -0.020066246731743
-0.502081643112655   -0.029039461347604295   -0.020066246731743
-0.502081643112655   -0.029039461347604295   -0.020066246731743
-0.502081643112655   -0.029039461347604295   -0.020066246731743
-0.8138756678554055   0.12097104070140965   0.04019972801342073
-0.8138756678554055   0.12097104070140965   0.04019972801342073
-0.8138756678554055   0.12097104070140965   0.04019972801342073
-0.8138756678554055   0.12097104070140965   0.04019972801342073
-1.7304481468388144   -0.07665019526819361   -0.04875308257430738
-1.7304481468388144   -0.07665019526819361   -0.04875308257430738
-1.7304481468388144   -0.07665019526819361   -0.04875308257430738
-1.7304481468388144   -0.07665019526819361   -0.04875308257430738
-1.768524178806455   -0.09446373996647961   -0.007619905604470734
-1.768524178806455   -0.09446373996647961   -0.007619905604470734
-1.768524178806455   -0.09446373996647961   -0.007619905604470734
-1.768524178806455   -0.09446373996647961   -0.007619905604470734
-0.8656666273946861   0.08779818550552287   -0.0015196958121738574
-0.8656666273946861   0.08779818550552287   -0.0015196958121738574
-0.8656666273946861   0.08779818550552287   -0.0015196958121738574
-0.8656666273946861   0.08779818550552287   -0.0015196958121738574
-1.285282799722984   0.013417652311614792   0.009347219048283936
-1.285282799722984   0.013417652311614792   0.009347219048283936
-1.285282799722984   0.013417652311614792   0.009347219048283936
-1.285282799722984   0.013417652311614792   0.009347219048283936
-0.8541017349799485   0.0989711002276028   0.045131851539435025
-0.8541017349799485   0.0989711002276028   0.045131851539435025
-0.8541017349799485   0.0989711002276028   0.045131851539435025
-0.8541017349799485   0.0989711002276028   0.045131851539435025
-1.7786254984547931   -0.10417308192216368   -0.048417161890499896
-1.7786254984547931   -0.10417308192216368   -0.048417161890499896
-1.7786254984547931   -0.10417308192216368   -0.048417161890499896
-1.7786254984547931   -0.10417308192216368   -0.048417161890499896
-1.8205275360819488   -0.11848538177438245   -0.006709384150008005
-1.8205275360819488   -0.11848538177438245   -0.006709384150008005
-1.8205275360819488   -0.11848538177438245   -0.006709384150008005
-1.8205275360819488   -0.11848538177438245   -0.006709384150008005
-0.9083812205252736   0.06370509168646618   0.0033969875592585602
-0.9083812205252736   0.06370509168646618   0.0033969875592585602
-0.9083812205252736   0.06370509168646618   0.0033969875592585602
-0.9083812205252736   0.06370509168646618   0.0033969875592585602
-1.3217473130568265   -0.005724938664298018   0.0008602291658443284
-1.3217473130568265   -0.005724938664298018   0.0008602291658443284
-1.3217473130568265   -0.005724938664298018   0.0008602291658443284
-1.3217473130568265   -0.005724938664298018   0.0008602291658443284
-0.8957197983483852   0.07824990052364672   0.05215928960651271
-0.8957197983483852   0.07824990052364672   0.05215928960651271
-0.8957197983483852   0.07824990052364672   0.05215928960651271
-0.8957197983483852   0.07824990052364672   0.05215928960651271
-1.8302283496102112   -0.1300695819629305   -0.043629251602787286
-1.8302283496102112   -0.1300695819629305   -0.043629251602787286
-1.8302283496102112   -0.1300695819629305   -0.043629251602787286
-1.8302283496102112   -0.1300695819629305   -0.043629251602787286
-1.8684223025316962   -0.1441925708672398   0.005340493075859265
-1.8684223025316962   -0.1441925708672398   0.005340493075859265
-1.8684223025316962   -0.1441925708672398   0.005340493075859265
-1.8684223025316962   -0.1441925708672398   0.005340493075859265
-0.9536465145393019   0.03506428132453196   0.0063300933472303575
-0.9536465145393019   0.03506428132453196   0.0063300933472303575
-0.9536465145393019   0.03506428132453196   0.0063300933472303575
-0.9536465145393019   0.03506428132453196   0.0063300933472303575
-1.3785154539456779   -0.03251729976542911   -0.010522775664640605
-1.3785154539456779   -0.03251729976542911   -0.010522775664640605
-1.3785154539456779   -0.03251729976542911   -0.010522775664640605
-1.3785154539456779   -0.03251729976542911   -0.010522775664640605
-1.6689181371670345   0.12587726649972847   0.05636950401665422
-1.6689181371670345   0.12587726649972847   0.05636950401665422
-1.6689181371670345   0.12587726649972847   0.05636950401665422
-1.6689181371670345   0.12587726649972847   0.05636950401665422
-2.5540425668589313   -0.11808344307575414   -0.04512456662045808
-2.5540425668589313   -0.11808344307575414   -0.04512456662045808
-2.5540425668589313   -0.11808344307575414   -0.04512456662045808
-2.5540425668589313   -0.11808344307575414   -0.04512456662045808
-2.5893671493633055   -0.05135624078482526   0.04802828603137435
-2.5893671493633055   -0.05135624078482526   0.04802828603137435
-2.5893671493633055   -0.05135624078482526   0.04802828603137435
-2.5893671493633055   -0.05135624078482526   0.04802828603137435
-1.7427284585138934   0.052311718122951156   -0.025416762231094236
-1.7427284585138934   0.052311718122951156   -0.025416762231094236
-1.7427284585138934   0.052311718122951156   -0.025416762231094236
-1.7427284585138934   0.052311718122951156   -0.025416762231094236
-2.044296075750039   0.02630426077771686   0.0468619677268067
-2.044296075750039   0.02630426077771686   0.0468619677268067
-2.044296075750039   0.02630426077771686   0.0468619677268067
-2.044296075750039   0.02630426077771686   0.0468619677268067
-1.709562518740612   0.12795329923758114   0.06477135552065127
-1.709562518740612   0.12795329923758114   0.06477135552065127
-1.709562518740612   0.12795329923758114   0.06477135552065127
-1.709562518740612   0.12795329923758114   0.06477135552065127
-2.620574287209183   -0.12503901997203903   -0.03432462401075509
-2.620574287209183   -0.12503901997203903   -0.03432462401075509
-2.620574287209183   -0.12503901997203903   -0.03432462401075509
-2.620574287209183   -0.12503901997203903   -0.03432462401075509
-2.6539460118554064   -0.06392171700154037   0.06636464635483025
-2.6539460118554064   -0.06392171700154037   0.06636464635483025
-2.6539460118554064   -0.06392171700154037   0.06636464635483025
-2.6539460118554064   -0.06392171700154037   0.06636464635483025
-1.7923218407678936   0.03846293717881061   -0.022629226532923596
-1.7923218407678936   0.03846293717881061   -0.022629226532923596
-1.7923218407678936   0.03846293717881061   -0.022629226532923596
-1.7923218407678936   0.03846293717881061   -0.022629226532923596
-2.1329044720715307   0.012954431985087833   0.029996166173307706
-2.1329044720715307   0.012954431985087833   0.029996166173307706
-2.1329044720715307   0.012954431985087833   0.029996166173307706
-2.1329044720715307   0.012954431985087833   0.029996166173307706
-1.7556934188150173   0.11854253034802098   0.0804332900622472
-1.7556934188150173   0.11854253034802098   0.0804332900622472
-1.7556934188150173   0.11854253034802098   0.0804332900622472
-1.7556934188150173   0.11854253034802098   0.0804332900622472
-2.688687191444974   -0.14211406780743407   -0.0291489007870665
-2.688687191444974   -0.14211406780743407   -0.0291489007870665
-2.688687191444974   -0.14211406780743407   -0.0291489007870665
-2.688687191444974   -0.14211406780743407   -0.0291489007870665
-2.7415283866828357   -0.11760483675014755   0.0660651919035577
-2.7415283866828357   -0.11760483675014755   0.0660651919035577
-2.7415283866828357   -0.11760483675014755   0.0660651919035577
-2.7415283866828357   -0.11760483675014755   0.0660651919035577
-1.8454804114157157   -0.0028973955334808954   -0.02124522667799747
-1.8454804114157157   -0.0028973955334808954   -0.02124522667799747
-1.8454804114157157   -0.0028973955334808954   -0.02124522667799747
-1.8454804114157157   -0.0028973955334808954   -0.02124522667799747
-2.1590183844832427   -0.006186608948239358   0.024342211758273197
-2.1590183844832427   -0.006186608948239358   0.024342211758273197
-2.1590183844832427   -0.006186608948239358   0.024342211758273197
-2.1590183844832427   -0.006186608948239358   0.024342211758273197
1.4653041702270038   0.08124873005289981   -0.07033561411214306
1.4653041702270038   0.08124873005289981   -0.07033561411214306
1.4653041702270038   0.08124873005289981   -0.07033561411214306
1.4653041702270038   0.08124873005289981   -0.07033561411214306
0.6972007741526055   0.014341746089063329   0.026902255803017437
0.6972007741526055   0.014341746089063329   0.026902255803017437
0.6972007741526055   0.014341746089063329   0.026902255803017437
0.6972007741526055   0.014341746089063329   0.026902255803017437
0.6190152923063192   -0.11905397529595502   -0.06674535938412214
0.6190152923063192   -0.11905397529595502   -0.06674535938412214
0.6190152923063192   -0.11905397529595502   -0.06674535938412214
0.6190152923063192   -0.11905397529595502   -0.06674535938412214
1.4333434362695634   0.13487649731738913   0.033253729287321
1.4333434362695634   0.13487649731738913   0.033253729287321
1.4333434362695634   0.13487649731738913   0.033253729287321
1.4333434362695634   0.13487649731738913   0.033253729287321
0.9992962235334786   0.013528721130219967   -0.02954000371545739
0.9992962235334786   0.013528721130219967   -0.02954000371545739
0.9992962235334786   0.013528721130219967   -0.02954000371545739
0.9992962235334786   0.013528721130219967   -0.02954000371545739
1.393613942308625   0.035926148284455395   -0.06644339148443704
1.393613942308625   0.035926148284455395   -0.06644339148443704
1.393613942308625   0.035926148284455395   -0.06644339148443704
1.393613942308625   0.035926148284455395   -0.06644339148443704
0.6579591159272277   -0.020889296603042007   0.02980908002750094
0.6579591159272277   -0.020889296603042007   0.02980908002750094
0.6579591159272277   -0.020889296603042007   0.02980908002750094
0.6579591159272277   -0.020889296603042007   0.02980908002750094
0.5824724269426157   -0.13078732318945918   -0.05689928919029688
0.5824724269426157   -0.13078732318945918   -0.05689928919029688
0.5824724269426157   -0.13078732318945918   -0.05689928919029688
0.5824724269426157   -0.13078732318945918   -0.05689928919029688
1.3765276358087577   0.11811855295996607   0.043690399580433185
1.3765276358087577   0.11811855295996607   0.043690399580433185
1.3765276358087577   0.11811855295996607   0.043690399580433185
1.3765276358087577   0.11811855295996607   0.043690399580433185
0.9664669922956302   -0.006784929564842723   -0.04158278671410108
0.9664669922956302   -0.006784929564842723   -0.04158278671410108
0.9664669922956302   -0.006784929564842723   -0.04158278671410108
0.9664669922956302   -0.006784929564842723   -0.04158278671410108
1.3377341967403524   0.02101103337318716   -0.05316927617480163
1.3377341967403524   0.02101103337318716   -0.05316927617480163
1.3377341967403524   0.02101103337318716   -0.05316927617480163
1.3377341967403524   0.02101103337318716   -0.05316927617480163
0.6202808740037593   -0.03466479560994079   0.03602041853589725
0.6202808740037593   -0.03466479560994079   0.03602041853589725
0.6202808740037593   -0.03466479560994079   0.03602041853589725
0.6202808740037593   -0.03466479560994079   0.03602041853589725
0.5495218933095694   -0.13812411932568555   -0.04738013535219604
0.5495218933095694   -0.13812411932568555   -0.04738013535219604
0.5495218933095694   -0.13812411932568555   -0.04738013535219604
0.5495218933095694   -0.13812411932568555   -0.04738013535219604
1.3124729097623857   0.09989616146915492   0.051863315368105484
1.3124729097623857   0.09989616146915492   0.051863315368105484
1.3124729097623857   0.09989616146915492   0.051863315368105484
1.3124729097623857   0.09989616146915492   0.051863315368105484
0.9019324972730226   -0.022173356987372245   -0.059340356816197
0.9019324972730226   -0.022173356987372245   -0.059340356816197
0.9019324972730226   -0.022173356987372245   -0.059340356816197
0.9019324972730226   -0.022173356987372245   -0.059340356816197
0.7086871780016682   0.10306350693605645   -0.004387485798649685
0.7086871780016682   0.10306350693605645   -0.004387485798649685
0.7086871780016682   0.10306350693605645   -0.004387485798649685
0.7086871780016682   0.10306350693605645   -0.004387485798649685
-0.04591032467373118   -0.009793516465088989   -0.0002600527024373396
-0.04591032467373118   -0.009793516465088989   -0.0002600527024373396
-0.04591032467373118   -0.009793516465088989   -0.0002600527024373396
-0.04591032467373118   -0.009793516465088989   -0.0002600527024373396
-0.10098535255754333   -0.08900884729239167   -0.04238012381699522
-0.10098535255754333   -0.08900884729239167   -0.04238012381699522
-0.10098535255754333   -0.08900884729239167   -0.04238012381699522
-0.10098535255754333   -0.08900884729239167   -0.04238012381699522
0.6901085087500799   0.1225427450283503   0.04712400251036971
0.6901085087500799   0.1225427450283503   0.04712400251036971
0.6901085087500799   0.1225427450283503   0.04712400251036971
0.6901085087500799   0.1225427450283503   0.04712400251036971
0.30815751656249785   0.030286357723884973   0.0021703035884569916
0.30815751656249785   0.030286357723884973   0.0021703035884569916
0.30815751656249785   0.030286357723884973   0.0021703035884569916
0.30815751656249785   0.030286357723884973   0.0021703035884569916
0.6714246041697012   0.07433217811985281   0.0019150465169826027
0.6714246041697012   0.07433217811985281   0.0019150465169826027
0.6714246041697012   0.07433217811985281   0.0019150465169826027
0.6714246041697012   0.07433217811985281   0.0019150465169826027
-0.08197961203564147   -0.040476444442369516   0.004116175942491902
-0.08197961203564147   -0.040476444442369516   0.004116175942491902
-0.08197961203564147   -0.040476444442369516   0.004116175942491902
-0.08197961203564147   -0.040476444442369516   0.004116175942491902
-0.1354095980624239   -0.11118598154647583   -0.035021086016412885
-0.1354095980624239   -0.11118598154647583   -0.035021086016412885
-0.1354095980624239   -0.11118598154647583   -0.035021086016412885
-0.1354095980624239   -0.11118598154647583   -0.035021086016412885
0.6495335826395703   0.09609777784536118   0.05152138825965008
0.6495335826395703   0.09609777784536118   0.05152138825965008
0.6495335826395703   0.09609777784536118   0.05152138825965008
0.6495335826395703   0.09609777784536118   0.05152138825965008
0.2657670638557935   0.004148385854595142   -0.01095607663199622
0.2657670638557935   0.004148385854595142   -0.01095607663199622
0.2657670638557935   0.004148385854595142   -0.01095607663199622
0.2657670638557935   0.004148385854595142   -0.01095607663199622
0.6314665174429409   0.050541855651878076   0.006741984469991774
0.6314665174429409   0.050541855651878076   0.006741984469991774
0.6314665174429409   0.050541855651878076   0.006741984469991774
0.6314665174429409   0.050541855651878076   0.006741984469991774
-0.11760124497321425   -0.06588877146041153   0.008723469343571044
-0.11760124497321425   -0.06588877146041153   0.008723469343571044
-0.11760124497321425   -0.06588877146041153   0.008723469343571044
-0.11760124497321425   -0.06588877146041153   0.008723469343571044
-0.16938867630944066   -0.12984823893468928   -0.028106253608838023
-0.16938867630944066   -0.12984823893468928   -0.028106253608838023
-0.16938867630944066   -0.12984823893468928   -0.028106253608838023
-0.16938867630944066   -0.12984823893468928   -0.028106253608838023
0.612072046247128   0.07161241491945922   0.05563409509045098
0.612072046247128   0.07161241491945922   0.05563409509045098
0.612072046247128   0.07161241491945922   0.05563409509045098
0.612072046247128   0.07161241491945922   0.05563409509045098
0.23320070095688425   -0.015708492754609157   -0.021906406726972857
0.23320070095688425   -0.015708492754609157   -0.021906406726972857
0.23320070095688425   -0.015708492754609157   -0.021906406726972857
0.23320070095688425   -0.015708492754609157   -0.021906406726972857
-0.01585790627402657   0.12313448994400918   0.01707403288698753
-0.01585790627402657   0.12313448994400918   0.01707403288698753
-0.01585790627402657   0.12313448994400918   0.01707403288698753
-0.01585790627402657   0.12313448994400918   0.01707403288698753
-0.773171435763442   -0.033316905768469324   -0.025647976764008942
-0.773171435763442   -0.033316905768469324   -0.025647976764008942
-0.773171435763442   -0.033316905768469324   -0.025647976764008942
-0.773171435763442   -0.033316905768469324   -0.025647976764008942
-0.8086710819631107   -0.06162339593034816   -0.020004903013032184
-0.8086710819631107   -0.06162339593034816   -0.020004903013032184
-0.8086710819631107   -0.06162339593034816   -0.020004903013032184
-0.8086710819631107   -0.06162339593034816   -0.020004903013032184
-0.05081001071222576   0.09897418727859954   0.02051355083860145
-0.05081001071222576   0.09897418727859954   0.02051355083860145
-0.05081001071222576   0.09897418727859954   0.02051355083860145
-0.05081001071222576   0.09897418727859954   0.02051355083860145
-0.41115254270692875   0.03201417639260734   0.008069613996324554
-0.41115254270692875   0.03201417639260734   0.008069613996324554
-0.41115254270692875   0.03201417639260734   0.008069613996324554
-0.41115254270692875   0.03201417639260734   0.008069613996324554
-0.050116778436782104   0.09889935439700652   0.02405454509741271
-0.050116778436782104   0.09889935439700652   0.02405454509741271
-0.050116778436782104   0.09889935439700652   0.02405454509741271
-0.050116778436782104   0.09889935439700652   0.02405454509741271
-0.8086978294717506   -0.06088207828195144   -0.020879958204628617
-0.8086978294717506   -0.06088207828195144   -0.020879958204628617
-0.8086978294717506   -0.06088207828195144   -0.020879958204628617
-0.8086978294717506   -0.06088207828195144   -0.020879958204628617
-0.8439304239759717   -0.08562602532859682   -0.013579076533894441
-0.8439304239759717   -0.08562602532859682   -0.013579076533894441
-0.8439304239759717   -0.08562602532859682   -0.013579076533894441
-0.8439304239759717   -0.08562602532859682   -0.013579076533894441
-0.08669626793612016   0.07174287451479958   0.02561670855383037
-0.08669626793612016   0.07174287451479958   0.02561670855383037
-0.08669626793612016   0.07174287451479958   0.02561670855383037
-0.08669626793612016   0.07174287451479958   0.02561670855383037
-0.4467746226541176   0.008350797547938993   -0.002587805181800209
-0.4467746226541176   0.008350797547938993   -0.002587805181800209
-0.4467746226541176   0.008350797547938993   -0.002587805181800209
-0.4467746226541176   0.008350797547938993   -0.002587805181800209
-0.0852932594405648   0.07474345666211044   0.02963116888429632
-0.0852932594405648   0.07474345666211044   0.02963116888429632
-0.0852932594405648   0.07474345666211044   0.02963116888429632
-0.0852932594405648   0.07474345666211044   0.02963116888429632
-0.8451347954327078   -0.0884279704370986   -0.016798988709072885
-0.8451347954327078   -0.0884279704370986   -0.016798988709072885
-0.8451347954327078   -0.0884279704370986   -0.016798988709072885
-0.8451347954327078   -0.0884279704370986   -0.016798988709072885
-0.8787799530851226   -0.10755798189159894   -0.007221047005159954
-0.8787799530851226   -0.10755798189159894   -0.007221047005159954
-0.8787799530851226   -0.10755798189159894   -0.007221047005159954
-0.8787799530851226   -0.10755798189159894   -0.007221047005159954
-0.12272519967114906   0.045405381626553484   0.029957509021377084
-0.12272519967114906   0.045405381626553484   0.029957509021377084
-0.12272519967114906   0.045405381626553484   0.029957509021377084
-0.12272519967114906   0.045405381626553484   0.029957509021377084
-0.4840245246252264   -0.015514275313652626   -0.014453253478458605
-0.4840245246252264   -0.015514275313652626   -0.014453253478458605
-0.4840245246252264   -0.015514275313652626   -0.014453253478458605
-0.4840245246252264   -0.015514275313652626   -0.014453253478458605
-0.725630498291024   0.14150992660178827   0.03722987822781165
-0.725630498291024   0.14150992660178827   0.03722987822781165
-0.725630498291024   0.14150992660178827   0.03722987822781165
-0.725630498291024   0.14150992660178827   0.03722987822781165
-1.4835396577209052   -0.05732856060036756   -0.046288163725241
-1.4835396577209052   -0.05732856060036756   -0.046288163725241
-1.4835396577209052   -0.05732856060036756   -0.046288163725241
-1.4835396577209052   -0.05732856060036756   -0.046288163725241
-1.5029512218995729   -0.038478672853733076   0.004380606896433034
-1.5029512218995729   -0.038478672853733076   0.004380606896433034
-1.5029512218995729   -0.038478672853733076   0.004380606896433034
-1.5029512218995729   -0.038478672853733076   0.004380606896433034
-0.7793395762396101   0.07103954448306873   -0.006010314808934963
-0.7793395762396101   0.07103954448306873   -0.006010314808934963
-0.7793395762396101   0.07103954448306873   -0.006010314808934963
-0.7793395762396101   0.07103954448306873   -0.006010314808934963
-1.115585805105794   0.030620077863411532   0.013680394985911878
-1.115585805105794   0.030620077863411532   0.013680394985911878
-1.115585805105794   0.030620077863411532   0.013680394985911878
-1.115585805105794   0.030620077863411532   0.013680394985911878
-0.7599483403399512   0.11803571992782338   0.043949689244593707
-0.7599483403399512   0.11803571992782338   0.043949689244593707
-0.7599483403399512   0.11803571992782338   0.043949689244593707
-0.7599483403399512   0.11803571992782338   0.043949689244593707
-1.5221565146485507   -0.08528890514780874   -0.044835624554381476
-1.5221565146485507   -0.08528890514780874   -0.044835624554381476
-1.5221565146485507   -0.08528890514780874   -0.044835624554381476
-1.5221565146485507   -0.08528890514780874   -0.044835624554381476
-1.544005518440651   -0.06274049511365476   0.0067933514740310535
-1.544005518440651   -0.06274049511365476   0.0067933514740310535
-1.544005518440651   -0.06274049511365476   0.0067933514740310535
-1.544005518440651   -0.06274049511365476   0.0067933514740310535
-0.8150888571357205   0.045820400349840196   -0.0008176680110638934
-0.8150888571357205   0.045820400349840196   -0.0008176680110638934
-0.8150888571357205   0.045820400349840196   -0.0008176680110638934
-0.8150888571357205   0.045820400349840196   -0.0008176680110638934
-1.145751920638633   0.009487885971516397   0.0037554311721859496
-1.145751920638633   0.009487885971516397   0.0037554311721859496
-1.145751920638633   0.009487885971516397   0.0037554311721859496
-1.145751920638633   0.009487885971516397   0.0037554311721859496
-0.7948914267066804   0.09576802486260705   0.05022185962136967
-0.7948914267066804   0.09576802486260705   0.05022185962136967
-0.7948914267066804   0.09576802486260705   0.05022185962136967
-0.7948914267066804   0.09576802486260705   0.05022185962136967
-1.5631609529611052   -0.11164612371783594   -0.040078192524059836
-1.5631609529611052   -0.11164612371783594   -0.040078192524059836
-1.5631609529611052   -0.11164612371783594   -0.040078192524059836
-1.5631609529611052   -0.11164612371783594   -0.040078192524059836
-1.5812561987980842   -0.08884151583981834   0.014410791784261322
-1.5812561987980842   -0.08884151583981834   0.014410791784261322
-1.5812561987980842   -0.08884151583981834   0.014410791784261322
-1.5812561987980842   -0.08884151583981834   0.014410791784261322
-0.8518375909300163   0.016988946333242022   0.0029438355455338877
-0.8518375909300163   0.016988946333242022   0.0029438355455338877
-0.8518375909300163   0.016988946333242022   0.0029438355455338877
-0.8518375909300163   0.016988946333242022   0.0029438355455338877
-1.1915892497899696   -0.016967768654419846   -0.008827572947813792
-1.1915892497899696   -0.016967768654419846   -0.008827572947813792
-1.1915892497899696   -0.016967768654419846   -0.008827572947813792
-1.1915892497899696   -0.016967768654419846   -0.008827572947813792
-1.426902411654421   0.12690283540883485   0.052666670597976945
-1.426902411654421   0.12690283540883485   0.052666670597976945
-1.426902411654421   0.12690283540883485   0.052666670597976945
-1.426902411654421   0.12690283540883485   0.052666670597976945
-2.1585870779190586   -0.09953265363041086   -0.05114249935732727
-2.1585870779190586   -0.09953265363041086   -0.05114249935732727
-2.1585870779190586   -0.09953265363041086   -0.05114249935732727
-2.1585870779190586   -0.09953265363041086   -0.05114249935732727
-2.182769618971253   -0.020899811674850333   0.04856674923725757
-2.182769618971253   -0.020899811674850333   0.04856674923725757
-2.182769618971253   -0.020899811674850333   0.04856674923725757
-2.182769618971253   -0.020899811674850333   0.04856674923725757
-1.4950037078712384   0.03562897151633909   -0.029989467331966266
-1.4950037078712384   0.03562897151633909   -0.029989467331966266
-1.4950037078712384   0.03562897151633909   -0.029989467331966266
-1.4950037078712384   0.03562897151633909   -0.029989467331966266
-1.7355218485320028   0.028635236361984562   0.04242939005164925
-1.7355218485320028   0.028635236361984562   0.04242939005164925
-1.7355218485320028   0.028635236361984562   0.04242939005164925
-1.7355218485320028   0.028635236361984562   0.04242939005164925
-1.4584564217710014   0.12660388737904876   0.061772047306501654
-1.4584564217710014   0.12660388737904876   0.061772047306501654
-1.4584564217710014   0.12660388737904876   0.061772047306501654
-1.4584564217710014   0.12660388737904876   0.061772047306501654
-2.2186938024276315   -0.11125162489370044   -0.0407023548257706
-2.2186938024276315   -0.11125162489370044   -0.0407023548257706
-2.2186938024276315   -0.11125162489370044   -0.0407023548257706
-2.2186938024276315   -0.11125162489370044   -0.0407023548257706
-2.236498945384781   -0.03369477996696685   0.06075929235513754
-2.236498945384781   -0.03369477996696685   0.06075929235513754
-2.236498945384781   -0.03369477996696685   0.06075929235513754
-2.236498945384781   -0.03369477996696685   0.06075929235513754
-1.5335969688359832   0.021801282288350154   -0.02570567790463618
-1.5335969688359832   0.021801282288350154   -0.02570567790463618
-1.5335969688359832   0.021801282288350154   -0.02570567790463618
-1.5335969688359832   0.021801282288350154   -0.02570567790463618
-1.8104094332658671   0.014343891456158164   0.025715188882658488
-1.8104094332658671   0.014343891456158164   0.025715188882658488
-1.8104094332658671   0.014343891456158164   0.025715188882658488
-1.8104094332658671   0.014343891456158164   0.025715188882658488
-1.4948280204166913   0.11706301320972551   0.07287733327044871
-1.4948280204166913   0.11706301320972551   0.07287733327044871
-1.4948280204166913   0.11706301320972551   0.07287733327044871
-1.4948280204166913   0.11706301320972551   0.07287733327044871
-2.2742460334949524   -0.12793465057920922   -0.03373627758346409
-2.2742460334949524   -0.12793465057920922   -0.03373627758346409
-2.2742460334949524   -0.12793465057920922   -0.03373627758346409
-2.2742460334949524   -0.12793465057920922   -0.03373627758346409
-2.3074073137390823   -0.07909140937441173   0.05971160644071474
-2.3074073137390823   -0.07909140937441173   0.05971160644071474
-2.3074073137390823   -0.07909140937441173   0.05971160644071474
-2.3074073137390823   -0.07909140937441173   0.05971160644071474
-1.5743343926032347   -0.016531697810325374   -0.02328999527098362
-1.5743343926032347   -0.016531697810325374   -0.02328999527098362
-1.5743343926032347   -0.016531697810325374   -0.02328999527098362
-1.5743343926032347   -0.016531697810325374   -0.02328999527098362
-1.8299383791909296   -0.003393287731063399   0.020101312416617584
-1.8299383791909296   -0.003393287731063399   0.020101312416617584
-1.8299383791909296   -0.003393287731063399   0.020101312416617584
-1.8299383791909296   -0.003393287731063399   0.020101312416617584
1.00414809545651   0.05670690783487006   -0.06821925677179227
1.00414809545651   0.05670690783487006   -0.06821925677179227
1.00414809545651   0.05670690783487006   -0.06821925677179227
1.00414809545651   0.05670690783487006   -0.06821925677179227
0.42893304310951486   0.02774520926057436   0.029343436894245633
0.42893304310951486   0.02774520926057436   0.029343436894245633
0.42893304310951486   0.02774520926057436   0.029343436894245633
0.42893304310951486   0.02774520926057436   0.029343436894245633
0.3585687052493744   -0.09944551685750119   -0.0635816105669417
0.3585687052493744   -0.09944551685750119   -0.0635816105669417
0.3585687052493744   -0.09944551685750119   -0.0635816105669417
0.3585687052493744   -0.09944551685750119   -0.0635816105669417
0.9803988433067622   0.11431294916298652   0.03564402819520511
0.9803988433067622   0.11431294916298652   0.03564402819520511
0.9803988433067622   0.11431294916298652   0.03564402819520511
0.9803988433067622   0.11431294916298652   0.03564402819520511
0.6563029701572193   0.014572144772842355   -0.017938022377747775
0.6563029701572193   0.014572144772842355   -0.017938022377747775
0.6563029701572193   0.014572144772842355   -0.017938022377747775
0.6563029701572193   0.014572144772842355   -0.017938022377747775
0.9410966714925567   0.017054685134962028   -0.0636085668478078
0.9410966714925567   0.017054685134962028   -0.0636085668478078
0.9410966714925567   0.017054685134962028   -0.0636085668478078
0.9410966714925567   0.017054685134962028   -0.0636085668478078
0.3971330396660424   -0.0029250902270147455   0.03271963488591856
0.3971330396660424   -0.0029250902270147455   0.03271963488591856
0.3971330396660424   -0.0029250902270147455   0.03271963488591856
0.3971330396660424   -0.0029250902270147455   0.03271963488591856
0.3285784584128247   -0.11102833423568888   -0.05409485900190864
0.3285784584128247   -0.11102833423568888   -0.05409485900190864
0.3285784584128247   -0.11102833423568888   -0.05409485900190864
0.3285784584128247   -0.11102833423568888   -0.05409485900190864
0.9310689305404033   0.09788178113335229   0.045899992337569875
0.9310689305404033   0.09788178113335229   0.045899992337569875
0.9310689305404033   0.09788178113335229   0.045899992337569875
0.9310689305404033   0.09788178113335229   0.045899992337569875
0.6252129580946685   -0.004510980920422597   -0.029300757244479607
0.6252129580946685   -0.004510980920422597   -0.029300757244479607
0.6252129580946685   -0.004510980920422597   -0.029300757244479607
0.6252129580946685   -0.004510980920422597   -0.029300757244479607
0.8924207639968906   0.0022227390268136915   -0.05168179827346176
0.8924207639968906   0.0022227390268136915   -0.05168179827346176
0.8924207639968906   0.0022227390268136915   -0.05168179827346176
0.8924207639968906   0.0022227390268136915   -0.05168179827346176
0.3661419124636183   -0.016454004621870008   0.03914808163824342
0.3661419124636183   -0.016454004621870008   0.03914808163824342
0.3661419124636183   -0.016454004621870008   0.03914808163824342
0.3661419124636183   -0.016454004621870008   0.03914808163824342
0.30175906484916126   -0.12163486189762285   -0.045077956552558765
0.30175906484916126   -0.12163486189762285   -0.045077956552558765
0.30175906484916126   -0.12163486189762285   -0.045077956552558765
0.30175906484916126   -0.12163486189762285   -0.045077956552558765
0.8735030015218032   0.0762213549011455   0.05235781435891354
0.8735030015218032   0.0762213549011455   0.05235781435891354
0.8735030015218032   0.0762213549011455   0.05235781435891354
0.8735030015218032   0.0762213549011455   0.05235781435891354
0.5728643579632834   -0.02020187350707918   -0.04486113827498405
0.5728643579632834   -0.02020187350707918   -0.04486113827498405
0.5728643579632834   -0.02020187350707918   -0.04486113827498405
0.5728643579632834   -0.02020187350707918   -0.04486113827498405
0.43169321285528806   0.08329758379828185   -0.012408088914602346
0.43169321285528806   0.08329758379828185   -0.012408088914602346
0.43169321285528806   0.08329758379828185   -0.012408088914602346
0.43169321285528806   0.08329758379828185   -0.012408088914602346
-0.13297219983785713   0.00740985345590784   0.004048796120706388
-0.13297219983785713   0.00740985345590784   0.004048796120706388
-0.13297219983785713   0.00740985345590784   0.004048796120706388
-0.13297219983785713   0.00740985345590784   0.004048796120706388
-0.18107496488213684   -0.06894333926081991   -0.03912294530326466
-0.18107496488213684   -0.06894333926081991   -0.03912294530326466
-0.18107496488213684   -0.06894333926081991   -0.03912294530326466
-0.18107496488213684   -0.06894333926081991   -0.03912294530326466
0.4196049084067198   0.10018760021726592   0.04196628814502494
0.4196049084067198   0.10018760021726592   0.04196628814502494
0.4196049084067198   0.10018760021726592   0.04196628814502494
0.4196049084067198   0.10018760021726592   0.04196628814502494
0.13136272126144893   0.029010565752252894   0.005026975287038009
0.13136272126144893   0.029010565752252894   0.005026975287038009
0.13136272126144893   0.029010565752252894   0.005026975287038009
0.13136272126144893   0.029010565752252894   0.005026975287038009
0.40060774496555196   0.053876171667227066   -0.006708100510779993
0.40060774496555196   0.053876171667227066   -0.006708100510779993
0.40060774496555196   0.053876171667227066   -0.006708100510779993
0.40060774496555196   0.053876171667227066   -0.006708100510779993
-0.1623553819116073   -0.022909491181409232   0.00844112146997625
-0.1623553819116073   -0.022909491181409232   0.00844112146997625
-0.1623553819116073   -0.022909491181409232   0.00844112146997625
-0.1623553819116073   -0.022909491181409232   0.00844112146997625
-0.20897272759231814   -0.09223457657189628   -0.03163407359474879
-0.20897272759231814   -0.09223457657189628   -0.03163407359474879
-0.20897272759231814   -0.09223457657189628   -0.03163407359474879
-0.20897272759231814   -0.09223457657189628   -0.03163407359474879
0.3853957213781617   0.07333827692945413   0.04562484465963619
0.3853957213781617   0.07333827692945413   0.04562484465963619
0.3853957213781617   0.07333827692945413   0.04562484465963619
0.3853957213781617   0.07333827692945413   0.04562484465963619
0.09698474640367902   0.002707287011014775   -0.007608920279918968
0.09698474640367902   0.002707287011014775   -0.007608920279918968
0.09698474640367902   0.002707287011014775   -0.007608920279918968
0.09698474640367902   0.002707287011014775   -0.007608920279918968
0.36699899299000827   0.028902065160985216   -0.0019225855126677426
0.36699899299000827   0.028902065160985216   -0.0019225855126677426
0.36699899299000827   0.028902065160985216   -0.0019225855126677426
0.36699899299000827   0.028902065160985216   -0.0019225855126677426
-0.19128214881777764   -0.0485045144170406   0.013088758123101932
-0.19128214881777764   -0.0485045144170406   0.013088758123101932
-0.19128214881777764   -0.0485045144170406   0.013088758123101932
-0.19128214881777764   -0.0485045144170406   0.013088758123101932
-0.23650318966759434   -0.11417217118981254   -0.024713599541185564
-0.23650318966759434   -0.11417217118981254   -0.024713599541185564
-0.23650318966759434   -0.11417217118981254   -0.024713599541185564
-0.23650318966759434   -0.11417217118981254   -0.024713599541185564
0.35452462131820717   0.047499616301266166   0.049615347593788425
0.35452462131820717   0.047499616301266166   0.049615347593788425
0.35452462131820717   0.047499616301266166   0.049615347593788425
0.35452462131820717   0.047499616301266166   0.049615347593788425
0.06934432221660855   -0.019169596640035737   -0.01878345115204735
0.06934432221660855   -0.019169596640035737   -0.01878345115204735
0.06934432221660855   -0.019169596640035737   -0.01878345115204735
0.06934432221660855   -0.019169596640035737   -0.01878345115204735
-0.1121466740973248   0.10594574797784191   0.009640530301430111
-0.1121466740973248   0.10594574797784191   0.009640530301430111
-0.1121466740973248   0.10594574797784191   0.009640530301430111
-0.1121466740973248   0.10594574797784191   0.009640530301430111
-0.6865810520682382   -0.017119227000581133   -0.02085288011183308
-0.6865810520682382   -0.017119227000581133   -0.02085288011183308
-0.6865810520682382   -0.017119227000581133   -0.02085288011183308
-0.6865810520682382   -0.017119227000581133   -0.02085288011183308
-0.7140910655720936   -0.040852539766149276   -0.015339029525274848
-0.7140910655720936   -0.040852539766149276   -0.015339029525274848
-0.7140910655720936   -0.040852539766149276   -0.015339029525274848
-0.7140910655720936   -0.040852539766149276   -0.015339029525274848
-0.14093033591402926   0.07640138505180241   0.016255475224650876
-0.14093033591402926   0.07640138505180241   0.016255475224650876
-0.14093033591402926   0.07640138505180241   0.016255475224650876
-0.14093033591402926   0.07640138505180241   0.016255475224650876
-0.41243328159413745   0.03061966643921435   0.008137089199618926
-0.41243328159413745   0.03061966643921435   0.008137089199618926
-0.41243328159413745   0.03061966643921435   0.008137089199618926
-0.41243328159413745   0.03061966643921435   0.008137089199618926
-0.140057212607187   0.08035544341167306   0.016667033398991702
-0.140057212607187   0.08035544341167306   0.016667033398991702
-0.140057212607187   0.08035544341167306   0.016667033398991702
-0.140057212607187   0.08035544341167306   0.016667033398991702
-0.7150389827822676   -0.04488139202936196   -0.01604976331293263
-0.7150389827822676   -0.04488139202936196   -0.01604976331293263
-0.7150389827822676   -0.04488139202936196   -0.01604976331293263
-0.7150389827822676   -0.04488139202936196   -0.01604976331293263
-0.7422745103843026   -0.06622905357474235   -0.008664689445696802
-0.7422745103843026   -0.06622905357474235   -0.008664689445696802
-0.7422745103843026   -0.06622905357474235   -0.008664689445696802
-0.7422745103843026   -0.06622905357474235   -0.008664689445696802
-0.1702036790591963   0.0487693601851866   0.021207232313777618
-0.1702036790591963   0.0487693601851866   0.021207232313777618
-0.1702036790591963   0.0487693601851866   0.021207232313777618
-0.1702036790591963   0.0487693601851866   0.021207232313777618
-0.44141064262817603   0.005924579483336814   -0.0027320294243553707
-0.44141064262817603   0.005924579483336814   -0.0027320294243553707
-0.44141064262817603   0.005924579483336814   -0.0027320294243553707
-0.44141064262817603   0.005924579483336814   -0.0027320294243553707
-0.16872659200400164   0.05473822795453789   0.022623799820403447
-0.16872659200400164   0.05473822795453789   0.022623799820403447
-0.16872659200400164   0.05473822795453789   0.022623799820403447
-0.16872659200400164   0.05473822795453789   0.022623799820403447
-0.7441965303834337   -0.07264285428802948   -0.01186098872806542
-0.7441965303834337   -0.07264285428802948   -0.01186098872806542
-0.7441965303834337   -0.07264285428802948   -0.01186098872806542
-0.7441965303834337   -0.07264285428802948   -0.01186098872806542
-0.7699877620289713   -0.09047440649736198   -0.0021788692403779154
-0.7699877620289713   -0.09047440649736198   -0.0021788692403779154
-0.7699877620289713   -0.09047440649736198   -0.0021788692403779154
-0.7699877620289713   -0.09047440649736198   -0.0021788692403779154
-0.199225491651392   0.021918105758519144   0.025584613591490626
-0.199225491651392   0.021918105758519144   0.025584613591490626
-0.199225491651392   0.021918105758519144   0.025584613591490626
-0.199225491651392   0.021918105758519144   0.025584613591490626
-0.4715776471647462   -0.01879967364315427   -0.01451116025605198
-0.4715776471647462   -0.01879967364315427   -0.01451116025605198
-0.4715776471647462   -0.01879967364315427   -0.01451116025605198
-0.4715776471647462   -0.01879967364315427   -0.01451116025605198
-0.6476832853754962   0.12533640990335124   0.031180316447943945
-0.6476832853754962   0.12533640990335124   0.031180316447943945
-0.6476832853754962   0.12533640990335124   0.031180316447943945
-0.6476832853754962   0.12533640990335124   0.031180316447943945
-1.2302202010491818   -0.041497329679530404   -0.042501727065711106
-1.2302202010491818   -0.041497329679530404   -0.042501727065711106
-1.2302202010491818   -0.041497329679530404   -0.042501727065711106
-1.2302202010491818   -0.041497329679530404   -0.042501727065711106
-1.2405708460977452   -0.017969150398831624   0.010177480639698228
-1.2405708460977452   -0.017969150398831624   0.010177480639698228
-1.2405708460977452   -0.017969150398831624   0.010177480639698228
-1.2405708460977452   -0.017969150398831624   0.010177480639698228
-0.6947198987174592   0.04976755751941117   -0.009103292537678831
-0.6947198987174592   0.04976755751941117   -0.009103292537678831
-0.6947198987174592   0.04976755751941117   -0.009103292537678831
-0.6947198987174592   0.04976755751941117   -0.009103292537678831
-0.9476597626979575   0.029196561351855416   0.011827642940286577
-0.9476597626979575   0.029196561351855416   0.011827642940286577
-0.9476597626979575   0.029196561351855416   0.011827642940286577
-0.9476597626979575   0.029196561351855416   0.011827642940286577
-0.6750737391156514   0.10072815622317066   0.03816690676761603
-0.6750737391156514   0.10072815622317066   0.03816690676761603
-0.6750737391156514   0.10072815622317066   0.03816690676761603
-0.6750737391156514   0.10072815622317066   0.03816690676761603
-1.2610695986286187   -0.06978234203165579   -0.040503090381853984
-1.2610695986286187   -0.06978234203165579   -0.040503090381853984
-1.2610695986286187   -0.06978234203165579   -0.040503090381853984
-1.2610695986286187   -0.06978234203165579   -0.040503090381853984
-1.2737875127077756   -0.04310063103092815   0.013275830657149684
-1.2737875127077756   -0.04310063103092815   0.013275830657149684
-1.2737875127077756   -0.04310063103092815   0.013275830657149684
-1.2737875127077756   -0.04310063103092815   0.013275830657149684
-0.7232034292663927   0.024306697310823605   -0.003845034741720897
-0.7232034292663927   0.024306697310823605   -0.003845034741720897
-0.7232034292663927   0.024306697310823605   -0.003845034741720897
-0.7232034292663927   0.024306697310823605   -0.003845034741720897
-0.9720852238602267   0.006786633298908995   0.000925897824927413
-0.9720852238602267   0.006786633298908995   0.000925897824927413
-0.9720852238602267   0.006786633298908995   0.000925897824927413
-0.9720852238602267   0.006786633298908995   0.000925897824927413
-0.7028521603546591   0.07739572894485064   0.044822278182927056
-0.7028521603546591   0.07739572894485064   0.044822278182927056
-0.7028521603546591   0.07739572894485064   0.044822278182927056
-0.7028521603546591   0.07739572894485064   0.044822278182927056
-1.294210097847631   -0.0962609788930886   -0.03567674717998205
-1.294210097847631   -0.0962609788930886   -0.03567674717998205
-1.294210097847631   -0.0962609788930886   -0.03567674717998205
-1.294210097847631   -0.0962609788930886   -0.03567674717998205
-1.3033747403909253   -0.06985999554306027   0.020236275624931285
-1.3033747403909253   -0.06985999554306027   0.020236275624931285
-1.3033747403909253   -0.06985999554306027   0.020236275624931285
-1.3033747403909253   -0.06985999554306027   0.020236275624931285
-0.7521826743746919   -0.003915158998031548   0.0002873215316817543
-0.7521826743746919   -0.003915158998031548   0.0002873215316817543
-0.7521826743746919   -0.003915158998031548   0.0002873215316817543
-0.7521826743746919   -0.003915158998031548   0.0002873215316817543
-1.008663169394178   -0.019188124623730846   -0.011713012077006806
-1.008663169394178   -0.019188124623730846   -0.011713012077006806
-1.008663169394178   -0.019188124623730846   -0.011713012077006806
-1.008663169394178   -0.019188124623730846   -0.011713012077006806
-1.1803841158435118   0.11614392709399834   0.04903744218911091
-1.1803841158435118   0.11614392709399834   0.04903744218911091
-1.1803841158435118   0.11614392709399834   0.04903744218911091
-1.1803841158435118   0.11614392709399834   0.04903744218911091
-1.7411536531524907   -0.08009361773892382   -0.055322194576159806
-1.7411536531524907   -0.08009361773892382   -0.055322194576159806
-1.7411536531524907   -0.08009361773892382   -0.055322194576159806
-1.7411536531524907   -0.08009361773892382   -0.055322194576159806
-1.758076777371015   -0.0012651360641023346   0.048613064265542266
-1.758076777371015   -0.0012651360641023346   0.048613064265542266
-1.758076777371015   -0.0012651360641023346   0.048613064265542266
-1.758076777371015   -0.0012651360641023346   0.048613064265542266
-1.2422984295311283   0.016823599916768017   -0.03325318684284073
-1.2422984295311283   0.016823599916768017   -0.03325318684284073
-1.2422984295311283   0.016823599916768017   -0.03325318684284073
-1.2422984295311283   0.016823599916768017   -0.03325318684284073
-1.415364451147748   0.027039391059864804   0.035769963979588135
-1.415364451147748   0.027039391059864804   0.035769963979588135
-1.415364451147748   0.027039391059864804   0.035769963979588135
-1.415364451147748   0.027039391059864804   0.035769963979588135
-1.205213606283829   0.11115315930192848   0.057841370008510334
-1.205213606283829   0.11115315930192848   0.057841370008510334
-1.205213606283829   0.11115315930192848   0.057841370008510334
-1.205213606283829   0.11115315930192848   0.057841370008510334
-1.7958876650208269   -0.09632075985176003   -0.0453857501958439
-1.7958876650208269   -0.09632075985176003   -0.0453857501958439
-1.7958876650208269   -0.09632075985176003   -0.0453857501958439
-1.7958876650208269   -0.09632075985176003   -0.0453857501958439
-1.8049871564985218   -0.015080999786950156   0.061273099381400686
-1.8049871564985218   -0.015080999786950156   0.061273099381400686
-1.8049871564985218   -0.015080999786950156   0.061273099381400686
-1.8049871564985218   -0.015080999786950156   0.061273099381400686
-1.2729193473976892   0.002860498254973476   -0.028344472078342564
-1.2729193473976892   0.002860498254973476   -0.028344472078342564
-1.2729193473976892   0.002860498254973476   -0.028344472078342564
-1.2729193473976892   0.002860498254973476   -0.028344472078342564
-1.4785202610308001   0.011148678804035805   0.018653743627294286
-1.4785202610308001   0.011148678804035805   0.018653743627294286
-1.4785202610308001   0.011148678804035805   0.018653743627294286
-1.4785202610308001   0.011148678804035805   0.018653743627294286
-1.2340958822455215   0.1004744213123902   0.06815893062510214
-1.2340958822455215   0.1004744213123902   0.06815893062510214
-1.2340958822455215   0.1004744213123902   0.06815893062510214
-1.2340958822455215   0.1004744213123902   0.06815893062510214
-1.8443359199023786   -0.11322022109605206   -0.03733149632878102
-1.8443359199023786   -0.11322022109605206   -0.03733149632878102
-1.8443359199023786   -0.11322022109605206   -0.03733149632878102
-1.8443359199023786   -0.11322022109605206   -0.03733149632878102
-1.8677441035280553   -0.05825565962077217   0.06149990660160311
-1.8677441035280553   -0.05825565962077217   0.06149990660160311
-1.8677441035280553   -0.05825565962077217   0.06149990660160311
-1.8677441035280553   -0.05825565962077217   0.06149990660160311
-1.304950079921809   -0.03243989146364812   -0.02506052610892992
-1.304950079921809   -0.03243989146364812   -0.02506052610892992
-1.304950079921809   -0.03243989146364812   -0.02506052610892992
-1.304950079921809   -0.03243989146364812   -0.02506052610892992
-1.4965409811415433   -0.006954418990992528   0.010483443193108358
-1.4965409811415433   -0.006954418990992528   0.010483443193108358
-1.4965409811415433   -0.006954418990992528   0.010483443193108358
-1.4965409811415433   -0.006954418990992528   0.010483443193108358
0.5503542989531801   0.03282841557170475   -0.06666178739376767
0.5503542989531801   0.03282841557170475   -0.06666178739376767
0.5503542989531801   0.03282841557170475   -0.06666178739376767
0.5503542989531801   0.03282841557170475   -0.06666178739376767
0.15939413675568143   0.04015836362150996   0.03193806749302396
0.15939413675568143   0.04015836362150996   0.03193806749302396
0.15939413675568143   0.04015836362150996   0.03193806749302396
0.15939413675568143   0.04015836362150996   0.03193806749302396
0.09731024946579443   -0.0811870916474695   -0.05876758201610721
0.09731024946579443   -0.0811870916474695   -0.05876758201610721
0.09731024946579443   -0.0811870916474695   -0.05876758201610721
0.09731024946579443   -0.0811870916474695   -0.05876758201610721
0.5350413130060987   0.09421484709451378   0.03842999020494702
0.5350413130060987   0.09421484709451378   0.03842999020494702
0.5350413130060987   0.09421484709451378   0.03842999020494702
0.5350413130060987   0.09421484709451378   0.03842999020494702
0.3159000458625821   0.015698887707109088   -0.007327876291265294
0.3159000458625821   0.015698887707109088   -0.007327876291265294
0.3159000458625821   0.015698887707109088   -0.007327876291265294
0.3159000458625821   0.015698887707109088   -0.007327876291265294
0.4959065575139559   -0.0019334180557227243   -0.0610955221055348
0.4959065575139559   -0.0019334180557227243   -0.0610955221055348
0.4959065575139559   -0.0019334180557227243   -0.0610955221055348
0.4959065575139559   -0.0019334180557227243   -0.0610955221055348
0.1352233363778627   0.013739504922691888   0.03587125597407362
0.1352233363778627   0.013739504922691888   0.03587125597407362
0.1352233363778627   0.013739504922691888   0.03587125597407362
0.1352233363778627   0.013739504922691888   0.03587125597407362
0.07386565233702751   -0.09271733112679258   -0.04989229075983999
0.07386565233702751   -0.09271733112679258   -0.04989229075983999
0.07386565233702751   -0.09271733112679258   -0.04989229075983999
0.07386565233702751   -0.09271733112679258   -0.04989229075983999
0.49290111244487567   0.07830139910228445   0.04934057013589154
0.49290111244487567   0.07830139910228445   0.04934057013589154
0.49290111244487567   0.07830139910228445   0.04934057013589154
0.49290111244487567   0.07830139910228445   0.04934057013589154
0.28641733859464474   -0.0022997301123390684   -0.019023144752877304
0.28641733859464474   -0.0022997301123390684   -0.019023144752877304
0.28641733859464474   -0.0022997301123390684   -0.019023144752877304
0.28641733859464474   -0.0022997301123390684   -0.019023144752877304
0.4539977261169573   -0.016739542249279038   -0.050135420152140744
0.4539977261169573   -0.016739542249279038   -0.050135420152140744
0.4539977261169573   -0.016739542249279038   -0.050135420152140744
0.4539977261169573   -0.016739542249279038   -0.050135420152140744
0.111135309811421   0.0006898813712354762   0.043048784114101395
0.111135309811421   0.0006898813712354762   0.043048784114101395
0.111135309811421   0.0006898813712354762   0.043048784114101395
0.111135309811421   0.0006898813712354762   0.043048784114101395
0.052897070436896454   -0.10668063682933754   -0.041546213208594834
0.052897070436896454   -0.10668063682933754   -0.041546213208594834
0.052897070436896454   -0.10668063682933754   -0.041546213208594834
0.052897070436896454   -0.10668063682933754   -0.041546213208594834
0.4407350579366141   0.05280667917058242   0.05475715941424987
0.4407350579366141   0.05280667917058242   0.05475715941424987
0.4407350579366141   0.05280667917058242   0.05475715941424987
0.4407350579366141   0.05280667917058242   0.05475715941424987
0.24580974838189262   -0.018352388965572376   -0.03329590650241318
0.24580974838189262   -0.018352388965572376   -0.03329590650241318
0.24580974838189262   -0.018352388965572376   -0.03329590650241318
0.24580974838189262   -0.018352388965572376   -0.03329590650241318
0.15308381187518486   0.05993354826398742   -0.019388741551937747
0.15308381187518486   0.05993354826398742   -0.019388741551937747
0.15308381187518486   0.05993354826398742   -0.019388741551937747
0.15308381187518486   0.05993354826398742   -0.019388741551937747
-0.2251734514772391   0.019469558341541363   0.007797324851284992
-0.2251734514772391   0.019469558341541363   0.007797324851284992
-0.2251734514772391   0.019469558341541363   0.007797324851284992
-0.2251734514772391   0.019469558341541363   0.007797324851284992
-0.2651588400560528   -0.05201302877824637   -0.034273108369763966
-0.2651588400560528   -0.05201302877824637   -0.034273108369763966
-0.2651588400560528   -0.05201302877824637   -0.034273108369763966
-0.2651588400560528   -0.05201302877824637   -0.034273108369763966
0.14746338806720966   0.0744089785937262   0.03640204074977401
0.14746338806720966   0.0744089785937262   0.03640204074977401
0.14746338806720966   0.0744089785937262   0.03640204074977401
0.14746338806720966   0.0744089785937262   0.03640204074977401
-0.0487583362784001   0.02437898620019559   0.006145674826747551
-0.0487583362784001   0.02437898620019559   0.006145674826747551
-0.0487583362784001   0.02437898620019559   0.006145674826747551
-0.0487583362784001   0.02437898620019559   0.006145674826747551
0.12859892852751909   0.030742409117858423   -0.014253687472811858
0.12859892852751909   0.030742409117858423   -0.014253687472811858
0.12859892852751909   0.030742409117858423   -0.014253687472811858
0.12859892852751909   0.030742409117858423   -0.014253687472811858
-0.24733379168250608   -0.009385870468517493   0.012224975188240587
-0.24733379168250608   -0.009385870468517493   0.012224975188240587
-0.24733379168250608   -0.009385870468517493   0.012224975188240587
-0.24733379168250608   -0.009385870468517493   0.012224975188240587
-0.28613376990859113   -0.07545741858172023   -0.02682414160948271
-0.28613376990859113   -0.07545741858172023   -0.02682414160948271
-0.28613376990859113   -0.07545741858172023   -0.02682414160948271
-0.28613376990859113   -0.07545741858172023   -0.02682414160948271
0.11994282731811029   0.04809083320099798   0.03968541981778531
0.11994282731811029   0.04809083320099798   0.03968541981778531
0.11994282731811029   0.04809083320099798   0.03968541981778531
0.11994282731811029   0.04809083320099798   0.03968541981778531
-0.07466333794386755   -0.0008881960450226947   -0.005959702054451785
-0.07466333794386755   -0.0008881960450226947   -0.005959702054451785
-0.07466333794386755   -0.0008881960450226947   -0.005959702054451785
-0.07466333794386755   -0.0008881960450226947   -0.005959702054451785
0.10163749184699769   0.005592981019937911   -0.009343405356719493
0.10163749184699769   0.005592981019937911   -0.009343405356719493
0.10163749184699769   0.005592981019937911   -0.009343405356719493
0.10163749184699769   0.005592981019937911   -0.009343405356719493
-0.2691734683569862   -0.03430460032017257   0.016824547886998373
-0.2691734683569862   -0.03430460032017257   0.016824547886998373
-0.2691734683569862   -0.03430460032017257   0.016824547886998373
-0.2691734683569862   -0.03430460032017257   0.016824547886998373
-0.3069497877503427   -0.0987365712366689   -0.020091181027337125
-0.3069497877503427   -0.0987365712366689   -0.020091181027337125
-0.3069497877503427   -0.0987365712366689   -0.020091181027337125
-0.3069497877503427   -0.0987365712366689   -0.020091181027337125
0.09584750922863368   0.022226746831214728   0.04429859708954093
0.09584750922863368   0.022226746831214728   0.04429859708954093
0.09584750922863368   0.022226746831214728   0.04429859708954093
0.09584750922863368   0.022226746831214728   0.04429859708954093
-0.09710270894187749   -0.02354081381322158   -0.017399160862803506
-0.09710270894187749   -0.02354081381322158   -0.017399160862803506
-0.09710270894187749   -0.02354081381322158   -0.017399160862803506
-0.09710270894187749   -0.02354081381322158   -0.017399160862803506
-0.21360513545296891   0.08222352083972898   0.00288494247444826
-0.21360513545296891   0.08222352083972898   0.00288494247444826
-0.21360513545296891   0.08222352083972898   0.00288494247444826
-0.21360513545296891   0.08222352083972898   0.00288494247444826
-0.6046833238322673   -0.007084827876816496   -0.016588423740231374
-0.6046833238322673   -0.007084827876816496   -0.016588423740231374
-0.6046833238322673   -0.007084827876816496   -0.016588423740231374
-0.6046833238322673   -0.007084827876816496   -0.016588423740231374
-0.6235672423259454   -0.025356610237669427   -0.009897594810792203
-0.6235672423259454   -0.025356610237669427   -0.009897594810792203
-0.6235672423259454   -0.025356610237669427   -0.009897594810792203
-0.6235672423259454   -0.025356610237669427   -0.009897594810792203
-0.2357927159663711   0.04897076917937003   0.011573714121024325
-0.2357927159663711   0.04897076917937003   0.011573714121024325
-0.2357927159663711   0.04897076917937003   0.011573714121024325
-0.2357927159663711   0.04897076917937003   0.011573714121024325
-0.4184209349282929   0.024175389093392993   0.006380326917115049
-0.4184209349282929   0.024175389093392993   0.006380326917115049
-0.4184209349282929   0.024175389093392993   0.006380326917115049
-0.4184209349282929   0.024175389093392993   0.006380326917115049
-0.23465999922987354   0.05637164228356712   0.009836424699318658
-0.23465999922987354   0.05637164228356712   0.009836424699318658
-0.23465999922987354   0.05637164228356712   0.009836424699318658
-0.23465999922987354   0.05637164228356712   0.009836424699318658
-0.6256094273015549   -0.03366695158097395   -0.011798178345542521
-0.6256094273015549   -0.03366695158097395   -0.011798178345542521
-0.6256094273015549   -0.03366695158097395   -0.011798178345542521
-0.6256094273015549   -0.03366695158097395   -0.011798178345542521
-0.6444493400431129   -0.050950343485610256   -0.0031456250563513463
-0.6444493400431129   -0.050950343485610256   -0.0031456250563513463
-0.6444493400431129   -0.050950343485610256   -0.0031456250563513463
-0.6444493400431129   -0.050950343485610256   -0.0031456250563513463
-0.25793399119583815   0.022279353327733842   0.016437980044824253
-0.25793399119583815   0.022279353327733842   0.016437980044824253
-0.25793399119583815   0.022279353327733842   0.016437980044824253
-0.25793399119583815   0.022279353327733842   0.016437980044824253
-0.4402098323973962   -0.0001281677836626749   -0.004475206782523094
-0.4402098323973962   -0.0001281677836626749   -0.004475206782523094
-0.4402098323973962   -0.0001281677836626749   -0.004475206782523094
-0.4402098323973962   -0.0001281677836626749   -0.004475206782523094
-0.2564153031047382   0.03045645306579009   0.015854320762275574
-0.2564153031047382   0.03045645306579009   0.015854320762275574
-0.2564153031047382   0.03045645306579009   0.015854320762275574
-0.2564153031047382   0.03045645306579009   0.015854320762275574
-0.6472612403596166   -0.06042065544906902   -0.00773481467541156
-0.6472612403596166   -0.06042065544906902   -0.00773481467541156
-0.6472612403596166   -0.06042065544906902   -0.00773481467541156
-0.6472612403596166   -0.06042065544906902   -0.00773481467541156
-0.6649335838610807   -0.07566291782804871   0.0033875878684013344
-0.6649335838610807   -0.07566291782804871   0.0033875878684013344
-0.6649335838610807   -0.07566291782804871   0.0033875878684013344
-0.6649335838610807   -0.07566291782804871   0.0033875878684013344
-0.27969255030126255   -0.0034360138173188115   0.020894448798713664
-0.27969255030126255   -0.0034360138173188115   0.020894448798713664
-0.27969255030126255   -0.0034360138173188115   0.020894448798713664
-0.27969255030126255   -0.0034360138173188115   0.020894448798713664
-0.46313288393259533   -0.02449133842097581   -0.01626023322274916
-0.46313288393259533   -0.02449133842097581   -0.01626023322274916
-0.46313288393259533   -0.02449133842097581   -0.01626023322274916
-0.46313288393259533   -0.02449133842097581   -0.01626023322274916
-0.5741279062194589   0.10336853499079601   0.025735301456198192
-0.5741279062194589   0.10336853499079601   0.025735301456198192
-0.5741279062194589   0.10336853499079601   0.025735301456198192
-0.5741279062194589   0.10336853499079601   0.025735301456198192
-0.9757795755731181   -0.028843799443151158   -0.03790140668279228
-0.9757795755731181   -0.028843799443151158   -0.03790140668279228
-0.9757795755731181   -0.028843799443151158   -0.03790140668279228
-0.9757795755731181   -0.028843799443151158   -0.03790140668279228
-0.9776526195476758   -0.0018084136510385929   0.015949572440288856
-0.9776526195476758   -0.0018084136510385929   0.015949572440288856
-0.9776526195476758   -0.0018084136510385929   0.015949572440288856
-0.9776526195476758   -0.0018084136510385929   0.015949572440288856
-0.6138809823451846   0.025156737268995116   -0.011979642413652507
-0.6138809823451846   0.025156737268995116   -0.011979642413652507
-0.6138809823451846   0.025156737268995116   -0.011979642413652507
-0.6138809823451846   0.025156737268995116   -0.011979642413652507
-0.7813741536976008   0.02442695098627634   0.008416256808746997
-0.7813741536976008   0.02442695098627634   0.008416256808746997
-0.7813741536976008   0.02442695098627634   0.008416256808746997
-0.7813741536976008   0.02442695098627634   0.008416256808746997
-0.5943330827347689   0.07820741483748456   0.03270917806993642
-0.5943330827347689   0.07820741483748456   0.03270917806993642
-0.5943330827347689   0.07820741483748456   0.03270917806993642
-0.5943330827347689   0.07820741483748456   0.03270917806993642
-0.9989481838770653   -0.05660675593849812   -0.035729906919207306
-0.9989481838770653   -0.05660675593849812   -0.035729906919207306
-0.9989481838770653   -0.05660675593849812   -0.035729906919207306
-0.9989481838770653   -0.05660675593849812   -0.035729906919207306
-1.0033571288317138   -0.02703735547618441   0.019588400888621668
-1.0033571288317138   -0.02703735547618441   0.019588400888621668
-1.0033571288317138   -0.02703735547618441   0.019588400888621668
-1.0033571288317138   -0.02703735547618441   0.019588400888621668
-0.6348728430672269   0.0005866562666192732   -0.006800139929158282
-0.6348728430672269   0.0005866562666192732   -0.006800139929158282
-0.6348728430672269   0.0005866562666192732   -0.006800139929158282
-0.6348728430672269   0.0005866562666192732   -0.006800139929158282
-0.7999049986840635   0.001769515954512746   -0.002967195689057296
-0.7999049986840635   0.001769515954512746   -0.002967195689057296
-0.7999049986840635   0.001769515954512746   -0.002967195689057296
-0.7999049986840635   0.001769515954512746   -0.002967195689057296
-0.6148048075056171   0.05465063953367855   0.03947605461183952
-0.6148048075056171   0.05465063953367855   0.03947605461183952
-0.6148048075056171   0.05465063953367855   0.03947605461183952
-0.6148048075056171   0.05465063953367855   0.03947605461183952
-1.0245142793903277   -0.08219045374024894   -0.031044253640398443
-1.0245142793903277   -0.08219045374024894   -0.031044253640398443
-1.0245142793903277   -0.08219045374024894   -0.031044253640398443
-1.0245142793903277   -0.08219045374024894   -0.031044253640398443
-1.0255685000605965   -0.0533219112607583   0.02663938590389127
-1.0255685000605965   -0.0533219112607583   0.02663938590389127
-1.0255685000605965   -0.0533219112607583   0.02663938590389127
-1.0255685000605965   -0.0533219112607583   0.02663938590389127
-0.6561256260437922   -0.025676650125656064   -0.0025588907475642686
-0.6561256260437922   -0.025676650125656064   -0.0025588907475642686
-0.6561256260437922   -0.025676650125656064   -0.0025588907475642686
-0.6561256260437922   -0.025676650125656064   -0.0025588907475642686
-0.8274261249317978   -0.022894982284136445   -0.015364727580944398
-0.8274261249317978   -0.022894982284136445   -0.015364727580944398
-0.8274261249317978   -0.022894982284136445   -0.015364727580944398
-0.8274261249317978   -0.022894982284136445   -0.015364727580944398
-0.9329663351402493   0.10172706998870093   0.0455939260497224
-0.9329663351402493   0.10172706998870093   0.0455939260497224
-0.9329663351402493   0.10172706998870093   0.0455939260497224
-0.9329663351402493   0.10172706998870093   0.0455939260497224
-1.31242401380559   -0.06032729895927358   -0.05763382177991877
-1.31242401380559   -0.06032729895927358   -0.05763382177991877
-1.31242401380559   -0.06032729895927358   -0.05763382177991877
-1.31242401380559   -0.06032729895927358   -0.05763382177991877
-1.3220757277988335   0.01710541712529029   0.04793319746741448
-1.3220757277988335   0.01710541712529029   0.04793319746741448
-1.3220757277988335   0.01710541712529029   0.04793319746741448
-1.3220757277988335   0.01710541712529029   0.04793319746741448
-0.9881448220422723   -0.003095131329795636   -0.03522472235395201
-0.9881448220422723   -0.003095131329795636   -0.03522472235395201
-0.9881448220422723   -0.003095131329795636   -0.03522472235395201
-0.9881448220422723   -0.003095131329795636   -0.03522472235395201
-1.0899799185999721   0.024468591336313572   0.02634088201680916
-1.0899799185999721   0.024468591336313572   0.02634088201680916
-1.0899799185999721   0.024468591336313572   0.02634088201680916
-1.0899799185999721   0.024468591336313572   0.02634088201680916
-0.9512006067445355   0.09247837200303494   0.053922850801901206
-0.9512006067445355   0.09247837200303494   0.053922850801901206
-0.9512006067445355   0.09247837200303494   0.053922850801901206
-0.9512006067445355   0.09247837200303494   0.053922850801901206
-1.3608787864153447   -0.08032692952632492   -0.04864974896352599
-1.3608787864153447   -0.08032692952632492   -0.04864974896352599
-1.3608787864153447   -0.08032692952632492   -0.04864974896352599
-1.3608787864153447   -0.08032692952632492   -0.04864974896352599
-1.362094668461121   0.002939300703380554   0.061224861227124616
-1.362094668461121   0.002939300703380554   0.061224861227124616
-1.362094668461121   0.002939300703380554   0.061224861227124616
-1.362094668461121   0.002939300703380554   0.061224861227124616
-1.0112754348399897   -0.016805398920720027   -0.030235085708236985
-1.0112754348399897   -0.016805398920720027   -0.030235085708236985
-1.0112754348399897   -0.016805398920720027   -0.030235085708236985
-1.0112754348399897   -0.016805398920720027   -0.030235085708236985
-1.141074439649044   0.0077064825376818025   0.009423638073480525
-1.141074439649044   0.0077064825376818025   0.009423638073480525
-1.141074439649044   0.0077064825376818025   0.009423638073480525
-1.141074439649044   0.0077064825376818025   0.009423638073480525
-0.9727607281495732   0.08138977190407776   0.0641432769190628
-0.9727607281495732   0.08138977190407776   0.0641432769190628
-0.9727607281495732   0.08138977190407776   0.0641432769190628
-0.9727607281495732   0.08138977190407776   0.0641432769190628
-1.4023708259610068   -0.09701732093088386   -0.04019930463803908
-1.4023708259610068   -0.09701732093088386   -0.04019930463803908
-1.4023708259610068   -0.09701732093088386   -0.04019930463803908
-1.4023708259610068   -0.09701732093088386   -0.04019930463803908
-1.417448235306176   -0.03728062537166826   0.06323395973533627
-1.417448235306176   -0.03728062537166826   0.06323395973533627
-1.417448235306176   -0.03728062537166826   0.06323395973533627
-1.417448235306176   -0.03728062537166826   0.06323395973533627
-1.0351400392716619   -0.048174088786329144   -0.026366132625881326
-1.0351400392716619   -0.048174088786329144   -0.026366132625881326
-1.0351400392716619   -0.048174088786329144   -0.026366132625881326
-1.0351400392716619   -0.048174088786329144   -0.026366132625881326
-1.1578141807094693   -0.010103406136112991   -0.0006568993304024856
-1.1578141807094693   -0.010103406136112991   -0.0006568993304024856
-1.1578141807094693   -0.010103406136112991   -0.0006568993304024856
-1.1578141807094693   -0.010103406136112991   -0.0006568993304024856
0.09687377175000236   0.007976437113264939   -0.06645120004252202
0.09687377175000236   0.007976437113264939   -0.06645120004252202
0.09687377175000236   0.007976437113264939   -0.06645120004252202
0.09687377175000236   0.007976437113264939   -0.06645120004252202
-0.1095698118393366   0.04988077045379708   0.03401703484978315
-0.1095698118393366   0.04988077045379708   0.03401703484978315
-0.1095698118393366   0.04988077045379708   0.03401703484978315
-0.1095698118393366   0.04988077045379708   0.03401703484978315
-0.1637207517313137   -0.0639238338330139   -0.05350134969527887
-0.1637207517313137   -0.0639238338330139   -0.05350134969527887
-0.1637207517313137   -0.0639238338330139   -0.05350134969527887
-0.1637207517313137   -0.0639238338330139   -0.05350134969527887
0.08866873086349641   0.07021581593671164   0.041785732359306764
0.08866873086349641   0.07021581593671164   0.041785732359306764
0.08866873086349641   0.07021581593671164   0.041785732359306764
0.08866873086349641   0.07021581593671164   0.041785732359306764
-0.024112760026994445   0.015406157052149885   0.005786291837770494
-0.024112760026994445   0.015406157052149885   0.005786291837770494
-0.024112760026994445   0.015406157052149885   0.005786291837770494
-0.024112760026994445   0.015406157052149885   0.005786291837770494
0.04991509419331526   -0.022374768100008158   -0.05939186695487917
0.04991509419331526   -0.022374768100008158   -0.05939186695487917
0.04991509419331526   -0.022374768100008158   -0.05939186695487917
0.04991509419331526   -0.022374768100008158   -0.05939186695487917
-0.1272615738206302   0.02637229144420827   0.03849841458091649
-0.1272615738206302   0.02637229144420827   0.03849841458091649
-0.1272615738206302   0.02637229144420827   0.03849841458091649
-0.1272615738206302   0.02637229144420827   0.03849841458091649
-0.18155437441158884   -0.07552526013526834   -0.04533723919540777
-0.18155437441158884   -0.07552526013526834   -0.04533723919540777
-0.18155437441158884   -0.07552526013526834   -0.04533723919540777
-0.18155437441158884   -0.07552526013526834   -0.04533723919540777
0.05193214051146015   0.05445216557292597   0.05729233170180716
0.05193214051146015   0.05445216557292597   0.05729233170180716
0.05193214051146015   0.05445216557292597   0.05729233170180716
0.05193214051146015   0.05445216557292597   0.05729233170180716
-0.053131015570635765   -0.001973032417380354   -0.007623222931959575
-0.053131015570635765   -0.001973032417380354   -0.007623222931959575
-0.053131015570635765   -0.001973032417380354   -0.007623222931959575
-0.053131015570635765   -0.001973032417380354   -0.007623222931959575
0.01228745522360815   -0.03748769350171574   -0.048991235662811126
0.01228745522360815   -0.03748769350171574   -0.048991235662811126
0.01228745522360815   -0.03748769350171574   -0.048991235662811126
0.01228745522360815   -0.03748769350171574   -0.048991235662811126
-0.1450919424700936   0.013232345593011171   0.04821731478378696
-0.1450919424700936   0.013232345593011171   0.04821731478378696
-0.1450919424700936   0.013232345593011171   0.04821731478378696
-0.1450919424700936   0.013232345593011171   0.04821731478378696
-0.1978895231289411   -0.09338385486981453   -0.03757092972217968
-0.1978895231289411   -0.09338385486981453   -0.03757092972217968
-0.1978895231289411   -0.09338385486981453   -0.03757092972217968
-0.1978895231289411   -0.09338385486981453   -0.03757092972217968
0.0009144129718562082   0.02139171754478273   0.06530239589215199
0.0009144129718562082   0.02139171754478273   0.06530239589215199
0.0009144129718562082   0.02139171754478273   0.06530239589215199
0.0009144129718562082   0.02139171754478273   0.06530239589215199
-0.08423441472389485   -0.019482315395224794   -0.0230738153816202
-0.08423441472389485   -0.019482315395224794   -0.0230738153816202
-0.08423441472389485   -0.019482315395224794   -0.0230738153816202
-0.08423441472389485   -0.019482315395224794   -0.0230738153816202
-0.12511809458774772   0.032627035884572976   -0.0264706443230483
-0.12511809458774772   0.032627035884572976   -0.0264706443230483
-0.12511809458774772   0.032627035884572976   -0.0264706443230483
-0.12511809458774772   0.032627035884572976   -0.0264706443230483
-0.3185834637924982   0.01339591812866342   0.00889214862457412
-0.3185834637924982   0.01339591812866342   0.00889214862457412
-0.3185834637924982   0.01339591812866342   0.00889214862457412
-0.3185834637924982   0.01339591812866342   0.00889214862457412
-0.34650377457651804   -0.037226450387864485   -0.02780794151445177
-0.34650377457651804   -0.037226450387864485   -0.02780794151445177
-0.34650377457651804   -0.037226450387864485   -0.02780794151445177
-0.34650377457651804   -0.037226450387864485   -0.02780794151445177
-0.1286036762767066   0.031605071560994125   0.02655512218374856
-0.1286036762767066   0.031605071560994125   0.02655512218374856
-0.1286036762767066   0.031605071560994125   0.02655512218374856
-0.1286036762767066   0.031605071560994125   0.02655512218374856
-0.22922705886987244   0.009455323325412733   0.005027287691198919
-0.22922705886987244   0.009455323325412733   0.005027287691198919
-0.22922705886987244   0.009455323325412733   0.005027287691198919
-0.22922705886987244   0.009455323325412733   0.005027287691198919
-0.1436745220995354   0.004551817780451772   -0.021745853149853063
-0.1436745220995354   0.004551817780451772   -0.021745853149853063
-0.1436745220995354   0.004551817780451772   -0.021745853149853063
-0.1436745220995354   0.004551817780451772   -0.021745853149853063
-0.3333141504927728   -0.012054418346406366   0.01296814686281232
-0.3333141504927728   -0.012054418346406366   0.01296814686281232
-0.3333141504927728   -0.012054418346406366   0.01296814686281232
-0.3333141504927728   -0.012054418346406366   0.01296814686281232
-0.360383969516402   -0.06001373686085673   -0.02051063365700663
-0.360383969516402   -0.06001373686085673   -0.02051063365700663
-0.360383969516402   -0.06001373686085673   -0.02051063365700663
-0.360383969516402   -0.06001373686085673   -0.02051063365700663
-0.15010868003667943   0.006426197912503342   0.029939774631365657
-0.15010868003667943   0.006426197912503342   0.029939774631365657
-0.15010868003667943   0.006426197912503342   0.029939774631365657
-0.15010868003667943   0.006426197912503342   0.029939774631365657
-0.24676233011749343   -0.013403243581564653   -0.006437679070072651
-0.24676233011749343   -0.013403243581564653   -0.006437679070072651
-0.24676233011749343   -0.013403243581564653   -0.006437679070072651
-0.24676233011749343   -0.013403243581564653   -0.006437679070072651
-0.16463293570289395   -0.020010387103495106   -0.01624491868370656
-0.16463293570289395   -0.020010387103495106   -0.01624491868370656
-0.16463293570289395   -0.020010387103495106   -0.01624491868370656
-0.16463293570289395   -0.020010387103495106   -0.01624491868370656
-0.34787857499568514   -0.035596012990355606   0.01759861507607661
-0.34787857499568514   -0.035596012990355606   0.01759861507607661
-0.34787857499568514   -0.035596012990355606   0.01759861507607661
-0.34787857499568514   -0.035596012990355606   0.01759861507607661
-0.3743556918134115   -0.08348313348245096   -0.01404760343674237
-0.3743556918134115   -0.08348313348245096   -0.01404760343674237
-0.3743556918134115   -0.08348313348245096   -0.01404760343674237
-0.3743556918134115   -0.08348313348245096   -0.01404760343674237
-0.1680910506307232   -0.019111205111636255   0.037148783010731566
-0.1680910506307232   -0.019111205111636255   0.037148783010731566
-0.1680910506307232   -0.019111205111636255   0.037148783010731566
-0.1680910506307232   -0.019111205111636255   0.037148783010731566
-0.26429093894820305   -0.03603618221079807   -0.018103938623956106
-0.26429093894820305   -0.03603618221079807   -0.018103938623956106
-0.26429093894820305   -0.03603618221079807   -0.018103938623956106
-0.26429093894820305   -0.03603618221079807   -0.018103938623956106
-0.3127935231823542   0.0540486424683366   -0.0028108726643789814
-0.3127935231823542   0.0540486424683366   -0.0028108726643789814
-0.3127935231823542   0.0540486424683366   -0.0028108726643789814
-0.3127935231823542   0.0540486424683366   -0.0028108726643789814
-0.5257811529282626   -0.017972997070188804   -0.014833874499198436
-0.5257811529282626   -0.017972997070188804   -0.014833874499198436
-0.5257811529282626   -0.017972997070188804   -0.014833874499198436
-0.5257811529282626   -0.017972997070188804   -0.014833874499198436
-0.5312923275635275   -0.013065153902593898   -0.0031062896916389006
-0.5312923275635275   -0.013065153902593898   -0.0031062896916389006
-0.5312923275635275   -0.013065153902593898   -0.0031062896916389006
-0.5312923275635275   -0.013065153902593898   -0.0031062896916389006
-0.33209466785094854   0.002917014615313393   0.004094127110214053
-0.33209466785094854   0.002917014615313393   0.004094127110214053
-0.33209466785094854   0.002917014615313393   0.004094127110214053
-0.33209466785094854   0.002917014615313393   0.004094127110214053
-0.424603778366396   0.006071268152004788   0.0016923052992835752
-0.424603778366396   0.006071268152004788   0.0016923052992835752
-0.424603778366396   0.006071268152004788   0.0016923052992835752
-0.424603778366396   0.006071268152004788   0.0016923052992835752
-0.32683447433814766   0.029258413782263515   0.004053695507268289
-0.32683447433814766   0.029258413782263515   0.004053695507268289
-0.32683447433814766   0.029258413782263515   0.004053695507268289
-0.32683447433814766   0.029258413782263515   0.004053695507268289
-0.5383612583451193   -0.041215290338334876   -0.010300807163856587
-0.5383612583451193   -0.041215290338334876   -0.010300807163856587
-0.5383612583451193   -0.041215290338334876   -0.010300807163856587
-0.5383612583451193   -0.041215290338334876   -0.010300807163856587
-0.544304633820016   -0.037544934450709   0.003687183776818613
-0.544304633820016   -0.037544934450709   0.003687183776818613
-0.544304633820016   -0.037544934450709   0.003687183776818613
-0.544304633820016   -0.037544934450709   0.003687183776818613
-0.3468184197048731   -0.021145665124910347   0.008449043664691467
-0.3468184197048731   -0.021145665124910347   0.008449043664691467
-0.3468184197048731   -0.021145665124910347   0.008449043664691467
-0.3468184197048731   -0.021145665124910347   0.008449043664691467
-0.4387132294646254   -0.016192077109183925   -0.0088379810564236
-0.4387132294646254   -0.016192077109183925   -0.0088379810564236
-0.4387132294646254   -0.016192077109183925   -0.0088379810564236
-0.4387132294646254   -0.016192077109183925   -0.0088379810564236
-0.3413937956863752   0.0043209134559298035   0.010105585176341046
-0.3413937956863752   0.0043209134559298035   0.010105585176341046
-0.3413937956863752   0.0043209134559298035   0.010105585176341046
-0.3413937956863752   0.0043209134559298035   0.010105585176341046
-0.551909450196428   -0.06519170538945801   -0.006690127166492024
-0.551909450196428   -0.06519170538945801   -0.006690127166492024
-0.551909450196428   -0.06519170538945801   -0.006690127166492024
-0.551909450196428   -0.06519170538945801   -0.006690127166492024
-0.5569788138206911   -0.06103228743386438   0.010199344235414482
-0.5569788138206911   -0.06103228743386438   0.010199344235414482
-0.5569788138206911   -0.06103228743386438   0.010199344235414482
-0.5569788138206911   -0.06103228743386438   0.010199344235414482
-0.3609536990457788   -0.043852971620965686   0.013332198539935863
-0.3609536990457788   -0.043852971620965686   0.013332198539935863
-0.3609536990457788   -0.043852971620965686   0.013332198539935863
-0.3609536990457788   -0.043852971620965686   0.013332198539935863
-0.4538962320228677   -0.0385962144172384   -0.02027975527393102
-0.4538962320228677   -0.0385962144172384   -0.02027975527393102
-0.4538962320228677   -0.0385962144172384   -0.02027975527393102
-0.4538962320228677   -0.0385962144172384   -0.02027975527393102
-0.49922819745775493   0.07836528222759692   0.021592623555554177
-0.49922819745775493   0.07836528222759692   0.021592623555554177
-0.49922819745775493   0.07836528222759692   0.021592623555554177
-0.49922819745775493   0.07836528222759692   0.021592623555554177
-0.7247221885773028   -0.029852817900689832   -0.03329432086281191
-0.7247221885773028   -0.029852817900689832   -0.03329432086281191
-0.7247221885773028   -0.029852817900689832   -0.03329432086281191
-0.7247221885773028   -0.029852817900689832   -0.03329432086281191
-0.714958061821584   0.011816230257994581   0.022394902007744084
-0.714958061821584   0.011816230257994581   0.022394902007744084
-0.714958061821584   0.011816230257994581   0.022394902007744084
-0.714958061821584   0.011816230257994581   0.022394902007744084
-0.5331464216633557   -0.01060798771766193   -0.014833926375711688
-0.5331464216633557   -0.01060798771766193   -0.014833926375711688
-0.5331464216633557   -0.01060798771766193   -0.014833926375711688
-0.5331464216633557   -0.01060798771766193   -0.014833926375711688
-0.6158871941276001   0.012521867623826649   0.0029389660835283243
-0.6158871941276001   0.012521867623826649   0.0029389660835283243
-0.6158871941276001   0.012521867623826649   0.0029389660835283243
-0.6158871941276001   0.012521867623826649   0.0029389660835283243
-0.5116239432574994   0.05369847429703689   0.028472003638871125
-0.5116239432574994   0.05369847429703689   0.028472003638871125
-0.5116239432574994   0.05369847429703689   0.028472003638871125
-0.5116239432574994   0.05369847429703689   0.028472003638871125
-0.7391214781504561   -0.055131169679721564   -0.03147477969890939
-0.7391214781504561   -0.055131169679721564   -0.03147477969890939
-0.7391214781504561   -0.055131169679721564   -0.03147477969890939
-0.7391214781504561   -0.055131169679721564   -0.03147477969890939
-0.7324024845265686   -0.012269924178853225   0.026446599302820985
-0.7324024845265686   -0.012269924178853225   0.026446599302820985
-0.7324024845265686   -0.012269924178853225   0.026446599302820985
-0.7324024845265686   -0.012269924178853225   0.026446599302820985
-0.5460466413433991   -0.03247746882913349   -0.01009031946167228
-0.5460466413433991   -0.03247746882913349   -0.01009031946167228
-0.5460466413433991   -0.03247746882913349   -0.01009031946167228
-0.5460466413433991   -0.03247746882913349   -0.01009031946167228
-0.6277398640907567   -0.00893352098600872   -0.00847633389250161
-0.6277398640907567   -0.00893352098600872   -0.00847633389250161
-0.6277398640907567   -0.00893352098600872   -0.00847633389250161
-0.6277398640907567   -0.00893352098600872   -0.00847633389250161
-0.5242804214968694   0.03109819229574247   0.0351651186461002
-0.5242804214968694   0.03109819229574247   0.0351651186461002
-0.5242804214968694   0.03109819229574247   0.0351651186461002
-0.5242804214968694   0.03109819229574247   0.0351651186461002
-0.7562541376882008   -0.07793101861882784   -0.02715057206537301
-0.7562541376882008   -0.07793101861882784   -0.02715057206537301
-0.7562541376882008   -0.07793101861882784   -0.02715057206537301
-0.7562541376882008   -0.07793101861882784   -0.02715057206537301
-0.746584703195484   -0.03652160097621207   0.033675432151378096
-0.746584703195484   -0.03652160097621207   0.033675432151378096
-0.746584703195484   -0.03652160097621207   0.033675432151378096
-0.746584703195484   -0.03652160097621207   0.033675432151378096
-0.5589924215076396   -0.05486050106863055   -0.006040480564568858
-0.5589924215076396   -0.05486050106863055   -0.006040480564568858
-0.5589924215076396   -0.05486050106863055   -0.006040480564568858
-0.5589924215076396   -0.05486050106863055   -0.006040480564568858
-0.6455696729109595   -0.03080111250278686   -0.02016959392708844
-0.6455696729109595   -0.03080111250278686   -0.02016959392708844
-0.6455696729109595   -0.03080111250278686   -0.02016959392708844
-0.6455696729109595   -0.03080111250278686   -0.02016959392708844
-0.6865731963389206   0.08490766114644341   0.042690161281966156
-0.6865731963389206   0.08490766114644341   0.042690161281966156
-0.6865731963389206   0.08490766114644341   0.042690161281966156
-0.6865731963389206   0.08490766114644341   0.042690161281966156
-0.8828950518945788   -0.04410197788064801   -0.055765557013123426
-0.8828950518945788   -0.04410197788064801   -0.055765557013123426
-0.8828950518945788   -0.04410197788064801   -0.055765557013123426
-0.8828950518945788   -0.04410197788064801   -0.055765557013123426
-0.8835653040720414   0.03427749242371875   0.04705887844338906
-0.8835653040720414   0.03427749242371875   0.04705887844338906
-0.8835653040720414   0.03427749242371875   0.04705887844338906
-0.8835653040720414   0.03427749242371875   0.04705887844338906
-0.7336389753420737   -0.02507193391757495   -0.03412150141914311
-0.7336389753420737   -0.02507193391757495   -0.03412150141914311
-0.7336389753420737   -0.02507193391757495   -0.03412150141914311
-0.7336389753420737   -0.02507193391757495   -0.03412150141914311
-0.7644609137211346   0.020207600652906915   0.014728642361385186
-0.7644609137211346   0.020207600652906915   0.014728642361385186
-0.7644609137211346   0.020207600652906915   0.014728642361385186
-0.7644609137211346   0.020207600652906915   0.014728642361385186
-0.6972892484737682   0.0721933063797145   0.05036189262509462
-0.6972892484737682   0.0721933063797145   0.05036189262509462
-0.6972892484737682   0.0721933063797145   0.05036189262509462
-0.6972892484737682   0.0721933063797145   0.05036189262509462
-0.9226559512308488   -0.06572866816407524   -0.04838819676283885
-0.9226559512308488   -0.06572866816407524   -0.04838819676283885
-0.9226559512308488   -0.06572866816407524   -0.04838819676283885
-0.9226559512308488   -0.06572866816407524   -0.04838819676283885
-0.9152966947740568   0.020566434675117956   0.06064534220502014
-0.9152966947740568   0.020566434675117956   0.06064534220502014
-0.9152966947740568   0.020566434675117956   0.06064534220502014
-0.9152966947740568   0.020566434675117956   0.06064534220502014
-0.748746583778471   -0.03764187853915371   -0.0299019425963988
-0.748746583778471   -0.03764187853915371   -0.0299019425963988
-0.748746583778471   -0.03764187853915371   -0.0299019425963988
-0.748746583778471   -0.03764187853915371   -0.0299019425963988
-0.8022069313456082   0.0035289786903585363   -0.001089942078913879
-0.8022069313456082   0.0035289786903585363   -0.001089942078913879
-0.8022069313456082   0.0035289786903585363   -0.001089942078913879
-0.8022069313456082   0.0035289786903585363   -0.001089942078913879
-0.7108771888974462   0.06140158171945362   0.06040157155011838
-0.7108771888974462   0.06140158171945362   0.06040157155011838
-0.7108771888974462   0.06140158171945362   0.06040157155011838
-0.7108771888974462   0.06140158171945362   0.06040157155011838
-0.9559623319180528   -0.0812732678464631   -0.04084314099336394
-0.9559623319180528   -0.0812732678464631   -0.04084314099336394
-0.9559623319180528   -0.0812732678464631   -0.04084314099336394
-0.9559623319180528   -0.0812732678464631   -0.04084314099336394
-0.9622196956312231   -0.015489496260666896   0.06413648636196026
-0.9622196956312231   -0.015489496260666896   0.06413648636196026
-0.9622196956312231   -0.015489496260666896   0.06413648636196026
-0.9622196956312231   -0.015489496260666896   0.06413648636196026
-0.7639141665821167   -0.06366425969801275   -0.025829226059993184
-0.7639141665821167   -0.06366425969801275   -0.025829226059993184
-0.7639141665821167   -0.06366425969801275   -0.025829226059993184
-0.7639141665821167   -0.06366425969801275   -0.025829226059993184
-0.816738523951786   -0.012981821542108474   -0.012331656719981772
-0.816738523951786   -0.012981821542108474   -0.012331656719981772
-0.816738523951786   -0.012981821542108474   -0.012331656719981772
-0.816738523951786   -0.012981821542108474   -0.012331656719981772
-0.37792877792385254   -0.02469772526058729   -0.07051647763762281
-0.37792877792385254   -0.02469772526058729   -0.07051647763762281
-0.37792877792385254   -0.02469772526058729   -0.07051647763762281
-0.37792877792385254   -0.02469772526058729   -0.07051647763762281
-0.3728535492690006   0.05408514771793746   0.03174255270070026
-0.3728535492690006   0.05408514771793746   0.03174255270070026
-0.3728535492690006   0.05408514771793746   0.03174255270070026
-0.3728535492690006   0.05408514771793746   0.03174255270070026
-0.41934030776200415   -0.049297689526408096   -0.047772756330791394
-0.41934030776200415   -0.049297689526408096   -0.047772756330791394
-0.41934030776200415   -0.049297689526408096   -0.047772756330791394
-0.41934030776200415   -0.049297689526408096   -0.047772756330791394
-0.38565957339577794   0.028062005014516875   0.04775043063159129
-0.38565957339577794   0.028062005014516875   0.04775043063159129
-0.38565957339577794   0.028062005014516875   0.04775043063159129
-0.38565957339577794   0.028062005014516875   0.04775043063159129
-0.3694274144371854   0.009064271516082412   0.03238291592042017
-0.3694274144371854   0.009064271516082412   0.03238291592042017
-0.3694274144371854   0.009064271516082412   0.03238291592042017
-0.3694274144371854   0.009064271516082412   0.03238291592042017
-0.42309662453414454   -0.05230747135318508   -0.059065348692535914
-0.42309662453414454   -0.05230747135318508   -0.059065348692535914
-0.42309662453414454   -0.05230747135318508   -0.059065348692535914
-0.42309662453414454   -0.05230747135318508   -0.059065348692535914
-0.38656669776980324   0.026408345695128774   0.04038925840867613
-0.38656669776980324   0.026408345695128774   0.04038925840867613
-0.38656669776980324   0.026408345695128774   0.04038925840867613
-0.38656669776980324   0.026408345695128774   0.04038925840867613
-0.43329838572267126   -0.0621344658665985   -0.04041029926165307
-0.43329838572267126   -0.0621344658665985   -0.04041029926165307
-0.43329838572267126   -0.0621344658665985   -0.04041029926165307
-0.43329838572267126   -0.0621344658665985   -0.04041029926165307
-0.4217238531548154   0.010573320673233855   0.08870902973698186
-0.4217238531548154   0.010573320673233855   0.08870902973698186
-0.4217238531548154   0.010573320673233855   0.08870902973698186
-0.4217238531548154   0.010573320673233855   0.08870902973698186
-0.40270601267658623   -0.012994867210931446   0.012921174464040595
-0.40270601267658623   -0.012994867210931446   0.012921174464040595
-0.40270601267658623   -0.012994867210931446   0.012921174464040595
-0.40270601267658623   -0.012994867210931446   0.012921174464040595
-0.46468690334120577   -0.0695305747019292   -0.04600232581980266
-0.46468690334120577   -0.0695305747019292   -0.04600232581980266
-0.46468690334120577   -0.0695305747019292   -0.04600232581980266
-0.46468690334120577   -0.0695305747019292   -0.04600232581980266
-0.40135414342745157   0.006950621617399663   0.05022582473044709
-0.40135414342745157   0.006950621617399663   0.05022582473044709
-0.40135414342745157   0.006950621617399663   0.05022582473044709
-0.40135414342745157   0.006950621617399663   0.05022582473044709
-0.4447191475322122   -0.08715249250407842   -0.03178509384805467
-0.4447191475322122   -0.08715249250407842   -0.03178509384805467
-0.4447191475322122   -0.08715249250407842   -0.03178509384805467
-0.4447191475322122   -0.08715249250407842   -0.03178509384805467
-0.47779695109800235   -0.047219553080805936   0.08302799286179953
-0.47779695109800235   -0.047219553080805936   0.08302799286179953
-0.47779695109800235   -0.047219553080805936   0.08302799286179953
-0.47779695109800235   -0.047219553080805936   0.08302799286179953
-0.4314683524523172   -0.03907956005981518   -0.017882086264991184
-0.4314683524523172   -0.03907956005981518   -0.017882086264991184
-0.4314683524523172   -0.03907956005981518   -0.017882086264991184
-0.4314683524523172   -0.03907956005981518   -0.017882086264991184
-0.39966314808938086   -0.011868755993567695   -0.03635153768969876
-0.39966314808938086   -0.011868755993567695   -0.03635153768969876
-0.39966314808938086   -0.011868755993567695   -0.03635153768969876
-0.39966314808938086   -0.011868755993567695   -0.03635153768969876
-0.4041823915361838   -0.04962298056679371   -0.0021089879648035093
-0.4041823915361838   -0.04962298056679371   -0.0021089879648035093
-0.4041823915361838   -0.04962298056679371   -0.0021089879648035093
-0.4041823915361838   -0.04962298056679371   -0.0021089879648035093
-0.40705110435900116   -0.0330120324115627   -0.018082969596771695
-0.40705110435900116   -0.0330120324115627   -0.018082969596771695
-0.40705110435900116   -0.0330120324115627   -0.018082969596771695
-0.40705110435900116   -0.0330120324115627   -0.018082969596771695
-0.4136054556864486   -0.06764277279420397   -0.000753412685217612
-0.4136054556864486   -0.06764277279420397   -0.000753412685217612
-0.4136054556864486   -0.06764277279420397   -0.000753412685217612
-0.4136054556864486   -0.06764277279420397   -0.000753412685217612
-0.40266954078930695   -0.04229503352049883   -0.0014987622069062168
-0.40266954078930695   -0.04229503352049883   -0.0014987622069062168
-0.40266954078930695   -0.04229503352049883   -0.0014987622069062168
-0.40266954078930695   -0.04229503352049883   -0.0014987622069062168
-0.41361495025735073   -0.03699744944888761   -0.03144620888504669
-0.41361495025735073   -0.03699744944888761   -0.03144620888504669
-0.41361495025735073   -0.03699744944888761   -0.03144620888504669
-0.41361495025735073   -0.03699744944888761   -0.03144620888504669
-0.4096363138900768   -0.06625205985885779   0.0022310101951414658
-0.4096363138900768   -0.06625205985885779   0.0022310101951414658
-0.4096363138900768   -0.06625205985885779   0.0022310101951414658
-0.4096363138900768   -0.06625205985885779   0.0022310101951414658
-0.4138132027493768   -0.05463210160432782   -0.011647200240092767
-0.4138132027493768   -0.05463210160432782   -0.011647200240092767
-0.4138132027493768   -0.05463210160432782   -0.011647200240092767
-0.4138132027493768   -0.05463210160432782   -0.011647200240092767
-0.42849644586692626   -0.08771392124979369   0.009178855400267034
-0.42849644586692626   -0.08771392124979369   0.009178855400267034
-0.42849644586692626   -0.08771392124979369   0.009178855400267034
-0.42849644586692626   -0.08771392124979369   0.009178855400267034
-0.4118454832894252   -0.059749417959194306   -0.011495294978231475
-0.4118454832894252   -0.059749417959194306   -0.011495294978231475
-0.4118454832894252   -0.059749417959194306   -0.011495294978231475
-0.4118454832894252   -0.059749417959194306   -0.011495294978231475
-0.42947458823203344   -0.06010007848988266   -0.023325699185179714
-0.42947458823203344   -0.06010007848988266   -0.023325699185179714
-0.42947458823203344   -0.06010007848988266   -0.023325699185179714
-0.42947458823203344   -0.06010007848988266   -0.023325699185179714
-0.41615433534373514   -0.0855652193237113   0.007580254507487735
-0.41615433534373514   -0.0855652193237113   0.007580254507487735
-0.41615433534373514   -0.0855652193237113   0.007580254507487735
-0.41615433534373514   -0.0855652193237113   0.007580254507487735
-0.4198744409043209   -0.07795199048960202   -0.005271753605499545
-0.4198744409043209   -0.07795199048960202   -0.005271753605499545
-0.4198744409043209   -0.07795199048960202   -0.005271753605499545
-0.4198744409043209   -0.07795199048960202   -0.005271753605499545
-0.43988229441611626   -0.11323615915074216   0.018482838379085792
-0.43988229441611626   -0.11323615915074216   0.018482838379085792
-0.43988229441611626   -0.11323615915074216   0.018482838379085792
-0.43988229441611626   -0.11323615915074216   0.018482838379085792
-0.4245015367928001   -0.08086511262187972   -0.0242243395384826
-0.4245015367928001   -0.08086511262187972   -0.0242243395384826
-0.4245015367928001   -0.08086511262187972   -0.0242243395384826
-0.4245015367928001   -0.08086511262187972   -0.0242243395384826
-0.39312897920744794   0.010192692663531538   -0.006657599551442
-0.39312897920744794   0.010192692663531538   -0.006657599551442
-0.39312897920744794   0.010192692663531538   -0.006657599551442
-0.39312897920744794   0.010192692663531538   -0.006657599551442
-0.4440271149836036   -0.08428852076446924   -0.02126202572144211
-0.4440271149836036   -0.08428852076446924   -0.02126202572144211
-0.4440271149836036   -0.08428852076446924   -0.02126202572144211
-0.4440271149836036   -0.08428852076446924   -0.02126202572144211
-0.4258302089848558   -0.015519516971673641   0.0056470103091861325
-0.4258302089848558   -0.015519516971673641   0.0056470103091861325
-0.4258302089848558   -0.015519516971673641   0.0056470103091861325
-0.4258302089848558   -0.015519516971673641   0.0056470103091861325
-0.4177221265942159   -0.09129814526780053   -0.013151967916611244
-0.4177221265942159   -0.09129814526780053   -0.013151967916611244
-0.4177221265942159   -0.09129814526780053   -0.013151967916611244
-0.4177221265942159   -0.09129814526780053   -0.013151967916611244
-0.41988400896141825   -0.046658227595060754   -0.009541775249301542
-0.41988400896141825   -0.046658227595060754   -0.009541775249301542
-0.41988400896141825   -0.046658227595060754   -0.009541775249301542
-0.41988400896141825   -0.046658227595060754   -0.009541775249301542
-0.3991026201208968   -0.011311597853568   -4.0982964244620085e-05
-0.3991026201208968   -0.011311597853568   -4.0982964244620085e-05
-0.3991026201208968   -0.011311597853568   -4.0982964244620085e-05
-0.3991026201208968   -0.011311597853568   -4.0982964244620085e-05
-0.44680407074529954   -0.09786041967303279   -0.016881395791673515
-0.44680407074529954   -0.09786041967303279   -0.016881395791673515
-0.44680407074529954   -0.09786041967303279   -0.016881395791673515
-0.44680407074529954   -0.09786041967303279   -0.016881395791673515
-0.4306719861190954   -0.0371980896571771   0.012040487417579926
-0.4306719861190954   -0.0371980896571771   0.012040487417579926
-0.4306719861190954   -0.0371980896571771   0.012040487417579926
-0.4306719861190954   -0.0371980896571771   0.012040487417579926
-0.42405071801429284   -0.10838784959256507   -0.009079028576443288
-0.42405071801429284   -0.10838784959256507   -0.009079028576443288
-0.42405071801429284   -0.10838784959256507   -0.009079028576443288
-0.42405071801429284   -0.10838784959256507   -0.009079028576443288
-0.42503306958912046   -0.06317740748994463   -0.018113262870640162
-0.42503306958912046   -0.06317740748994463   -0.018113262870640162
-0.42503306958912046   -0.06317740748994463   -0.018113262870640162
-0.42503306958912046   -0.06317740748994463   -0.018113262870640162
-0.40594656299043325   -0.033375269270751   0.0064291662210482995
-0.40594656299043325   -0.033375269270751   0.0064291662210482995
-0.40594656299043325   -0.033375269270751   0.0064291662210482995
-0.40594656299043325   -0.033375269270751   0.0064291662210482995
-0.45140604046065824   -0.11484056929669444   -0.013987304650724706
-0.45140604046065824   -0.11484056929669444   -0.013987304650724706
-0.45140604046065824   -0.11484056929669444   -0.013987304650724706
-0.45140604046065824   -0.11484056929669444   -0.013987304650724706
-0.43460331726057994   -0.05759109049187415   0.01829122240019472
-0.43460331726057994   -0.05759109049187415   0.01829122240019472
-0.43460331726057994   -0.05759109049187415   0.01829122240019472
-0.43460331726057994   -0.05759109049187415   0.01829122240019472
-0.42874600849771727   -0.12479712150293076   -0.0027844605591525184
-0.42874600849771727   -0.12479712150293076   -0.0027844605591525184
-0.42874600849771727   -0.12479712150293076   -0.0027844605591525184
-0.42874600849771727   -0.12479712150293076   -0.0027844605591525184
-0.4311777842135735   -0.08045670233789942   -0.02753188353698767
-0.4311777842135735   -0.08045670233789942   -0.02753188353698767
-0.4311777842135735   -0.08045670233789942   -0.02753188353698767
-0.4311777842135735   -0.08045670233789942   -0.02753188353698767
-0.4100001620160723   0.043889412712056375   0.020694805639688646
-0.4100001620160723   0.043889412712056375   0.020694805639688646
-0.4100001620160723   0.043889412712056375   0.020694805639688646
-0.4100001620160723   0.043889412712056375   0.020694805639688646
-0.48394348359304595   -0.06278701178763377   -0.029600224917889606
-0.48394348359304595   -0.06278701178763377   -0.029600224917889606
-0.48394348359304595   -0.06278701178763377   -0.029600224917889606
-0.48394348359304595   -0.06278701178763377   -0.029600224917889606
-0.4577518399655448   0.013178933734352194   0.02870609918654809
-0.4577518399655448   0.013178933734352194   0.02870609918654809
-0.4577518399655448   0.013178933734352194   0.02870609918654809
-0.4577518399655448   0.013178933734352194   0.02870609918654809
-0.4414976501220946   -0.07025940312702911   -0.01795030922165238
-0.4414976501220946   -0.07025940312702911   -0.01795030922165238
-0.4414976501220946   -0.07025940312702911   -0.01795030922165238
-0.4414976501220946   -0.07025940312702911   -0.01795030922165238
-0.4482707922156011   -0.01852001080384029   -0.005699514511657188
-0.4482707922156011   -0.01852001080384029   -0.005699514511657188
-0.4482707922156011   -0.01852001080384029   -0.005699514511657188
-0.4482707922156011   -0.01852001080384029   -0.005699514511657188
-0.41411673504067986   0.021586422911411704   0.027108440146980613
-0.41411673504067986   0.021586422911411704   0.027108440146980613
-0.41411673504067986   0.021586422911411704   0.027108440146980613
-0.41411673504067986   0.021586422911411704   0.027108440146980613
-0.48825724304373214   -0.08179138030085865   -0.028850602169177925
-0.48825724304373214   -0.08179138030085865   -0.028850602169177925
-0.48825724304373214   -0.08179138030085865   -0.028850602169177925
-0.48825724304373214   -0.08179138030085865   -0.028850602169177925
-0.4661882195018355   -0.007979270182431705   0.0325422519302731
-0.4661882195018355   -0.007979270182431705   0.0325422519302731
-0.4661882195018355   -0.007979270182431705   0.0325422519302731
-0.4661882195018355   -0.007979270182431705   0.0325422519302731
-0.44570447420413006   -0.08602554176328123   -0.014294500901489399
-0.44570447420413006   -0.08602554176328123   -0.014294500901489399
-0.44570447420413006   -0.08602554176328123   -0.014294500901489399
-0.44570447420413006   -0.08602554176328123   -0.014294500901489399
-0.45250353420347206   -0.03642015619996497   -0.015750170382648566
-0.45250353420347206   -0.03642015619996497   -0.015750170382648566
-0.45250353420347206   -0.03642015619996497   -0.015750170382648566
-0.45250353420347206   -0.03642015619996497   -0.015750170382648566
-0.4186338431672588   0.0016914810019602322   0.03334163151762545
-0.4186338431672588   0.0016914810019602322   0.03334163151762545
-0.4186338431672588   0.0016914810019602322   0.03334163151762545
-0.4186338431672588   0.0016914810019602322   0.03334163151762545
-0.49596675531368584   -0.09840419772264969   -0.025925499588760607
-0.49596675531368584   -0.09840419772264969   -0.025925499588760607
-0.49596675531368584   -0.09840419772264969   -0.025925499588760607
-0.49596675531368584   -0.09840419772264969   -0.025925499588760607
-0.4717544109648006   -0.028268424423473368   0.0396818921183781
-0.4717544109648006   -0.028268424423473368   0.0396818921183781
-0.4717544109648006   -0.028268424423473368   0.0396818921183781
-0.4717544109648006   -0.028268424423473368   0.0396818921183781
-0.44930968298469576   -0.10185981451338762   -0.010971882198870849
-0.44930968298469576   -0.10185981451338762   -0.010971882198870849
-0.44930968298469576   -0.10185981451338762   -0.010971882198870849
-0.44930968298469576   -0.10185981451338762   -0.010971882198870849
-0.45994253062364765   -0.05328167863764734   -0.025484502749183683
-0.45994253062364765   -0.05328167863764734   -0.025484502749183683
-0.45994253062364765   -0.05328167863764734   -0.025484502749183683
-0.45994253062364765   -0.05328167863764734   -0.025484502749183683
-0.4446148112983571   0.06296533882899785   0.041290785938914755
-0.4446148112983571   0.06296533882899785   0.041290785938914755
-0.4446148112983571   0.06296533882899785   0.041290785938914755
-0.4446148112983571   0.06296533882899785   0.041290785938914755
-0.47443275176317884   -0.037840089196163676   -0.04291975980199916
-0.47443275176317884   -0.037840089196163676   -0.04291975980199916
-0.47443275176317884   -0.037840089196163676   -0.04291975980199916
-0.47443275176317884   -0.037840089196163676   -0.04291975980199916
-0.4636788819061308   0.04492083288081389   0.04588223913685818
-0.4636788819061308   0.04492083288081389   0.04588223913685818
-0.4636788819061308   0.04492083288081389   0.04588223913685818
-0.4636788819061308   0.04492083288081389   0.04588223913685818
-0.48112853716176807   -0.04876551648843049   -0.026232936571793375
-0.48112853716176807   -0.04876551648843049   -0.026232936571793375
-0.48112853716176807   -0.04876551648843049   -0.026232936571793375
-0.48112853716176807   -0.04876551648843049   -0.026232936571793375
-0.45014323103668924   0.011296450403610353   0.001687454460533741
-0.45014323103668924   0.011296450403610353   0.001687454460533741
-0.45014323103668924   0.011296450403610353   0.001687454460533741
-0.45014323103668924   0.011296450403610353   0.001687454460533741
-0.446849854138083   0.04865765251557043   0.04773730954262367
-0.446849854138083   0.04865765251557043   0.04773730954262367
-0.446849854138083   0.04865765251557043   0.04773730954262367
-0.446849854138083   0.04865765251557043   0.04773730954262367
-0.5004991581033863   -0.055043929296763765   -0.03825437967182615
-0.5004991581033863   -0.055043929296763765   -0.03825437967182615
-0.5004991581033863   -0.055043929296763765   -0.03825437967182615
-0.5004991581033863   -0.055043929296763765   -0.03825437967182615
-0.4841031383604915   0.03308418640888694   0.059084936725824856
-0.4841031383604915   0.03308418640888694   0.059084936725824856
-0.4841031383604915   0.03308418640888694   0.059084936725824856
-0.4841031383604915   0.03308418640888694   0.059084936725824856
-0.48749810144128286   -0.05803827513407254   -0.023948152815330838
-0.48749810144128286   -0.05803827513407254   -0.023948152815330838
-0.48749810144128286   -0.05803827513407254   -0.023948152815330838
-0.48749810144128286   -0.05803827513407254   -0.023948152815330838
-0.4721338161169718   -0.0030516979549022327   -0.010155159939644422
-0.4721338161169718   -0.0030516979549022327   -0.010155159939644422
-0.4721338161169718   -0.0030516979549022327   -0.010155159939644422
-0.4721338161169718   -0.0030516979549022327   -0.010155159939644422
-0.4518413826315972   0.03914915285775364   0.05714801324126401
-0.4518413826315972   0.03914915285775364   0.05714801324126401
-0.4518413826315972   0.03914915285775364   0.05714801324126401
-0.4518413826315972   0.03914915285775364   0.05714801324126401
-0.5230764037547059   -0.06741978816746669   -0.035277415668878424
-0.5230764037547059   -0.06741978816746669   -0.035277415668878424
-0.5230764037547059   -0.06741978816746669   -0.035277415668878424
-0.5230764037547059   -0.06741978816746669   -0.035277415668878424
-0.5201950003117897   0.002873348486966118   0.06313964859457416
-0.5201950003117897   0.002873348486966118   0.06313964859457416
-0.5201950003117897   0.002873348486966118   0.06313964859457416
-0.5201950003117897   0.002873348486966118   0.06313964859457416
-0.49330381616549157   -0.07551790507829834   -0.02081565323025166
-0.49330381616549157   -0.07551790507829834   -0.02081565323025166
-0.49330381616549157   -0.07551790507829834   -0.02081565323025166
-0.49330381616549157   -0.07551790507829834   -0.02081565323025166
-0.48256624351923666   -0.016242705350696343   -0.020849630751404707
-0.48256624351923666   -0.016242705350696343   -0.020849630751404707
-0.48256624351923666   -0.016242705350696343   -0.020849630751404707
-0.48256624351923666   -0.016242705350696343   -0.020849630751404707
-0.9594384275644057   -0.08760821533571994   -0.09013938427218171
-0.9594384275644057   -0.08760821533571994   -0.09013938427218171
-0.9594384275644057   -0.08760821533571994   -0.09013938427218171
-0.9594384275644057   -0.08760821533571994   -0.09013938427218171
-0.6077776755795475   0.05221104318289438   0.021276627738607425
-0.6077776755795475   0.05221104318289438   0.021276627738607425
-0.6077776755795475   0.05221104318289438   0.021276627738607425
-0.6077776755795475   0.05221104318289438   0.021276627738607425
-0.6381156869287317   -0.04000487988891545   -0.04012788035261651
-0.6381156869287317   -0.04000487988891545   -0.04012788035261651
-0.6381156869287317   -0.04000487988891545   -0.04012788035261651
-0.6381156869287317   -0.04000487988891545   -0.04012788035261651
-1.0195848450066207   -0.11435768861933493   0.10121854031331734
-1.0195848450066207   -0.11435768861933493   0.10121854031331734
-1.0195848450066207   -0.11435768861933493   0.10121854031331734
-1.0195848450066207   -0.11435768861933493   0.10121854031331734
-0.7412825609443157   -0.028045161273487218   0.09805884778815241
-0.7412825609443157   -0.028045161273487218   0.09805884778815241
-0.7412825609443157   -0.028045161273487218   0.09805884778815241
-0.7412825609443157   -0.028045161273487218   0.09805884778815241
-1.0559014143280625   -0.12873404023408447   -0.06598795467913096
-1.0559014143280625   -0.12873404023408447   -0.06598795467913096
-1.0559014143280625   -0.12873404023408447   -0.06598795467913096
-1.0559014143280625   -0.12873404023408447   -0.06598795467913096
-0.6273271822315769   -0.05115659289845098   0.024966356142693075
-0.6273271822315769   -0.05115659289845098   0.024966356142693075
-0.6273271822315769   -0.05115659289845098   0.024966356142693075
-0.6273271822315769   -0.05115659289845098   0.024966356142693075
-0.6477234675738184   -0.058117876141868335   -0.028747339919526084
-0.6477234675738184   -0.058117876141868335   -0.028747339919526084
-0.6477234675738184   -0.058117876141868335   -0.028747339919526084
-0.6477234675738184   -0.058117876141868335   -0.028747339919526084
-1.051776378239138   -0.15985898236355015   0.002638661529398942
-1.051776378239138   -0.15985898236355015   0.002638661529398942
-1.051776378239138   -0.15985898236355015   0.002638661529398942
-1.051776378239138   -0.15985898236355015   0.002638661529398942
-0.8203629327177265   -0.09646444801517684   0.022608399761419838
-0.8203629327177265   -0.09646444801517684   0.022608399761419838
-0.8203629327177265   -0.09646444801517684   0.022608399761419838
-0.8203629327177265   -0.09646444801517684   0.022608399761419838
-1.0600337992319104   -0.1454432997076517   -0.05306412609035111
-1.0600337992319104   -0.1454432997076517   -0.05306412609035111
-1.0600337992319104   -0.1454432997076517   -0.05306412609035111
-1.0600337992319104   -0.1454432997076517   -0.05306412609035111
-0.6472175314369782   -0.08028504365369851   -0.0040504917235027055
-0.6472175314369782   -0.08028504365369851   -0.0040504917235027055
-0.6472175314369782   -0.08028504365369851   -0.0040504917235027055
-0.6472175314369782   -0.08028504365369851   -0.0040504917235027055
-0.6479887883267399   -0.10204350501405354   -0.020899929575700985
-0.6479887883267399   -0.10204350501405354   -0.020899929575700985
-0.6479887883267399   -0.10204350501405354   -0.020899929575700985
-0.6479887883267399   -0.10204350501405354   -0.020899929575700985
-1.0766270454365157   -0.2442505302278704   0.016232448132243848
-1.0766270454365157   -0.2442505302278704   0.016232448132243848
-1.0766270454365157   -0.2442505302278704   0.016232448132243848
-1.0766270454365157   -0.2442505302278704   0.016232448132243848
-0.8192700525569487   -0.13264706681600488   0.0016377792927327398
-0.8192700525569487   -0.13264706681600488   0.0016377792927327398
-0.8192700525569487   -0.13264706681600488   0.0016377792927327398
-0.8192700525569487   -0.13264706681600488   0.0016377792927327398
-0.6563248085308554   -0.11123272094981138   -0.058015272885220265
-0.6563248085308554   -0.11123272094981138   -0.058015272885220265
-0.6563248085308554   -0.11123272094981138   -0.058015272885220265
-0.6563248085308554   -0.11123272094981138   -0.058015272885220265
-0.45029068208560435   -0.2902894106741545   -0.05445918211986267
-0.45029068208560435   -0.2902894106741545   -0.05445918211986267
-0.45029068208560435   -0.2902894106741545   -0.05445918211986267
-0.45029068208560435   -0.2902894106741545   -0.05445918211986267
-0.3955574276749406   -0.06455662965697714   -0.003370725010591503
-0.3955574276749406   -0.06455662965697714   -0.003370725010591503
-0.3955574276749406   -0.06455662965697714   -0.003370725010591503
-0.3955574276749406   -0.06455662965697714   -0.003370725010591503
-0.6974535834653032   -0.3081012337077219   -0.06872100921666696
-0.6974535834653032   -0.3081012337077219   -0.06872100921666696
-0.6974535834653032   -0.3081012337077219   -0.06872100921666696
-0.6974535834653032   -0.3081012337077219   -0.06872100921666696
-0.5435100671372337   -0.20546024633238785   -0.01582380592253829
-0.5435100671372337   -0.20546024633238785   -0.01582380592253829
-0.5435100671372337   -0.20546024633238785   -0.01582380592253829
-0.5435100671372337   -0.20546024633238785   -0.01582380592253829
-0.6557518360605451   -0.12465338959341593   -0.04366011630718096
-0.6557518360605451   -0.12465338959341593   -0.04366011630718096
-0.6557518360605451   -0.12465338959341593   -0.04366011630718096
-0.6557518360605451   -0.12465338959341593   -0.04366011630718096
-0.43992125329649184   -0.2506665519880767   -0.039079930787251894
-0.43992125329649184   -0.2506665519880767   -0.039079930787251894
-0.43992125329649184   -0.2506665519880767   -0.039079930787251894
-0.43992125329649184   -0.2506665519880767   -0.039079930787251894
-0.3998687645542937   -0.08368455172969444   0.0006980216881306643
-0.3998687645542937   -0.08368455172969444   0.0006980216881306643
-0.3998687645542937   -0.08368455172969444   0.0006980216881306643
-0.3998687645542937   -0.08368455172969444   0.0006980216881306643
-0.6997704881377932   -0.30650777701868004   -0.040592541862596004
-0.6997704881377932   -0.30650777701868004   -0.040592541862596004
-0.6997704881377932   -0.30650777701868004   -0.040592541862596004
-0.6997704881377932   -0.30650777701868004   -0.040592541862596004
-0.5373467543616447   -0.19259382623101834   -0.016809600137375195
-0.5373467543616447   -0.19259382623101834   -0.016809600137375195
-0.5373467543616447   -0.19259382623101834   -0.016809600137375195
-0.5373467543616447   -0.19259382623101834   -0.016809600137375195
-0.6655959920861562   -0.14351264108192474   -0.032715197541158474
-0.6655959920861562   -0.14351264108192474   -0.032715197541158474
-0.6655959920861562   -0.14351264108192474   -0.032715197541158474
-0.6655959920861562   -0.14351264108192474   -0.032715197541158474
-0.43954058074790736   -0.25217700780842567   -0.02916860320121023
-0.43954058074790736   -0.25217700780842567   -0.02916860320121023
-0.43954058074790736   -0.25217700780842567   -0.02916860320121023
-0.43954058074790736   -0.25217700780842567   -0.02916860320121023
-0.3994969942473645   -0.10755282653594597   0.006514201284314999
-0.3994969942473645   -0.10755282653594597   0.006514201284314999
-0.3994969942473645   -0.10755282653594597   0.006514201284314999
-0.3994969942473645   -0.10755282653594597   0.006514201284314999
-0.6978285673141441   -0.31168886613215674   -0.060453463394627524
-0.6978285673141441   -0.31168886613215674   -0.060453463394627524
-0.6978285673141441   -0.31168886613215674   -0.060453463394627524
-0.6978285673141441   -0.31168886613215674   -0.060453463394627524
-0.54524059196081   -0.20720262253591937   -0.031205303173744967
-0.54524059196081   -0.20720262253591937   -0.031205303173744967
-0.54524059196081   -0.20720262253591937   -0.031205303173744967
-0.54524059196081   -0.20720262253591937   -0.031205303173744967
-0.39665068340968657   -0.07155879099023588   -0.004989808424192257
-0.39665068340968657   -0.07155879099023588   -0.004989808424192257
-0.39665068340968657   -0.07155879099023588   -0.004989808424192257
-0.39665068340968657   -0.07155879099023588   -0.004989808424192257
-0.33198886331131544   -0.22195369259812728   -0.038317241098423827
-0.33198886331131544   -0.22195369259812728   -0.038317241098423827
-0.33198886331131544   -0.22195369259812728   -0.038317241098423827
-0.33198886331131544   -0.22195369259812728   -0.038317241098423827
-0.28606848459303674   -0.059270356648259845   0.015333333179913035
-0.28606848459303674   -0.059270356648259845   0.015333333179913035
-0.28606848459303674   -0.059270356648259845   0.015333333179913035
-0.28606848459303674   -0.059270356648259845   0.015333333179913035
-0.43874385319873865   -0.24147295673241997   -0.04238652555414289
-0.43874385319873865   -0.24147295673241997   -0.04238652555414289
-0.43874385319873865   -0.24147295673241997   -0.04238652555414289
-0.43874385319873865   -0.24147295673241997   -0.04238652555414289
-0.3617520544464839   -0.15066585841553895   -0.017692037398113647
-0.3617520544464839   -0.15066585841553895   -0.017692037398113647
-0.3617520544464839   -0.15066585841553895   -0.017692037398113647
-0.3617520544464839   -0.15066585841553895   -0.017692037398113647
-0.3987784634406698   -0.08473793812751063   0.0007054046312922071
-0.3987784634406698   -0.08473793812751063   0.0007054046312922071
-0.3987784634406698   -0.08473793812751063   0.0007054046312922071
-0.3987784634406698   -0.08473793812751063   0.0007054046312922071
-0.32838744841963885   -0.21835894932170113   -0.03717289327964847
-0.32838744841963885   -0.21835894932170113   -0.03717289327964847
-0.32838744841963885   -0.21835894932170113   -0.03717289327964847
-0.32838744841963885   -0.21835894932170113   -0.03717289327964847
-0.2859790057625987   -0.07498600124900306   0.019858500889672694
-0.2859790057625987   -0.07498600124900306   0.019858500889672694
-0.2859790057625987   -0.07498600124900306   0.019858500889672694
-0.2859790057625987   -0.07498600124900306   0.019858500889672694
-0.4399341076825821   -0.24530337868012936   -0.0380098670028806
-0.4399341076825821   -0.24530337868012936   -0.0380098670028806
-0.4399341076825821   -0.24530337868012936   -0.0380098670028806
-0.4399341076825821   -0.24530337868012936   -0.0380098670028806
-0.36094239062148803   -0.15660239854232005   -0.022953845981827453
-0.36094239062148803   -0.15660239854232005   -0.022953845981827453
-0.36094239062148803   -0.15660239854232005   -0.022953845981827453
-0.36094239062148803   -0.15660239854232005   -0.022953845981827453
-0.40192321361593375   -0.1006652483896318   0.007406473039864007
-0.40192321361593375   -0.1006652483896318   0.007406473039864007
-0.40192321361593375   -0.1006652483896318   0.007406473039864007
-0.40192321361593375   -0.1006652483896318   0.007406473039864007
-0.32528142839822693   -0.22091566010848163   -0.030723953428989682
-0.32528142839822693   -0.22091566010848163   -0.030723953428989682
-0.32528142839822693   -0.22091566010848163   -0.030723953428989682
-0.32528142839822693   -0.22091566010848163   -0.030723953428989682
-0.28239507293115623   -0.09001400180717523   0.024780202353079532
-0.28239507293115623   -0.09001400180717523   0.024780202353079532
-0.28239507293115623   -0.09001400180717523   0.024780202353079532
-0.28239507293115623   -0.09001400180717523   0.024780202353079532
-0.43446648345298033   -0.24847307424931203   -0.027412997030402203
-0.43446648345298033   -0.24847307424931203   -0.027412997030402203
-0.43446648345298033   -0.24847307424931203   -0.027412997030402203
-0.43446648345298033   -0.24847307424931203   -0.027412997030402203
-0.3596489996191296   -0.16439265735917122   -0.026577970968888934
-0.3596489996191296   -0.16439265735917122   -0.026577970968888934
-0.3596489996191296   -0.16439265735917122   -0.026577970968888934
-0.3596489996191296   -0.16439265735917122   -0.026577970968888934
-0.2765044097070247   -0.00995740430156053   0.02710873862645541
-0.2765044097070247   -0.00995740430156053   0.02710873862645541
-0.2765044097070247   -0.00995740430156053   0.02710873862645541
-0.2765044097070247   -0.00995740430156053   0.02710873862645541
-0.26071148910125286   -0.11733945944194442   -0.022870243222851087
-0.26071148910125286   -0.11733945944194442   -0.022870243222851087
-0.26071148910125286   -0.11733945944194442   -0.022870243222851087
-0.26071148910125286   -0.11733945944194442   -0.022870243222851087
-0.22461395484335347   -0.017008318321911735   0.03142141952519329
-0.22461395484335347   -0.017008318321911735   0.03142141952519329
-0.22461395484335347   -0.017008318321911735   0.03142141952519329
-0.22461395484335347   -0.017008318321911735   0.03142141952519329
-0.3076878826396413   -0.1358064227140882   -0.01622759098728142
-0.3076878826396413   -0.1358064227140882   -0.01622759098728142
-0.3076878826396413   -0.1358064227140882   -0.01622759098728142
-0.3076878826396413   -0.1358064227140882   -0.01622759098728142
-0.26827783036398634   -0.06939307954267698   -0.009587867135458002
-0.26827783036398634   -0.06939307954267698   -0.009587867135458002
-0.26827783036398634   -0.06939307954267698   -0.009587867135458002
-0.26827783036398634   -0.06939307954267698   -0.009587867135458002
-0.2765118412677101   -0.027419117400137014   0.03126531055842353
-0.2765118412677101   -0.027419117400137014   0.03126531055842353
-0.2765118412677101   -0.027419117400137014   0.03126531055842353
-0.2765118412677101   -0.027419117400137014   0.03126531055842353
-0.2582857974170076   -0.1278914248375858   -0.02605468682740324
-0.2582857974170076   -0.1278914248375858   -0.02605468682740324
-0.2582857974170076   -0.1278914248375858   -0.02605468682740324
-0.2582857974170076   -0.1278914248375858   -0.02605468682740324
-0.2247572428614561   -0.032224646384332076   0.03376274465058242
-0.2247572428614561   -0.032224646384332076   0.03376274465058242
-0.2247572428614561   -0.032224646384332076   0.03376274465058242
-0.2247572428614561   -0.032224646384332076   0.03376274465058242
-0.30739114738578444   -0.14407197105560118   -0.018116237419657743
-0.30739114738578444   -0.14407197105560118   -0.018116237419657743
-0.30739114738578444   -0.14407197105560118   -0.018116237419657743
-0.30739114738578444   -0.14407197105560118   -0.018116237419657743
-0.2669350490336948   -0.08162765677235163   -0.016258668478435885
-0.2669350490336948   -0.08162765677235163   -0.016258668478435885
-0.2669350490336948   -0.08162765677235163   -0.016258668478435885
-0.2669350490336948   -0.08162765677235163   -0.016258668478435885
-0.2762715978345378   -0.042165132044059625   0.03557467132502634
-0.2762715978345378   -0.042165132044059625   0.03557467132502634
-0.2762715978345378   -0.042165132044059625   0.03557467132502634
-0.2762715978345378   -0.042165132044059625   0.03557467132502634
-0.25738737552361346   -0.13564206850678434   -0.02597049653775209
-0.25738737552361346   -0.13564206850678434   -0.02597049653775209
-0.25738737552361346   -0.13564206850678434   -0.02597049653775209
-0.25738737552361346   -0.13564206850678434   -0.02597049653775209
-0.22263689204651366   -0.04650689308763875   0.039119933991676015
-0.22263689204651366   -0.04650689308763875   0.039119933991676015
-0.22263689204651366   -0.04650689308763875   0.039119933991676015
-0.22263689204651366   -0.04650689308763875   0.039119933991676015
-0.30230158528726014   -0.1523512570412623   -0.012415104193352743
-0.30230158528726014   -0.1523512570412623   -0.012415104193352743
-0.30230158528726014   -0.1523512570412623   -0.012415104193352743
-0.30230158528726014   -0.1523512570412623   -0.012415104193352743
-0.2659225937829799   -0.09212057120750954   -0.020873809914967737
-0.2659225937829799   -0.09212057120750954   -0.020873809914967737
-0.2659225937829799   -0.09212057120750954   -0.020873809914967737
-0.2659225937829799   -0.09212057120750954   -0.020873809914967737
-0.2181394186105713   0.030443882793733418   0.042206766994878755
-0.2181394186105713   0.030443882793733418   0.042206766994878755
-0.2181394186105713   0.030443882793733418   0.042206766994878755
-0.2181394186105713   0.030443882793733418   0.042206766994878755
-0.14393907513712262   -0.03847694107974792   -0.014016913402869702
-0.14393907513712262   -0.03847694107974792   -0.014016913402869702
-0.14393907513712262   -0.03847694107974792   -0.014016913402869702
-0.14393907513712262   -0.03847694107974792   -0.014016913402869702
-0.12535713727830425   0.03596669478068705   0.04165671989034591
-0.12535713727830425   0.03596669478068705   0.04165671989034591
-0.12535713727830425   0.03596669478068705   0.04165671989034591
-0.12535713727830425   0.03596669478068705   0.04165671989034591
-0.24077892177537003   -0.05916324632292941   -0.007248487133871713
-0.24077892177537003   -0.05916324632292941   -0.007248487133871713
-0.24077892177537003   -0.05916324632292941   -0.007248487133871713
-0.24077892177537003   -0.05916324632292941   -0.007248487133871713
-0.17959575571682554   -0.003742648628413392   -0.007681719239286407
-0.17959575571682554   -0.003742648628413392   -0.007681719239286407
-0.17959575571682554   -0.003742648628413392   -0.007681719239286407
-0.17959575571682554   -0.003742648628413392   -0.007681719239286407
-0.21447788877167145   0.019024905680238173   0.046068525881453395
-0.21447788877167145   0.019024905680238173   0.046068525881453395
-0.21447788877167145   0.019024905680238173   0.046068525881453395
-0.21447788877167145   0.019024905680238173   0.046068525881453395
-0.1519005959952909   -0.04246388293576737   -0.012629995978148276
-0.1519005959952909   -0.04246388293576737   -0.012629995978148276
-0.1519005959952909   -0.04246388293576737   -0.012629995978148276
-0.1519005959952909   -0.04246388293576737   -0.012629995978148276
-0.13076747593447632   0.028580863598559013   0.0524169153410204
-0.13076747593447632   0.028580863598559013   0.0524169153410204
-0.13076747593447632   0.028580863598559013   0.0524169153410204
-0.13076747593447632   0.028580863598559013   0.0524169153410204
-0.23951884598658013   -0.06295575482130762   -0.009314162538062215
-0.23951884598658013   -0.06295575482130762   -0.009314162538062215
-0.23951884598658013   -0.06295575482130762   -0.009314162538062215
-0.23951884598658013   -0.06295575482130762   -0.009314162538062215
-0.18477009317517412   -0.011812986069184447   -0.010767020503037369
-0.18477009317517412   -0.011812986069184447   -0.010767020503037369
-0.18477009317517412   -0.011812986069184447   -0.010767020503037369
-0.18477009317517412   -0.011812986069184447   -0.010767020503037369
-0.2119610509230753   0.012468814270219127   0.05305024368793526
-0.2119610509230753   0.012468814270219127   0.05305024368793526
-0.2119610509230753   0.012468814270219127   0.05305024368793526
-0.2119610509230753   0.012468814270219127   0.05305024368793526
-0.16021177652321172   -0.048730211018200825   -0.01749351298589664
-0.16021177652321172   -0.048730211018200825   -0.01749351298589664
-0.16021177652321172   -0.048730211018200825   -0.01749351298589664
-0.16021177652321172   -0.048730211018200825   -0.01749351298589664
-0.1496778942193613   0.00827881117845292   0.054542006107374426
-0.1496778942193613   0.00827881117845292   0.054542006107374426
-0.1496778942193613   0.00827881117845292   0.054542006107374426
-0.1496778942193613   0.00827881117845292   0.054542006107374426
-0.23598619880749633   -0.06630970450642004   -0.007823788394456094
-0.23598619880749633   -0.06630970450642004   -0.007823788394456094
-0.23598619880749633   -0.06630970450642004   -0.007823788394456094
-0.23598619880749633   -0.06630970450642004   -0.007823788394456094
-0.1872015509865549   -0.01762526407646534   -0.01581147761218327
-0.1872015509865549   -0.01762526407646534   -0.01581147761218327
-0.1872015509865549   -0.01762526407646534   -0.01581147761218327
-0.1872015509865549   -0.01762526407646534   -0.01581147761218327
-2.2585716282832   -0.3197338839887314   -0.18765405541587665
-2.2585716282832   -0.3197338839887314   -0.18765405541587665
-2.2585716282832   -0.3197338839887314   -0.18765405541587665
-2.2585716282832   -0.3197338839887314   -0.18765405541587665
-0.7834054323150339   -1.2295733402432036   -0.14694265979361795
-0.7834054323150339   -1.2295733402432036   -0.14694265979361795
-0.7834054323150339   -1.2295733402432036   -0.14694265979361795
-0.7834054323150339   -1.2295733402432036   -0.14694265979361795
-0.6058631991548888   -0.051680838160687415   0.0008811467548228424
-0.6058631991548888   -0.051680838160687415   0.0008811467548228424
-0.6058631991548888   -0.051680838160687415   0.0008811467548228424
-0.6058631991548888   -0.051680838160687415   0.0008811467548228424
-2.4107687099652284   -1.4458864907779674   -0.7713310401486392
-2.4107687099652284   -1.4458864907779674   -0.7713310401486392
-2.4107687099652284   -1.4458864907779674   -0.7713310401486392
-2.4107687099652284   -1.4458864907779674   -0.7713310401486392
-1.4768083943642873   -0.7193881197010401   -0.10481467046734773
-1.4768083943642873   -0.7193881197010401   -0.10481467046734773
-1.4768083943642873   -0.7193881197010401   -0.10481467046734773
-1.4768083943642873   -0.7193881197010401   -0.10481467046734773
-2.0986165303195423   -0.4014158835701843   -0.2550407491280083
-2.0986165303195423   -0.4014158835701843   -0.2550407491280083
-2.0986165303195423   -0.4014158835701843   -0.2550407491280083
-2.0986165303195423   -0.4014158835701843   -0.2550407491280083
-0.8458766022781997   -1.0240126688460969   -0.22685403817631544
-0.8458766022781997   -1.0240126688460969   -0.22685403817631544
-0.8458766022781997   -1.0240126688460969   -0.22685403817631544
-0.8458766022781997   -1.0240126688460969   -0.22685403817631544
-0.6179732963876672   -0.06897125825093868   0.023274200240977646
-0.6179732963876672   -0.06897125825093868   0.023274200240977646
-0.6179732963876672   -0.06897125825093868   0.023274200240977646
-0.6179732963876672   -0.06897125825093868   0.023274200240977646
-2.2558570838410263   -1.289465907342404   -0.709064598236686
-2.2558570838410263   -1.289465907342404   -0.709064598236686
-2.2558570838410263   -1.289465907342404   -0.709064598236686
-2.2558570838410263   -1.289465907342404   -0.709064598236686
-1.39090550935215   -0.6485984671744396   0.05637363478067106
-1.39090550935215   -0.6485984671744396   0.05637363478067106
-1.39090550935215   -0.6485984671744396   0.05637363478067106
-1.39090550935215   -0.6485984671744396   0.05637363478067106
-1.9706187240714719   -0.3821857709851351   -0.19015293574619982
-1.9706187240714719   -0.3821857709851351   -0.19015293574619982
-1.9706187240714719   -0.3821857709851351   -0.19015293574619982
-1.9706187240714719   -0.3821857709851351   -0.19015293574619982
-0.8230639663345036   -0.8961037047854914   -0.17504670295864574
-0.8230639663345036   -0.8961037047854914   -0.17504670295864574
-0.8230639663345036   -0.8961037047854914   -0.17504670295864574
-0.8230639663345036   -0.8961037047854914   -0.17504670295864574
-0.7098862291674445   -0.18151489698778608   -0.03683020193641335
-0.7098862291674445   -0.18151489698778608   -0.03683020193641335
-0.7098862291674445   -0.18151489698778608   -0.03683020193641335
-0.7098862291674445   -0.18151489698778608   -0.03683020193641335
-2.056000916704205   -1.083348996985754   -0.6278699827379918
-2.056000916704205   -1.083348996985754   -0.6278699827379918
-2.056000916704205   -1.083348996985754   -0.6278699827379918
-2.056000916704205   -1.083348996985754   -0.6278699827379918
-1.2883283361259934   -0.5622412192399829   0.23842636069368178
-1.2883283361259934   -0.5622412192399829   0.23842636069368178
-1.2883283361259934   -0.5622412192399829   0.23842636069368178
-1.2883283361259934   -0.5622412192399829   0.23842636069368178
-0.5803773369016102   -0.3147416748394374   -0.046633848130271396
-0.5803773369016102   -0.3147416748394374   -0.046633848130271396
-0.5803773369016102   -0.3147416748394374   -0.046633848130271396
-0.5803773369016102   -0.3147416748394374   -0.046633848130271396
-0.2680053949674283   -0.387406886265338   -0.06620340596845908
-0.2680053949674283   -0.387406886265338   -0.06620340596845908
-0.2680053949674283   -0.387406886265338   -0.06620340596845908
-0.2680053949674283   -0.387406886265338   -0.06620340596845908
-0.23660761808188227   -0.2009591419005853   0.006143484435595398
-0.23660761808188227   -0.2009591419005853   0.006143484435595398
-0.23660761808188227   -0.2009591419005853   0.006143484435595398
-0.23660761808188227   -0.2009591419005853   0.006143484435595398
-0.7092761148825311   -0.5680517848213273   0.0001875147772578134
-0.7092761148825311   -0.5680517848213273   0.0001875147772578134
-0.7092761148825311   -0.5680517848213273   0.0001875147772578134
-0.7092761148825311   -0.5680517848213273   0.0001875147772578134
-0.3811290142731524   -0.27558286124764847   0.12199562453644257
-0.3811290142731524   -0.27558286124764847   0.12199562453644257
-0.3811290142731524   -0.27558286124764847   0.12199562453644257
-0.3811290142731524   -0.27558286124764847   0.12199562453644257
-0.6602822909715255   -0.29291816955286903   -0.02997698093618007
-0.6602822909715255   -0.29291816955286903   -0.02997698093618007
-0.6602822909715255   -0.29291816955286903   -0.02997698093618007
-0.6602822909715255   -0.29291816955286903   -0.02997698093618007
-0.3055831135882633   -0.4960744287644202   -0.04361870623247463
-0.3055831135882633   -0.4960744287644202   -0.04361870623247463
-0.3055831135882633   -0.4960744287644202   -0.04361870623247463
-0.3055831135882633   -0.4960744287644202   -0.04361870623247463
-0.2554529478383569   -0.20826703379778694   0.0062936339424330065
-0.2554529478383569   -0.20826703379778694   0.0062936339424330065
-0.2554529478383569   -0.20826703379778694   0.0062936339424330065
-0.2554529478383569   -0.20826703379778694   0.0062936339424330065
-0.7437104205813543   -0.5606370090922195   -0.11374566988617069
-0.7437104205813543   -0.5606370090922195   -0.11374566988617069
-0.7437104205813543   -0.5606370090922195   -0.11374566988617069
-0.7437104205813543   -0.5606370090922195   -0.11374566988617069
-0.4542557600877167   -0.35364202054587035   0.05579143464220687
-0.4542557600877167   -0.35364202054587035   0.05579143464220687
-0.4542557600877167   -0.35364202054587035   0.05579143464220687
-0.4542557600877167   -0.35364202054587035   0.05579143464220687
-0.681200190796297   -0.30586792932373635   -0.055963600729373925
-0.681200190796297   -0.30586792932373635   -0.055963600729373925
-0.681200190796297   -0.30586792932373635   -0.055963600729373925
-0.681200190796297   -0.30586792932373635   -0.055963600729373925
-0.31609377064279465   -0.46116670658565106   -0.04401080729188789
-0.31609377064279465   -0.46116670658565106   -0.04401080729188789
-0.31609377064279465   -0.46116670658565106   -0.04401080729188789
-0.31609377064279465   -0.46116670658565106   -0.04401080729188789
-0.28448041338354196   -0.21507580864629441   0.009263670104089287
-0.28448041338354196   -0.21507580864629441   0.009263670104089287
-0.28448041338354196   -0.21507580864629441   0.009263670104089287
-0.28448041338354196   -0.21507580864629441   0.009263670104089287
-0.7949741043921907   -0.5446470711957022   -0.09913740385222503
-0.7949741043921907   -0.5446470711957022   -0.09913740385222503
-0.7949741043921907   -0.5446470711957022   -0.09913740385222503
-0.7949741043921907   -0.5446470711957022   -0.09913740385222503
-0.47514581348410423   -0.3332833480819478   0.05905009102082813
-0.47514581348410423   -0.3332833480819478   0.05905009102082813
-0.47514581348410423   -0.3332833480819478   0.05905009102082813
-0.47514581348410423   -0.3332833480819478   0.05905009102082813
-0.21204693926854606   -0.18755455193147152   0.01373653819208557
-0.21204693926854606   -0.18755455193147152   0.01373653819208557
-0.21204693926854606   -0.18755455193147152   0.01373653819208557
-0.21204693926854606   -0.18755455193147152   0.01373653819208557
-0.129231549903129   -0.12021339885756022   -0.032288380289064375
-0.129231549903129   -0.12021339885756022   -0.032288380289064375
-0.129231549903129   -0.12021339885756022   -0.032288380289064375
-0.129231549903129   -0.12021339885756022   -0.032288380289064375
-0.12543162754650108   -0.16755855997532396   0.013873232579099656
-0.12543162754650108   -0.16755855997532396   0.013873232579099656
-0.12543162754650108   -0.16755855997532396   0.013873232579099656
-0.12543162754650108   -0.16755855997532396   0.013873232579099656
-0.2336974396443765   -0.16533693968889995   -0.014927825588561018
-0.2336974396443765   -0.16533693968889995   -0.014927825588561018
-0.2336974396443765   -0.16533693968889995   -0.014927825588561018
-0.2336974396443765   -0.16533693968889995   -0.014927825588561018
-0.14791540853005072   -0.13514585347489186   0.06114935042963752
-0.14791540853005072   -0.13514585347489186   0.06114935042963752
-0.14791540853005072   -0.13514585347489186   0.06114935042963752
-0.14791540853005072   -0.13514585347489186   0.06114935042963752
-0.2324408880743652   -0.188776216735164   0.014794209307755782
-0.2324408880743652   -0.188776216735164   0.014794209307755782
-0.2324408880743652   -0.188776216735164   0.014794209307755782
-0.2324408880743652   -0.188776216735164   0.014794209307755782
-0.12869141680974017   -0.146122520622287   -0.023861753090132592
-0.12869141680974017   -0.146122520622287   -0.023861753090132592
-0.12869141680974017   -0.146122520622287   -0.023861753090132592
-0.12869141680974017   -0.146122520622287   -0.023861753090132592
-0.12671372195228134   -0.17259437474777284   0.012314766928608743
-0.12671372195228134   -0.17259437474777284   0.012314766928608743
-0.12671372195228134   -0.17259437474777284   0.012314766928608743
-0.12671372195228134   -0.17259437474777284   0.012314766928608743
-0.24795821537977536   -0.1930174139371247   0.028517676374682235
-0.24795821537977536   -0.1930174139371247   0.028517676374682235
-0.24795821537977536   -0.1930174139371247   0.028517676374682235
-0.24795821537977536   -0.1930174139371247   0.028517676374682235
-0.1606308111261365   -0.1505446570625159   0.051920681345083486
-0.1606308111261365   -0.1505446570625159   0.051920681345083486
-0.1606308111261365   -0.1505446570625159   0.051920681345083486
-0.1606308111261365   -0.1505446570625159   0.051920681345083486
-0.25021465019503514   -0.1957615800914953   0.019979668452750288
-0.25021465019503514   -0.1957615800914953   0.019979668452750288
-0.25021465019503514   -0.1957615800914953   0.019979668452750288
-0.25021465019503514   -0.1957615800914953   0.019979668452750288
-0.13517006844997087   -0.18056298990635214   -0.021998350401259532
-0.13517006844997087   -0.18056298990635214   -0.021998350401259532
-0.13517006844997087   -0.18056298990635214   -0.021998350401259532
-0.13517006844997087   -0.18056298990635214   -0.021998350401259532
-0.1279308334275684   -0.17822654720914746   0.01728398814500881
-0.1279308334275684   -0.17822654720914746   0.01728398814500881
-0.1279308334275684   -0.17822654720914746   0.01728398814500881
-0.1279308334275684   -0.17822654720914746   0.01728398814500881
-0.28967874364055135   -0.23775777437745282   0.005953984550200665
-0.28967874364055135   -0.23775777437745282   0.005953984550200665
-0.28967874364055135   -0.23775777437745282   0.005953984550200665
-0.28967874364055135   -0.23775777437745282   0.005953984550200665
-0.17913920489695048   -0.17172670489303238   0.024699586661507393
-0.17913920489695048   -0.17172670489303238   0.024699586661507393
-0.17913920489695048   -0.17172670489303238   0.024699586661507393
-0.17913920489695048   -0.17172670489303238   0.024699586661507393
-0.10641017199690939   -0.07465343774967442   0.03625854813414782
-0.10641017199690939   -0.07465343774967442   0.03625854813414782
-0.10641017199690939   -0.07465343774967442   0.03625854813414782
-0.10641017199690939   -0.07465343774967442   0.03625854813414782
-0.07424280663330789   0.0007181701115519662   -0.007225516159169144
-0.07424280663330789   0.0007181701115519662   -0.007225516159169144
-0.07424280663330789   0.0007181701115519662   -0.007225516159169144
-0.07424280663330789   0.0007181701115519662   -0.007225516159169144
-0.07048397433672166   -0.08061613805454079   0.022519924007535875
-0.07048397433672166   -0.08061613805454079   0.022519924007535875
-0.07048397433672166   -0.08061613805454079   0.022519924007535875
-0.07048397433672166   -0.08061613805454079   0.022519924007535875
-0.09831938999745927   -0.013384059262164053   -0.004740080388851146
-0.09831938999745927   -0.013384059262164053   -0.004740080388851146
-0.09831938999745927   -0.013384059262164053   -0.004740080388851146
-0.09831938999745927   -0.013384059262164053   -0.004740080388851146
-0.08080184546859513   -0.040475049168801826   0.01798726980127835
-0.08080184546859513   -0.040475049168801826   0.01798726980127835
-0.08080184546859513   -0.040475049168801826   0.01798726980127835
-0.08080184546859513   -0.040475049168801826   0.01798726980127835
-0.10489588610808584   -0.08516985770929202   0.034163237505143954
-0.10489588610808584   -0.08516985770929202   0.034163237505143954
-0.10489588610808584   -0.08516985770929202   0.034163237505143954
-0.10489588610808584   -0.08516985770929202   0.034163237505143954
-0.062039165329712334   -0.006962026711030083   -0.008910142300928238
-0.062039165329712334   -0.006962026711030083   -0.008910142300928238
-0.062039165329712334   -0.006962026711030083   -0.008910142300928238
-0.062039165329712334   -0.006962026711030083   -0.008910142300928238
-0.0644687323745511   -0.0877154566038562   0.02074391982783388
-0.0644687323745511   -0.0877154566038562   0.02074391982783388
-0.0644687323745511   -0.0877154566038562   0.02074391982783388
-0.0644687323745511   -0.0877154566038562   0.02074391982783388
-0.09888156595192295   -0.02703629085271695   0.005917463035344862
-0.09888156595192295   -0.02703629085271695   0.005917463035344862
-0.09888156595192295   -0.02703629085271695   0.005917463035344862
-0.09888156595192295   -0.02703629085271695   0.005917463035344862
-0.07398225879397329   -0.04636189037998727   0.021536782107454577
-0.07398225879397329   -0.04636189037998727   0.021536782107454577
-0.07398225879397329   -0.04636189037998727   0.021536782107454577
-0.07398225879397329   -0.04636189037998727   0.021536782107454577
-0.10530173093776359   -0.09222897569281838   0.03900932294623549
-0.10530173093776359   -0.09222897569281838   0.03900932294623549
-0.10530173093776359   -0.09222897569281838   0.03900932294623549
-0.10530173093776359   -0.09222897569281838   0.03900932294623549
-0.05857927564078686   -0.023053480015832444   -0.014470773091368691
-0.05857927564078686   -0.023053480015832444   -0.014470773091368691
-0.05857927564078686   -0.023053480015832444   -0.014470773091368691
-0.05857927564078686   -0.023053480015832444   -0.014470773091368691
-0.053676245898050784   -0.09558660386146506   0.022782822316424107
-0.053676245898050784   -0.09558660386146506   0.022782822316424107
-0.053676245898050784   -0.09558660386146506   0.022782822316424107
-0.053676245898050784   -0.09558660386146506   0.022782822316424107
-0.10629254221519621   -0.06053404652436964   0.0077829435220919535
-0.10629254221519621   -0.06053404652436964   0.0077829435220919535
-0.10629254221519621   -0.06053404652436964   0.0077829435220919535
-0.10629254221519621   -0.06053404652436964   0.0077829435220919535
-0.07096989209222984   -0.058572454402226234   0.018741867789614956
-0.07096989209222984   -0.058572454402226234   0.018741867789614956
-0.07096989209222984   -0.058572454402226234   0.018741867789614956
-0.07096989209222984   -0.058572454402226234   0.018741867789614956
-0.06830865182808302   -0.013262323451387191   0.03642575142989432
-0.06830865182808302   -0.013262323451387191   0.03642575142989432
-0.06830865182808302   -0.013262323451387191   0.03642575142989432
-0.06830865182808302   -0.013262323451387191   0.03642575142989432
-0.011693417145749127   0.008118530735205508   -0.0007352769507988012
-0.011693417145749127   0.008118530735205508   -0.0007352769507988012
-0.011693417145749127   0.008118530735205508   -0.0007352769507988012
-0.011693417145749127   0.008118530735205508   -0.0007352769507988012
0.004327334734943257   -0.004193693996451877   0.022493017988202677
0.004327334734943257   -0.004193693996451877   0.022493017988202677
0.004327334734943257   -0.004193693996451877   0.022493017988202677
0.004327334734943257   -0.004193693996451877   0.022493017988202677
-0.05821404401025011   0.006180696035183963   -0.0029272584498311917
-0.05821404401025011   0.006180696035183963   -0.0029272584498311917
-0.05821404401025011   0.006180696035183963   -0.0029272584498311917
-0.05821404401025011   0.006180696035183963   -0.0029272584498311917
-0.03405595419849473   -0.0025271246765880516   -0.002855765193016955
-0.03405595419849473   -0.0025271246765880516   -0.002855765193016955
-0.03405595419849473   -0.0025271246765880516   -0.002855765193016955
-0.03405595419849473   -0.0025271246765880516   -0.002855765193016955
-0.053843314729680083   -0.012754175574480412   0.03786125956268334
-0.053843314729680083   -0.012754175574480412   0.03786125956268334
-0.053843314729680083   -0.012754175574480412   0.03786125956268334
-0.053843314729680083   -0.012754175574480412   0.03786125956268334
0.0020042162672580482   0.016788788426097323   -0.010105056772772566
0.0020042162672580482   0.016788788426097323   -0.010105056772772566
0.0020042162672580482   0.016788788426097323   -0.010105056772772566
0.0020042162672580482   0.016788788426097323   -0.010105056772772566
0.012498139475058002   -0.005146895500785511   0.02771314860291788
0.012498139475058002   -0.005146895500785511   0.02771314860291788
0.012498139475058002   -0.005146895500785511   0.02771314860291788
0.012498139475058002   -0.005146895500785511   0.02771314860291788
-0.05096602486019772   0.004870924717136597   -0.0043289239213919785
-0.05096602486019772   0.004870924717136597   -0.0043289239213919785
-0.05096602486019772   0.004870924717136597   -0.0043289239213919785
-0.05096602486019772   0.004870924717136597   -0.0043289239213919785
-0.02209764659040582   -0.0005099120931759162   0.003625038308475789
-0.02209764659040582   -0.0005099120931759162   0.003625038308475789
-0.02209764659040582   -0.0005099120931759162   0.003625038308475789
-0.02209764659040582   -0.0005099120931759162   0.003625038308475789
-0.045792072479288425   -0.014221012560148854   0.04063277526043992
-0.045792072479288425   -0.014221012560148854   0.04063277526043992
-0.045792072479288425   -0.014221012560148854   0.04063277526043992
-0.045792072479288425   -0.014221012560148854   0.04063277526043992
0.009180904202108606   0.01580175888446111   -0.009821682147075725
0.009180904202108606   0.01580175888446111   -0.009821682147075725
0.009180904202108606   0.01580175888446111   -0.009821682147075725
0.009180904202108606   0.01580175888446111   -0.009821682147075725
0.020914221120101214   -0.007988871971591805   0.026879954352087555
0.020914221120101214   -0.007988871971591805   0.026879954352087555
0.020914221120101214   -0.007988871971591805   0.026879954352087555
0.020914221120101214   -0.007988871971591805   0.026879954352087555
-0.03906234676661208   0.00518533785459983   -0.004919623742447279
-0.03906234676661208   0.00518533785459983   -0.004919623742447279
-0.03906234676661208   0.00518533785459983   -0.004919623742447279
-0.03906234676661208   0.00518533785459983   -0.004919623742447279
-0.01138800333929675   0.0007913978667234644   0.009369319745004472
-0.01138800333929675   0.0007913978667234644   0.009369319745004472
-0.01138800333929675   0.0007913978667234644   0.009369319745004472
-0.01138800333929675   0.0007913978667234644   0.009369319745004472
              </DataArray>   
             <DataArray type="Float64" NumberOfComponents="3" Name="Displacements" format="ascii">   
0.0   0.0   0.0
-0.006283313862668913   -0.004119436492682912   -0.002104658905569995
0.0   0.0   0.0
0.0   0.0   0.0
-0.006283313862668913   -0.004119436492682912   -0.002104658905569995
-0.003998621041039   -0.003701450665894415   -0.00154626958276928
0.0   0.0   0.0
-0.003919847921212198   -0.0038873672626568464   -0.0012953571749368751
0.0   0.0   0.0
0.0   0.0   0.0
-0.003919847921212198   -0.0038873672626568464   -0.0012953571749368751
0.0   0.0   0.0
0.0   0.0   0.0
-0.003919847921212198   -0.0038873672626568464   -0.0012953571749368751
-0.006576164546350382   -0.004388807695126548   -0.0016896178275340652
-0.006283313862668913   -0.004119436492682912   -0.002104658905569995
0.0   0.0   0.0
-0.003919847921212198   -0.0038873672626568464   -0.0012953571749368751
-0.006283313862668913   -0.004119436492682912   -0.002104658905569995
0.0   0.0   0.0
0.0   0.0   0.0
-0.006576164546350382   -0.004388807695126548   -0.0016896178275340652
0.0   0.0   0.0
0.0   0.0   0.0
-0.006576164546350382   -0.004388807695126548   -0.0016896178275340652
-0.003919847921212198   -0.0038873672626568464   -0.0012953571749368751
0.0   0.0   0.0
-0.003931234190646459   -0.003982605609615025   -0.001044768396370057
0.0   0.0   0.0
0.0   0.0   0.0
-0.003931234190646459   -0.003982605609615025   -0.001044768396370057
0.0   0.0   0.0
0.0   0.0   0.0
-0.003931234190646459   -0.003982605609615025   -0.001044768396370057
-0.006781982945178398   -0.004519778807406567   -0.0012918721919030257
-0.006576164546350382   -0.004388807695126548   -0.0016896178275340652
0.0   0.0   0.0
-0.003931234190646459   -0.003982605609615025   -0.001044768396370057
-0.006576164546350382   -0.004388807695126548   -0.0016896178275340652
0.0   0.0   0.0
0.0   0.0   0.0
-0.006781982945178398   -0.004519778807406567   -0.0012918721919030257
0.0   0.0   0.0
0.0   0.0   0.0
-0.006781982945178398   -0.004519778807406567   -0.0012918721919030257
-0.003931234190646459   -0.003982605609615025   -0.001044768396370057
0.0   0.0   0.0
-0.003929541658195201   -0.004007025775844073   -0.0007856091420166339
0.0   0.0   0.0
0.0   0.0   0.0
-0.003929541658195201   -0.004007025775844073   -0.0007856091420166339
0.0   0.0   0.0
0.0   0.0   0.0
-0.003929541658195201   -0.004007025775844073   -0.0007856091420166339
-0.007225043396320192   -0.0046188367158196105   -0.0008303839878926927
-0.006781982945178398   -0.004519778807406567   -0.0012918721919030257
0.0   0.0   0.0
-0.003929541658195201   -0.004007025775844073   -0.0007856091420166339
-0.006781982945178398   -0.004519778807406567   -0.0012918721919030257
0.0   0.0   0.0
0.0   0.0   0.0
-0.003998621041039   -0.003701450665894415   -0.00154626958276928
0.0   0.0   0.0
0.0   0.0   0.0
-0.003998621041039   -0.003701450665894415   -0.00154626958276928
-0.0018206101683571666   -0.0035480836406445644   -0.001175982278690629
0.0   0.0   0.0
-0.0017513602979145595   -0.003669133256949485   -0.0010575689211672473
0.0   0.0   0.0
0.0   0.0   0.0
-0.0017513602979145595   -0.003669133256949485   -0.0010575689211672473
0.0   0.0   0.0
0.0   0.0   0.0
-0.0017513602979145595   -0.003669133256949485   -0.0010575689211672473
-0.003919847921212198   -0.0038873672626568464   -0.0012953571749368751
-0.003998621041039   -0.003701450665894415   -0.00154626958276928
0.0   0.0   0.0
-0.0017513602979145595   -0.003669133256949485   -0.0010575689211672473
-0.003998621041039   -0.003701450665894415   -0.00154626958276928
0.0   0.0   0.0
0.0   0.0   0.0
-0.003919847921212198   -0.0038873672626568464   -0.0012953571749368751
0.0   0.0   0.0
0.0   0.0   0.0
-0.003919847921212198   -0.0038873672626568464   -0.0012953571749368751
-0.0017513602979145595   -0.003669133256949485   -0.0010575689211672473
0.0   0.0   0.0
-0.0017126029901398637   -0.003715259354468246   -0.0009422106242232956
0.0   0.0   0.0
0.0   0.0   0.0
-0.0017126029901398637   -0.003715259354468246   -0.0009422106242232956
0.0   0.0   0.0
0.0   0.0   0.0
-0.0017126029901398637   -0.003715259354468246   -0.0009422106242232956
-0.003931234190646459   -0.003982605609615025   -0.001044768396370057
-0.003919847921212198   -0.0038873672626568464   -0.0012953571749368751
0.0   0.0   0.0
-0.0017126029901398637   -0.003715259354468246   -0.0009422106242232956
-0.003919847921212198   -0.0038873672626568464   -0.0012953571749368751
0.0   0.0   0.0
0.0   0.0   0.0
-0.003931234190646459   -0.003982605609615025   -0.001044768396370057
0.0   0.0   0.0
0.0   0.0   0.0
-0.003931234190646459   -0.003982605609615025   -0.001044768396370057
-0.0017126029901398637   -0.003715259354468246   -0.0009422106242232956
0.0   0.0   0.0
-0.0016773662048457615   -0.0036959843996202638   -0.0008229122367394077
0.0   0.0   0.0
0.0   0.0   0.0
-0.0016773662048457615   -0.0036959843996202638   -0.0008229122367394077
0.0   0.0   0.0
0.0   0.0   0.0
-0.0016773662048457615   -0.0036959843996202638   -0.0008229122367394077
-0.003929541658195201   -0.004007025775844073   -0.0007856091420166339
-0.003931234190646459   -0.003982605609615025   -0.001044768396370057
0.0   0.0   0.0
-0.0016773662048457615   -0.0036959843996202638   -0.0008229122367394077
-0.003931234190646459   -0.003982605609615025   -0.001044768396370057
0.0   0.0   0.0
0.0   0.0   0.0
-0.0018206101683571666   -0.0035480836406445644   -0.001175982278690629
0.0   0.0   0.0
0.0   0.0   0.0
-0.0018206101683571666   -0.0035480836406445644   -0.001175982278690629
0.00023748435499705076   -0.0035676823396397846   -0.0009399425342336744
0.0   0.0   0.0
0.0002815327157962621   -0.0036304653700203002   -0.0009564229580367795
0.0   0.0   0.0
0.0   0.0   0.0
0.0002815327157962621   -0.0036304653700203002   -0.0009564229580367795
0.0   0.0   0.0
0.0   0.0   0.0
0.0002815327157962621   -0.0036304653700203002   -0.0009564229580367795
-0.0017513602979145595   -0.003669133256949485   -0.0010575689211672473
-0.0018206101683571666   -0.0035480836406445644   -0.001175982278690629
0.0   0.0   0.0
0.0002815327157962621   -0.0036304653700203002   -0.0009564229580367795
-0.0018206101683571666   -0.0035480836406445644   -0.001175982278690629
0.0   0.0   0.0
0.0   0.0   0.0
-0.0017513602979145595   -0.003669133256949485   -0.0010575689211672473
0.0   0.0   0.0
0.0   0.0   0.0
-0.0017513602979145595   -0.003669133256949485   -0.0010575689211672473
0.0002815327157962621   -0.0036304653700203002   -0.0009564229580367795
0.0   0.0   0.0
0.00031625464464312114   -0.0036252969067415066   -0.0009712774981968132
0.0   0.0   0.0
0.0   0.0   0.0
0.00031625464464312114   -0.0036252969067415066   -0.0009712774981968132
0.0   0.0   0.0
0.0   0.0   0.0
0.00031625464464312114   -0.0036252969067415066   -0.0009712774981968132
-0.0017126029901398637   -0.003715259354468246   -0.0009422106242232956
-0.0017513602979145595   -0.003669133256949485   -0.0010575689211672473
0.0   0.0   0.0
0.00031625464464312114   -0.0036252969067415066   -0.0009712774981968132
-0.0017513602979145595   -0.003669133256949485   -0.0010575689211672473
0.0   0.0   0.0
0.0   0.0   0.0
-0.0017126029901398637   -0.003715259354468246   -0.0009422106242232956
0.0   0.0   0.0
0.0   0.0   0.0
-0.0017126029901398637   -0.003715259354468246   -0.0009422106242232956
0.00031625464464312114   -0.0036252969067415066   -0.0009712774981968132
0.0   0.0   0.0
0.00036308324399055605   -0.0035465979479009087   -0.000986505793211804
0.0   0.0   0.0
0.0   0.0   0.0
0.00036308324399055605   -0.0035465979479009087   -0.000986505793211804
0.0   0.0   0.0
0.0   0.0   0.0
0.00036308324399055605   -0.0035465979479009087   -0.000986505793211804
-0.0016773662048457615   -0.0036959843996202638   -0.0008229122367394077
-0.0017126029901398637   -0.003715259354468246   -0.0009422106242232956
0.0   0.0   0.0
0.00036308324399055605   -0.0035465979479009087   -0.000986505793211804
-0.0017126029901398637   -0.003715259354468246   -0.0009422106242232956
0.0   0.0   0.0
0.0   0.0   0.0
0.00023748435499705076   -0.0035676823396397846   -0.0009399425342336744
0.0   0.0   0.0
0.0   0.0   0.0
0.00023748435499705076   -0.0035676823396397846   -0.0009399425342336744
0.002471232698488223   -0.003741591503802255   -0.0008231076275052257
0.0   0.0   0.0
0.0024751726407190567   -0.003761625947849191   -0.0009815234977757687
0.0   0.0   0.0
0.0   0.0   0.0
0.0024751726407190567   -0.003761625947849191   -0.0009815234977757687
0.0   0.0   0.0
0.0   0.0   0.0
0.0024751726407190567   -0.003761625947849191   -0.0009815234977757687
0.0002815327157962621   -0.0036304653700203002   -0.0009564229580367795
0.00023748435499705076   -0.0035676823396397846   -0.0009399425342336744
0.0   0.0   0.0
0.0024751726407190567   -0.003761625947849191   -0.0009815234977757687
0.00023748435499705076   -0.0035676823396397846   -0.0009399425342336744
0.0   0.0   0.0
0.0   0.0   0.0
0.0002815327157962621   -0.0036304653700203002   -0.0009564229580367795
0.0   0.0   0.0
0.0   0.0   0.0
0.0002815327157962621   -0.0036304653700203002   -0.0009564229580367795
0.0024751726407190567   -0.003761625947849191   -0.0009815234977757687
0.0   0.0   0.0
0.002464180306374224   -0.0037079080947296293   -0.001133455036460163
0.0   0.0   0.0
0.0   0.0   0.0
0.002464180306374224   -0.0037079080947296293   -0.001133455036460163
0.0   0.0   0.0
0.0   0.0   0.0
0.002464180306374224   -0.0037079080947296293   -0.001133455036460163
0.00031625464464312114   -0.0036252969067415066   -0.0009712774981968132
0.0002815327157962621   -0.0036304653700203002   -0.0009564229580367795
0.0   0.0   0.0
0.002464180306374224   -0.0037079080947296293   -0.001133455036460163
0.0002815327157962621   -0.0036304653700203002   -0.0009564229580367795
0.0   0.0   0.0
0.0   0.0   0.0
0.00031625464464312114   -0.0036252969067415066   -0.0009712774981968132
0.0   0.0   0.0
0.0   0.0   0.0
0.00031625464464312114   -0.0036252969067415066   -0.0009712774981968132
0.002464180306374224   -0.0037079080947296293   -0.001133455036460163
0.0   0.0   0.0
0.0025115278568158747   -0.00356395528061994   -0.0012824619227767983
0.0   0.0   0.0
0.0   0.0   0.0
0.0025115278568158747   -0.00356395528061994   -0.0012824619227767983
0.0   0.0   0.0
0.0   0.0   0.0
0.0025115278568158747   -0.00356395528061994   -0.0012824619227767983
0.00036308324399055605   -0.0035465979479009087   -0.000986505793211804
0.00031625464464312114   -0.0036252969067415066   -0.0009712774981968132
0.0   0.0   0.0
0.0025115278568158747   -0.00356395528061994   -0.0012824619227767983
0.00031625464464312114   -0.0036252969067415066   -0.0009712774981968132
0.0   0.0   0.0
0.0   0.0   0.0
0.002471232698488223   -0.003741591503802255   -0.0008231076275052257
0.0   0.0   0.0
0.0   0.0   0.0
0.002471232698488223   -0.003741591503802255   -0.0008231076275052257
0.005576758508882748   -0.0041822670469731345   -0.0007763962944614287
0.0   0.0   0.0
0.0052368860735372315   -0.004136714689428075   -0.0011354401688838862
0.0   0.0   0.0
0.0   0.0   0.0
0.0052368860735372315   -0.004136714689428075   -0.0011354401688838862
0.0   0.0   0.0
0.0   0.0   0.0
0.0052368860735372315   -0.004136714689428075   -0.0011354401688838862
0.0024751726407190567   -0.003761625947849191   -0.0009815234977757687
0.002471232698488223   -0.003741591503802255   -0.0008231076275052257
0.0   0.0   0.0
0.0052368860735372315   -0.004136714689428075   -0.0011354401688838862
0.002471232698488223   -0.003741591503802255   -0.0008231076275052257
0.0   0.0   0.0
0.0   0.0   0.0
0.0024751726407190567   -0.003761625947849191   -0.0009815234977757687
0.0   0.0   0.0
0.0   0.0   0.0
0.0024751726407190567   -0.003761625947849191   -0.0009815234977757687
0.0052368860735372315   -0.004136714689428075   -0.0011354401688838862
0.0   0.0   0.0
0.005079980454314989   -0.004050705835233936   -0.001439026384211701
0.0   0.0   0.0
0.0   0.0   0.0
0.005079980454314989   -0.004050705835233936   -0.001439026384211701
0.0   0.0   0.0
0.0   0.0   0.0
0.005079980454314989   -0.004050705835233936   -0.001439026384211701
0.002464180306374224   -0.0037079080947296293   -0.001133455036460163
0.0024751726407190567   -0.003761625947849191   -0.0009815234977757687
0.0   0.0   0.0
0.005079980454314989   -0.004050705835233936   -0.001439026384211701
0.0024751726407190567   -0.003761625947849191   -0.0009815234977757687
0.0   0.0   0.0
0.0   0.0   0.0
0.002464180306374224   -0.0037079080947296293   -0.001133455036460163
0.0   0.0   0.0
0.0   0.0   0.0
0.002464180306374224   -0.0037079080947296293   -0.001133455036460163
0.005079980454314989   -0.004050705835233936   -0.001439026384211701
0.0   0.0   0.0
0.004846665778337923   -0.0038305551769417753   -0.0017602173512788193
0.0   0.0   0.0
0.0   0.0   0.0
0.004846665778337923   -0.0038305551769417753   -0.0017602173512788193
0.0   0.0   0.0
0.0   0.0   0.0
0.004846665778337923   -0.0038305551769417753   -0.0017602173512788193
0.0025115278568158747   -0.00356395528061994   -0.0012824619227767983
0.002464180306374224   -0.0037079080947296293   -0.001133455036460163
0.0   0.0   0.0
0.004846665778337923   -0.0038305551769417753   -0.0017602173512788193
0.002464180306374224   -0.0037079080947296293   -0.001133455036460163
0.0   0.0   0.0
-0.006283313862668913   -0.004119436492682912   -0.002104658905569995
-0.011738174951866397   -0.011503482726856914   -0.0028354177589981133
-0.003998621041039   -0.003701450665894415   -0.00154626958276928
-0.006576164546350382   -0.004388807695126548   -0.0016896178275340652
-0.011738174951866397   -0.011503482726856914   -0.0028354177589981133
-0.007492127915141262   -0.011127479239735132   -0.00233364717563352
-0.003998621041039   -0.003701450665894415   -0.00154626958276928
-0.007501444880027849   -0.011317743860466065   -0.002101518541774225
-0.006576164546350382   -0.004388807695126548   -0.0016896178275340652
-0.003919847921212198   -0.0038873672626568464   -0.0012953571749368751
-0.007501444880027849   -0.011317743860466065   -0.002101518541774225
-0.003998621041039   -0.003701450665894415   -0.00154626958276928
-0.006576164546350382   -0.004388807695126548   -0.0016896178275340652
-0.007501444880027849   -0.011317743860466065   -0.002101518541774225
-0.012090477128264937   -0.011768927961810904   -0.0024584081966496445
-0.011738174951866397   -0.011503482726856914   -0.0028354177589981133
-0.006576164546350382   -0.004388807695126548   -0.0016896178275340652
-0.007501444880027849   -0.011317743860466065   -0.002101518541774225
-0.011738174951866397   -0.011503482726856914   -0.0028354177589981133
-0.003998621041039   -0.003701450665894415   -0.00154626958276928
-0.006576164546350382   -0.004388807695126548   -0.0016896178275340652
-0.012090477128264937   -0.011768927961810904   -0.0024584081966496445
-0.003919847921212198   -0.0038873672626568464   -0.0012953571749368751
-0.006781982945178398   -0.004519778807406567   -0.0012918721919030257
-0.012090477128264937   -0.011768927961810904   -0.0024584081966496445
-0.007501444880027849   -0.011317743860466065   -0.002101518541774225
-0.003919847921212198   -0.0038873672626568464   -0.0012953571749368751
-0.007531488929063237   -0.011433688536513237   -0.0018784223020602338
-0.006781982945178398   -0.004519778807406567   -0.0012918721919030257
-0.003931234190646459   -0.003982605609615025   -0.001044768396370057
-0.007531488929063237   -0.011433688536513237   -0.0018784223020602338
-0.003919847921212198   -0.0038873672626568464   -0.0012953571749368751
-0.006781982945178398   -0.004519778807406567   -0.0012918721919030257
-0.007531488929063237   -0.011433688536513237   -0.0018784223020602338
-0.012335450401937982   -0.011918799628590653   -0.0020892098216208307
-0.012090477128264937   -0.011768927961810904   -0.0024584081966496445
-0.006781982945178398   -0.004519778807406567   -0.0012918721919030257
-0.007531488929063237   -0.011433688536513237   -0.0018784223020602338
-0.012090477128264937   -0.011768927961810904   -0.0024584081966496445
-0.003919847921212198   -0.0038873672626568464   -0.0012953571749368751
-0.006781982945178398   -0.004519778807406567   -0.0012918721919030257
-0.012335450401937982   -0.011918799628590653   -0.0020892098216208307
-0.003931234190646459   -0.003982605609615025   -0.001044768396370057
-0.007225043396320192   -0.0046188367158196105   -0.0008303839878926927
-0.012335450401937982   -0.011918799628590653   -0.0020892098216208307
-0.007531488929063237   -0.011433688536513237   -0.0018784223020602338
-0.003931234190646459   -0.003982605609615025   -0.001044768396370057
-0.007509569581949332   -0.011493786076910406   -0.0016695665301959212
-0.007225043396320192   -0.0046188367158196105   -0.0008303839878926927
-0.003929541658195201   -0.004007025775844073   -0.0007856091420166339
-0.007509569581949332   -0.011493786076910406   -0.0016695665301959212
-0.003931234190646459   -0.003982605609615025   -0.001044768396370057
-0.007225043396320192   -0.0046188367158196105   -0.0008303839878926927
-0.007509569581949332   -0.011493786076910406   -0.0016695665301959212
-0.012625020389782428   -0.012005818285153805   -0.001753241158870925
-0.012335450401937982   -0.011918799628590653   -0.0020892098216208307
-0.007225043396320192   -0.0046188367158196105   -0.0008303839878926927
-0.007509569581949332   -0.011493786076910406   -0.0016695665301959212
-0.012335450401937982   -0.011918799628590653   -0.0020892098216208307
-0.003931234190646459   -0.003982605609615025   -0.001044768396370057
-0.003998621041039   -0.003701450665894415   -0.00154626958276928
-0.007492127915141262   -0.011127479239735132   -0.00233364717563352
-0.0018206101683571666   -0.0035480836406445644   -0.001175982278690629
-0.003919847921212198   -0.0038873672626568464   -0.0012953571749368751
-0.007492127915141262   -0.011127479239735132   -0.00233364717563352
-0.003475519364846102   -0.010952522666221763   -0.0019910804079240354
-0.0018206101683571666   -0.0035480836406445644   -0.001175982278690629
-0.003446012925884936   -0.011073651346486748   -0.0018721703820611907
-0.003919847921212198   -0.0038873672626568464   -0.0012953571749368751
-0.0017513602979145595   -0.003669133256949485   -0.0010575689211672473
-0.003446012925884936   -0.011073651346486748   -0.0018721703820611907
-0.0018206101683571666   -0.0035480836406445644   -0.001175982278690629
-0.003919847921212198   -0.0038873672626568464   -0.0012953571749368751
-0.003446012925884936   -0.011073651346486748   -0.0018721703820611907
-0.007501444880027849   -0.011317743860466065   -0.002101518541774225
-0.007492127915141262   -0.011127479239735132   -0.00233364717563352
-0.003919847921212198   -0.0038873672626568464   -0.0012953571749368751
-0.003446012925884936   -0.011073651346486748   -0.0018721703820611907
-0.007492127915141262   -0.011127479239735132   -0.00233364717563352
-0.0018206101683571666   -0.0035480836406445644   -0.001175982278690629
-0.003919847921212198   -0.0038873672626568464   -0.0012953571749368751
-0.007501444880027849   -0.011317743860466065   -0.002101518541774225
-0.0017513602979145595   -0.003669133256949485   -0.0010575689211672473
-0.003931234190646459   -0.003982605609615025   -0.001044768396370057
-0.007501444880027849   -0.011317743860466065   -0.002101518541774225
-0.003446012925884936   -0.011073651346486748   -0.0018721703820611907
-0.0017513602979145595   -0.003669133256949485   -0.0010575689211672473
-0.0034199193027539955   -0.01113238323549339   -0.0017643561464994813
-0.003931234190646459   -0.003982605609615025   -0.001044768396370057
-0.0017126029901398637   -0.003715259354468246   -0.0009422106242232956
-0.0034199193027539955   -0.01113238323549339   -0.0017643561464994813
-0.0017513602979145595   -0.003669133256949485   -0.0010575689211672473
-0.003931234190646459   -0.003982605609615025   -0.001044768396370057
-0.0034199193027539955   -0.01113238323549339   -0.0017643561464994813
-0.007531488929063237   -0.011433688536513237   -0.0018784223020602338
-0.007501444880027849   -0.011317743860466065   -0.002101518541774225
-0.003931234190646459   -0.003982605609615025   -0.001044768396370057
-0.0034199193027539955   -0.01113238323549339   -0.0017643561464994813
-0.007501444880027849   -0.011317743860466065   -0.002101518541774225
-0.0017513602979145595   -0.003669133256949485   -0.0010575689211672473
-0.003931234190646459   -0.003982605609615025   -0.001044768396370057
-0.007531488929063237   -0.011433688536513237   -0.0018784223020602338
-0.0017126029901398637   -0.003715259354468246   -0.0009422106242232956
-0.003929541658195201   -0.004007025775844073   -0.0007856091420166339
-0.007531488929063237   -0.011433688536513237   -0.0018784223020602338
-0.0034199193027539955   -0.01113238323549339   -0.0017643561464994813
-0.0017126029901398637   -0.003715259354468246   -0.0009422106242232956
-0.00338075680464452   -0.011130933408956772   -0.001670467492252659
-0.003929541658195201   -0.004007025775844073   -0.0007856091420166339
-0.0016773662048457615   -0.0036959843996202638   -0.0008229122367394077
-0.00338075680464452   -0.011130933408956772   -0.001670467492252659
-0.0017126029901398637   -0.003715259354468246   -0.0009422106242232956
-0.003929541658195201   -0.004007025775844073   -0.0007856091420166339
-0.00338075680464452   -0.011130933408956772   -0.001670467492252659
-0.007509569581949332   -0.011493786076910406   -0.0016695665301959212
-0.007531488929063237   -0.011433688536513237   -0.0018784223020602338
-0.003929541658195201   -0.004007025775844073   -0.0007856091420166339
-0.00338075680464452   -0.011130933408956772   -0.001670467492252659
-0.007531488929063237   -0.011433688536513237   -0.0018784223020602338
-0.0017126029901398637   -0.003715259354468246   -0.0009422106242232956
-0.0018206101683571666   -0.0035480836406445644   -0.001175982278690629
-0.003475519364846102   -0.010952522666221763   -0.0019910804079240354
0.00023748435499705076   -0.0035676823396397846   -0.0009399425342336744
-0.0017513602979145595   -0.003669133256949485   -0.0010575689211672473
-0.003475519364846102   -0.010952522666221763   -0.0019910804079240354
0.0003980152524098555   -0.010957703114181658   -0.0017744166526305007
0.00023748435499705076   -0.0035676823396397846   -0.0009399425342336744
0.0004343659441215365   -0.011015138996180784   -0.0017666314908518245
-0.0017513602979145595   -0.003669133256949485   -0.0010575689211672473
0.0002815327157962621   -0.0036304653700203002   -0.0009564229580367795
0.0004343659441215365   -0.011015138996180784   -0.0017666314908518245
0.00023748435499705076   -0.0035676823396397846   -0.0009399425342336744
-0.0017513602979145595   -0.003669133256949485   -0.0010575689211672473
0.0004343659441215365   -0.011015138996180784   -0.0017666314908518245
-0.003446012925884936   -0.011073651346486748   -0.0018721703820611907
-0.003475519364846102   -0.010952522666221763   -0.0019910804079240354
-0.0017513602979145595   -0.003669133256949485   -0.0010575689211672473
0.0004343659441215365   -0.011015138996180784   -0.0017666314908518245
-0.003475519364846102   -0.010952522666221763   -0.0019910804079240354
0.00023748435499705076   -0.0035676823396397846   -0.0009399425342336744
-0.0017513602979145595   -0.003669133256949485   -0.0010575689211672473
-0.003446012925884936   -0.011073651346486748   -0.0018721703820611907
0.0002815327157962621   -0.0036304653700203002   -0.0009564229580367795
-0.0017126029901398637   -0.003715259354468246   -0.0009422106242232956
-0.003446012925884936   -0.011073651346486748   -0.0018721703820611907
0.0004343659441215365   -0.011015138996180784   -0.0017666314908518245
0.0002815327157962621   -0.0036304653700203002   -0.0009564229580367795
0.0004586728445468685   -0.011011642433771928   -0.0017714416935147614
-0.0017126029901398637   -0.003715259354468246   -0.0009422106242232956
0.00031625464464312114   -0.0036252969067415066   -0.0009712774981968132
0.0004586728445468685   -0.011011642433771928   -0.0017714416935147614
0.0002815327157962621   -0.0036304653700203002   -0.0009564229580367795
-0.0017126029901398637   -0.003715259354468246   -0.0009422106242232956
0.0004586728445468685   -0.011011642433771928   -0.0017714416935147614
-0.0034199193027539955   -0.01113238323549339   -0.0017643561464994813
-0.003446012925884936   -0.011073651346486748   -0.0018721703820611907
-0.0017126029901398637   -0.003715259354468246   -0.0009422106242232956
0.0004586728445468685   -0.011011642433771928   -0.0017714416935147614
-0.003446012925884936   -0.011073651346486748   -0.0018721703820611907
0.0002815327157962621   -0.0036304653700203002   -0.0009564229580367795
-0.0017126029901398637   -0.003715259354468246   -0.0009422106242232956
-0.0034199193027539955   -0.01113238323549339   -0.0017643561464994813
0.00031625464464312114   -0.0036252969067415066   -0.0009712774981968132
-0.0016773662048457615   -0.0036959843996202638   -0.0008229122367394077
-0.0034199193027539955   -0.01113238323549339   -0.0017643561464994813
0.0004586728445468685   -0.011011642433771928   -0.0017714416935147614
0.00031625464464312114   -0.0036252969067415066   -0.0009712774981968132
0.00048478615223932186   -0.01094535172198312   -0.0017890470233930828
-0.0016773662048457615   -0.0036959843996202638   -0.0008229122367394077
0.00036308324399055605   -0.0035465979479009087   -0.000986505793211804
0.00048478615223932186   -0.01094535172198312   -0.0017890470233930828
0.00031625464464312114   -0.0036252969067415066   -0.0009712774981968132
-0.0016773662048457615   -0.0036959843996202638   -0.0008229122367394077
0.00048478615223932186   -0.01094535172198312   -0.0017890470233930828
-0.00338075680464452   -0.011130933408956772   -0.001670467492252659
-0.0034199193027539955   -0.01113238323549339   -0.0017643561464994813
-0.0016773662048457615   -0.0036959843996202638   -0.0008229122367394077
0.00048478615223932186   -0.01094535172198312   -0.0017890470233930828
-0.0034199193027539955   -0.01113238323549339   -0.0017643561464994813
0.00031625464464312114   -0.0036252969067415066   -0.0009712774981968132
0.00023748435499705076   -0.0035676823396397846   -0.0009399425342336744
0.0003980152524098555   -0.010957703114181658   -0.0017744166526305007
0.002471232698488223   -0.003741591503802255   -0.0008231076275052257
0.0002815327157962621   -0.0036304653700203002   -0.0009564229580367795
0.0003980152524098555   -0.010957703114181658   -0.0017744166526305007
0.004502612190269277   -0.01113650906178646   -0.0016732205172408938
0.002471232698488223   -0.003741591503802255   -0.0008231076275052257
0.004522927611294655   -0.011136094056628682   -0.0017801671377401984
0.0002815327157962621   -0.0036304653700203002   -0.0009564229580367795
0.0024751726407190567   -0.003761625947849191   -0.0009815234977757687
0.004522927611294655   -0.011136094056628682   -0.0017801671377401984
0.002471232698488223   -0.003741591503802255   -0.0008231076275052257
0.0002815327157962621   -0.0036304653700203002   -0.0009564229580367795
0.004522927611294655   -0.011136094056628682   -0.0017801671377401984
0.0004343659441215365   -0.011015138996180784   -0.0017666314908518245
0.0003980152524098555   -0.010957703114181658   -0.0017744166526305007
0.0002815327157962621   -0.0036304653700203002   -0.0009564229580367795
0.004522927611294655   -0.011136094056628682   -0.0017801671377401984
0.0003980152524098555   -0.010957703114181658   -0.0017744166526305007
0.002471232698488223   -0.003741591503802255   -0.0008231076275052257
0.0002815327157962621   -0.0036304653700203002   -0.0009564229580367795
0.0004343659441215365   -0.011015138996180784   -0.0017666314908518245
0.0024751726407190567   -0.003761625947849191   -0.0009815234977757687
0.00031625464464312114   -0.0036252969067415066   -0.0009712774981968132
0.0004343659441215365   -0.011015138996180784   -0.0017666314908518245
0.004522927611294655   -0.011136094056628682   -0.0017801671377401984
0.0024751726407190567   -0.003761625947849191   -0.0009815234977757687
0.004501523036459127   -0.011075916989475321   -0.0019013644223091221
0.00031625464464312114   -0.0036252969067415066   -0.0009712774981968132
0.002464180306374224   -0.0037079080947296293   -0.001133455036460163
0.004501523036459127   -0.011075916989475321   -0.0019013644223091221
0.0024751726407190567   -0.003761625947849191   -0.0009815234977757687
0.00031625464464312114   -0.0036252969067415066   -0.0009712774981968132
0.004501523036459127   -0.011075916989475321   -0.0019013644223091221
0.0004586728445468685   -0.011011642433771928   -0.0017714416935147614
0.0004343659441215365   -0.011015138996180784   -0.0017666314908518245
0.00031625464464312114   -0.0036252969067415066   -0.0009712774981968132
0.004501523036459127   -0.011075916989475321   -0.0019013644223091221
0.0004343659441215365   -0.011015138996180784   -0.0017666314908518245
0.0024751726407190567   -0.003761625947849191   -0.0009815234977757687
0.00031625464464312114   -0.0036252969067415066   -0.0009712774981968132
0.0004586728445468685   -0.011011642433771928   -0.0017714416935147614
0.002464180306374224   -0.0037079080947296293   -0.001133455036460163
0.00036308324399055605   -0.0035465979479009087   -0.000986505793211804
0.0004586728445468685   -0.011011642433771928   -0.0017714416935147614
0.004501523036459127   -0.011075916989475321   -0.0019013644223091221
0.002464180306374224   -0.0037079080947296293   -0.001133455036460163
0.004489074005990748   -0.010939503609826588   -0.002032329994670865
0.00036308324399055605   -0.0035465979479009087   -0.000986505793211804
0.0025115278568158747   -0.00356395528061994   -0.0012824619227767983
0.004489074005990748   -0.010939503609826588   -0.002032329994670865
0.002464180306374224   -0.0037079080947296293   -0.001133455036460163
0.00036308324399055605   -0.0035465979479009087   -0.000986505793211804
0.004489074005990748   -0.010939503609826588   -0.002032329994670865
0.00048478615223932186   -0.01094535172198312   -0.0017890470233930828
0.0004586728445468685   -0.011011642433771928   -0.0017714416935147614
0.00036308324399055605   -0.0035465979479009087   -0.000986505793211804
0.004489074005990748   -0.010939503609826588   -0.002032329994670865
0.0004586728445468685   -0.011011642433771928   -0.0017714416935147614
0.002464180306374224   -0.0037079080947296293   -0.001133455036460163
0.002471232698488223   -0.003741591503802255   -0.0008231076275052257
0.004502612190269277   -0.01113650906178646   -0.0016732205172408938
0.005576758508882748   -0.0041822670469731345   -0.0007763962944614287
0.0024751726407190567   -0.003761625947849191   -0.0009815234977757687
0.004502612190269277   -0.01113650906178646   -0.0016732205172408938
0.009455037094239923   -0.011468953909542267   -0.0016457685221539652
0.005576758508882748   -0.0041822670469731345   -0.0007763962944614287
0.009261952664164337   -0.011437792522107713   -0.001886304428725172
0.0024751726407190567   -0.003761625947849191   -0.0009815234977757687
0.0052368860735372315   -0.004136714689428075   -0.0011354401688838862
0.009261952664164337   -0.011437792522107713   -0.001886304428725172
0.005576758508882748   -0.0041822670469731345   -0.0007763962944614287
0.0024751726407190567   -0.003761625947849191   -0.0009815234977757687
0.009261952664164337   -0.011437792522107713   -0.001886304428725172
0.004522927611294655   -0.011136094056628682   -0.0017801671377401984
0.004502612190269277   -0.01113650906178646   -0.0016732205172408938
0.0024751726407190567   -0.003761625947849191   -0.0009815234977757687
0.009261952664164337   -0.011437792522107713   -0.001886304428725172
0.004502612190269277   -0.01113650906178646   -0.0016732205172408938
0.005576758508882748   -0.0041822670469731345   -0.0007763962944614287
0.0024751726407190567   -0.003761625947849191   -0.0009815234977757687
0.004522927611294655   -0.011136094056628682   -0.0017801671377401984
0.0052368860735372315   -0.004136714689428075   -0.0011354401688838862
0.002464180306374224   -0.0037079080947296293   -0.001133455036460163
0.004522927611294655   -0.011136094056628682   -0.0017801671377401984
0.009261952664164337   -0.011437792522107713   -0.001886304428725172
0.0052368860735372315   -0.004136714689428075   -0.0011354401688838862
0.009089458358342252   -0.011344994395079815   -0.002156830493164728
0.002464180306374224   -0.0037079080947296293   -0.001133455036460163
0.005079980454314989   -0.004050705835233936   -0.001439026384211701
0.009089458358342252   -0.011344994395079815   -0.002156830493164728
0.0052368860735372315   -0.004136714689428075   -0.0011354401688838862
0.002464180306374224   -0.0037079080947296293   -0.001133455036460163
0.009089458358342252   -0.011344994395079815   -0.002156830493164728
0.004501523036459127   -0.011075916989475321   -0.0019013644223091221
0.004522927611294655   -0.011136094056628682   -0.0017801671377401984
0.002464180306374224   -0.0037079080947296293   -0.001133455036460163
0.009089458358342252   -0.011344994395079815   -0.002156830493164728
0.004522927611294655   -0.011136094056628682   -0.0017801671377401984
0.0052368860735372315   -0.004136714689428075   -0.0011354401688838862
0.002464180306374224   -0.0037079080947296293   -0.001133455036460163
0.004501523036459127   -0.011075916989475321   -0.0019013644223091221
0.005079980454314989   -0.004050705835233936   -0.001439026384211701
0.0025115278568158747   -0.00356395528061994   -0.0012824619227767983
0.004501523036459127   -0.011075916989475321   -0.0019013644223091221
0.009089458358342252   -0.011344994395079815   -0.002156830493164728
0.005079980454314989   -0.004050705835233936   -0.001439026384211701
0.00883129025414027   -0.011138372183827953   -0.0024383945559814865
0.0025115278568158747   -0.00356395528061994   -0.0012824619227767983
0.004846665778337923   -0.0038305551769417753   -0.0017602173512788193
0.00883129025414027   -0.011138372183827953   -0.0024383945559814865
0.005079980454314989   -0.004050705835233936   -0.001439026384211701
0.0025115278568158747   -0.00356395528061994   -0.0012824619227767983
0.00883129025414027   -0.011138372183827953   -0.0024383945559814865
0.004489074005990748   -0.010939503609826588   -0.002032329994670865
0.004501523036459127   -0.011075916989475321   -0.0019013644223091221
0.0025115278568158747   -0.00356395528061994   -0.0012824619227767983
0.00883129025414027   -0.011138372183827953   -0.0024383945559814865
0.004501523036459127   -0.011075916989475321   -0.0019013644223091221
0.005079980454314989   -0.004050705835233936   -0.001439026384211701
-0.011738174951866397   -0.011503482726856914   -0.0028354177589981133
-0.016086092719078317   -0.021579351437397396   -0.003229213156050138
-0.007492127915141262   -0.011127479239735132   -0.00233364717563352
-0.012090477128264937   -0.011768927961810904   -0.0024584081966496445
-0.016086092719078317   -0.021579351437397396   -0.003229213156050138
-0.010341950933057573   -0.021291910589726612   -0.0028220807679453946
-0.007492127915141262   -0.011127479239735132   -0.00233364717563352
-0.010365172899553216   -0.021456193287789253   -0.0026419270731223364
-0.012090477128264937   -0.011768927961810904   -0.0024584081966496445
-0.007501444880027849   -0.011317743860466065   -0.002101518541774225
-0.010365172899553216   -0.021456193287789253   -0.0026419270731223364
-0.007492127915141262   -0.011127479239735132   -0.00233364717563352
-0.012090477128264937   -0.011768927961810904   -0.0024584081966496445
-0.010365172899553216   -0.021456193287789253   -0.0026419270731223364
-0.016372886730327132   -0.021803840553268786   -0.0029479189023982537
-0.016086092719078317   -0.021579351437397396   -0.003229213156050138
-0.012090477128264937   -0.011768927961810904   -0.0024584081966496445
-0.010365172899553216   -0.021456193287789253   -0.0026419270731223364
-0.016086092719078317   -0.021579351437397396   -0.003229213156050138
-0.007492127915141262   -0.011127479239735132   -0.00233364717563352
-0.012090477128264937   -0.011768927961810904   -0.0024584081966496445
-0.016372886730327132   -0.021803840553268786   -0.0029479189023982537
-0.007501444880027849   -0.011317743860466065   -0.002101518541774225
-0.012335450401937982   -0.011918799628590653   -0.0020892098216208307
-0.016372886730327132   -0.021803840553268786   -0.0029479189023982537
-0.010365172899553216   -0.021456193287789253   -0.0026419270731223364
-0.007501444880027849   -0.011317743860466065   -0.002101518541774225
-0.01039245193760887   -0.021570482974012456   -0.0024747916825978785
-0.012335450401937982   -0.011918799628590653   -0.0020892098216208307
-0.007531488929063237   -0.011433688536513237   -0.0018784223020602338
-0.01039245193760887   -0.021570482974012456   -0.0024747916825978785
-0.007501444880027849   -0.011317743860466065   -0.002101518541774225
-0.012335450401937982   -0.011918799628590653   -0.0020892098216208307
-0.01039245193760887   -0.021570482974012456   -0.0024747916825978785
-0.016553935928780225   -0.02194456972821066   -0.002685709524136796
-0.016372886730327132   -0.021803840553268786   -0.0029479189023982537
-0.012335450401937982   -0.011918799628590653   -0.0020892098216208307
-0.01039245193760887   -0.021570482974012456   -0.0024747916825978785
-0.016372886730327132   -0.021803840553268786   -0.0029479189023982537
-0.007501444880027849   -0.011317743860466065   -0.002101518541774225
-0.012335450401937982   -0.011918799628590653   -0.0020892098216208307
-0.016553935928780225   -0.02194456972821066   -0.002685709524136796
-0.007531488929063237   -0.011433688536513237   -0.0018784223020602338
-0.012625020389782428   -0.012005818285153805   -0.001753241158870925
-0.016553935928780225   -0.02194456972821066   -0.002685709524136796
-0.01039245193760887   -0.021570482974012456   -0.0024747916825978785
-0.007531488929063237   -0.011433688536513237   -0.0018784223020602338
-0.010373548824629658   -0.021645618932041442   -0.002317902420204423
-0.012625020389782428   -0.012005818285153805   -0.001753241158870925
-0.007509569581949332   -0.011493786076910406   -0.0016695665301959212
-0.010373548824629658   -0.021645618932041442   -0.002317902420204423
-0.007531488929063237   -0.011433688536513237   -0.0018784223020602338
-0.012625020389782428   -0.012005818285153805   -0.001753241158870925
-0.010373548824629658   -0.021645618932041442   -0.002317902420204423
-0.01675993365417315   -0.02204568854138596   -0.0024443693125240883
-0.016553935928780225   -0.02194456972821066   -0.002685709524136796
-0.012625020389782428   -0.012005818285153805   -0.001753241158870925
-0.010373548824629658   -0.021645618932041442   -0.002317902420204423
-0.016553935928780225   -0.02194456972821066   -0.002685709524136796
-0.007531488929063237   -0.011433688536513237   -0.0018784223020602338
-0.007492127915141262   -0.011127479239735132   -0.00233364717563352
-0.010341950933057573   -0.021291910589726612   -0.0028220807679453946
-0.003475519364846102   -0.010952522666221763   -0.0019910804079240354
-0.007501444880027849   -0.011317743860466065   -0.002101518541774225
-0.010341950933057573   -0.021291910589726612   -0.0028220807679453946
-0.004925287601805752   -0.021148635133396092   -0.002539202622978907
-0.003475519364846102   -0.010952522666221763   -0.0019910804079240354
-0.004913498836423365   -0.02125371624556736   -0.0024374372628491185
-0.007501444880027849   -0.011317743860466065   -0.002101518541774225
-0.003446012925884936   -0.011073651346486748   -0.0018721703820611907
-0.004913498836423365   -0.02125371624556736   -0.0024374372628491185
-0.003475519364846102   -0.010952522666221763   -0.0019910804079240354
-0.007501444880027849   -0.011317743860466065   -0.002101518541774225
-0.004913498836423365   -0.02125371624556736   -0.0024374372628491185
-0.010365172899553216   -0.021456193287789253   -0.0026419270731223364
-0.010341950933057573   -0.021291910589726612   -0.0028220807679453946
-0.007501444880027849   -0.011317743860466065   -0.002101518541774225
-0.004913498836423365   -0.02125371624556736   -0.0024374372628491185
-0.010341950933057573   -0.021291910589726612   -0.0028220807679453946
-0.003475519364846102   -0.010952522666221763   -0.0019910804079240354
-0.007501444880027849   -0.011317743860466065   -0.002101518541774225
-0.010365172899553216   -0.021456193287789253   -0.0026419270731223364
-0.003446012925884936   -0.011073651346486748   -0.0018721703820611907
-0.007531488929063237   -0.011433688536513237   -0.0018784223020602338
-0.010365172899553216   -0.021456193287789253   -0.0026419270731223364
-0.004913498836423365   -0.02125371624556736   -0.0024374372628491185
-0.003446012925884936   -0.011073651346486748   -0.0018721703820611907
-0.004898932418926327   -0.021315426208607564   -0.0023480715457516277
-0.007531488929063237   -0.011433688536513237   -0.0018784223020602338
-0.0034199193027539955   -0.01113238323549339   -0.0017643561464994813
-0.004898932418926327   -0.021315426208607564   -0.0023480715457516277
-0.003446012925884936   -0.011073651346486748   -0.0018721703820611907
-0.007531488929063237   -0.011433688536513237   -0.0018784223020602338
-0.004898932418926327   -0.021315426208607564   -0.0023480715457516277
-0.01039245193760887   -0.021570482974012456   -0.0024747916825978785
-0.010365172899553216   -0.021456193287789253   -0.0026419270731223364
-0.007531488929063237   -0.011433688536513237   -0.0018784223020602338
-0.004898932418926327   -0.021315426208607564   -0.0023480715457516277
-0.010365172899553216   -0.021456193287789253   -0.0026419270731223364
-0.003446012925884936   -0.011073651346486748   -0.0018721703820611907
-0.007531488929063237   -0.011433688536513237   -0.0018784223020602338
-0.01039245193760887   -0.021570482974012456   -0.0024747916825978785
-0.0034199193027539955   -0.01113238323549339   -0.0017643561464994813
-0.007509569581949332   -0.011493786076910406   -0.0016695665301959212
-0.01039245193760887   -0.021570482974012456   -0.0024747916825978785
-0.004898932418926327   -0.021315426208607564   -0.0023480715457516277
-0.0034199193027539955   -0.01113238323549339   -0.0017643561464994813
-0.0048746454924861555   -0.02133464733694185   -0.0022710670403819607
-0.007509569581949332   -0.011493786076910406   -0.0016695665301959212
-0.00338075680464452   -0.011130933408956772   -0.001670467492252659
-0.0048746454924861555   -0.02133464733694185   -0.0022710670403819607
-0.0034199193027539955   -0.01113238323549339   -0.0017643561464994813
-0.007509569581949332   -0.011493786076910406   -0.0016695665301959212
-0.0048746454924861555   -0.02133464733694185   -0.0022710670403819607
-0.010373548824629658   -0.021645618932041442   -0.002317902420204423
-0.01039245193760887   -0.021570482974012456   -0.0024747916825978785
-0.007509569581949332   -0.011493786076910406   -0.0016695665301959212
-0.0048746454924861555   -0.02133464733694185   -0.0022710670403819607
-0.01039245193760887   -0.021570482974012456   -0.0024747916825978785
-0.0034199193027539955   -0.01113238323549339   -0.0017643561464994813
-0.003475519364846102   -0.010952522666221763   -0.0019910804079240354
-0.004925287601805752   -0.021148635133396092   -0.002539202622978907
0.0003980152524098555   -0.010957703114181658   -0.0017744166526305007
-0.003446012925884936   -0.011073651346486748   -0.0018721703820611907
-0.004925287601805752   -0.021148635133396092   -0.002539202622978907
0.0003325226859603591   -0.021141017213872716   -0.002363730623958241
0.0003980152524098555   -0.010957703114181658   -0.0017744166526305007
0.0003546435075697053   -0.02118783751688332   -0.0023399302660194123
-0.003446012925884936   -0.011073651346486748   -0.0018721703820611907
0.0004343659441215365   -0.011015138996180784   -0.0017666314908518245
0.0003546435075697053   -0.02118783751688332   -0.0023399302660194123
0.0003980152524098555   -0.010957703114181658   -0.0017744166526305007
-0.003446012925884936   -0.011073651346486748   -0.0018721703820611907
0.0003546435075697053   -0.02118783751688332   -0.0023399302660194123
-0.004913498836423365   -0.02125371624556736   -0.0024374372628491185
-0.004925287601805752   -0.021148635133396092   -0.002539202622978907
-0.003446012925884936   -0.011073651346486748   -0.0018721703820611907
0.0003546435075697053   -0.02118783751688332   -0.0023399302660194123
-0.004925287601805752   -0.021148635133396092   -0.002539202622978907
0.0003980152524098555   -0.010957703114181658   -0.0017744166526305007
-0.003446012925884936   -0.011073651346486748   -0.0018721703820611907
-0.004913498836423365   -0.02125371624556736   -0.0024374372628491185
0.0004343659441215365   -0.011015138996180784   -0.0017666314908518245
-0.0034199193027539955   -0.01113238323549339   -0.0017643561464994813
-0.004913498836423365   -0.02125371624556736   -0.0024374372628491185
0.0003546435075697053   -0.02118783751688332   -0.0023399302660194123
0.0004343659441215365   -0.011015138996180784   -0.0017666314908518245
0.0003686301296535077   -0.021191461790621816   -0.0023282038809397695
-0.0034199193027539955   -0.01113238323549339   -0.0017643561464994813
0.0004586728445468685   -0.011011642433771928   -0.0017714416935147614
0.0003686301296535077   -0.021191461790621816   -0.0023282038809397695
0.0004343659441215365   -0.011015138996180784   -0.0017666314908518245
-0.0034199193027539955   -0.01113238323549339   -0.0017643561464994813
0.0003686301296535077   -0.021191461790621816   -0.0023282038809397695
-0.004898932418926327   -0.021315426208607564   -0.0023480715457516277
-0.004913498836423365   -0.02125371624556736   -0.0024374372628491185
-0.0034199193027539955   -0.01113238323549339   -0.0017643561464994813
0.0003686301296535077   -0.021191461790621816   -0.0023282038809397695
-0.004913498836423365   -0.02125371624556736   -0.0024374372628491185
0.0004343659441215365   -0.011015138996180784   -0.0017666314908518245
-0.0034199193027539955   -0.01113238323549339   -0.0017643561464994813
-0.004898932418926327   -0.021315426208607564   -0.0023480715457516277
0.0004586728445468685   -0.011011642433771928   -0.0017714416935147614
-0.00338075680464452   -0.011130933408956772   -0.001670467492252659
-0.004898932418926327   -0.021315426208607564   -0.0023480715457516277
0.0003686301296535077   -0.021191461790621816   -0.0023282038809397695
0.0004586728445468685   -0.011011642433771928   -0.0017714416935147614
0.00037859041997598757   -0.02115124531994469   -0.002329287205191118
-0.00338075680464452   -0.011130933408956772   -0.001670467492252659
0.00048478615223932186   -0.01094535172198312   -0.0017890470233930828
0.00037859041997598757   -0.02115124531994469   -0.002329287205191118
0.0004586728445468685   -0.011011642433771928   -0.0017714416935147614
-0.00338075680464452   -0.011130933408956772   -0.001670467492252659
0.00037859041997598757   -0.02115124531994469   -0.002329287205191118
-0.0048746454924861555   -0.02133464733694185   -0.0022710670403819607
-0.004898932418926327   -0.021315426208607564   -0.0023480715457516277
-0.00338075680464452   -0.011130933408956772   -0.001670467492252659
0.00037859041997598757   -0.02115124531994469   -0.002329287205191118
-0.004898932418926327   -0.021315426208607564   -0.0023480715457516277
0.0004586728445468685   -0.011011642433771928   -0.0017714416935147614
0.0003980152524098555   -0.010957703114181658   -0.0017744166526305007
0.0003325226859603591   -0.021141017213872716   -0.002363730623958241
0.004502612190269277   -0.01113650906178646   -0.0016732205172408938
0.0004343659441215365   -0.011015138996180784   -0.0017666314908518245
0.0003325226859603591   -0.021141017213872716   -0.002363730623958241
0.005814588910567926   -0.02126099779984621   -0.0022926515667834944
0.004502612190269277   -0.01113650906178646   -0.0016732205172408938
0.005833789072641873   -0.02125443486275407   -0.002348439535175463
0.0004343659441215365   -0.011015138996180784   -0.0017666314908518245
0.004522927611294655   -0.011136094056628682   -0.0017801671377401984
0.005833789072641873   -0.02125443486275407   -0.002348439535175463
0.004502612190269277   -0.01113650906178646   -0.0016732205172408938
0.0004343659441215365   -0.011015138996180784   -0.0017666314908518245
0.005833789072641873   -0.02125443486275407   -0.002348439535175463
0.0003546435075697053   -0.02118783751688332   -0.0023399302660194123
0.0003325226859603591   -0.021141017213872716   -0.002363730623958241
0.0004343659441215365   -0.011015138996180784   -0.0017666314908518245
0.005833789072641873   -0.02125443486275407   -0.002348439535175463
0.0003325226859603591   -0.021141017213872716   -0.002363730623958241
0.004502612190269277   -0.01113650906178646   -0.0016732205172408938
0.0004343659441215365   -0.011015138996180784   -0.0017666314908518245
0.0003546435075697053   -0.02118783751688332   -0.0023399302660194123
0.004522927611294655   -0.011136094056628682   -0.0017801671377401984
0.0004586728445468685   -0.011011642433771928   -0.0017714416935147614
0.0003546435075697053   -0.02118783751688332   -0.0023399302660194123
0.005833789072641873   -0.02125443486275407   -0.002348439535175463
0.004522927611294655   -0.011136094056628682   -0.0017801671377401984
0.005818425318661706   -0.021205586090140314   -0.0024154142797251565
0.0004586728445468685   -0.011011642433771928   -0.0017714416935147614
0.004501523036459127   -0.011075916989475321   -0.0019013644223091221
0.005818425318661706   -0.021205586090140314   -0.0024154142797251565
0.004522927611294655   -0.011136094056628682   -0.0017801671377401984
0.0004586728445468685   -0.011011642433771928   -0.0017714416935147614
0.005818425318661706   -0.021205586090140314   -0.0024154142797251565
0.0003686301296535077   -0.021191461790621816   -0.0023282038809397695
0.0003546435075697053   -0.02118783751688332   -0.0023399302660194123
0.0004586728445468685   -0.011011642433771928   -0.0017714416935147614
0.005818425318661706   -0.021205586090140314   -0.0024154142797251565
0.0003546435075697053   -0.02118783751688332   -0.0023399302660194123
0.004522927611294655   -0.011136094056628682   -0.0017801671377401984
0.0004586728445468685   -0.011011642433771928   -0.0017714416935147614
0.0003686301296535077   -0.021191461790621816   -0.0023282038809397695
0.004501523036459127   -0.011075916989475321   -0.0019013644223091221
0.00048478615223932186   -0.01094535172198312   -0.0017890470233930828
0.0003686301296535077   -0.021191461790621816   -0.0023282038809397695
0.005818425318661706   -0.021205586090140314   -0.0024154142797251565
0.004501523036459127   -0.011075916989475321   -0.0019013644223091221
0.005795741982312604   -0.02110399873634821   -0.0024948995994507096
0.00048478615223932186   -0.01094535172198312   -0.0017890470233930828
0.004489074005990748   -0.010939503609826588   -0.002032329994670865
0.005795741982312604   -0.02110399873634821   -0.0024948995994507096
0.004501523036459127   -0.011075916989475321   -0.0019013644223091221
0.00048478615223932186   -0.01094535172198312   -0.0017890470233930828
0.005795741982312604   -0.02110399873634821   -0.0024948995994507096
0.00037859041997598757   -0.02115124531994469   -0.002329287205191118
0.0003686301296535077   -0.021191461790621816   -0.0023282038809397695
0.00048478615223932186   -0.01094535172198312   -0.0017890470233930828
0.005795741982312604   -0.02110399873634821   -0.0024948995994507096
0.0003686301296535077   -0.021191461790621816   -0.0023282038809397695
0.004501523036459127   -0.011075916989475321   -0.0019013644223091221
0.004502612190269277   -0.01113650906178646   -0.0016732205172408938
0.005814588910567926   -0.02126099779984621   -0.0022926515667834944
0.009455037094239923   -0.011468953909542267   -0.0016457685221539652
0.004522927611294655   -0.011136094056628682   -0.0017801671377401984
0.005814588910567926   -0.02126099779984621   -0.0022926515667834944
0.012057536517446815   -0.021478729588410895   -0.002293714032116331
0.009455037094239923   -0.011468953909542267   -0.0016457685221539652
0.011951826821837926   -0.02144143538757879   -0.0024393865952455885
0.004522927611294655   -0.011136094056628682   -0.0017801671377401984
0.009261952664164337   -0.011437792522107713   -0.001886304428725172
0.011951826821837926   -0.02144143538757879   -0.0024393865952455885
0.009455037094239923   -0.011468953909542267   -0.0016457685221539652
0.004522927611294655   -0.011136094056628682   -0.0017801671377401984
0.011951826821837926   -0.02144143538757879   -0.0024393865952455885
0.005833789072641873   -0.02125443486275407   -0.002348439535175463
0.005814588910567926   -0.02126099779984621   -0.0022926515667834944
0.004522927611294655   -0.011136094056628682   -0.0017801671377401984
0.011951826821837926   -0.02144143538757879   -0.0024393865952455885
0.005814588910567926   -0.02126099779984621   -0.0022926515667834944
0.009455037094239923   -0.011468953909542267   -0.0016457685221539652
0.004522927611294655   -0.011136094056628682   -0.0017801671377401984
0.005833789072641873   -0.02125443486275407   -0.002348439535175463
0.009261952664164337   -0.011437792522107713   -0.001886304428725172
0.004501523036459127   -0.011075916989475321   -0.0019013644223091221
0.005833789072641873   -0.02125443486275407   -0.002348439535175463
0.011951826821837926   -0.02144143538757879   -0.0024393865952455885
0.009261952664164337   -0.011437792522107713   -0.001886304428725172
0.011846421421258913   -0.021366194741373176   -0.0026052312964336207
0.004501523036459127   -0.011075916989475321   -0.0019013644223091221
0.009089458358342252   -0.011344994395079815   -0.002156830493164728
0.011846421421258913   -0.021366194741373176   -0.0026052312964336207
0.009261952664164337   -0.011437792522107713   -0.001886304428725172
0.004501523036459127   -0.011075916989475321   -0.0019013644223091221
0.011846421421258913   -0.021366194741373176   -0.0026052312964336207
0.005818425318661706   -0.021205586090140314   -0.0024154142797251565
0.005833789072641873   -0.02125443486275407   -0.002348439535175463
0.004501523036459127   -0.011075916989475321   -0.0019013644223091221
0.011846421421258913   -0.021366194741373176   -0.0026052312964336207
0.005833789072641873   -0.02125443486275407   -0.002348439535175463
0.009261952664164337   -0.011437792522107713   -0.001886304428725172
0.004501523036459127   -0.011075916989475321   -0.0019013644223091221
0.005818425318661706   -0.021205586090140314   -0.0024154142797251565
0.009089458358342252   -0.011344994395079815   -0.002156830493164728
0.004489074005990748   -0.010939503609826588   -0.002032329994670865
0.005818425318661706   -0.021205586090140314   -0.0024154142797251565
0.011846421421258913   -0.021366194741373176   -0.0026052312964336207
0.009089458358342252   -0.011344994395079815   -0.002156830493164728
0.011659687416017493   -0.021208201928154605   -0.0027912694000126886
0.004489074005990748   -0.010939503609826588   -0.002032329994670865
0.00883129025414027   -0.011138372183827953   -0.0024383945559814865
0.011659687416017493   -0.021208201928154605   -0.0027912694000126886
0.009089458358342252   -0.011344994395079815   -0.002156830493164728
0.004489074005990748   -0.010939503609826588   -0.002032329994670865
0.011659687416017493   -0.021208201928154605   -0.0027912694000126886
0.005795741982312604   -0.02110399873634821   -0.0024948995994507096
0.005818425318661706   -0.021205586090140314   -0.0024154142797251565
0.004489074005990748   -0.010939503609826588   -0.002032329994670865
0.011659687416017493   -0.021208201928154605   -0.0027912694000126886
0.005818425318661706   -0.021205586090140314   -0.0024154142797251565
0.009089458358342252   -0.011344994395079815   -0.002156830493164728
-0.016086092719078317   -0.021579351437397396   -0.003229213156050138
-0.019212711513581747   -0.03353025167563768   -0.003443447691351443
-0.010341950933057573   -0.021291910589726612   -0.0028220807679453946
-0.016372886730327132   -0.021803840553268786   -0.0029479189023982537
-0.019212711513581747   -0.03353025167563768   -0.003443447691351443
-0.01247004238360867   -0.03334727754843127   -0.003111357393723688
-0.010341950933057573   -0.021291910589726612   -0.0028220807679453946
-0.012485534012123956   -0.03348865046668351   -0.0029823639022098143
-0.016372886730327132   -0.021803840553268786   -0.0029479189023982537
-0.010365172899553216   -0.021456193287789253   -0.0026419270731223364
-0.012485534012123956   -0.03348865046668351   -0.0029823639022098143
-0.010341950933057573   -0.021291910589726612   -0.0028220807679453946
-0.016372886730327132   -0.021803840553268786   -0.0029479189023982537
-0.012485534012123956   -0.03348865046668351   -0.0029823639022098143
-0.01940618327287831   -0.03372148724000608   -0.0032565543455465177
-0.019212711513581747   -0.03353025167563768   -0.003443447691351443
-0.016372886730327132   -0.021803840553268786   -0.0029479189023982537
-0.012485534012123956   -0.03348865046668351   -0.0029823639022098143
-0.019212711513581747   -0.03353025167563768   -0.003443447691351443
-0.010341950933057573   -0.021291910589726612   -0.0028220807679453946
-0.016372886730327132   -0.021803840553268786   -0.0029479189023982537
-0.01940618327287831   -0.03372148724000608   -0.0032565543455465177
-0.010365172899553216   -0.021456193287789253   -0.0026419270731223364
-0.016553935928780225   -0.02194456972821066   -0.002685709524136796
-0.01940618327287831   -0.03372148724000608   -0.0032565543455465177
-0.012485534012123956   -0.03348865046668351   -0.0029823639022098143
-0.010365172899553216   -0.021456193287789253   -0.0026419270731223364
-0.012496743549194023   -0.03360069248628569   -0.0028662161530650745
-0.016553935928780225   -0.02194456972821066   -0.002685709524136796
-0.01039245193760887   -0.021570482974012456   -0.0024747916825978785
-0.012496743549194023   -0.03360069248628569   -0.0028662161530650745
-0.010365172899553216   -0.021456193287789253   -0.0026419270731223364
-0.016553935928780225   -0.02194456972821066   -0.002685709524136796
-0.012496743549194023   -0.03360069248628569   -0.0028662161530650745
-0.019517437923713025   -0.03385674584693647   -0.0030875741909373363
-0.01940618327287831   -0.03372148724000608   -0.0032565543455465177
-0.016553935928780225   -0.02194456972821066   -0.002685709524136796
-0.012496743549194023   -0.03360069248628569   -0.0028662161530650745
-0.01940618327287831   -0.03372148724000608   -0.0032565543455465177
-0.010365172899553216   -0.021456193287789253   -0.0026419270731223364
-0.016553935928780225   -0.02194456972821066   -0.002685709524136796
-0.019517437923713025   -0.03385674584693647   -0.0030875741909373363
-0.01039245193760887   -0.021570482974012456   -0.0024747916825978785
-0.01675993365417315   -0.02204568854138596   -0.0024443693125240883
-0.019517437923713025   -0.03385674584693647   -0.0030875741909373363
-0.012496743549194023   -0.03360069248628569   -0.0028662161530650745
-0.01039245193760887   -0.021570482974012456   -0.0024747916825978785
-0.012471385787322759   -0.0336926911566324   -0.0027612095907351766
-0.01675993365417315   -0.02204568854138596   -0.0024443693125240883
-0.010373548824629658   -0.021645618932041442   -0.002317902420204423
-0.012471385787322759   -0.0336926911566324   -0.0027612095907351766
-0.01039245193760887   -0.021570482974012456   -0.0024747916825978785
-0.01675993365417315   -0.02204568854138596   -0.0024443693125240883
-0.012471385787322759   -0.0336926911566324   -0.0027612095907351766
-0.019632076158831724   -0.03397791484190136   -0.0029386337087417167
-0.019517437923713025   -0.03385674584693647   -0.0030875741909373363
-0.01675993365417315   -0.02204568854138596   -0.0024443693125240883
-0.012471385787322759   -0.0336926911566324   -0.0027612095907351766
-0.019517437923713025   -0.03385674584693647   -0.0030875741909373363
-0.01039245193760887   -0.021570482974012456   -0.0024747916825978785
-0.010341950933057573   -0.021291910589726612   -0.0028220807679453946
-0.01247004238360867   -0.03334727754843127   -0.003111357393723688
-0.004925287601805752   -0.021148635133396092   -0.002539202622978907
-0.010365172899553216   -0.021456193287789253   -0.0026419270731223364
-0.01247004238360867   -0.03334727754843127   -0.003111357393723688
-0.006148559162412743   -0.0332527585045808   -0.0028813896980024586
-0.004925287601805752   -0.021148635133396092   -0.002539202622978907
-0.006137356768132645   -0.0333415007986594   -0.002796278213717489
-0.010365172899553216   -0.021456193287789253   -0.0026419270731223364
-0.004913498836423365   -0.02125371624556736   -0.0024374372628491185
-0.006137356768132645   -0.0333415007986594   -0.002796278213717489
-0.004925287601805752   -0.021148635133396092   -0.002539202622978907
-0.010365172899553216   -0.021456193287789253   -0.0026419270731223364
-0.006137356768132645   -0.0333415007986594   -0.002796278213717489
-0.012485534012123956   -0.03348865046668351   -0.0029823639022098143
-0.01247004238360867   -0.03334727754843127   -0.003111357393723688
-0.010365172899553216   -0.021456193287789253   -0.0026419270731223364
-0.006137356768132645   -0.0333415007986594   -0.002796278213717489
-0.01247004238360867   -0.03334727754843127   -0.003111357393723688
-0.004925287601805752   -0.021148635133396092   -0.002539202622978907
-0.010365172899553216   -0.021456193287789253   -0.0026419270731223364
-0.012485534012123956   -0.03348865046668351   -0.0029823639022098143
-0.004913498836423365   -0.02125371624556736   -0.0024374372628491185
-0.01039245193760887   -0.021570482974012456   -0.0024747916825978785
-0.012485534012123956   -0.03348865046668351   -0.0029823639022098143
-0.006137356768132645   -0.0333415007986594   -0.002796278213717489
-0.004913498836423365   -0.02125371624556736   -0.0024374372628491185
-0.006121872571554347   -0.03340566817638453   -0.0027238217809621573
-0.01039245193760887   -0.021570482974012456   -0.0024747916825978785
-0.004898932418926327   -0.021315426208607564   -0.0023480715457516277
-0.006121872571554347   -0.03340566817638453   -0.0027238217809621573
-0.004913498836423365   -0.02125371624556736   -0.0024374372628491185
-0.01039245193760887   -0.021570482974012456   -0.0024747916825978785
-0.006121872571554347   -0.03340566817638453   -0.0027238217809621573
-0.012496743549194023   -0.03360069248628569   -0.0028662161530650745
-0.012485534012123956   -0.03348865046668351   -0.0029823639022098143
-0.01039245193760887   -0.021570482974012456   -0.0024747916825978785
-0.006121872571554347   -0.03340566817638453   -0.0027238217809621573
-0.012485534012123956   -0.03348865046668351   -0.0029823639022098143
-0.004913498836423365   -0.02125371624556736   -0.0024374372628491185
-0.01039245193760887   -0.021570482974012456   -0.0024747916825978785
-0.012496743549194023   -0.03360069248628569   -0.0028662161530650745
-0.004898932418926327   -0.021315426208607564   -0.0023480715457516277
-0.010373548824629658   -0.021645618932041442   -0.002317902420204423
-0.012496743549194023   -0.03360069248628569   -0.0028662161530650745
-0.006121872571554347   -0.03340566817638453   -0.0027238217809621573
-0.004898932418926327   -0.021315426208607564   -0.0023480715457516277
-0.006098544904471585   -0.03344568075873108   -0.0026642283781388326
-0.010373548824629658   -0.021645618932041442   -0.002317902420204423
-0.0048746454924861555   -0.02133464733694185   -0.0022710670403819607
-0.006098544904471585   -0.03344568075873108   -0.0026642283781388326
-0.004898932418926327   -0.021315426208607564   -0.0023480715457516277
-0.010373548824629658   -0.021645618932041442   -0.002317902420204423
-0.006098544904471585   -0.03344568075873108   -0.0026642283781388326
-0.012471385787322759   -0.0336926911566324   -0.0027612095907351766
-0.012496743549194023   -0.03360069248628569   -0.0028662161530650745
-0.010373548824629658   -0.021645618932041442   -0.002317902420204423
-0.006098544904471585   -0.03344568075873108   -0.0026642283781388326
-0.012496743549194023   -0.03360069248628569   -0.0028662161530650745
-0.004898932418926327   -0.021315426208607564   -0.0023480715457516277
-0.004925287601805752   -0.021148635133396092   -0.002539202622978907
-0.006148559162412743   -0.0332527585045808   -0.0028813896980024586
0.0003325226859603591   -0.021141017213872716   -0.002363730623958241
-0.004913498836423365   -0.02125371624556736   -0.0024374372628491185
-0.006148559162412743   -0.0332527585045808   -0.0028813896980024586
1.3772403396583162e-06   -0.03323653496640877   -0.0027473687057024874
0.0003325226859603591   -0.021141017213872716   -0.002363730623958241
2.2882610721977427e-05   -0.03327237747165422   -0.0027064746200880347
-0.004913498836423365   -0.02125371624556736   -0.0024374372628491185
0.0003546435075697053   -0.02118783751688332   -0.0023399302660194123
2.2882610721977427e-05   -0.03327237747165422   -0.0027064746200880347
0.0003325226859603591   -0.021141017213872716   -0.002363730623958241
-0.004913498836423365   -0.02125371624556736   -0.0024374372628491185
2.2882610721977427e-05   -0.03327237747165422   -0.0027064746200880347
-0.006137356768132645   -0.0333415007986594   -0.002796278213717489
-0.006148559162412743   -0.0332527585045808   -0.0028813896980024586
-0.004913498836423365   -0.02125371624556736   -0.0024374372628491185
2.2882610721977427e-05   -0.03327237747165422   -0.0027064746200880347
-0.006148559162412743   -0.0332527585045808   -0.0028813896980024586
0.0003325226859603591   -0.021141017213872716   -0.002363730623958241
-0.004913498836423365   -0.02125371624556736   -0.0024374372628491185
-0.006137356768132645   -0.0333415007986594   -0.002796278213717489
0.0003546435075697053   -0.02118783751688332   -0.0023399302660194123
-0.004898932418926327   -0.021315426208607564   -0.0023480715457516277
-0.006137356768132645   -0.0333415007986594   -0.002796278213717489
2.2882610721977427e-05   -0.03327237747165422   -0.0027064746200880347
0.0003546435075697053   -0.02118783751688332   -0.0023399302660194123
3.805319588365355e-05   -0.03328347620564837   -0.0026780735228698178
-0.004898932418926327   -0.021315426208607564   -0.0023480715457516277
0.0003686301296535077   -0.021191461790621816   -0.0023282038809397695
3.805319588365355e-05   -0.03328347620564837   -0.0026780735228698178
0.0003546435075697053   -0.02118783751688332   -0.0023399302660194123
-0.004898932418926327   -0.021315426208607564   -0.0023480715457516277
3.805319588365355e-05   -0.03328347620564837   -0.0026780735228698178
-0.006121872571554347   -0.03340566817638453   -0.0027238217809621573
-0.006137356768132645   -0.0333415007986594   -0.002796278213717489
-0.004898932418926327   -0.021315426208607564   -0.0023480715457516277
3.805319588365355e-05   -0.03328347620564837   -0.0026780735228698178
-0.006137356768132645   -0.0333415007986594   -0.002796278213717489
0.0003546435075697053   -0.02118783751688332   -0.0023399302660194123
-0.004898932418926327   -0.021315426208607564   -0.0023480715457516277
-0.006121872571554347   -0.03340566817638453   -0.0027238217809621573
0.0003686301296535077   -0.021191461790621816   -0.0023282038809397695
-0.0048746454924861555   -0.02133464733694185   -0.0022710670403819607
-0.006121872571554347   -0.03340566817638453   -0.0027238217809621573
3.805319588365355e-05   -0.03328347620564837   -0.0026780735228698178
0.0003686301296535077   -0.021191461790621816   -0.0023282038809397695
4.749955155641579e-05   -0.03326949228246127   -0.0026627196675687095
-0.0048746454924861555   -0.02133464733694185   -0.0022710670403819607
0.00037859041997598757   -0.02115124531994469   -0.002329287205191118
4.749955155641579e-05   -0.03326949228246127   -0.0026627196675687095
0.0003686301296535077   -0.021191461790621816   -0.0023282038809397695
-0.0048746454924861555   -0.02133464733694185   -0.0022710670403819607
4.749955155641579e-05   -0.03326949228246127   -0.0026627196675687095
-0.006098544904471585   -0.03344568075873108   -0.0026642283781388326
-0.006121872571554347   -0.03340566817638453   -0.0027238217809621573
-0.0048746454924861555   -0.02133464733694185   -0.0022710670403819607
4.749955155641579e-05   -0.03326949228246127   -0.0026627196675687095
-0.006121872571554347   -0.03340566817638453   -0.0027238217809621573
0.0003686301296535077   -0.021191461790621816   -0.0023282038809397695
0.0003325226859603591   -0.021141017213872716   -0.002363730623958241
1.3772403396583162e-06   -0.03323653496640877   -0.0027473687057024874
0.005814588910567926   -0.02126099779984621   -0.0022926515667834944
0.0003546435075697053   -0.02118783751688332   -0.0023399302660194123
1.3772403396583162e-06   -0.03323653496640877   -0.0027473687057024874
0.006362770168692507   -0.03329193002643291   -0.002708736237229874
0.005814588910567926   -0.02126099779984621   -0.0022926515667834944
0.0063891565838507065   -0.03327796288970343   -0.0027129952551420504
0.0003546435075697053   -0.02118783751688332   -0.0023399302660194123
0.005833789072641873   -0.02125443486275407   -0.002348439535175463
0.0063891565838507065   -0.03327796288970343   -0.0027129952551420504
0.005814588910567926   -0.02126099779984621   -0.0022926515667834944
0.0003546435075697053   -0.02118783751688332   -0.0023399302660194123
0.0063891565838507065   -0.03327796288970343   -0.0027129952551420504
2.2882610721977427e-05   -0.03327237747165422   -0.0027064746200880347
1.3772403396583162e-06   -0.03323653496640877   -0.0027473687057024874
0.0003546435075697053   -0.02118783751688332   -0.0023399302660194123
0.0063891565838507065   -0.03327796288970343   -0.0027129952551420504
1.3772403396583162e-06   -0.03323653496640877   -0.0027473687057024874
0.005814588910567926   -0.02126099779984621   -0.0022926515667834944
0.0003546435075697053   -0.02118783751688332   -0.0023399302660194123
2.2882610721977427e-05   -0.03327237747165422   -0.0027064746200880347
0.005833789072641873   -0.02125443486275407   -0.002348439535175463
0.0003686301296535077   -0.021191461790621816   -0.0023282038809397695
2.2882610721977427e-05   -0.03327237747165422   -0.0027064746200880347
0.0063891565838507065   -0.03327796288970343   -0.0027129952551420504
0.005833789072641873   -0.02125443486275407   -0.002348439535175463
0.00639068397989811   -0.03324112756393612   -0.0027290759848647866
0.0003686301296535077   -0.021191461790621816   -0.0023282038809397695
0.005818425318661706   -0.021205586090140314   -0.0024154142797251565
0.00639068397989811   -0.03324112756393612   -0.0027290759848647866
0.005833789072641873   -0.02125443486275407   -0.002348439535175463
0.0003686301296535077   -0.021191461790621816   -0.0023282038809397695
0.00639068397989811   -0.03324112756393612   -0.0027290759848647866
3.805319588365355e-05   -0.03328347620564837   -0.0026780735228698178
2.2882610721977427e-05   -0.03327237747165422   -0.0027064746200880347
0.0003686301296535077   -0.021191461790621816   -0.0023282038809397695
0.00639068397989811   -0.03324112756393612   -0.0027290759848647866
2.2882610721977427e-05   -0.03327237747165422   -0.0027064746200880347
0.005833789072641873   -0.02125443486275407   -0.002348439535175463
0.0003686301296535077   -0.021191461790621816   -0.0023282038809397695
3.805319588365355e-05   -0.03328347620564837   -0.0026780735228698178
0.005818425318661706   -0.021205586090140314   -0.0024154142797251565
0.00037859041997598757   -0.02115124531994469   -0.002329287205191118
3.805319588365355e-05   -0.03328347620564837   -0.0026780735228698178
0.00639068397989811   -0.03324112756393612   -0.0027290759848647866
0.005818425318661706   -0.021205586090140314   -0.0024154142797251565
0.006376255856727372   -0.03317218722407934   -0.00275742698107849
0.00037859041997598757   -0.02115124531994469   -0.002329287205191118
0.005795741982312604   -0.02110399873634821   -0.0024948995994507096
0.006376255856727372   -0.03317218722407934   -0.00275742698107849
0.005818425318661706   -0.021205586090140314   -0.0024154142797251565
0.00037859041997598757   -0.02115124531994469   -0.002329287205191118
0.006376255856727372   -0.03317218722407934   -0.00275742698107849
4.749955155641579e-05   -0.03326949228246127   -0.0026627196675687095
3.805319588365355e-05   -0.03328347620564837   -0.0026780735228698178
0.00037859041997598757   -0.02115124531994469   -0.002329287205191118
0.006376255856727372   -0.03317218722407934   -0.00275742698107849
3.805319588365355e-05   -0.03328347620564837   -0.0026780735228698178
0.005818425318661706   -0.021205586090140314   -0.0024154142797251565
0.005814588910567926   -0.02126099779984621   -0.0022926515667834944
0.006362770168692507   -0.03329193002643291   -0.002708736237229874
0.012057536517446815   -0.021478729588410895   -0.002293714032116331
0.005833789072641873   -0.02125443486275407   -0.002348439535175463
0.006362770168692507   -0.03329193002643291   -0.002708736237229874
0.01338736372410279   -0.03339381759995271   -0.002744576109455839
0.012057536517446815   -0.021478729588410895   -0.002293714032116331
0.01337425263141709   -0.033346134912190545   -0.002797610503344715
0.005833789072641873   -0.02125443486275407   -0.002348439535175463
0.011951826821837926   -0.02144143538757879   -0.0024393865952455885
0.01337425263141709   -0.033346134912190545   -0.002797610503344715
0.012057536517446815   -0.021478729588410895   -0.002293714032116331
0.005833789072641873   -0.02125443486275407   -0.002348439535175463
0.01337425263141709   -0.033346134912190545   -0.002797610503344715
0.0063891565838507065   -0.03327796288970343   -0.0027129952551420504
0.006362770168692507   -0.03329193002643291   -0.002708736237229874
0.005833789072641873   -0.02125443486275407   -0.002348439535175463
0.01337425263141709   -0.033346134912190545   -0.002797610503344715
0.006362770168692507   -0.03329193002643291   -0.002708736237229874
0.012057536517446815   -0.021478729588410895   -0.002293714032116331
0.005833789072641873   -0.02125443486275407   -0.002348439535175463
0.0063891565838507065   -0.03327796288970343   -0.0027129952551420504
0.011951826821837926   -0.02144143538757879   -0.0024393865952455885
0.005818425318661706   -0.021205586090140314   -0.0024154142797251565
0.0063891565838507065   -0.03327796288970343   -0.0027129952551420504
0.01337425263141709   -0.033346134912190545   -0.002797610503344715
0.011951826821837926   -0.02144143538757879   -0.0024393865952455885
0.013340093989983858   -0.03328600419623218   -0.0028698214280338994
0.005818425318661706   -0.021205586090140314   -0.0024154142797251565
0.011846421421258913   -0.021366194741373176   -0.0026052312964336207
0.013340093989983858   -0.03328600419623218   -0.0028698214280338994
0.011951826821837926   -0.02144143538757879   -0.0024393865952455885
0.005818425318661706   -0.021205586090140314   -0.0024154142797251565
0.013340093989983858   -0.03328600419623218   -0.0028698214280338994
0.00639068397989811   -0.03324112756393612   -0.0027290759848647866
0.0063891565838507065   -0.03327796288970343   -0.0027129952551420504
0.005818425318661706   -0.021205586090140314   -0.0024154142797251565
0.013340093989983858   -0.03328600419623218   -0.0028698214280338994
0.0063891565838507065   -0.03327796288970343   -0.0027129952551420504
0.011951826821837926   -0.02144143538757879   -0.0024393865952455885
0.005818425318661706   -0.021205586090140314   -0.0024154142797251565
0.00639068397989811   -0.03324112756393612   -0.0027290759848647866
0.011846421421258913   -0.021366194741373176   -0.0026052312964336207
0.005795741982312604   -0.02110399873634821   -0.0024948995994507096
0.00639068397989811   -0.03324112756393612   -0.0027290759848647866
0.013340093989983858   -0.03328600419623218   -0.0028698214280338994
0.011846421421258913   -0.021366194741373176   -0.0026052312964336207
0.013248003640493907   -0.0331712321192365   -0.0029610699047462083
0.005795741982312604   -0.02110399873634821   -0.0024948995994507096
0.011659687416017493   -0.021208201928154605   -0.0027912694000126886
0.013248003640493907   -0.0331712321192365   -0.0029610699047462083
0.011846421421258913   -0.021366194741373176   -0.0026052312964336207
0.005795741982312604   -0.02110399873634821   -0.0024948995994507096
0.013248003640493907   -0.0331712321192365   -0.0029610699047462083
0.006376255856727372   -0.03317218722407934   -0.00275742698107849
0.00639068397989811   -0.03324112756393612   -0.0027290759848647866
0.005795741982312604   -0.02110399873634821   -0.0024948995994507096
0.013248003640493907   -0.0331712321192365   -0.0029610699047462083
0.00639068397989811   -0.03324112756393612   -0.0027290759848647866
0.011846421421258913   -0.021366194741373176   -0.0026052312964336207
-0.019212711513581747   -0.03353025167563768   -0.003443447691351443
-0.02110711978636093   -0.04654222575788361   -0.003506042775697596
-0.01247004238360867   -0.03334727754843127   -0.003111357393723688
-0.01940618327287831   -0.03372148724000608   -0.0032565543455465177
-0.02110711978636093   -0.04654222575788361   -0.003506042775697596
-0.013867884583605288   -0.04646758089846013   -0.003241395640814357
-0.01247004238360867   -0.03334727754843127   -0.003111357393723688
-0.013862764179851893   -0.04658821796662714   -0.0031622478239984766
-0.01940618327287831   -0.03372148724000608   -0.0032565543455465177
-0.012485534012123956   -0.03348865046668351   -0.0029823639022098143
-0.013862764179851893   -0.04658821796662714   -0.0031622478239984766
-0.01247004238360867   -0.03334727754843127   -0.003111357393723688
-0.01940618327287831   -0.03372148724000608   -0.0032565543455465177
-0.013862764179851893   -0.04658821796662714   -0.0031622478239984766
-0.02119777194769186   -0.04670437407578065   -0.003409572627954625
-0.02110711978636093   -0.04654222575788361   -0.003506042775697596
-0.01940618327287831   -0.03372148724000608   -0.0032565543455465177
-0.013862764179851893   -0.04658821796662714   -0.0031622478239984766
-0.02110711978636093   -0.04654222575788361   -0.003506042775697596
-0.01247004238360867   -0.03334727754843127   -0.003111357393723688
-0.01940618327287831   -0.03372148724000608   -0.0032565543455465177
-0.02119777194769186   -0.04670437407578065   -0.003409572627954625
-0.012485534012123956   -0.03348865046668351   -0.0029823639022098143
-0.019517437923713025   -0.03385674584693647   -0.0030875741909373363
-0.02119777194769186   -0.04670437407578065   -0.003409572627954625
-0.013862764179851893   -0.04658821796662714   -0.0031622478239984766
-0.012485534012123956   -0.03348865046668351   -0.0029823639022098143
-0.01384457166919705   -0.046699467904846505   -0.0030962409698239725
-0.019517437923713025   -0.03385674584693647   -0.0030875741909373363
-0.012496743549194023   -0.03360069248628569   -0.0028662161530650745
-0.01384457166919705   -0.046699467904846505   -0.0030962409698239725
-0.012485534012123956   -0.03348865046668351   -0.0029823639022098143
-0.019517437923713025   -0.03385674584693647   -0.0030875741909373363
-0.01384457166919705   -0.046699467904846505   -0.0030962409698239725
-0.02122696407838231   -0.04683658024707812   -0.00333201779492784
-0.02119777194769186   -0.04670437407578065   -0.003409572627954625
-0.019517437923713025   -0.03385674584693647   -0.0030875741909373363
-0.01384457166919705   -0.046699467904846505   -0.0030962409698239725
-0.02119777194769186   -0.04670437407578065   -0.003409572627954625
-0.012485534012123956   -0.03348865046668351   -0.0029823639022098143
-0.019517437923713025   -0.03385674584693647   -0.0030875741909373363
-0.02122696407838231   -0.04683658024707812   -0.00333201779492784
-0.012496743549194023   -0.03360069248628569   -0.0028662161530650745
-0.019632076158831724   -0.03397791484190136   -0.0029386337087417167
-0.02122696407838231   -0.04683658024707812   -0.00333201779492784
-0.01384457166919705   -0.046699467904846505   -0.0030962409698239725
-0.012496743549194023   -0.03360069248628569   -0.0028662161530650745
-0.013799140459816632   -0.04680980729149308   -0.003042457492328448
-0.019632076158831724   -0.03397791484190136   -0.0029386337087417167
-0.012471385787322759   -0.0336926911566324   -0.0027612095907351766
-0.013799140459816632   -0.04680980729149308   -0.003042457492328448
-0.012496743549194023   -0.03360069248628569   -0.0028662161530650745
-0.019632076158831724   -0.03397791484190136   -0.0029386337087417167
-0.013799140459816632   -0.04680980729149308   -0.003042457492328448
-0.021237096000231964   -0.046980106733903286   -0.0032749992906291577
-0.02122696407838231   -0.04683658024707812   -0.00333201779492784
-0.019632076158831724   -0.03397791484190136   -0.0029386337087417167
-0.013799140459816632   -0.04680980729149308   -0.003042457492328448
-0.02122696407838231   -0.04683658024707812   -0.00333201779492784
-0.012496743549194023   -0.03360069248628569   -0.0028662161530650745
-0.01247004238360867   -0.03334727754843127   -0.003111357393723688
-0.013867884583605288   -0.04646758089846013   -0.003241395640814357
-0.006148559162412743   -0.0332527585045808   -0.0028813896980024586
-0.012485534012123956   -0.03348865046668351   -0.0029823639022098143
-0.013867884583605288   -0.04646758089846013   -0.003241395640814357
-0.00714304939140034   -0.04642481955274883   -0.0030612132093348395
-0.006148559162412743   -0.0332527585045808   -0.0028813896980024586
-0.007118315074426675   -0.046497866989863045   -0.0029922664523068716
-0.012485534012123956   -0.03348865046668351   -0.0029823639022098143
-0.006137356768132645   -0.0333415007986594   -0.002796278213717489
-0.007118315074426675   -0.046497866989863045   -0.0029922664523068716
-0.006148559162412743   -0.0332527585045808   -0.0028813896980024586
-0.012485534012123956   -0.03348865046668351   -0.0029823639022098143
-0.007118315074426675   -0.046497866989863045   -0.0029922664523068716
-0.013862764179851893   -0.04658821796662714   -0.0031622478239984766
-0.013867884583605288   -0.04646758089846013   -0.003241395640814357
-0.012485534012123956   -0.03348865046668351   -0.0029823639022098143
-0.007118315074426675   -0.046497866989863045   -0.0029922664523068716
-0.013867884583605288   -0.04646758089846013   -0.003241395640814357
-0.006148559162412743   -0.0332527585045808   -0.0028813896980024586
-0.012485534012123956   -0.03348865046668351   -0.0029823639022098143
-0.013862764179851893   -0.04658821796662714   -0.0031622478239984766
-0.006137356768132645   -0.0333415007986594   -0.002796278213717489
-0.012496743549194023   -0.03360069248628569   -0.0028662161530650745
-0.013862764179851893   -0.04658821796662714   -0.0031622478239984766
-0.007118315074426675   -0.046497866989863045   -0.0029922664523068716
-0.006137356768132645   -0.0333415007986594   -0.002796278213717489
-0.0070878910145479685   -0.04656488061101745   -0.00293647329500404
-0.012496743549194023   -0.03360069248628569   -0.0028662161530650745
-0.006121872571554347   -0.03340566817638453   -0.0027238217809621573
-0.0070878910145479685   -0.04656488061101745   -0.00293647329500404
-0.006137356768132645   -0.0333415007986594   -0.002796278213717489
-0.012496743549194023   -0.03360069248628569   -0.0028662161530650745
-0.0070878910145479685   -0.04656488061101745   -0.00293647329500404
-0.01384457166919705   -0.046699467904846505   -0.0030962409698239725
-0.013862764179851893   -0.04658821796662714   -0.0031622478239984766
-0.012496743549194023   -0.03360069248628569   -0.0028662161530650745
-0.0070878910145479685   -0.04656488061101745   -0.00293647329500404
-0.013862764179851893   -0.04658821796662714   -0.0031622478239984766
-0.006137356768132645   -0.0333415007986594   -0.002796278213717489
-0.012496743549194023   -0.03360069248628569   -0.0028662161530650745
-0.01384457166919705   -0.046699467904846505   -0.0030962409698239725
-0.006121872571554347   -0.03340566817638453   -0.0027238217809621573
-0.012471385787322759   -0.0336926911566324   -0.0027612095907351766
-0.01384457166919705   -0.046699467904846505   -0.0030962409698239725
-0.0070878910145479685   -0.04656488061101745   -0.00293647329500404
-0.006121872571554347   -0.03340566817638453   -0.0027238217809621573
-0.007051263079707727   -0.046626080101952676   -0.002894148207564194
-0.012471385787322759   -0.0336926911566324   -0.0027612095907351766
-0.006098544904471585   -0.03344568075873108   -0.0026642283781388326
-0.007051263079707727   -0.046626080101952676   -0.002894148207564194
-0.006121872571554347   -0.03340566817638453   -0.0027238217809621573
-0.012471385787322759   -0.0336926911566324   -0.0027612095907351766
-0.007051263079707727   -0.046626080101952676   -0.002894148207564194
-0.013799140459816632   -0.04680980729149308   -0.003042457492328448
-0.01384457166919705   -0.046699467904846505   -0.0030962409698239725
-0.012471385787322759   -0.0336926911566324   -0.0027612095907351766
-0.007051263079707727   -0.046626080101952676   -0.002894148207564194
-0.01384457166919705   -0.046699467904846505   -0.0030962409698239725
-0.006121872571554347   -0.03340566817638453   -0.0027238217809621573
-0.006148559162412743   -0.0332527585045808   -0.0028813896980024586
-0.00714304939140034   -0.04642481955274883   -0.0030612132093348395
1.3772403396583162e-06   -0.03323653496640877   -0.0027473687057024874
-0.006137356768132645   -0.0333415007986594   -0.002796278213717489
-0.00714304939140034   -0.04642481955274883   -0.0030612132093348395
-0.0006001628599427769   -0.046400374156964984   -0.002967923358568074
1.3772403396583162e-06   -0.03323653496640877   -0.0027473687057024874
-0.0005654611022264612   -0.04642496703517311   -0.002909862544146301
-0.006137356768132645   -0.0333415007986594   -0.002796278213717489
2.2882610721977427e-05   -0.03327237747165422   -0.0027064746200880347
-0.0005654611022264612   -0.04642496703517311   -0.002909862544146301
1.3772403396583162e-06   -0.03323653496640877   -0.0027473687057024874
-0.006137356768132645   -0.0333415007986594   -0.002796278213717489
-0.0005654611022264612   -0.04642496703517311   -0.002909862544146301
-0.007118315074426675   -0.046497866989863045   -0.0029922664523068716
-0.00714304939140034   -0.04642481955274883   -0.0030612132093348395
-0.006137356768132645   -0.0333415007986594   -0.002796278213717489
-0.0005654611022264612   -0.04642496703517311   -0.002909862544146301
-0.00714304939140034   -0.04642481955274883   -0.0030612132093348395
1.3772403396583162e-06   -0.03323653496640877   -0.0027473687057024874
-0.006137356768132645   -0.0333415007986594   -0.002796278213717489
-0.007118315074426675   -0.046497866989863045   -0.0029922664523068716
2.2882610721977427e-05   -0.03327237747165422   -0.0027064746200880347
-0.006121872571554347   -0.03340566817638453   -0.0027238217809621573
-0.007118315074426675   -0.046497866989863045   -0.0029922664523068716
-0.0005654611022264612   -0.04642496703517311   -0.002909862544146301
2.2882610721977427e-05   -0.03327237747165422   -0.0027064746200880347
-0.0005354586968871687   -0.04644310086463424   -0.0028648403700910208
-0.006121872571554347   -0.03340566817638453   -0.0027238217809621573
3.805319588365355e-05   -0.03328347620564837   -0.0026780735228698178
-0.0005354586968871687   -0.04644310086463424   -0.0028648403700910208
2.2882610721977427e-05   -0.03327237747165422   -0.0027064746200880347
-0.006121872571554347   -0.03340566817638453   -0.0027238217809621573
-0.0005354586968871687   -0.04644310086463424   -0.0028648403700910208
-0.0070878910145479685   -0.04656488061101745   -0.00293647329500404
-0.007118315074426675   -0.046497866989863045   -0.0029922664523068716
-0.006121872571554347   -0.03340566817638453   -0.0027238217809621573
-0.0005354586968871687   -0.04644310086463424   -0.0028648403700910208
-0.007118315074426675   -0.046497866989863045   -0.0029922664523068716
2.2882610721977427e-05   -0.03327237747165422   -0.0027064746200880347
-0.006121872571554347   -0.03340566817638453   -0.0027238217809621573
-0.0070878910145479685   -0.04656488061101745   -0.00293647329500404
3.805319588365355e-05   -0.03328347620564837   -0.0026780735228698178
-0.006098544904471585   -0.03344568075873108   -0.0026642283781388326
-0.0070878910145479685   -0.04656488061101745   -0.00293647329500404
-0.0005354586968871687   -0.04644310086463424   -0.0028648403700910208
3.805319588365355e-05   -0.03328347620564837   -0.0026780735228698178
-0.0005126827277205166   -0.04645468375802246   -0.0028333331575231433
-0.006098544904471585   -0.03344568075873108   -0.0026642283781388326
4.749955155641579e-05   -0.03326949228246127   -0.0026627196675687095
-0.0005126827277205166   -0.04645468375802246   -0.0028333331575231433
3.805319588365355e-05   -0.03328347620564837   -0.0026780735228698178
-0.006098544904471585   -0.03344568075873108   -0.0026642283781388326
-0.0005126827277205166   -0.04645468375802246   -0.0028333331575231433
-0.007051263079707727   -0.046626080101952676   -0.002894148207564194
-0.0070878910145479685   -0.04656488061101745   -0.00293647329500404
-0.006098544904471585   -0.03344568075873108   -0.0026642283781388326
-0.0005126827277205166   -0.04645468375802246   -0.0028333331575231433
-0.0070878910145479685   -0.04656488061101745   -0.00293647329500404
3.805319588365355e-05   -0.03328347620564837   -0.0026780735228698178
1.3772403396583162e-06   -0.03323653496640877   -0.0027473687057024874
-0.0006001628599427769   -0.046400374156964984   -0.002967923358568074
0.006362770168692507   -0.03329193002643291   -0.002708736237229874
2.2882610721977427e-05   -0.03327237747165422   -0.0027064746200880347
-0.0006001628599427769   -0.046400374156964984   -0.002967923358568074
0.0061425014361503605   -0.04639003627459951   -0.002962330057141817
0.006362770168692507   -0.03329193002643291   -0.002708736237229874
0.006188568969855574   -0.04636770563652164   -0.0029157029724130546
2.2882610721977427e-05   -0.03327237747165422   -0.0027064746200880347
0.0063891565838507065   -0.03327796288970343   -0.0027129952551420504
0.006188568969855574   -0.04636770563652164   -0.0029157029724130546
0.006362770168692507   -0.03329193002643291   -0.002708736237229874
2.2882610721977427e-05   -0.03327237747165422   -0.0027064746200880347
0.006188568969855574   -0.04636770563652164   -0.0029157029724130546
-0.0005654611022264612   -0.04642496703517311   -0.002909862544146301
-0.0006001628599427769   -0.046400374156964984   -0.002967923358568074
2.2882610721977427e-05   -0.03327237747165422   -0.0027064746200880347
0.006188568969855574   -0.04636770563652164   -0.0029157029724130546
-0.0006001628599427769   -0.046400374156964984   -0.002967923358568074
0.006362770168692507   -0.03329193002643291   -0.002708736237229874
2.2882610721977427e-05   -0.03327237747165422   -0.0027064746200880347
-0.0005654611022264612   -0.04642496703517311   -0.002909862544146301
0.0063891565838507065   -0.03327796288970343   -0.0027129952551420504
3.805319588365355e-05   -0.03328347620564837   -0.0026780735228698178
-0.0005654611022264612   -0.04642496703517311   -0.002909862544146301
0.006188568969855574   -0.04636770563652164   -0.0029157029724130546
0.0063891565838507065   -0.03327796288970343   -0.0027129952551420504
0.006219258627381361   -0.04634160849837105   -0.002881742016350304
3.805319588365355e-05   -0.03328347620564837   -0.0026780735228698178
0.00639068397989811   -0.03324112756393612   -0.0027290759848647866
0.006219258627381361   -0.04634160849837105   -0.002881742016350304
0.0063891565838507065   -0.03327796288970343   -0.0027129952551420504
3.805319588365355e-05   -0.03328347620564837   -0.0026780735228698178
0.006219258627381361   -0.04634160849837105   -0.002881742016350304
-0.0005354586968871687   -0.04644310086463424   -0.0028648403700910208
-0.0005654611022264612   -0.04642496703517311   -0.002909862544146301
3.805319588365355e-05   -0.03328347620564837   -0.0026780735228698178
0.006219258627381361   -0.04634160849837105   -0.002881742016350304
-0.0005654611022264612   -0.04642496703517311   -0.002909862544146301
0.0063891565838507065   -0.03327796288970343   -0.0027129952551420504
3.805319588365355e-05   -0.03328347620564837   -0.0026780735228698178
-0.0005354586968871687   -0.04644310086463424   -0.0028648403700910208
0.00639068397989811   -0.03324112756393612   -0.0027290759848647866
4.749955155641579e-05   -0.03326949228246127   -0.0026627196675687095
-0.0005354586968871687   -0.04644310086463424   -0.0028648403700910208
0.006219258627381361   -0.04634160849837105   -0.002881742016350304
0.00639068397989811   -0.03324112756393612   -0.0027290759848647866
0.006225201493899657   -0.04630316187594129   -0.0028601865549587628
4.749955155641579e-05   -0.03326949228246127   -0.0026627196675687095
0.006376255856727372   -0.03317218722407934   -0.00275742698107849
0.006225201493899657   -0.04630316187594129   -0.0028601865549587628
0.00639068397989811   -0.03324112756393612   -0.0027290759848647866
4.749955155641579e-05   -0.03326949228246127   -0.0026627196675687095
0.006225201493899657   -0.04630316187594129   -0.0028601865549587628
-0.0005126827277205166   -0.04645468375802246   -0.0028333331575231433
-0.0005354586968871687   -0.04644310086463424   -0.0028648403700910208
4.749955155641579e-05   -0.03326949228246127   -0.0026627196675687095
0.006225201493899657   -0.04630316187594129   -0.0028601865549587628
-0.0005354586968871687   -0.04644310086463424   -0.0028648403700910208
0.00639068397989811   -0.03324112756393612   -0.0027290759848647866
0.006362770168692507   -0.03329193002643291   -0.002708736237229874
0.0061425014361503605   -0.04639003627459951   -0.002962330057141817
0.01338736372410279   -0.03339381759995271   -0.002744576109455839
0.0063891565838507065   -0.03327796288970343   -0.0027129952551420504
0.0061425014361503605   -0.04639003627459951   -0.002962330057141817
0.013449860831173242   -0.04637582507656074   -0.0030355774009640218
0.01338736372410279   -0.03339381759995271   -0.002744576109455839
0.01354021734108725   -0.04631642251484989   -0.0029975083130525503
0.0063891565838507065   -0.03327796288970343   -0.0027129952551420504
0.01337425263141709   -0.033346134912190545   -0.002797610503344715
0.01354021734108725   -0.04631642251484989   -0.0029975083130525503
0.01338736372410279   -0.03339381759995271   -0.002744576109455839
0.0063891565838507065   -0.03327796288970343   -0.0027129952551420504
0.01354021734108725   -0.04631642251484989   -0.0029975083130525503
0.006188568969855574   -0.04636770563652164   -0.0029157029724130546
0.0061425014361503605   -0.04639003627459951   -0.002962330057141817
0.0063891565838507065   -0.03327796288970343   -0.0027129952551420504
0.01354021734108725   -0.04631642251484989   -0.0029975083130525503
0.0061425014361503605   -0.04639003627459951   -0.002962330057141817
0.01338736372410279   -0.03339381759995271   -0.002744576109455839
0.0063891565838507065   -0.03327796288970343   -0.0027129952551420504
0.006188568969855574   -0.04636770563652164   -0.0029157029724130546
0.01337425263141709   -0.033346134912190545   -0.002797610503344715
0.00639068397989811   -0.03324112756393612   -0.0027290759848647866
0.006188568969855574   -0.04636770563652164   -0.0029157029724130546
0.01354021734108725   -0.04631642251484989   -0.0029975083130525503
0.01337425263141709   -0.033346134912190545   -0.002797610503344715
0.013587747577086437   -0.046269467736517536   -0.00297868026365192
0.00639068397989811   -0.03324112756393612   -0.0027290759848647866
0.013340093989983858   -0.03328600419623218   -0.0028698214280338994
0.013587747577086437   -0.046269467736517536   -0.00297868026365192
0.01337425263141709   -0.033346134912190545   -0.002797610503344715
0.00639068397989811   -0.03324112756393612   -0.0027290759848647866
0.013587747577086437   -0.046269467736517536   -0.00297868026365192
0.006219258627381361   -0.04634160849837105   -0.002881742016350304
0.006188568969855574   -0.04636770563652164   -0.0029157029724130546
0.00639068397989811   -0.03324112756393612   -0.0027290759848647866
0.013587747577086437   -0.046269467736517536   -0.00297868026365192
0.006188568969855574   -0.04636770563652164   -0.0029157029724130546
0.01337425263141709   -0.033346134912190545   -0.002797610503344715
0.00639068397989811   -0.03324112756393612   -0.0027290759848647866
0.006219258627381361   -0.04634160849837105   -0.002881742016350304
0.013340093989983858   -0.03328600419623218   -0.0028698214280338994
0.006376255856727372   -0.03317218722407934   -0.00275742698107849
0.006219258627381361   -0.04634160849837105   -0.002881742016350304
0.013587747577086437   -0.046269467736517536   -0.00297868026365192
0.013340093989983858   -0.03328600419623218   -0.0028698214280338994
0.013598678122098319   -0.0461939932162106   -0.00297942091900632
0.006376255856727372   -0.03317218722407934   -0.00275742698107849
0.013248003640493907   -0.0331712321192365   -0.0029610699047462083
0.013598678122098319   -0.0461939932162106   -0.00297942091900632
0.013340093989983858   -0.03328600419623218   -0.0028698214280338994
0.006376255856727372   -0.03317218722407934   -0.00275742698107849
0.013598678122098319   -0.0461939932162106   -0.00297942091900632
0.006225201493899657   -0.04630316187594129   -0.0028601865549587628
0.006219258627381361   -0.04634160849837105   -0.002881742016350304
0.006376255856727372   -0.03317218722407934   -0.00275742698107849
0.013598678122098319   -0.0461939932162106   -0.00297942091900632
0.006219258627381361   -0.04634160849837105   -0.002881742016350304
0.013340093989983858   -0.03328600419623218   -0.0028698214280338994
-0.02110711978636093   -0.04654222575788361   -0.003506042775697596
-0.021768870304183983   -0.05979157488067096   -0.0034463883710200444
-0.013867884583605288   -0.04646758089846013   -0.003241395640814357
-0.02119777194769186   -0.04670437407578065   -0.003409572627954625
-0.021768870304183983   -0.05979157488067096   -0.0034463883710200444
-0.014536818794775929   -0.05982613548109315   -0.0032506002903254813
-0.013867884583605288   -0.04646758089846013   -0.003241395640814357
-0.01449809297948126   -0.05992560280050899   -0.003220565496523749
-0.02119777194769186   -0.04670437407578065   -0.003409572627954625
-0.013862764179851893   -0.04658821796662714   -0.0031622478239984766
-0.01449809297948126   -0.05992560280050899   -0.003220565496523749
-0.013867884583605288   -0.04646758089846013   -0.003241395640814357
-0.02119777194769186   -0.04670437407578065   -0.003409572627954625
-0.01449809297948126   -0.05992560280050899   -0.003220565496523749
-0.021744218103497248   -0.059924643359240366   -0.00344001325641856
-0.021768870304183983   -0.05979157488067096   -0.0034463883710200444
-0.02119777194769186   -0.04670437407578065   -0.003409572627954625
-0.01449809297948126   -0.05992560280050899   -0.003220565496523749
-0.021768870304183983   -0.05979157488067096   -0.0034463883710200444
-0.013867884583605288   -0.04646758089846013   -0.003241395640814357
-0.02119777194769186   -0.04670437407578065   -0.003409572627954625
-0.021744218103497248   -0.059924643359240366   -0.00344001325641856
-0.013862764179851893   -0.04658821796662714   -0.0031622478239984766
-0.02122696407838231   -0.04683658024707812   -0.00333201779492784
-0.021744218103497248   -0.059924643359240366   -0.00344001325641856
-0.01449809297948126   -0.05992560280050899   -0.003220565496523749
-0.013862764179851893   -0.04658821796662714   -0.0031622478239984766
-0.014437529824937855   -0.060035760221253336   -0.0032040858936814237
-0.02122696407838231   -0.04683658024707812   -0.00333201779492784
-0.01384457166919705   -0.046699467904846505   -0.0030962409698239725
-0.014437529824937855   -0.060035760221253336   -0.0032040858936814237
-0.013862764179851893   -0.04658821796662714   -0.0031622478239984766
-0.02122696407838231   -0.04683658024707812   -0.00333201779492784
-0.014437529824937855   -0.060035760221253336   -0.0032040858936814237
-0.021678001706837927   -0.06005378851092227   -0.0034538960168225066
-0.021744218103497248   -0.059924643359240366   -0.00344001325641856
-0.02122696407838231   -0.04683658024707812   -0.00333201779492784
-0.014437529824937855   -0.060035760221253336   -0.0032040858936814237
-0.021744218103497248   -0.059924643359240366   -0.00344001325641856
-0.013862764179851893   -0.04658821796662714   -0.0031622478239984766
-0.02122696407838231   -0.04683658024707812   -0.00333201779492784
-0.021678001706837927   -0.06005378851092227   -0.0034538960168225066
-0.01384457166919705   -0.046699467904846505   -0.0030962409698239725
-0.021237096000231964   -0.046980106733903286   -0.0032749992906291577
-0.021678001706837927   -0.06005378851092227   -0.0034538960168225066
-0.014437529824937855   -0.060035760221253336   -0.0032040858936814237
-0.01384457166919705   -0.046699467904846505   -0.0030962409698239725
-0.014359003162981285   -0.060164189266883404   -0.003200945173223086
-0.021237096000231964   -0.046980106733903286   -0.0032749992906291577
-0.013799140459816632   -0.04680980729149308   -0.003042457492328448
-0.014359003162981285   -0.060164189266883404   -0.003200945173223086
-0.01384457166919705   -0.046699467904846505   -0.0030962409698239725
-0.021237096000231964   -0.046980106733903286   -0.0032749992906291577
-0.014359003162981285   -0.060164189266883404   -0.003200945173223086
-0.021570334817759013   -0.0602200942743572   -0.0034890563605586575
-0.021678001706837927   -0.06005378851092227   -0.0034538960168225066
-0.021237096000231964   -0.046980106733903286   -0.0032749992906291577
-0.014359003162981285   -0.060164189266883404   -0.003200945173223086
-0.021678001706837927   -0.06005378851092227   -0.0034538960168225066
-0.01384457166919705   -0.046699467904846505   -0.0030962409698239725
-0.013867884583605288   -0.04646758089846013   -0.003241395640814357
-0.014536818794775929   -0.05982613548109315   -0.0032506002903254813
-0.00714304939140034   -0.04642481955274883   -0.0030612132093348395
-0.013862764179851893   -0.04658821796662714   -0.0031622478239984766
-0.014536818794775929   -0.05982613548109315   -0.0032506002903254813
-0.007912472627860219   -0.05983368747841075   -0.003120452823982547
-0.00714304939140034   -0.04642481955274883   -0.0030612132093348395
-0.00786054846206559   -0.05989077167990237   -0.003067206926451588
-0.013862764179851893   -0.04658821796662714   -0.0031622478239984766
-0.007118315074426675   -0.046497866989863045   -0.0029922664523068716
-0.00786054846206559   -0.05989077167990237   -0.003067206926451588
-0.00714304939140034   -0.04642481955274883   -0.0030612132093348395
-0.013862764179851893   -0.04658821796662714   -0.0031622478239984766
-0.00786054846206559   -0.05989077167990237   -0.003067206926451588
-0.01449809297948126   -0.05992560280050899   -0.003220565496523749
-0.014536818794775929   -0.05982613548109315   -0.0032506002903254813
-0.013862764179851893   -0.04658821796662714   -0.0031622478239984766
-0.00786054846206559   -0.05989077167990237   -0.003067206926451588
-0.014536818794775929   -0.05982613548109315   -0.0032506002903254813
-0.00714304939140034   -0.04642481955274883   -0.0030612132093348395
-0.013862764179851893   -0.04658821796662714   -0.0031622478239984766
-0.01449809297948126   -0.05992560280050899   -0.003220565496523749
-0.007118315074426675   -0.046497866989863045   -0.0029922664523068716
-0.01384457166919705   -0.046699467904846505   -0.0030962409698239725
-0.01449809297948126   -0.05992560280050899   -0.003220565496523749
-0.00786054846206559   -0.05989077167990237   -0.003067206926451588
-0.007118315074426675   -0.046497866989863045   -0.0029922664523068716
-0.007801849024647774   -0.05996013681281686   -0.003027568821873676
-0.01384457166919705   -0.046699467904846505   -0.0030962409698239725
-0.0070878910145479685   -0.04656488061101745   -0.00293647329500404
-0.007801849024647774   -0.05996013681281686   -0.003027568821873676
-0.007118315074426675   -0.046497866989863045   -0.0029922664523068716
-0.01384457166919705   -0.046699467904846505   -0.0030962409698239725
-0.007801849024647774   -0.05996013681281686   -0.003027568821873676
-0.014437529824937855   -0.060035760221253336   -0.0032040858936814237
-0.01449809297948126   -0.05992560280050899   -0.003220565496523749
-0.01384457166919705   -0.046699467904846505   -0.0030962409698239725
-0.007801849024647774   -0.05996013681281686   -0.003027568821873676
-0.01449809297948126   -0.05992560280050899   -0.003220565496523749
-0.007118315074426675   -0.046497866989863045   -0.0029922664523068716
-0.01384457166919705   -0.046699467904846505   -0.0030962409698239725
-0.014437529824937855   -0.060035760221253336   -0.0032040858936814237
-0.0070878910145479685   -0.04656488061101745   -0.00293647329500404
-0.013799140459816632   -0.04680980729149308   -0.003042457492328448
-0.014437529824937855   -0.060035760221253336   -0.0032040858936814237
-0.007801849024647774   -0.05996013681281686   -0.003027568821873676
-0.0070878910145479685   -0.04656488061101745   -0.00293647329500404
-0.007738577748278447   -0.06004199902683607   -0.0030019780049431594
-0.013799140459816632   -0.04680980729149308   -0.003042457492328448
-0.007051263079707727   -0.046626080101952676   -0.002894148207564194
-0.007738577748278447   -0.06004199902683607   -0.0030019780049431594
-0.0070878910145479685   -0.04656488061101745   -0.00293647329500404
-0.013799140459816632   -0.04680980729149308   -0.003042457492328448
-0.007738577748278447   -0.06004199902683607   -0.0030019780049431594
-0.014359003162981285   -0.060164189266883404   -0.003200945173223086
-0.014437529824937855   -0.060035760221253336   -0.0032040858936814237
-0.013799140459816632   -0.04680980729149308   -0.003042457492328448
-0.007738577748278447   -0.06004199902683607   -0.0030019780049431594
-0.014437529824937855   -0.060035760221253336   -0.0032040858936814237
-0.0070878910145479685   -0.04656488061101745   -0.00293647329500404
-0.00714304939140034   -0.04642481955274883   -0.0030612132093348395
-0.007912472627860219   -0.05983368747841075   -0.003120452823982547
-0.0006001628599427769   -0.046400374156964984   -0.002967923358568074
-0.007118315074426675   -0.046497866989863045   -0.0029922664523068716
-0.007912472627860219   -0.05983368747841075   -0.003120452823982547
-0.00147558207693484   -0.05979863063341059   -0.0030671443977558057
-0.0006001628599427769   -0.046400374156964984   -0.002967923358568074
-0.0014141503853094819   -0.05981192540797369   -0.002991842028954187
-0.007118315074426675   -0.046497866989863045   -0.0029922664523068716
-0.0005654611022264612   -0.04642496703517311   -0.002909862544146301
-0.0014141503853094819   -0.05981192540797369   -0.002991842028954187
-0.0006001628599427769   -0.046400374156964984   -0.002967923358568074
-0.007118315074426675   -0.046497866989863045   -0.0029922664523068716
-0.0014141503853094819   -0.05981192540797369   -0.002991842028954187
-0.00786054846206559   -0.05989077167990237   -0.003067206926451588
-0.007912472627860219   -0.05983368747841075   -0.003120452823982547
-0.007118315074426675   -0.046497866989863045   -0.0029922664523068716
-0.0014141503853094819   -0.05981192540797369   -0.002991842028954187
-0.007912472627860219   -0.05983368747841075   -0.003120452823982547
-0.0006001628599427769   -0.046400374156964984   -0.002967923358568074
-0.007118315074426675   -0.046497866989863045   -0.0029922664523068716
-0.00786054846206559   -0.05989077167990237   -0.003067206926451588
-0.0005654611022264612   -0.04642496703517311   -0.002909862544146301
-0.0070878910145479685   -0.04656488061101745   -0.00293647329500404
-0.00786054846206559   -0.05989077167990237   -0.003067206926451588
-0.0014141503853094819   -0.05981192540797369   -0.002991842028954187
-0.0005654611022264612   -0.04642496703517311   -0.002909862544146301
-0.0013560472684726716   -0.05983653578359059   -0.002930049788932162
-0.0070878910145479685   -0.04656488061101745   -0.00293647329500404
-0.0005354586968871687   -0.04644310086463424   -0.0028648403700910208
-0.0013560472684726716   -0.05983653578359059   -0.002930049788932162
-0.0005654611022264612   -0.04642496703517311   -0.002909862544146301
-0.0070878910145479685   -0.04656488061101745   -0.00293647329500404
-0.0013560472684726716   -0.05983653578359059   -0.002930049788932162
-0.007801849024647774   -0.05996013681281686   -0.003027568821873676
-0.00786054846206559   -0.05989077167990237   -0.003067206926451588
-0.0070878910145479685   -0.04656488061101745   -0.00293647329500404
-0.0013560472684726716   -0.05983653578359059   -0.002930049788932162
-0.00786054846206559   -0.05989077167990237   -0.003067206926451588
-0.0005654611022264612   -0.04642496703517311   -0.002909862544146301
-0.0070878910145479685   -0.04656488061101745   -0.00293647329500404
-0.007801849024647774   -0.05996013681281686   -0.003027568821873676
-0.0005354586968871687   -0.04644310086463424   -0.0028648403700910208
-0.007051263079707727   -0.046626080101952676   -0.002894148207564194
-0.007801849024647774   -0.05996013681281686   -0.003027568821873676
-0.0013560472684726716   -0.05983653578359059   -0.002930049788932162
-0.0005354586968871687   -0.04644310086463424   -0.0028648403700910208
-0.0013067650866949545   -0.059873025165706306   -0.0028822403002503466
-0.007051263079707727   -0.046626080101952676   -0.002894148207564194
-0.0005126827277205166   -0.04645468375802246   -0.0028333331575231433
-0.0013067650866949545   -0.059873025165706306   -0.0028822403002503466
-0.0005354586968871687   -0.04644310086463424   -0.0028648403700910208
-0.007051263079707727   -0.046626080101952676   -0.002894148207564194
-0.0013067650866949545   -0.059873025165706306   -0.0028822403002503466
-0.007738577748278447   -0.06004199902683607   -0.0030019780049431594
-0.007801849024647774   -0.05996013681281686   -0.003027568821873676
-0.007051263079707727   -0.046626080101952676   -0.002894148207564194
-0.0013067650866949545   -0.059873025165706306   -0.0028822403002503466
-0.007801849024647774   -0.05996013681281686   -0.003027568821873676
-0.0005354586968871687   -0.04644310086463424   -0.0028648403700910208
-0.0006001628599427769   -0.046400374156964984   -0.002967923358568074
-0.00147558207693484   -0.05979863063341059   -0.0030671443977558057
0.0061425014361503605   -0.04639003627459951   -0.002962330057141817
-0.0005654611022264612   -0.04642496703517311   -0.002909862544146301
-0.00147558207693484   -0.05979863063341059   -0.0030671443977558057
0.005155282683449446   -0.059720676105471285   -0.0030932053342141697
0.0061425014361503605   -0.04639003627459951   -0.002962330057141817
0.005233667271931597   -0.059690042630994165   -0.002996243227682343
-0.0005654611022264612   -0.04642496703517311   -0.002909862544146301
0.006188568969855574   -0.04636770563652164   -0.0029157029724130546
0.005233667271931597   -0.059690042630994165   -0.002996243227682343
0.0061425014361503605   -0.04639003627459951   -0.002962330057141817
-0.0005654611022264612   -0.04642496703517311   -0.002909862544146301
0.005233667271931597   -0.059690042630994165   -0.002996243227682343
-0.0014141503853094819   -0.05981192540797369   -0.002991842028954187
-0.00147558207693484   -0.05979863063341059   -0.0030671443977558057
-0.0005654611022264612   -0.04642496703517311   -0.002909862544146301
0.005233667271931597   -0.059690042630994165   -0.002996243227682343
-0.00147558207693484   -0.05979863063341059   -0.0030671443977558057
0.0061425014361503605   -0.04639003627459951   -0.002962330057141817
-0.0005654611022264612   -0.04642496703517311   -0.002909862544146301
-0.0014141503853094819   -0.05981192540797369   -0.002991842028954187
0.006188568969855574   -0.04636770563652164   -0.0029157029724130546
-0.0005354586968871687   -0.04644310086463424   -0.0028648403700910208
-0.0014141503853094819   -0.05981192540797369   -0.002991842028954187
0.005233667271931597   -0.059690042630994165   -0.002996243227682343
0.006188568969855574   -0.04636770563652164   -0.0029157029724130546
0.005306061885183074   -0.05967411752865308   -0.0029127517092503654
-0.0005354586968871687   -0.04644310086463424   -0.0028648403700910208
0.006219258627381361   -0.04634160849837105   -0.002881742016350304
0.005306061885183074   -0.05967411752865308   -0.0029127517092503654
0.006188568969855574   -0.04636770563652164   -0.0029157029724130546
-0.0005354586968871687   -0.04644310086463424   -0.0028648403700910208
0.005306061885183074   -0.05967411752865308   -0.0029127517092503654
-0.0013560472684726716   -0.05983653578359059   -0.002930049788932162
-0.0014141503853094819   -0.05981192540797369   -0.002991842028954187
-0.0005354586968871687   -0.04644310086463424   -0.0028648403700910208
0.005306061885183074   -0.05967411752865308   -0.0029127517092503654
-0.0014141503853094819   -0.05981192540797369   -0.002991842028954187
0.006188568969855574   -0.04636770563652164   -0.0029157029724130546
-0.0005354586968871687   -0.04644310086463424   -0.0028648403700910208
-0.0013560472684726716   -0.05983653578359059   -0.002930049788932162
0.006219258627381361   -0.04634160849837105   -0.002881742016350304
-0.0005126827277205166   -0.04645468375802246   -0.0028333331575231433
-0.0013560472684726716   -0.05983653578359059   -0.002930049788932162
0.005306061885183074   -0.05967411752865308   -0.0029127517092503654
0.006219258627381361   -0.04634160849837105   -0.002881742016350304
0.005344782734855571   -0.05966516181670186   -0.00284185137453792
-0.0005126827277205166   -0.04645468375802246   -0.0028333331575231433
0.006225201493899657   -0.04630316187594129   -0.0028601865549587628
0.005344782734855571   -0.05966516181670186   -0.00284185137453792
0.006219258627381361   -0.04634160849837105   -0.002881742016350304
-0.0005126827277205166   -0.04645468375802246   -0.0028333331575231433
0.005344782734855571   -0.05966516181670186   -0.00284185137453792
-0.0013067650866949545   -0.059873025165706306   -0.0028822403002503466
-0.0013560472684726716   -0.05983653578359059   -0.002930049788932162
-0.0005126827277205166   -0.04645468375802246   -0.0028333331575231433
0.005344782734855571   -0.05966516181670186   -0.00284185137453792
-0.0013560472684726716   -0.05983653578359059   -0.002930049788932162
0.006219258627381361   -0.04634160849837105   -0.002881742016350304
0.0061425014361503605   -0.04639003627459951   -0.002962330057141817
0.005155282683449446   -0.059720676105471285   -0.0030932053342141697
0.013449860831173242   -0.04637582507656074   -0.0030355774009640218
0.006188568969855574   -0.04636770563652164   -0.0029157029724130546
0.005155282683449446   -0.059720676105471285   -0.0030932053342141697
0.012255328534351921   -0.059589746443208774   -0.003202747390914265
0.013449860831173242   -0.04637582507656074   -0.0030355774009640218
0.012460090587094075   -0.05951930302195107   -0.0030755364289871776
0.006188568969855574   -0.04636770563652164   -0.0029157029724130546
0.01354021734108725   -0.04631642251484989   -0.0029975083130525503
0.012460090587094075   -0.05951930302195107   -0.0030755364289871776
0.013449860831173242   -0.04637582507656074   -0.0030355774009640218
0.006188568969855574   -0.04636770563652164   -0.0029157029724130546
0.012460090587094075   -0.05951930302195107   -0.0030755364289871776
0.005233667271931597   -0.059690042630994165   -0.002996243227682343
0.005155282683449446   -0.059720676105471285   -0.0030932053342141697
0.006188568969855574   -0.04636770563652164   -0.0029157029724130546
0.012460090587094075   -0.05951930302195107   -0.0030755364289871776
0.005155282683449446   -0.059720676105471285   -0.0030932053342141697
0.013449860831173242   -0.04637582507656074   -0.0030355774009640218
0.006188568969855574   -0.04636770563652164   -0.0029157029724130546
0.005233667271931597   -0.059690042630994165   -0.002996243227682343
0.01354021734108725   -0.04631642251484989   -0.0029975083130525503
0.006219258627381361   -0.04634160849837105   -0.002881742016350304
0.005233667271931597   -0.059690042630994165   -0.002996243227682343
0.012460090587094075   -0.05951930302195107   -0.0030755364289871776
0.01354021734108725   -0.04631642251484989   -0.0029975083130525503
0.012600673767838013   -0.059485148713562634   -0.0029675046979583232
0.006219258627381361   -0.04634160849837105   -0.002881742016350304
0.013587747577086437   -0.046269467736517536   -0.00297868026365192
0.012600673767838013   -0.059485148713562634   -0.0029675046979583232
0.01354021734108725   -0.04631642251484989   -0.0029975083130525503
0.006219258627381361   -0.04634160849837105   -0.002881742016350304
0.012600673767838013   -0.059485148713562634   -0.0029675046979583232
0.005306061885183074   -0.05967411752865308   -0.0029127517092503654
0.005233667271931597   -0.059690042630994165   -0.002996243227682343
0.006219258627381361   -0.04634160849837105   -0.002881742016350304
0.012600673767838013   -0.059485148713562634   -0.0029675046979583232
0.005233667271931597   -0.059690042630994165   -0.002996243227682343
0.01354021734108725   -0.04631642251484989   -0.0029975083130525503
0.006219258627381361   -0.04634160849837105   -0.002881742016350304
0.005306061885183074   -0.05967411752865308   -0.0029127517092503654
0.013587747577086437   -0.046269467736517536   -0.00297868026365192
0.006225201493899657   -0.04630316187594129   -0.0028601865549587628
0.005306061885183074   -0.05967411752865308   -0.0029127517092503654
0.012600673767838013   -0.059485148713562634   -0.0029675046979583232
0.013587747577086437   -0.046269467736517536   -0.00297868026365192
0.012725349882245308   -0.05944790429950501   -0.0028794472358185594
0.006225201493899657   -0.04630316187594129   -0.0028601865549587628
0.013598678122098319   -0.0461939932162106   -0.00297942091900632
0.012725349882245308   -0.05944790429950501   -0.0028794472358185594
0.013587747577086437   -0.046269467736517536   -0.00297868026365192
0.006225201493899657   -0.04630316187594129   -0.0028601865549587628
0.012725349882245308   -0.05944790429950501   -0.0028794472358185594
0.005344782734855571   -0.05966516181670186   -0.00284185137453792
0.005306061885183074   -0.05967411752865308   -0.0029127517092503654
0.006225201493899657   -0.04630316187594129   -0.0028601865549587628
0.012725349882245308   -0.05944790429950501   -0.0028794472358185594
0.005306061885183074   -0.05967411752865308   -0.0029127517092503654
0.013587747577086437   -0.046269467736517536   -0.00297868026365192
-0.021768870304183983   -0.05979157488067096   -0.0034463883710200444
-0.021186980969429822   -0.07244605024793055   -0.003294717812342491
-0.014536818794775929   -0.05982613548109315   -0.0032506002903254813
-0.021744218103497248   -0.059924643359240366   -0.00344001325641856
-0.021186980969429822   -0.07244605024793055   -0.003294717812342491
-0.014477429967499175   -0.07259185735039113   -0.0031767108598336085
-0.014536818794775929   -0.05982613548109315   -0.0032506002903254813
-0.014392608345314702   -0.07266614393120095   -0.0031945126992144364
-0.021744218103497248   -0.059924643359240366   -0.00344001325641856
-0.01449809297948126   -0.05992560280050899   -0.003220565496523749
-0.014392608345314702   -0.07266614393120095   -0.0031945126992144364
-0.014536818794775929   -0.05982613548109315   -0.0032506002903254813
-0.021744218103497248   -0.059924643359240366   -0.00344001325641856
-0.014392608345314702   -0.07266614393120095   -0.0031945126992144364
-0.021033881263561302   -0.07254634717712126   -0.0033786868287930304
-0.021186980969429822   -0.07244605024793055   -0.003294717812342491
-0.021744218103497248   -0.059924643359240366   -0.00344001325641856
-0.014392608345314702   -0.07266614393120095   -0.0031945126992144364
-0.021186980969429822   -0.07244605024793055   -0.003294717812342491
-0.014536818794775929   -0.05982613548109315   -0.0032506002903254813
-0.021744218103497248   -0.059924643359240366   -0.00344001325641856
-0.021033881263561302   -0.07254634717712126   -0.0033786868287930304
-0.01449809297948126   -0.05992560280050899   -0.003220565496523749
-0.021678001706837927   -0.06005378851092227   -0.0034538960168225066
-0.021033881263561302   -0.07254634717712126   -0.0033786868287930304
-0.014392608345314702   -0.07266614393120095   -0.0031945126992144364
-0.01449809297948126   -0.05992560280050899   -0.003220565496523749
-0.014277723960191205   -0.07277184015389611   -0.0032262231701307826
-0.021678001706837927   -0.06005378851092227   -0.0034538960168225066
-0.014437529824937855   -0.060035760221253336   -0.0032040858936814237
-0.014277723960191205   -0.07277184015389611   -0.0032262231701307826
-0.01449809297948126   -0.05992560280050899   -0.003220565496523749
-0.021678001706837927   -0.06005378851092227   -0.0034538960168225066
-0.014277723960191205   -0.07277184015389611   -0.0032262231701307826
-0.020859033259486424   -0.07266936046523069   -0.0034845320524730158
-0.021033881263561302   -0.07254634717712126   -0.0033786868287930304
-0.021678001706837927   -0.06005378851092227   -0.0034538960168225066
-0.014277723960191205   -0.07277184015389611   -0.0032262231701307826
-0.021033881263561302   -0.07254634717712126   -0.0033786868287930304
-0.01449809297948126   -0.05992560280050899   -0.003220565496523749
-0.021678001706837927   -0.06005378851092227   -0.0034538960168225066
-0.020859033259486424   -0.07266936046523069   -0.0034845320524730158
-0.014437529824937855   -0.060035760221253336   -0.0032040858936814237
-0.021570334817759013   -0.0602200942743572   -0.0034890563605586575
-0.020859033259486424   -0.07266936046523069   -0.0034845320524730158
-0.014277723960191205   -0.07277184015389611   -0.0032262231701307826
-0.014437529824937855   -0.060035760221253336   -0.0032040858936814237
-0.014154434099105334   -0.07291539049314442   -0.0032722555808812866
-0.021570334817759013   -0.0602200942743572   -0.0034890563605586575
-0.014359003162981285   -0.060164189266883404   -0.003200945173223086
-0.014154434099105334   -0.07291539049314442   -0.0032722555808812866
-0.014437529824937855   -0.060035760221253336   -0.0032040858936814237
-0.021570334817759013   -0.0602200942743572   -0.0034890563605586575
-0.014154434099105334   -0.07291539049314442   -0.0032722555808812866
-0.02062087769822518   -0.07285656849633426   -0.003612652416123643
-0.020859033259486424   -0.07266936046523069   -0.0034845320524730158
-0.021570334817759013   -0.0602200942743572   -0.0034890563605586575
-0.014154434099105334   -0.07291539049314442   -0.0032722555808812866
-0.020859033259486424   -0.07266936046523069   -0.0034845320524730158
-0.014437529824937855   -0.060035760221253336   -0.0032040858936814237
-0.014536818794775929   -0.05982613548109315   -0.0032506002903254813
-0.014477429967499175   -0.07259185735039113   -0.0031767108598336085
-0.007912472627860219   -0.05983368747841075   -0.003120452823982547
-0.01449809297948126   -0.05992560280050899   -0.003220565496523749
-0.014477429967499175   -0.07259185735039113   -0.0031767108598336085
-0.008463570761704453   -0.07264962826309057   -0.0031011620661889052
-0.007912472627860219   -0.05983368747841075   -0.003120452823982547
-0.008371178142431579   -0.07268827973307619   -0.0030623955296996104
-0.01449809297948126   -0.05992560280050899   -0.003220565496523749
-0.00786054846206559   -0.05989077167990237   -0.003067206926451588
-0.008371178142431579   -0.07268827973307619   -0.0030623955296996104
-0.007912472627860219   -0.05983368747841075   -0.003120452823982547
-0.01449809297948126   -0.05992560280050899   -0.003220565496523749
-0.008371178142431579   -0.07268827973307619   -0.0030623955296996104
-0.014392608345314702   -0.07266614393120095   -0.0031945126992144364
-0.014477429967499175   -0.07259185735039113   -0.0031767108598336085
-0.01449809297948126   -0.05992560280050899   -0.003220565496523749
-0.008371178142431579   -0.07268827973307619   -0.0030623955296996104
-0.014477429967499175   -0.07259185735039113   -0.0031767108598336085
-0.007912472627860219   -0.05983368747841075   -0.003120452823982547
-0.01449809297948126   -0.05992560280050899   -0.003220565496523749
-0.014392608345314702   -0.07266614393120095   -0.0031945126992144364
-0.00786054846206559   -0.05989077167990237   -0.003067206926451588
-0.014437529824937855   -0.060035760221253336   -0.0032040858936814237
-0.014392608345314702   -0.07266614393120095   -0.0031945126992144364
-0.008371178142431579   -0.07268827973307619   -0.0030623955296996104
-0.00786054846206559   -0.05989077167990237   -0.003067206926451588
-0.008271780884237403   -0.07275713674542171   -0.0030373687510289057
-0.014437529824937855   -0.060035760221253336   -0.0032040858936814237
-0.007801849024647774   -0.05996013681281686   -0.003027568821873676
-0.008271780884237403   -0.07275713674542171   -0.0030373687510289057
-0.00786054846206559   -0.05989077167990237   -0.003067206926451588
-0.014437529824937855   -0.060035760221253336   -0.0032040858936814237
-0.008271780884237403   -0.07275713674542171   -0.0030373687510289057
-0.014277723960191205   -0.07277184015389611   -0.0032262231701307826
-0.014392608345314702   -0.07266614393120095   -0.0031945126992144364
-0.014437529824937855   -0.060035760221253336   -0.0032040858936814237
-0.008271780884237403   -0.07275713674542171   -0.0030373687510289057
-0.014392608345314702   -0.07266614393120095   -0.0031945126992144364
-0.00786054846206559   -0.05989077167990237   -0.003067206926451588
-0.014437529824937855   -0.060035760221253336   -0.0032040858936814237
-0.014277723960191205   -0.07277184015389611   -0.0032262231701307826
-0.007801849024647774   -0.05996013681281686   -0.003027568821873676
-0.014359003162981285   -0.060164189266883404   -0.003200945173223086
-0.014277723960191205   -0.07277184015389611   -0.0032262231701307826
-0.008271780884237403   -0.07275713674542171   -0.0030373687510289057
-0.007801849024647774   -0.05996013681281686   -0.003027568821873676
-0.008169611795061456   -0.07285707282860306   -0.0030267517743541653
-0.014359003162981285   -0.060164189266883404   -0.003200945173223086
-0.007738577748278447   -0.06004199902683607   -0.0030019780049431594
-0.008169611795061456   -0.07285707282860306   -0.0030267517743541653
-0.007801849024647774   -0.05996013681281686   -0.003027568821873676
-0.014359003162981285   -0.060164189266883404   -0.003200945173223086
-0.008169611795061456   -0.07285707282860306   -0.0030267517743541653
-0.014154434099105334   -0.07291539049314442   -0.0032722555808812866
-0.014277723960191205   -0.07277184015389611   -0.0032262231701307826
-0.014359003162981285   -0.060164189266883404   -0.003200945173223086
-0.008169611795061456   -0.07285707282860306   -0.0030267517743541653
-0.014277723960191205   -0.07277184015389611   -0.0032262231701307826
-0.007801849024647774   -0.05996013681281686   -0.003027568821873676
-0.007912472627860219   -0.05983368747841075   -0.003120452823982547
-0.008463570761704453   -0.07264962826309057   -0.0031011620661889052
-0.00147558207693484   -0.05979863063341059   -0.0030671443977558057
-0.00786054846206559   -0.05989077167990237   -0.003067206926451588
-0.008463570761704453   -0.07264962826309057   -0.0031011620661889052
-0.0026319293460999368   -0.07260543053747363   -0.0030885226641415246
-0.00147558207693484   -0.05979863063341059   -0.0030671443977558057
-0.0025297340375143905   -0.07260639586009221   -0.0029951281180079156
-0.00786054846206559   -0.05989077167990237   -0.003067206926451588
-0.0014141503853094819   -0.05981192540797369   -0.002991842028954187
-0.0025297340375143905   -0.07260639586009221   -0.0029951281180079156
-0.00147558207693484   -0.05979863063341059   -0.0030671443977558057
-0.00786054846206559   -0.05989077167990237   -0.003067206926451588
-0.0025297340375143905   -0.07260639586009221   -0.0029951281180079156
-0.008371178142431579   -0.07268827973307619   -0.0030623955296996104
-0.008463570761704453   -0.07264962826309057   -0.0031011620661889052
-0.00786054846206559   -0.05989077167990237   -0.003067206926451588
-0.0025297340375143905   -0.07260639586009221   -0.0029951281180079156
-0.008463570761704453   -0.07264962826309057   -0.0031011620661889052
-0.00147558207693484   -0.05979863063341059   -0.0030671443977558057
-0.00786054846206559   -0.05989077167990237   -0.003067206926451588
-0.008371178142431579   -0.07268827973307619   -0.0030623955296996104
-0.0014141503853094819   -0.05981192540797369   -0.002991842028954187
-0.007801849024647774   -0.05996013681281686   -0.003027568821873676
-0.008371178142431579   -0.07268827973307619   -0.0030623955296996104
-0.0025297340375143905   -0.07260639586009221   -0.0029951281180079156
-0.0014141503853094819   -0.05981192540797369   -0.002991842028954187
-0.002430223114090377   -0.07263534610321427   -0.0029155060357955783
-0.007801849024647774   -0.05996013681281686   -0.003027568821873676
-0.0013560472684726716   -0.05983653578359059   -0.002930049788932162
-0.002430223114090377   -0.07263534610321427   -0.0029155060357955783
-0.0014141503853094819   -0.05981192540797369   -0.002991842028954187
-0.007801849024647774   -0.05996013681281686   -0.003027568821873676
-0.002430223114090377   -0.07263534610321427   -0.0029155060357955783
-0.008271780884237403   -0.07275713674542171   -0.0030373687510289057
-0.008371178142431579   -0.07268827973307619   -0.0030623955296996104
-0.007801849024647774   -0.05996013681281686   -0.003027568821873676
-0.002430223114090377   -0.07263534610321427   -0.0029155060357955783
-0.008371178142431579   -0.07268827973307619   -0.0030623955296996104
-0.0014141503853094819   -0.05981192540797369   -0.002991842028954187
-0.007801849024647774   -0.05996013681281686   -0.003027568821873676
-0.008271780884237403   -0.07275713674542171   -0.0030373687510289057
-0.0013560472684726716   -0.05983653578359059   -0.002930049788932162
-0.007738577748278447   -0.06004199902683607   -0.0030019780049431594
-0.008271780884237403   -0.07275713674542171   -0.0030373687510289057
-0.002430223114090377   -0.07263534610321427   -0.0029155060357955783
-0.0013560472684726716   -0.05983653578359059   -0.002930049788932162
-0.0023414540708657236   -0.07269468649137369   -0.0028501357906716472
-0.007738577748278447   -0.06004199902683607   -0.0030019780049431594
-0.0013067650866949545   -0.059873025165706306   -0.0028822403002503466
-0.0023414540708657236   -0.07269468649137369   -0.0028501357906716472
-0.0013560472684726716   -0.05983653578359059   -0.002930049788932162
-0.007738577748278447   -0.06004199902683607   -0.0030019780049431594
-0.0023414540708657236   -0.07269468649137369   -0.0028501357906716472
-0.008169611795061456   -0.07285707282860306   -0.0030267517743541653
-0.008271780884237403   -0.07275713674542171   -0.0030373687510289057
-0.007738577748278447   -0.06004199902683607   -0.0030019780049431594
-0.0023414540708657236   -0.07269468649137369   -0.0028501357906716472
-0.008271780884237403   -0.07275713674542171   -0.0030373687510289057
-0.0013560472684726716   -0.05983653578359059   -0.002930049788932162
-0.00147558207693484   -0.05979863063341059   -0.0030671443977558057
-0.0026319293460999368   -0.07260543053747363   -0.0030885226641415246
0.005155282683449446   -0.059720676105471285   -0.0030932053342141697
-0.0014141503853094819   -0.05981192540797369   -0.002991842028954187
-0.0026319293460999368   -0.07260543053747363   -0.0030885226641415246
0.0034011307191477865   -0.07246230504301449   -0.00314373354551943
0.005155282683449446   -0.059720676105471285   -0.0030932053342141697
0.003526072944459222   -0.07242304538200345   -0.002996232812003287
-0.0014141503853094819   -0.05981192540797369   -0.002991842028954187
0.005233667271931597   -0.059690042630994165   -0.002996243227682343
0.003526072944459222   -0.07242304538200345   -0.002996232812003287
0.005155282683449446   -0.059720676105471285   -0.0030932053342141697
-0.0014141503853094819   -0.05981192540797369   -0.002991842028954187
0.003526072944459222   -0.07242304538200345   -0.002996232812003287
-0.0025297340375143905   -0.07260639586009221   -0.0029951281180079156
-0.0026319293460999368   -0.07260543053747363   -0.0030885226641415246
-0.0014141503853094819   -0.05981192540797369   -0.002991842028954187
0.003526072944459222   -0.07242304538200345   -0.002996232812003287
-0.0026319293460999368   -0.07260543053747363   -0.0030885226641415246
0.005155282683449446   -0.059720676105471285   -0.0030932053342141697
-0.0014141503853094819   -0.05981192540797369   -0.002991842028954187
-0.0025297340375143905   -0.07260639586009221   -0.0029951281180079156
0.005233667271931597   -0.059690042630994165   -0.002996243227682343
-0.0013560472684726716   -0.05983653578359059   -0.002930049788932162
-0.0025297340375143905   -0.07260639586009221   -0.0029951281180079156
0.003526072944459222   -0.07242304538200345   -0.002996232812003287
0.005233667271931597   -0.059690042630994165   -0.002996243227682343
0.003654158604445736   -0.0724157538767287   -0.002863388593675388
-0.0013560472684726716   -0.05983653578359059   -0.002930049788932162
0.005306061885183074   -0.05967411752865308   -0.0029127517092503654
0.003654158604445736   -0.0724157538767287   -0.002863388593675388
0.005233667271931597   -0.059690042630994165   -0.002996243227682343
-0.0013560472684726716   -0.05983653578359059   -0.002930049788932162
0.003654158604445736   -0.0724157538767287   -0.002863388593675388
-0.002430223114090377   -0.07263534610321427   -0.0029155060357955783
-0.0025297340375143905   -0.07260639586009221   -0.0029951281180079156
-0.0013560472684726716   -0.05983653578359059   -0.002930049788932162
0.003654158604445736   -0.0724157538767287   -0.002863388593675388
-0.0025297340375143905   -0.07260639586009221   -0.0029951281180079156
0.005233667271931597   -0.059690042630994165   -0.002996243227682343
-0.0013560472684726716   -0.05983653578359059   -0.002930049788932162
-0.002430223114090377   -0.07263534610321427   -0.0029155060357955783
0.005306061885183074   -0.05967411752865308   -0.0029127517092503654
-0.0013067650866949545   -0.059873025165706306   -0.0028822403002503466
-0.002430223114090377   -0.07263534610321427   -0.0029155060357955783
0.003654158604445736   -0.0724157538767287   -0.002863388593675388
0.005306061885183074   -0.05967411752865308   -0.0029127517092503654
0.0037392907109624635   -0.07243452601109929   -0.002743268736106531
-0.0013067650866949545   -0.059873025165706306   -0.0028822403002503466
0.005344782734855571   -0.05966516181670186   -0.00284185137453792
0.0037392907109624635   -0.07243452601109929   -0.002743268736106531
0.005306061885183074   -0.05967411752865308   -0.0029127517092503654
-0.0013067650866949545   -0.059873025165706306   -0.0028822403002503466
0.0037392907109624635   -0.07243452601109929   -0.002743268736106531
-0.0023414540708657236   -0.07269468649137369   -0.0028501357906716472
-0.002430223114090377   -0.07263534610321427   -0.0029155060357955783
-0.0013067650866949545   -0.059873025165706306   -0.0028822403002503466
0.0037392907109624635   -0.07243452601109929   -0.002743268736106531
-0.002430223114090377   -0.07263534610321427   -0.0029155060357955783
0.005306061885183074   -0.05967411752865308   -0.0029127517092503654
0.005155282683449446   -0.059720676105471285   -0.0030932053342141697
0.0034011307191477865   -0.07246230504301449   -0.00314373354551943
0.012255328534351921   -0.059589746443208774   -0.003202747390914265
0.005233667271931597   -0.059690042630994165   -0.002996243227682343
0.0034011307191477865   -0.07246230504301449   -0.00314373354551943
0.009820122919980023   -0.0722162648914874   -0.003286504934365314
0.012255328534351921   -0.059589746443208774   -0.003202747390914265
0.010152503409970157   -0.07213525881951521   -0.0030719218716182485
0.005233667271931597   -0.059690042630994165   -0.002996243227682343
0.012460090587094075   -0.05951930302195107   -0.0030755364289871776
0.010152503409970157   -0.07213525881951521   -0.0030719218716182485
0.012255328534351921   -0.059589746443208774   -0.003202747390914265
0.005233667271931597   -0.059690042630994165   -0.002996243227682343
0.010152503409970157   -0.07213525881951521   -0.0030719218716182485
0.003526072944459222   -0.07242304538200345   -0.002996232812003287
0.0034011307191477865   -0.07246230504301449   -0.00314373354551943
0.005233667271931597   -0.059690042630994165   -0.002996243227682343
0.010152503409970157   -0.07213525881951521   -0.0030719218716182485
0.0034011307191477865   -0.07246230504301449   -0.00314373354551943
0.012255328534351921   -0.059589746443208774   -0.003202747390914265
0.005233667271931597   -0.059690042630994165   -0.002996243227682343
0.003526072944459222   -0.07242304538200345   -0.002996232812003287
0.012460090587094075   -0.05951930302195107   -0.0030755364289871776
0.005306061885183074   -0.05967411752865308   -0.0029127517092503654
0.003526072944459222   -0.07242304538200345   -0.002996232812003287
0.010152503409970157   -0.07213525881951521   -0.0030719218716182485
0.012460090587094075   -0.05951930302195107   -0.0030755364289871776
0.010398566507013932   -0.07211301425072332   -0.0028768257816583574
0.005306061885183074   -0.05967411752865308   -0.0029127517092503654
0.012600673767838013   -0.059485148713562634   -0.0029675046979583232
0.010398566507013932   -0.07211301425072332   -0.0028768257816583574
0.012460090587094075   -0.05951930302195107   -0.0030755364289871776
0.005306061885183074   -0.05967411752865308   -0.0029127517092503654
0.010398566507013932   -0.07211301425072332   -0.0028768257816583574
0.003654158604445736   -0.0724157538767287   -0.002863388593675388
0.003526072944459222   -0.07242304538200345   -0.002996232812003287
0.005306061885183074   -0.05967411752865308   -0.0029127517092503654
0.010398566507013932   -0.07211301425072332   -0.0028768257816583574
0.003526072944459222   -0.07242304538200345   -0.002996232812003287
0.012460090587094075   -0.05951930302195107   -0.0030755364289871776
0.005306061885183074   -0.05967411752865308   -0.0029127517092503654
0.003654158604445736   -0.0724157538767287   -0.002863388593675388
0.012600673767838013   -0.059485148713562634   -0.0029675046979583232
0.005344782734855571   -0.05966516181670186   -0.00284185137453792
0.003654158604445736   -0.0724157538767287   -0.002863388593675388
0.010398566507013932   -0.07211301425072332   -0.0028768257816583574
0.012600673767838013   -0.059485148713562634   -0.0029675046979583232
0.010647914716064468   -0.07211277732513831   -0.0027021015414862666
0.005344782734855571   -0.05966516181670186   -0.00284185137453792
0.012725349882245308   -0.05944790429950501   -0.0028794472358185594
0.010647914716064468   -0.07211277732513831   -0.0027021015414862666
0.012600673767838013   -0.059485148713562634   -0.0029675046979583232
0.005344782734855571   -0.05966516181670186   -0.00284185137453792
0.010647914716064468   -0.07211277732513831   -0.0027021015414862666
0.0037392907109624635   -0.07243452601109929   -0.002743268736106531
0.003654158604445736   -0.0724157538767287   -0.002863388593675388
0.005344782734855571   -0.05966516181670186   -0.00284185137453792
0.010647914716064468   -0.07211277732513831   -0.0027021015414862666
0.003654158604445736   -0.0724157538767287   -0.002863388593675388
0.012600673767838013   -0.059485148713562634   -0.0029675046979583232
-0.021186980969429822   -0.07244605024793055   -0.003294717812342491
-0.01933528512566262   -0.08364545638091177   -0.0030721750665583824
-0.014477429967499175   -0.07259185735039113   -0.0031767108598336085
-0.021033881263561302   -0.07254634717712126   -0.0033786868287930304
-0.01933528512566262   -0.08364545638091177   -0.0030721750665583824
-0.013687774018713666   -0.0839086999470979   -0.0030530858131083485
-0.014477429967499175   -0.07259185735039113   -0.0031767108598336085
-0.013546712029690459   -0.08394678851072153   -0.0031153048074571556
-0.021033881263561302   -0.07254634717712126   -0.0033786868287930304
-0.014392608345314702   -0.07266614393120095   -0.0031945126992144364
-0.013546712029690459   -0.08394678851072153   -0.0031153048074571556
-0.014477429967499175   -0.07259185735039113   -0.0031767108598336085
-0.021033881263561302   -0.07254634717712126   -0.0033786868287930304
-0.013546712029690459   -0.08394678851072153   -0.0031153048074571556
-0.019041625863506904   -0.08370199694612555   -0.003246288589877087
-0.01933528512566262   -0.08364545638091177   -0.0030721750665583824
-0.021033881263561302   -0.07254634717712126   -0.0033786868287930304
-0.013546712029690459   -0.08394678851072153   -0.0031153048074571556
-0.01933528512566262   -0.08364545638091177   -0.0030721750665583824
-0.014477429967499175   -0.07259185735039113   -0.0031767108598336085
-0.021033881263561302   -0.07254634717712126   -0.0033786868287930304
-0.019041625863506904   -0.08370199694612555   -0.003246288589877087
-0.014392608345314702   -0.07266614393120095   -0.0031945126992144364
-0.020859033259486424   -0.07266936046523069   -0.0034845320524730158
-0.019041625863506904   -0.08370199694612555   -0.003246288589877087
-0.013546712029690459   -0.08394678851072153   -0.0031153048074571556
-0.014392608345314702   -0.07266614393120095   -0.0031945126992144364
-0.013369540968471162   -0.08403797311497194   -0.003191648854182666
-0.020859033259486424   -0.07266936046523069   -0.0034845320524730158
-0.014277723960191205   -0.07277184015389611   -0.0032262231701307826
-0.013369540968471162   -0.08403797311497194   -0.003191648854182666
-0.014392608345314702   -0.07266614393120095   -0.0031945126992144364
-0.020859033259486424   -0.07266936046523069   -0.0034845320524730158
-0.013369540968471162   -0.08403797311497194   -0.003191648854182666
-0.01874863692636547   -0.08380900547386182   -0.0034434028687898204
-0.019041625863506904   -0.08370199694612555   -0.003246288589877087
-0.020859033259486424   -0.07266936046523069   -0.0034845320524730158
-0.013369540968471162   -0.08403797311497194   -0.003191648854182666
-0.019041625863506904   -0.08370199694612555   -0.003246288589877087
-0.014392608345314702   -0.07266614393120095   -0.0031945126992144364
-0.020859033259486424   -0.07266936046523069   -0.0034845320524730158
-0.01874863692636547   -0.08380900547386182   -0.0034434028687898204
-0.014277723960191205   -0.07277184015389611   -0.0032262231701307826
-0.02062087769822518   -0.07285656849633426   -0.003612652416123643
-0.01874863692636547   -0.08380900547386182   -0.0034434028687898204
-0.013369540968471162   -0.08403797311497194   -0.003191648854182666
-0.014277723960191205   -0.07277184015389611   -0.0032262231701307826
-0.013194715160822296   -0.08418743160333003   -0.003281985558947268
-0.02062087769822518   -0.07285656849633426   -0.003612652416123643
-0.014154434099105334   -0.07291539049314442   -0.0032722555808812866
-0.013194715160822296   -0.08418743160333003   -0.003281985558947268
-0.014277723960191205   -0.07277184015389611   -0.0032262231701307826
-0.02062087769822518   -0.07285656849633426   -0.003612652416123643
-0.013194715160822296   -0.08418743160333003   -0.003281985558947268
-0.01837331548837848   -0.08400854382110957   -0.0036630880233336927
-0.01874863692636547   -0.08380900547386182   -0.0034434028687898204
-0.02062087769822518   -0.07285656849633426   -0.003612652416123643
-0.013194715160822296   -0.08418743160333003   -0.003281985558947268
-0.01874863692636547   -0.08380900547386182   -0.0034434028687898204
-0.014277723960191205   -0.07277184015389611   -0.0032262231701307826
-0.014477429967499175   -0.07259185735039113   -0.0031767108598336085
-0.013687774018713666   -0.0839086999470979   -0.0030530858131083485
-0.008463570761704453   -0.07264962826309057   -0.0031011620661889052
-0.014392608345314702   -0.07266614393120095   -0.0031945126992144364
-0.013687774018713666   -0.0839086999470979   -0.0030530858131083485
-0.008798669638733648   -0.08403215530779762   -0.003045466429369759
-0.008463570761704453   -0.07264962826309057   -0.0031011620661889052
-0.0086539145009851   -0.084044668471541   -0.0030176600077655817
-0.014392608345314702   -0.07266614393120095   -0.0031945126992144364
-0.008371178142431579   -0.07268827973307619   -0.0030623955296996104
-0.0086539145009851   -0.084044668471541   -0.0030176600077655817
-0.008463570761704453   -0.07264962826309057   -0.0031011620661889052
-0.014392608345314702   -0.07266614393120095   -0.0031945126992144364
-0.0086539145009851   -0.084044668471541   -0.0030176600077655817
-0.013546712029690459   -0.08394678851072153   -0.0031153048074571556
-0.013687774018713666   -0.0839086999470979   -0.0030530858131083485
-0.014392608345314702   -0.07266614393120095   -0.0031945126992144364
-0.0086539145009851   -0.084044668471541   -0.0030176600077655817
-0.013687774018713666   -0.0839086999470979   -0.0030530858131083485
-0.008463570761704453   -0.07264962826309057   -0.0031011620661889052
-0.014392608345314702   -0.07266614393120095   -0.0031945126992144364
-0.013546712029690459   -0.08394678851072153   -0.0031153048074571556
-0.008371178142431579   -0.07268827973307619   -0.0030623955296996104
-0.014277723960191205   -0.07277184015389611   -0.0032262231701307826
-0.013546712029690459   -0.08394678851072153   -0.0031153048074571556
-0.0086539145009851   -0.084044668471541   -0.0030176600077655817
-0.008371178142431579   -0.07268827973307619   -0.0030623955296996104
-0.008504520567828754   -0.08410458565729648   -0.0030035605911616866
-0.014277723960191205   -0.07277184015389611   -0.0032262231701307826
-0.008271780884237403   -0.07275713674542171   -0.0030373687510289057
-0.008504520567828754   -0.08410458565729648   -0.0030035605911616866
-0.008371178142431579   -0.07268827973307619   -0.0030623955296996104
-0.014277723960191205   -0.07277184015389611   -0.0032262231701307826
-0.008504520567828754   -0.08410458565729648   -0.0030035605911616866
-0.013369540968471162   -0.08403797311497194   -0.003191648854182666
-0.013546712029690459   -0.08394678851072153   -0.0031153048074571556
-0.014277723960191205   -0.07277184015389611   -0.0032262231701307826
-0.008504520567828754   -0.08410458565729648   -0.0030035605911616866
-0.013546712029690459   -0.08394678851072153   -0.0031153048074571556
-0.008371178142431579   -0.07268827973307619   -0.0030623955296996104
-0.014277723960191205   -0.07277184015389611   -0.0032262231701307826
-0.013369540968471162   -0.08403797311497194   -0.003191648854182666
-0.008271780884237403   -0.07275713674542171   -0.0030373687510289057
-0.014154434099105334   -0.07291539049314442   -0.0032722555808812866
-0.013369540968471162   -0.08403797311497194   -0.003191648854182666
-0.008504520567828754   -0.08410458565729648   -0.0030035605911616866
-0.008271780884237403   -0.07275713674542171   -0.0030373687510289057
-0.008355376706370644   -0.08421471406533666   -0.0030029880214019846
-0.014154434099105334   -0.07291539049314442   -0.0032722555808812866
-0.008169611795061456   -0.07285707282860306   -0.0030267517743541653
-0.008355376706370644   -0.08421471406533666   -0.0030029880214019846
-0.008271780884237403   -0.07275713674542171   -0.0030373687510289057
-0.014154434099105334   -0.07291539049314442   -0.0032722555808812866
-0.008355376706370644   -0.08421471406533666   -0.0030029880214019846
-0.013194715160822296   -0.08418743160333003   -0.003281985558947268
-0.013369540968471162   -0.08403797311497194   -0.003191648854182666
-0.014154434099105334   -0.07291539049314442   -0.0032722555808812866
-0.008355376706370644   -0.08421471406533666   -0.0030029880214019846
-0.013369540968471162   -0.08403797311497194   -0.003191648854182666
-0.008271780884237403   -0.07275713674542171   -0.0030373687510289057
-0.008463570761704453   -0.07264962826309057   -0.0031011620661889052
-0.008798669638733648   -0.08403215530779762   -0.003045466429369759
-0.0026319293460999368   -0.07260543053747363   -0.0030885226641415246
-0.008371178142431579   -0.07268827973307619   -0.0030623955296996104
-0.008798669638733648   -0.08403215530779762   -0.003045466429369759
-0.004071974102933826   -0.08401003332787427   -0.0030804233017306046
-0.0026319293460999368   -0.07260543053747363   -0.0030885226641415246
-0.003913413837734478   -0.08399383388264954   -0.0029657531348635724
-0.008371178142431579   -0.07268827973307619   -0.0030623955296996104
-0.0025297340375143905   -0.07260639586009221   -0.0029951281180079156
-0.003913413837734478   -0.08399383388264954   -0.0029657531348635724
-0.0026319293460999368   -0.07260543053747363   -0.0030885226641415246
-0.008371178142431579   -0.07268827973307619   -0.0030623955296996104
-0.003913413837734478   -0.08399383388264954   -0.0029657531348635724
-0.0086539145009851   -0.084044668471541   -0.0030176600077655817
-0.008798669638733648   -0.08403215530779762   -0.003045466429369759
-0.008371178142431579   -0.07268827973307619   -0.0030623955296996104
-0.003913413837734478   -0.08399383388264954   -0.0029657531348635724
-0.008798669638733648   -0.08403215530779762   -0.003045466429369759
-0.0026319293460999368   -0.07260543053747363   -0.0030885226641415246
-0.008371178142431579   -0.07268827973307619   -0.0030623955296996104
-0.0086539145009851   -0.084044668471541   -0.0030176600077655817
-0.0025297340375143905   -0.07260639586009221   -0.0029951281180079156
-0.008271780884237403   -0.07275713674542171   -0.0030373687510289057
-0.0086539145009851   -0.084044668471541   -0.0030176600077655817
-0.003913413837734478   -0.08399383388264954   -0.0029657531348635724
-0.0025297340375143905   -0.07260639586009221   -0.0029951281180079156
-0.0037595454237806854   -0.08402048311910026   -0.0028656933581609643
-0.008271780884237403   -0.07275713674542171   -0.0030373687510289057
-0.002430223114090377   -0.07263534610321427   -0.0029155060357955783
-0.0037595454237806854   -0.08402048311910026   -0.0028656933581609643
-0.0025297340375143905   -0.07260639586009221   -0.0029951281180079156
-0.008271780884237403   -0.07275713674542171   -0.0030373687510289057
-0.0037595454237806854   -0.08402048311910026   -0.0028656933581609643
-0.008504520567828754   -0.08410458565729648   -0.0030035605911616866
-0.0086539145009851   -0.084044668471541   -0.0030176600077655817
-0.008271780884237403   -0.07275713674542171   -0.0030373687510289057
-0.0037595454237806854   -0.08402048311910026   -0.0028656933581609643
-0.0086539145009851   -0.084044668471541   -0.0030176600077655817
-0.0025297340375143905   -0.07260639586009221   -0.0029951281180079156
-0.008271780884237403   -0.07275713674542171   -0.0030373687510289057
-0.008504520567828754   -0.08410458565729648   -0.0030035605911616866
-0.002430223114090377   -0.07263534610321427   -0.0029155060357955783
-0.008169611795061456   -0.07285707282860306   -0.0030267517743541653
-0.008504520567828754   -0.08410458565729648   -0.0030035605911616866
-0.0037595454237806854   -0.08402048311910026   -0.0028656933581609643
-0.002430223114090377   -0.07263534610321427   -0.0029155060357955783
-0.0036205458419257814   -0.08409622676311886   -0.002778976388021439
-0.008169611795061456   -0.07285707282860306   -0.0030267517743541653
-0.0023414540708657236   -0.07269468649137369   -0.0028501357906716472
-0.0036205458419257814   -0.08409622676311886   -0.002778976388021439
-0.002430223114090377   -0.07263534610321427   -0.0029155060357955783
-0.008169611795061456   -0.07285707282860306   -0.0030267517743541653
-0.0036205458419257814   -0.08409622676311886   -0.002778976388021439
-0.008355376706370644   -0.08421471406533666   -0.0030029880214019846
-0.008504520567828754   -0.08410458565729648   -0.0030035605911616866
-0.008169611795061456   -0.07285707282860306   -0.0030267517743541653
-0.0036205458419257814   -0.08409622676311886   -0.002778976388021439
-0.008504520567828754   -0.08410458565729648   -0.0030035605911616866
-0.002430223114090377   -0.07263534610321427   -0.0029155060357955783
-0.0026319293460999368   -0.07260543053747363   -0.0030885226641415246
-0.004071974102933826   -0.08401003332787427   -0.0030804233017306046
0.0034011307191477865   -0.07246230504301449   -0.00314373354551943
-0.0025297340375143905   -0.07260639586009221   -0.0029951281180079156
-0.004071974102933826   -0.08401003332787427   -0.0030804233017306046
0.000876938035004177   -0.08383713198753187   -0.0031656761334867265
0.0034011307191477865   -0.07246230504301449   -0.00314373354551943
0.001069796896930161   -0.08378444794733211   -0.0029644491294048524
-0.0025297340375143905   -0.07260639586009221   -0.0029951281180079156
0.003526072944459222   -0.07242304538200345   -0.002996232812003287
0.001069796896930161   -0.08378444794733211   -0.0029644491294048524
0.0034011307191477865   -0.07246230504301449   -0.00314373354551943
-0.0025297340375143905   -0.07260639586009221   -0.0029951281180079156
0.001069796896930161   -0.08378444794733211   -0.0029644491294048524
-0.003913413837734478   -0.08399383388264954   -0.0029657531348635724
-0.004071974102933826   -0.08401003332787427   -0.0030804233017306046
-0.0025297340375143905   -0.07260639586009221   -0.0029951281180079156
0.001069796896930161   -0.08378444794733211   -0.0029644491294048524
-0.004071974102933826   -0.08401003332787427   -0.0030804233017306046
0.0034011307191477865   -0.07246230504301449   -0.00314373354551943
-0.0025297340375143905   -0.07260639586009221   -0.0029951281180079156
-0.003913413837734478   -0.08399383388264954   -0.0029657531348635724
0.003526072944459222   -0.07242304538200345   -0.002996232812003287
-0.002430223114090377   -0.07263534610321427   -0.0029155060357955783
-0.003913413837734478   -0.08399383388264954   -0.0029657531348635724
0.001069796896930161   -0.08378444794733211   -0.0029644491294048524
0.003526072944459222   -0.07242304538200345   -0.002996232812003287
0.0012729896771143416   -0.0837796732341886   -0.0027817467618669357
-0.002430223114090377   -0.07263534610321427   -0.0029155060357955783
0.003654158604445736   -0.0724157538767287   -0.002863388593675388
0.0012729896771143416   -0.0837796732341886   -0.0027817467618669357
0.003526072944459222   -0.07242304538200345   -0.002996232812003287
-0.002430223114090377   -0.07263534610321427   -0.0029155060357955783
0.0012729896771143416   -0.0837796732341886   -0.0027817467618669357
-0.0037595454237806854   -0.08402048311910026   -0.0028656933581609643
-0.003913413837734478   -0.08399383388264954   -0.0029657531348635724
-0.002430223114090377   -0.07263534610321427   -0.0029155060357955783
0.0012729896771143416   -0.0837796732341886   -0.0027817467618669357
-0.003913413837734478   -0.08399383388264954   -0.0029657531348635724
0.003526072944459222   -0.07242304538200345   -0.002996232812003287
-0.002430223114090377   -0.07263534610321427   -0.0029155060357955783
-0.0037595454237806854   -0.08402048311910026   -0.0028656933581609643
0.003654158604445736   -0.0724157538767287   -0.002863388593675388
-0.0023414540708657236   -0.07269468649137369   -0.0028501357906716472
-0.0037595454237806854   -0.08402048311910026   -0.0028656933581609643
0.0012729896771143416   -0.0837796732341886   -0.0027817467618669357
0.003654158604445736   -0.0724157538767287   -0.002863388593675388
0.0014215992091396975   -0.08382063516865058   -0.002611801538045076
-0.0023414540708657236   -0.07269468649137369   -0.0028501357906716472
0.0037392907109624635   -0.07243452601109929   -0.002743268736106531
0.0014215992091396975   -0.08382063516865058   -0.002611801538045076
0.003654158604445736   -0.0724157538767287   -0.002863388593675388
-0.0023414540708657236   -0.07269468649137369   -0.0028501357906716472
0.0014215992091396975   -0.08382063516865058   -0.002611801538045076
-0.0036205458419257814   -0.08409622676311886   -0.002778976388021439
-0.0037595454237806854   -0.08402048311910026   -0.0028656933581609643
-0.0023414540708657236   -0.07269468649137369   -0.0028501357906716472
0.0014215992091396975   -0.08382063516865058   -0.002611801538045076
-0.0037595454237806854   -0.08402048311910026   -0.0028656933581609643
0.003654158604445736   -0.0724157538767287   -0.002863388593675388
0.0034011307191477865   -0.07246230504301449   -0.00314373354551943
0.000876938035004177   -0.08383713198753187   -0.0031656761334867265
0.009820122919980023   -0.0722162648914874   -0.003286504934365314
0.003526072944459222   -0.07242304538200345   -0.002996232812003287
0.000876938035004177   -0.08383713198753187   -0.0031656761334867265
0.006154429664492168   -0.08349703522620229   -0.003348198456120113
0.009820122919980023   -0.0722162648914874   -0.003286504934365314
0.006642487436633423   -0.08339587828847335   -0.0030402498333907007
0.003526072944459222   -0.07242304538200345   -0.002996232812003287
0.010152503409970157   -0.07213525881951521   -0.0030719218716182485
0.006642487436633423   -0.08339587828847335   -0.0030402498333907007
0.009820122919980023   -0.0722162648914874   -0.003286504934365314
0.003526072944459222   -0.07242304538200345   -0.002996232812003287
0.006642487436633423   -0.08339587828847335   -0.0030402498333907007
0.001069796896930161   -0.08378444794733211   -0.0029644491294048524
0.000876938035004177   -0.08383713198753187   -0.0031656761334867265
0.003526072944459222   -0.07242304538200345   -0.002996232812003287
0.006642487436633423   -0.08339587828847335   -0.0030402498333907007
0.000876938035004177   -0.08383713198753187   -0.0031656761334867265
0.009820122919980023   -0.0722162648914874   -0.003286504934365314
0.003526072944459222   -0.07242304538200345   -0.002996232812003287
0.001069796896930161   -0.08378444794733211   -0.0029644491294048524
0.010152503409970157   -0.07213525881951521   -0.0030719218716182485
0.003654158604445736   -0.0724157538767287   -0.002863388593675388
0.001069796896930161   -0.08378444794733211   -0.0029644491294048524
0.006642487436633423   -0.08339587828847335   -0.0030402498333907007
0.010152503409970157   -0.07213525881951521   -0.0030719218716182485
0.007016662414421009   -0.08337836391654782   -0.0027552717929790957
0.003654158604445736   -0.0724157538767287   -0.002863388593675388
0.010398566507013932   -0.07211301425072332   -0.0028768257816583574
0.007016662414421009   -0.08337836391654782   -0.0027552717929790957
0.010152503409970157   -0.07213525881951521   -0.0030719218716182485
0.003654158604445736   -0.0724157538767287   -0.002863388593675388
0.007016662414421009   -0.08337836391654782   -0.0027552717929790957
0.0012729896771143416   -0.0837796732341886   -0.0027817467618669357
0.001069796896930161   -0.08378444794733211   -0.0029644491294048524
0.003654158604445736   -0.0724157538767287   -0.002863388593675388
0.007016662414421009   -0.08337836391654782   -0.0027552717929790957
0.001069796896930161   -0.08378444794733211   -0.0029644491294048524
0.010152503409970157   -0.07213525881951521   -0.0030719218716182485
0.003654158604445736   -0.0724157538767287   -0.002863388593675388
0.0012729896771143416   -0.0837796732341886   -0.0027817467618669357
0.010398566507013932   -0.07211301425072332   -0.0028768257816583574
0.0037392907109624635   -0.07243452601109929   -0.002743268736106531
0.0012729896771143416   -0.0837796732341886   -0.0027817467618669357
0.007016662414421009   -0.08337836391654782   -0.0027552717929790957
0.010398566507013932   -0.07211301425072332   -0.0028768257816583574
0.007404141870180849   -0.0834082968910288   -0.0024955959361132444
0.0037392907109624635   -0.07243452601109929   -0.002743268736106531
0.010647914716064468   -0.07211277732513831   -0.0027021015414862666
0.007404141870180849   -0.0834082968910288   -0.0024955959361132444
0.010398566507013932   -0.07211301425072332   -0.0028768257816583574
0.0037392907109624635   -0.07243452601109929   -0.002743268736106531
0.007404141870180849   -0.0834082968910288   -0.0024955959361132444
0.0014215992091396975   -0.08382063516865058   -0.002611801538045076
0.0012729896771143416   -0.0837796732341886   -0.0027817467618669357
0.0037392907109624635   -0.07243452601109929   -0.002743268736106531
0.007404141870180849   -0.0834082968910288   -0.0024955959361132444
0.0012729896771143416   -0.0837796732341886   -0.0027817467618669357
0.010398566507013932   -0.07211301425072332   -0.0028768257816583574
-0.01933528512566262   -0.08364545638091177   -0.0030721750665583824
-0.016190107825314434   -0.09243734439365116   -0.0027870809140225056
-0.013687774018713666   -0.0839086999470979   -0.0030530858131083485
-0.019041625863506904   -0.08370199694612555   -0.003246288589877087
-0.016190107825314434   -0.09243734439365116   -0.0027870809140225056
-0.01217141164382011   -0.09282739660734567   -0.002904125279925246
-0.013687774018713666   -0.0839086999470979   -0.0030530858131083485
-0.011968002797388832   -0.09280722265282969   -0.0029998917333546957
-0.019041625863506904   -0.08370199694612555   -0.003246288589877087
-0.013546712029690459   -0.08394678851072153   -0.0031153048074571556
-0.011968002797388832   -0.09280722265282969   -0.0029998917333546957
-0.013687774018713666   -0.0839086999470979   -0.0030530858131083485
-0.019041625863506904   -0.08370199694612555   -0.003246288589877087
-0.011968002797388832   -0.09280722265282969   -0.0029998917333546957
-0.015751967284634696   -0.09242631090023079   -0.0030453060868461295
-0.016190107825314434   -0.09243734439365116   -0.0027870809140225056
-0.019041625863506904   -0.08370199694612555   -0.003246288589877087
-0.011968002797388832   -0.09280722265282969   -0.0029998917333546957
-0.016190107825314434   -0.09243734439365116   -0.0027870809140225056
-0.013687774018713666   -0.0839086999470979   -0.0030530858131083485
-0.019041625863506904   -0.08370199694612555   -0.003246288589877087
-0.015751967284634696   -0.09242631090023079   -0.0030453060868461295
-0.013546712029690459   -0.08394678851072153   -0.0031153048074571556
-0.01874863692636547   -0.08380900547386182   -0.0034434028687898204
-0.015751967284634696   -0.09242631090023079   -0.0030453060868461295
-0.011968002797388832   -0.09280722265282969   -0.0029998917333546957
-0.013546712029690459   -0.08394678851072153   -0.0031153048074571556
-0.01172881722017489   -0.09286321845070948   -0.003110099802712391
-0.01874863692636547   -0.08380900547386182   -0.0034434028687898204
-0.013369540968471162   -0.08403797311497194   -0.003191648854182666
-0.01172881722017489   -0.09286321845070948   -0.003110099802712391
-0.013546712029690459   -0.08394678851072153   -0.0031153048074571556
-0.01874863692636547   -0.08380900547386182   -0.0034434028687898204
-0.01172881722017489   -0.09286321845070948   -0.003110099802712391
-0.015348037815988532   -0.0924955203141902   -0.0033238661138952704
-0.015751967284634696   -0.09242631090023079   -0.0030453060868461295
-0.01874863692636547   -0.08380900547386182   -0.0034434028687898204
-0.01172881722017489   -0.09286321845070948   -0.003110099802712391
-0.015751967284634696   -0.09242631090023079   -0.0030453060868461295
-0.013546712029690459   -0.08394678851072153   -0.0031153048074571556
-0.01874863692636547   -0.08380900547386182   -0.0034434028687898204
-0.015348037815988532   -0.0924955203141902   -0.0033238661138952704
-0.013369540968471162   -0.08403797311497194   -0.003191648854182666
-0.01837331548837848   -0.08400854382110957   -0.0036630880233336927
-0.015348037815988532   -0.0924955203141902   -0.0033238661138952704
-0.01172881722017489   -0.09286321845070948   -0.003110099802712391
-0.013369540968471162   -0.08403797311497194   -0.003191648854182666
-0.011511825941902204   -0.09299665147652399   -0.0032338246518969116
-0.01837331548837848   -0.08400854382110957   -0.0036630880233336927
-0.013194715160822296   -0.08418743160333003   -0.003281985558947268
-0.011511825941902204   -0.09299665147652399   -0.0032338246518969116
-0.013369540968471162   -0.08403797311497194   -0.003191648854182666
-0.01837331548837848   -0.08400854382110957   -0.0036630880233336927
-0.011511825941902204   -0.09299665147652399   -0.0032338246518969116
-0.014855418826750342   -0.09268053097613031   -0.003621556714701546
-0.015348037815988532   -0.0924955203141902   -0.0033238661138952704
-0.01837331548837848   -0.08400854382110957   -0.0036630880233336927
-0.011511825941902204   -0.09299665147652399   -0.0032338246518969116
-0.015348037815988532   -0.0924955203141902   -0.0033238661138952704
-0.013369540968471162   -0.08403797311497194   -0.003191648854182666
-0.013687774018713666   -0.0839086999470979   -0.0030530858131083485
-0.01217141164382011   -0.09282739660734567   -0.002904125279925246
-0.008798669638733648   -0.08403215530779762   -0.003045466429369759
-0.013546712029690459   -0.08394678851072153   -0.0031153048074571556
-0.01217141164382011   -0.09282739660734567   -0.002904125279925246
-0.008889230640868042   -0.09308061303707789   -0.002995710253676234
-0.008798669638733648   -0.08403215530779762   -0.003045466429369759
-0.008680450306849713   -0.09304837882564705   -0.0029664061146429843
-0.013546712029690459   -0.08394678851072153   -0.0031153048074571556
-0.0086539145009851   -0.084044668471541   -0.0030176600077655817
-0.008680450306849713   -0.09304837882564705   -0.0029664061146429843
-0.008798669638733648   -0.08403215530779762   -0.003045466429369759
-0.013546712029690459   -0.08394678851072153   -0.0031153048074571556
-0.008680450306849713   -0.09304837882564705   -0.0029664061146429843
-0.011968002797388832   -0.09280722265282969   -0.0029998917333546957
-0.01217141164382011   -0.09282739660734567   -0.002904125279925246
-0.013546712029690459   -0.08394678851072153   -0.0031153048074571556
-0.008680450306849713   -0.09304837882564705   -0.0029664061146429843
-0.01217141164382011   -0.09282739660734567   -0.002904125279925246
-0.008798669638733648   -0.08403215530779762   -0.003045466429369759
-0.013546712029690459   -0.08394678851072153   -0.0031153048074571556
-0.011968002797388832   -0.09280722265282969   -0.0029998917333546957
-0.0086539145009851   -0.084044668471541   -0.0030176600077655817
-0.013369540968471162   -0.08403797311497194   -0.003191648854182666
-0.011968002797388832   -0.09280722265282969   -0.0029998917333546957
-0.008680450306849713   -0.09304837882564705   -0.0029664061146429843
-0.0086539145009851   -0.084044668471541   -0.0030176600077655817
-0.008474638776525515   -0.09308187537029852   -0.002951124884530002
-0.013369540968471162   -0.08403797311497194   -0.003191648854182666
-0.008504520567828754   -0.08410458565729648   -0.0030035605911616866
-0.008474638776525515   -0.09308187537029852   -0.002951124884530002
-0.0086539145009851   -0.084044668471541   -0.0030176600077655817
-0.013369540968471162   -0.08403797311497194   -0.003191648854182666
-0.008474638776525515   -0.09308187537029852   -0.002951124884530002
-0.01172881722017489   -0.09286321845070948   -0.003110099802712391
-0.011968002797388832   -0.09280722265282969   -0.0029998917333546957
-0.013369540968471162   -0.08403797311497194   -0.003191648854182666
-0.008474638776525515   -0.09308187537029852   -0.002951124884530002
-0.011968002797388832   -0.09280722265282969   -0.0029998917333546957
-0.0086539145009851   -0.084044668471541   -0.0030176600077655817
-0.013369540968471162   -0.08403797311497194   -0.003191648854182666
-0.01172881722017489   -0.09286321845070948   -0.003110099802712391
-0.008504520567828754   -0.08410458565729648   -0.0030035605911616866
-0.013194715160822296   -0.08418743160333003   -0.003281985558947268
-0.01172881722017489   -0.09286321845070948   -0.003110099802712391
-0.008474638776525515   -0.09308187537029852   -0.002951124884530002
-0.008504520567828754   -0.08410458565729648   -0.0030035605911616866
-0.008285302043855546   -0.09318330060206322   -0.0029528098662292383
-0.013194715160822296   -0.08418743160333003   -0.003281985558947268
-0.008355376706370644   -0.08421471406533666   -0.0030029880214019846
-0.008285302043855546   -0.09318330060206322   -0.0029528098662292383
-0.008504520567828754   -0.08410458565729648   -0.0030035605911616866
-0.013194715160822296   -0.08418743160333003   -0.003281985558947268
-0.008285302043855546   -0.09318330060206322   -0.0029528098662292383
-0.011511825941902204   -0.09299665147652399   -0.0032338246518969116
-0.01172881722017489   -0.09286321845070948   -0.003110099802712391
-0.013194715160822296   -0.08418743160333003   -0.003281985558947268
-0.008285302043855546   -0.09318330060206322   -0.0029528098662292383
-0.01172881722017489   -0.09286321845070948   -0.003110099802712391
-0.008504520567828754   -0.08410458565729648   -0.0030035605911616866
-0.008798669638733648   -0.08403215530779762   -0.003045466429369759
-0.008889230640868042   -0.09308061303707789   -0.002995710253676234
-0.004071974102933826   -0.08401003332787427   -0.0030804233017306046
-0.0086539145009851   -0.084044668471541   -0.0030176600077655817
-0.008889230640868042   -0.09308061303707789   -0.002995710253676234
-0.005745716925322175   -0.09321427344380678   -0.003103799468449655
-0.004071974102933826   -0.08401003332787427   -0.0030804233017306046
-0.005510348412429486   -0.09316784876927299   -0.0029565699489449222
-0.0086539145009851   -0.084044668471541   -0.0030176600077655817
-0.003913413837734478   -0.08399383388264954   -0.0029657531348635724
-0.005510348412429486   -0.09316784876927299   -0.0029565699489449222
-0.004071974102933826   -0.08401003332787427   -0.0030804233017306046
-0.0086539145009851   -0.084044668471541   -0.0030176600077655817
-0.005510348412429486   -0.09316784876927299   -0.0029565699489449222
-0.008680450306849713   -0.09304837882564705   -0.0029664061146429843
-0.008889230640868042   -0.09308061303707789   -0.002995710253676234
-0.0086539145009851   -0.084044668471541   -0.0030176600077655817
-0.005510348412429486   -0.09316784876927299   -0.0029565699489449222
-0.008889230640868042   -0.09308061303707789   -0.002995710253676234
-0.004071974102933826   -0.08401003332787427   -0.0030804233017306046
-0.0086539145009851   -0.084044668471541   -0.0030176600077655817
-0.008680450306849713   -0.09304837882564705   -0.0029664061146429843
-0.003913413837734478   -0.08399383388264954   -0.0029657531348635724
-0.008504520567828754   -0.08410458565729648   -0.0030035605911616866
-0.008680450306849713   -0.09304837882564705   -0.0029664061146429843
-0.005510348412429486   -0.09316784876927299   -0.0029565699489449222
-0.003913413837734478   -0.08399383388264954   -0.0029657531348635724
-0.00528601114878901   -0.09317918830632853   -0.0028217209233975834
-0.008504520567828754   -0.08410458565729648   -0.0030035605911616866
-0.0037595454237806854   -0.08402048311910026   -0.0028656933581609643
-0.00528601114878901   -0.09317918830632853   -0.0028217209233975834
-0.003913413837734478   -0.08399383388264954   -0.0029657531348635724
-0.008504520567828754   -0.08410458565729648   -0.0030035605911616866
-0.00528601114878901   -0.09317918830632853   -0.0028217209233975834
-0.008474638776525515   -0.09308187537029852   -0.002951124884530002
-0.008680450306849713   -0.09304837882564705   -0.0029664061146429843
-0.008504520567828754   -0.08410458565729648   -0.0030035605911616866
-0.00528601114878901   -0.09317918830632853   -0.0028217209233975834
-0.008680450306849713   -0.09304837882564705   -0.0029664061146429843
-0.003913413837734478   -0.08399383388264954   -0.0029657531348635724
-0.008504520567828754   -0.08410458565729648   -0.0030035605911616866
-0.008474638776525515   -0.09308187537029852   -0.002951124884530002
-0.0037595454237806854   -0.08402048311910026   -0.0028656933581609643
-0.008355376706370644   -0.08421471406533666   -0.0030029880214019846
-0.008474638776525515   -0.09308187537029852   -0.002951124884530002
-0.00528601114878901   -0.09317918830632853   -0.0028217209233975834
-0.0037595454237806854   -0.08402048311910026   -0.0028656933581609643
-0.005099488317516325   -0.09325961154504787   -0.0027070223274335736
-0.008355376706370644   -0.08421471406533666   -0.0030029880214019846
-0.0036205458419257814   -0.08409622676311886   -0.002778976388021439
-0.005099488317516325   -0.09325961154504787   -0.0027070223274335736
-0.0037595454237806854   -0.08402048311910026   -0.0028656933581609643
-0.008355376706370644   -0.08421471406533666   -0.0030029880214019846
-0.005099488317516325   -0.09325961154504787   -0.0027070223274335736
-0.008285302043855546   -0.09318330060206322   -0.0029528098662292383
-0.008474638776525515   -0.09308187537029852   -0.002951124884530002
-0.008355376706370644   -0.08421471406533666   -0.0030029880214019846
-0.005099488317516325   -0.09325961154504787   -0.0027070223274335736
-0.008474638776525515   -0.09308187537029852   -0.002951124884530002
-0.0037595454237806854   -0.08402048311910026   -0.0028656933581609643
-0.004071974102933826   -0.08401003332787427   -0.0030804233017306046
-0.005745716925322175   -0.09321427344380678   -0.003103799468449655
0.000876938035004177   -0.08383713198753187   -0.0031656761334867265
-0.003913413837734478   -0.08399383388264954   -0.0029657531348635724
-0.005745716925322175   -0.09321427344380678   -0.003103799468449655
-0.0024019072428966928   -0.0931818435452917   -0.0032310053675160804
0.000876938035004177   -0.08383713198753187   -0.0031656761334867265
-0.002099715516002312   -0.09310908577423205   -0.0029709942162929664
-0.003913413837734478   -0.08399383388264954   -0.0029657531348635724
0.001069796896930161   -0.08378444794733211   -0.0029644491294048524
-0.002099715516002312   -0.09310908577423205   -0.0029709942162929664
0.000876938035004177   -0.08383713198753187   -0.0031656761334867265
-0.003913413837734478   -0.08399383388264954   -0.0029657531348635724
-0.002099715516002312   -0.09310908577423205   -0.0029709942162929664
-0.005510348412429486   -0.09316784876927299   -0.0029565699489449222
-0.005745716925322175   -0.09321427344380678   -0.003103799468449655
-0.003913413837734478   -0.08399383388264954   -0.0029657531348635724
-0.002099715516002312   -0.09310908577423205   -0.0029709942162929664
-0.005745716925322175   -0.09321427344380678   -0.003103799468449655
0.000876938035004177   -0.08383713198753187   -0.0031656761334867265
-0.003913413837734478   -0.08399383388264954   -0.0029657531348635724
-0.005510348412429486   -0.09316784876927299   -0.0029565699489449222
0.001069796896930161   -0.08378444794733211   -0.0029644491294048524
-0.0037595454237806854   -0.08402048311910026   -0.0028656933581609643
-0.005510348412429486   -0.09316784876927299   -0.0029565699489449222
-0.002099715516002312   -0.09310908577423205   -0.0029709942162929664
0.001069796896930161   -0.08378444794733211   -0.0029644491294048524
-0.001790883236986208   -0.09309617423139616   -0.002724236263782621
-0.0037595454237806854   -0.08402048311910026   -0.0028656933581609643
0.0012729896771143416   -0.0837796732341886   -0.0027817467618669357
-0.001790883236986208   -0.09309617423139616   -0.002724236263782621
0.001069796896930161   -0.08378444794733211   -0.0029644491294048524
-0.0037595454237806854   -0.08402048311910026   -0.0028656933581609643
-0.001790883236986208   -0.09309617423139616   -0.002724236263782621
-0.00528601114878901   -0.09317918830632853   -0.0028217209233975834
-0.005510348412429486   -0.09316784876927299   -0.0029565699489449222
-0.0037595454237806854   -0.08402048311910026   -0.0028656933581609643
-0.001790883236986208   -0.09309617423139616   -0.002724236263782621
-0.005510348412429486   -0.09316784876927299   -0.0029565699489449222
0.001069796896930161   -0.08378444794733211   -0.0029644491294048524
-0.0037595454237806854   -0.08402048311910026   -0.0028656933581609643
-0.00528601114878901   -0.09317918830632853   -0.0028217209233975834
0.0012729896771143416   -0.0837796732341886   -0.0027817467618669357
-0.0036205458419257814   -0.08409622676311886   -0.002778976388021439
-0.00528601114878901   -0.09317918830632853   -0.0028217209233975834
-0.001790883236986208   -0.09309617423139616   -0.002724236263782621
0.0012729896771143416   -0.0837796732341886   -0.0027817467618669357
-0.0015620632390247616   -0.09315606260918766   -0.002500190685550229
-0.0036205458419257814   -0.08409622676311886   -0.002778976388021439
0.0014215992091396975   -0.08382063516865058   -0.002611801538045076
-0.0015620632390247616   -0.09315606260918766   -0.002500190685550229
0.0012729896771143416   -0.0837796732341886   -0.0027817467618669357
-0.0036205458419257814   -0.08409622676311886   -0.002778976388021439
-0.0015620632390247616   -0.09315606260918766   -0.002500190685550229
-0.005099488317516325   -0.09325961154504787   -0.0027070223274335736
-0.00528601114878901   -0.09317918830632853   -0.0028217209233975834
-0.0036205458419257814   -0.08409622676311886   -0.002778976388021439
-0.0015620632390247616   -0.09315606260918766   -0.002500190685550229
-0.00528601114878901   -0.09317918830632853   -0.0028217209233975834
0.0012729896771143416   -0.0837796732341886   -0.0027817467618669357
0.000876938035004177   -0.08383713198753187   -0.0031656761334867265
-0.0024019072428966928   -0.0931818435452917   -0.0032310053675160804
0.006154429664492168   -0.08349703522620229   -0.003348198456120113
0.001069796896930161   -0.08378444794733211   -0.0029644491294048524
-0.0024019072428966928   -0.0931818435452917   -0.0032310053675160804
0.0011990403978712515   -0.09286105525001499   -0.0034920942752715654
0.006154429664492168   -0.08349703522620229   -0.003348198456120113
0.0019023710642234522   -0.09270259841844784   -0.003066702290768169
0.001069796896930161   -0.08378444794733211   -0.0029644491294048524
0.006642487436633423   -0.08339587828847335   -0.0030402498333907007
0.0019023710642234522   -0.09270259841844784   -0.003066702290768169
0.006154429664492168   -0.08349703522620229   -0.003348198456120113
0.001069796896930161   -0.08378444794733211   -0.0029644491294048524
0.0019023710642234522   -0.09270259841844784   -0.003066702290768169
-0.002099715516002312   -0.09310908577423205   -0.0029709942162929664
-0.0024019072428966928   -0.0931818435452917   -0.0032310053675160804
0.001069796896930161   -0.08378444794733211   -0.0029644491294048524
0.0019023710642234522   -0.09270259841844784   -0.003066702290768169
-0.0024019072428966928   -0.0931818435452917   -0.0032310053675160804
0.006154429664492168   -0.08349703522620229   -0.003348198456120113
0.001069796896930161   -0.08378444794733211   -0.0029644491294048524
-0.002099715516002312   -0.09310908577423205   -0.0029709942162929664
0.006642487436633423   -0.08339587828847335   -0.0030402498333907007
0.0012729896771143416   -0.0837796732341886   -0.0027817467618669357
-0.002099715516002312   -0.09310908577423205   -0.0029709942162929664
0.0019023710642234522   -0.09270259841844784   -0.003066702290768169
0.006642487436633423   -0.08339587828847335   -0.0030402498333907007
0.0024551544044216357   -0.09267044466620851   -0.002667366979465165
0.0012729896771143416   -0.0837796732341886   -0.0027817467618669357
0.007016662414421009   -0.08337836391654782   -0.0027552717929790957
0.0024551544044216357   -0.09267044466620851   -0.002667366979465165
0.006642487436633423   -0.08339587828847335   -0.0030402498333907007
0.0012729896771143416   -0.0837796732341886   -0.0027817467618669357
0.0024551544044216357   -0.09267044466620851   -0.002667366979465165
-0.001790883236986208   -0.09309617423139616   -0.002724236263782621
-0.002099715516002312   -0.09310908577423205   -0.0029709942162929664
0.0012729896771143416   -0.0837796732341886   -0.0027817467618669357
0.0024551544044216357   -0.09267044466620851   -0.002667366979465165
-0.002099715516002312   -0.09310908577423205   -0.0029709942162929664
0.006642487436633423   -0.08339587828847335   -0.0030402498333907007
0.0012729896771143416   -0.0837796732341886   -0.0027817467618669357
-0.001790883236986208   -0.09309617423139616   -0.002724236263782621
0.007016662414421009   -0.08337836391654782   -0.0027552717929790957
0.0014215992091396975   -0.08382063516865058   -0.002611801538045076
-0.001790883236986208   -0.09309617423139616   -0.002724236263782621
0.0024551544044216357   -0.09267044466620851   -0.002667366979465165
0.007016662414421009   -0.08337836391654782   -0.0027552717929790957
0.003029366353290388   -0.09269716834758898   -0.0023027613176264277
0.0014215992091396975   -0.08382063516865058   -0.002611801538045076
0.007404141870180849   -0.0834082968910288   -0.0024955959361132444
0.003029366353290388   -0.09269716834758898   -0.0023027613176264277
0.007016662414421009   -0.08337836391654782   -0.0027552717929790957
0.0014215992091396975   -0.08382063516865058   -0.002611801538045076
0.003029366353290388   -0.09269716834758898   -0.0023027613176264277
-0.0015620632390247616   -0.09315606260918766   -0.002500190685550229
-0.001790883236986208   -0.09309617423139616   -0.002724236263782621
0.0014215992091396975   -0.08382063516865058   -0.002611801538045076
0.003029366353290388   -0.09269716834758898   -0.0023027613176264277
-0.001790883236986208   -0.09309617423139616   -0.002724236263782621
0.007016662414421009   -0.08337836391654782   -0.0027552717929790957
-0.016190107825314434   -0.09243734439365116   -0.0027870809140225056
-0.011864054594668461   -0.09766165523468591   -0.0024523619442812223
-0.01217141164382011   -0.09282739660734567   -0.002904125279925246
-0.015751967284634696   -0.09242631090023079   -0.0030453060868461295
-0.011864054594668461   -0.09766165523468591   -0.0024523619442812223
-0.009996166096146595   -0.09815514762451337   -0.0027491841460617556
-0.01217141164382011   -0.09282739660734567   -0.002904125279925246
-0.00973937244740966   -0.09805744129336046   -0.0028510140138460994
-0.015751967284634696   -0.09242631090023079   -0.0030453060868461295
-0.011968002797388832   -0.09280722265282969   -0.0029998917333546957
-0.00973937244740966   -0.09805744129336046   -0.0028510140138460994
-0.01217141164382011   -0.09282739660734567   -0.002904125279925246
-0.015751967284634696   -0.09242631090023079   -0.0030453060868461295
-0.00973937244740966   -0.09805744129336046   -0.0028510140138460994
-0.011317806460286442   -0.0975516051140658   -0.002762209684965043
-0.011864054594668461   -0.09766165523468591   -0.0024523619442812223
-0.015751967284634696   -0.09242631090023079   -0.0030453060868461295
-0.00973937244740966   -0.09805744129336046   -0.0028510140138460994
-0.011864054594668461   -0.09766165523468591   -0.0024523619442812223
-0.01217141164382011   -0.09282739660734567   -0.002904125279925246
-0.015751967284634696   -0.09242631090023079   -0.0030453060868461295
-0.011317806460286442   -0.0975516051140658   -0.002762209684965043
-0.011968002797388832   -0.09280722265282969   -0.0029998917333546957
-0.015348037815988532   -0.0924955203141902   -0.0033238661138952704
-0.011317806460286442   -0.0975516051140658   -0.002762209684965043
-0.00973937244740966   -0.09805744129336046   -0.0028510140138460994
-0.011968002797388832   -0.09280722265282969   -0.0029998917333546957
-0.00945505797823844   -0.09806201258209785   -0.0029538714372862643
-0.015348037815988532   -0.0924955203141902   -0.0033238661138952704
-0.01172881722017489   -0.09286321845070948   -0.003110099802712391
-0.00945505797823844   -0.09806201258209785   -0.0029538714372862643
-0.011968002797388832   -0.09280722265282969   -0.0029998917333546957
-0.015348037815988532   -0.0924955203141902   -0.0033238661138952704
-0.00945505797823844   -0.09806201258209785   -0.0029538714372862643
-0.010846479111713044   -0.0975607312200905   -0.003070841426688513
-0.011317806460286442   -0.0975516051140658   -0.002762209684965043
-0.015348037815988532   -0.0924955203141902   -0.0033238661138952704
-0.00945505797823844   -0.09806201258209785   -0.0029538714372862643
-0.011317806460286442   -0.0975516051140658   -0.002762209684965043
-0.011968002797388832   -0.09280722265282969   -0.0029998917333546957
-0.015348037815988532   -0.0924955203141902   -0.0033238661138952704
-0.010846479111713044   -0.0975607312200905   -0.003070841426688513
-0.01172881722017489   -0.09286321845070948   -0.003110099802712391
-0.014855418826750342   -0.09268053097613031   -0.003621556714701546
-0.010846479111713044   -0.0975607312200905   -0.003070841426688513
-0.00945505797823844   -0.09806201258209785   -0.0029538714372862643
-0.01172881722017489   -0.09286321845070948   -0.003110099802712391
-0.009190882532604893   -0.09816932444578144   -0.00305818768223668
-0.014855418826750342   -0.09268053097613031   -0.003621556714701546
-0.011511825941902204   -0.09299665147652399   -0.0032338246518969116
-0.009190882532604893   -0.09816932444578144   -0.00305818768223668
-0.01172881722017489   -0.09286321845070948   -0.003110099802712391
-0.014855418826750342   -0.09268053097613031   -0.003621556714701546
-0.009190882532604893   -0.09816932444578144   -0.00305818768223668
-0.010287499250012634   -0.09769584912527515   -0.0033861281910355224
-0.010846479111713044   -0.0975607312200905   -0.003070841426688513
-0.014855418826750342   -0.09268053097613031   -0.003621556714701546
-0.009190882532604893   -0.09816932444578144   -0.00305818768223668
-0.010846479111713044   -0.0975607312200905   -0.003070841426688513
-0.01172881722017489   -0.09286321845070948   -0.003110099802712391
-0.01217141164382011   -0.09282739660734567   -0.002904125279925246
-0.009996166096146595   -0.09815514762451337   -0.0027491841460617556
-0.008889230640868042   -0.09308061303707789   -0.002995710253676234
-0.011968002797388832   -0.09280722265282969   -0.0029998917333546957
-0.009996166096146595   -0.09815514762451337   -0.0027491841460617556
-0.008629211159268648   -0.0986513308938268   -0.0030115796946509777
-0.008889230640868042   -0.09308061303707789   -0.002995710253676234
-0.008358188260114575   -0.09855112906452247   -0.002939972140687525
-0.011968002797388832   -0.09280722265282969   -0.0029998917333546957
-0.008680450306849713   -0.09304837882564705   -0.0029664061146429843
-0.008358188260114575   -0.09855112906452247   -0.002939972140687525
-0.008889230640868042   -0.09308061303707789   -0.002995710253676234
-0.011968002797388832   -0.09280722265282969   -0.0029998917333546957
-0.008358188260114575   -0.09855112906452247   -0.002939972140687525
-0.00973937244740966   -0.09805744129336046   -0.0028510140138460994
-0.009996166096146595   -0.09815514762451337   -0.0027491841460617556
-0.011968002797388832   -0.09280722265282969   -0.0029998917333546957
-0.008358188260114575   -0.09855112906452247   -0.002939972140687525
-0.009996166096146595   -0.09815514762451337   -0.0027491841460617556
-0.008889230640868042   -0.09308061303707789   -0.002995710253676234
-0.011968002797388832   -0.09280722265282969   -0.0029998917333546957
-0.00973937244740966   -0.09805744129336046   -0.0028510140138460994
-0.008680450306849713   -0.09304837882564705   -0.0029664061146429843
-0.01172881722017489   -0.09286321845070948   -0.003110099802712391
-0.00973937244740966   -0.09805744129336046   -0.0028510140138460994
-0.008358188260114575   -0.09855112906452247   -0.002939972140687525
-0.008680450306849713   -0.09304837882564705   -0.0029664061146429843
-0.008096189687344947   -0.09854914079806452   -0.00286746793196366
-0.01172881722017489   -0.09286321845070948   -0.003110099802712391
-0.008474638776525515   -0.09308187537029852   -0.002951124884530002
-0.008096189687344947   -0.09854914079806452   -0.00286746793196366
-0.008680450306849713   -0.09304837882564705   -0.0029664061146429843
-0.01172881722017489   -0.09286321845070948   -0.003110099802712391
-0.008096189687344947   -0.09854914079806452   -0.00286746793196366
-0.00945505797823844   -0.09806201258209785   -0.0029538714372862643
-0.00973937244740966   -0.09805744129336046   -0.0028510140138460994
-0.01172881722017489   -0.09286321845070948   -0.003110099802712391
-0.008096189687344947   -0.09854914079806452   -0.00286746793196366
-0.00973937244740966   -0.09805744129336046   -0.0028510140138460994
-0.008680450306849713   -0.09304837882564705   -0.0029664061146429843
-0.01172881722017489   -0.09286321845070948   -0.003110099802712391
-0.00945505797823844   -0.09806201258209785   -0.0029538714372862643
-0.008474638776525515   -0.09308187537029852   -0.002951124884530002
-0.011511825941902204   -0.09299665147652399   -0.0032338246518969116
-0.00945505797823844   -0.09806201258209785   -0.0029538714372862643
-0.008096189687344947   -0.09854914079806452   -0.00286746793196366
-0.008474638776525515   -0.09308187537029852   -0.002951124884530002
-0.00782301446519466   -0.09864330409499683   -0.002797812008665888
-0.011511825941902204   -0.09299665147652399   -0.0032338246518969116
-0.008285302043855546   -0.09318330060206322   -0.0029528098662292383
-0.00782301446519466   -0.09864330409499683   -0.002797812008665888
-0.008474638776525515   -0.09308187537029852   -0.002951124884530002
-0.011511825941902204   -0.09299665147652399   -0.0032338246518969116
-0.00782301446519466   -0.09864330409499683   -0.002797812008665888
-0.009190882532604893   -0.09816932444578144   -0.00305818768223668
-0.00945505797823844   -0.09806201258209785   -0.0029538714372862643
-0.011511825941902204   -0.09299665147652399   -0.0032338246518969116
-0.00782301446519466   -0.09864330409499683   -0.002797812008665888
-0.00945505797823844   -0.09806201258209785   -0.0029538714372862643
-0.008474638776525515   -0.09308187537029852   -0.002951124884530002
-0.008889230640868042   -0.09308061303707789   -0.002995710253676234
-0.008629211159268648   -0.0986513308938268   -0.0030115796946509777
-0.005745716925322175   -0.09321427344380678   -0.003103799468449655
-0.008680450306849713   -0.09304837882564705   -0.0029664061146429843
-0.008629211159268648   -0.0986513308938268   -0.0030115796946509777
-0.007381200624275456   -0.09925107163766206   -0.0033004052658125523
-0.005745716925322175   -0.09321427344380678   -0.003103799468449655
-0.007048898287095657   -0.09916421278507409   -0.003045612119378419
-0.008680450306849713   -0.09304837882564705   -0.0029664061146429843
-0.005510348412429486   -0.09316784876927299   -0.0029565699489449222
-0.007048898287095657   -0.09916421278507409   -0.003045612119378419
-0.005745716925322175   -0.09321427344380678   -0.003103799468449655
-0.008680450306849713   -0.09304837882564705   -0.0029664061146429843
-0.007048898287095657   -0.09916421278507409   -0.003045612119378419
-0.008358188260114575   -0.09855112906452247   -0.002939972140687525
-0.008629211159268648   -0.0986513308938268   -0.0030115796946509777
-0.008680450306849713   -0.09304837882564705   -0.0029664061146429843
-0.007048898287095657   -0.09916421278507409   -0.003045612119378419
-0.008629211159268648   -0.0986513308938268   -0.0030115796946509777
-0.005745716925322175   -0.09321427344380678   -0.003103799468449655
-0.008680450306849713   -0.09304837882564705   -0.0029664061146429843
-0.008358188260114575   -0.09855112906452247   -0.002939972140687525
-0.005510348412429486   -0.09316784876927299   -0.0029565699489449222
-0.008474638776525515   -0.09308187537029852   -0.002951124884530002
-0.008358188260114575   -0.09855112906452247   -0.002939972140687525
-0.007048898287095657   -0.09916421278507409   -0.003045612119378419
-0.005510348412429486   -0.09316784876927299   -0.0029565699489449222
-0.006741054922090556   -0.0991594523446144   -0.0027917183684471585
-0.008474638776525515   -0.09308187537029852   -0.002951124884530002
-0.00528601114878901   -0.09317918830632853   -0.0028217209233975834
-0.006741054922090556   -0.0991594523446144   -0.0027917183684471585
-0.005510348412429486   -0.09316784876927299   -0.0029565699489449222
-0.008474638776525515   -0.09308187537029852   -0.002951124884530002
-0.006741054922090556   -0.0991594523446144   -0.0027917183684471585
-0.008096189687344947   -0.09854914079806452   -0.00286746793196366
-0.008358188260114575   -0.09855112906452247   -0.002939972140687525
-0.008474638776525515   -0.09308187537029852   -0.002951124884530002
-0.006741054922090556   -0.0991594523446144   -0.0027917183684471585
-0.008358188260114575   -0.09855112906452247   -0.002939972140687525
-0.005510348412429486   -0.09316784876927299   -0.0029565699489449222
-0.008474638776525515   -0.09308187537029852   -0.002951124884530002
-0.008096189687344947   -0.09854914079806452   -0.00286746793196366
-0.00528601114878901   -0.09317918830632853   -0.0028217209233975834
-0.008285302043855546   -0.09318330060206322   -0.0029528098662292383
-0.008096189687344947   -0.09854914079806452   -0.00286746793196366
-0.006741054922090556   -0.0991594523446144   -0.0027917183684471585
-0.00528601114878901   -0.09317918830632853   -0.0028217209233975834
-0.006410468414819578   -0.09923232726953356   -0.0025371936820876434
-0.008285302043855546   -0.09318330060206322   -0.0029528098662292383
-0.005099488317516325   -0.09325961154504787   -0.0027070223274335736
-0.006410468414819578   -0.09923232726953356   -0.0025371936820876434
-0.00528601114878901   -0.09317918830632853   -0.0028217209233975834
-0.008285302043855546   -0.09318330060206322   -0.0029528098662292383
-0.006410468414819578   -0.09923232726953356   -0.0025371936820876434
-0.00782301446519466   -0.09864330409499683   -0.002797812008665888
-0.008096189687344947   -0.09854914079806452   -0.00286746793196366
-0.008285302043855546   -0.09318330060206322   -0.0029528098662292383
-0.006410468414819578   -0.09923232726953356   -0.0025371936820876434
-0.008096189687344947   -0.09854914079806452   -0.00286746793196366
-0.00528601114878901   -0.09317918830632853   -0.0028217209233975834
-0.005745716925322175   -0.09321427344380678   -0.003103799468449655
-0.007381200624275456   -0.09925107163766206   -0.0033004052658125523
-0.0024019072428966928   -0.0931818435452917   -0.0032310053675160804
-0.005510348412429486   -0.09316784876927299   -0.0029565699489449222
-0.007381200624275456   -0.09925107163766206   -0.0033004052658125523
-0.006152941450582425   -0.1   -0.0035217850809967375
-0.0024019072428966928   -0.0931818435452917   -0.0032310053675160804
-0.0057351353066324405   -0.1   -0.0031352001257422685
-0.005510348412429486   -0.09316784876927299   -0.0029565699489449222
-0.002099715516002312   -0.09310908577423205   -0.0029709942162929664
-0.0057351353066324405   -0.1   -0.0031352001257422685
-0.0024019072428966928   -0.0931818435452917   -0.0032310053675160804
-0.005510348412429486   -0.09316784876927299   -0.0029565699489449222
-0.0057351353066324405   -0.1   -0.0031352001257422685
-0.007048898287095657   -0.09916421278507409   -0.003045612119378419
-0.007381200624275456   -0.09925107163766206   -0.0033004052658125523
-0.005510348412429486   -0.09316784876927299   -0.0029565699489449222
-0.0057351353066324405   -0.1   -0.0031352001257422685
-0.007381200624275456   -0.09925107163766206   -0.0033004052658125523
-0.0024019072428966928   -0.0931818435452917   -0.0032310053675160804
-0.005510348412429486   -0.09316784876927299   -0.0029565699489449222
-0.007048898287095657   -0.09916421278507409   -0.003045612119378419
-0.002099715516002312   -0.09310908577423205   -0.0029709942162929664
-0.00528601114878901   -0.09317918830632853   -0.0028217209233975834
-0.007048898287095657   -0.09916421278507409   -0.003045612119378419
-0.0057351353066324405   -0.1   -0.0031352001257422685
-0.002099715516002312   -0.09310908577423205   -0.0029709942162929664
-0.005315459444772776   -0.1   -0.002744026640944404
-0.00528601114878901   -0.09317918830632853   -0.0028217209233975834
-0.001790883236986208   -0.09309617423139616   -0.002724236263782621
-0.005315459444772776   -0.1   -0.002744026640944404
-0.002099715516002312   -0.09310908577423205   -0.0029709942162929664
-0.00528601114878901   -0.09317918830632853   -0.0028217209233975834
-0.005315459444772776   -0.1   -0.002744026640944404
-0.006741054922090556   -0.0991594523446144   -0.0027917183684471585
-0.007048898287095657   -0.09916421278507409   -0.003045612119378419
-0.00528601114878901   -0.09317918830632853   -0.0028217209233975834
-0.005315459444772776   -0.1   -0.002744026640944404
-0.007048898287095657   -0.09916421278507409   -0.003045612119378419
-0.002099715516002312   -0.09310908577423205   -0.0029709942162929664
-0.00528601114878901   -0.09317918830632853   -0.0028217209233975834
-0.006741054922090556   -0.0991594523446144   -0.0027917183684471585
-0.001790883236986208   -0.09309617423139616   -0.002724236263782621
-0.005099488317516325   -0.09325961154504787   -0.0027070223274335736
-0.006741054922090556   -0.0991594523446144   -0.0027917183684471585
-0.005315459444772776   -0.1   -0.002744026640944404
-0.001790883236986208   -0.09309617423139616   -0.002724236263782621
-0.004905070664007519   -0.1   -0.002358014632982392
-0.005099488317516325   -0.09325961154504787   -0.0027070223274335736
-0.0015620632390247616   -0.09315606260918766   -0.002500190685550229
-0.004905070664007519   -0.1   -0.002358014632982392
-0.001790883236986208   -0.09309617423139616   -0.002724236263782621
-0.005099488317516325   -0.09325961154504787   -0.0027070223274335736
-0.004905070664007519   -0.1   -0.002358014632982392
-0.006410468414819578   -0.09923232726953356   -0.0025371936820876434
-0.006741054922090556   -0.0991594523446144   -0.0027917183684471585
-0.005099488317516325   -0.09325961154504787   -0.0027070223274335736
-0.004905070664007519   -0.1   -0.002358014632982392
-0.006741054922090556   -0.0991594523446144   -0.0027917183684471585
-0.001790883236986208   -0.09309617423139616   -0.002724236263782621
-0.0024019072428966928   -0.0931818435452917   -0.0032310053675160804
-0.006152941450582425   -0.1   -0.0035217850809967375
0.0011990403978712515   -0.09286105525001499   -0.0034920942752715654
-0.002099715516002312   -0.09310908577423205   -0.0029709942162929664
-0.006152941450582425   -0.1   -0.0035217850809967375
-0.005263253417690105   -0.1   -0.0037899016957346505
0.0011990403978712515   -0.09286105525001499   -0.0034920942752715654
-0.004390626558328501   -0.1   -0.0032308427644012127
-0.002099715516002312   -0.09310908577423205   -0.0029709942162929664
0.0019023710642234522   -0.09270259841844784   -0.003066702290768169
-0.004390626558328501   -0.1   -0.0032308427644012127
0.0011990403978712515   -0.09286105525001499   -0.0034920942752715654
-0.002099715516002312   -0.09310908577423205   -0.0029709942162929664
-0.004390626558328501   -0.1   -0.0032308427644012127
-0.0057351353066324405   -0.1   -0.0031352001257422685
-0.006152941450582425   -0.1   -0.0035217850809967375
-0.002099715516002312   -0.09310908577423205   -0.0029709942162929664
-0.004390626558328501   -0.1   -0.0032308427644012127
-0.006152941450582425   -0.1   -0.0035217850809967375
0.0011990403978712515   -0.09286105525001499   -0.0034920942752715654
-0.002099715516002312   -0.09310908577423205   -0.0029709942162929664
-0.0057351353066324405   -0.1   -0.0031352001257422685
0.0019023710642234522   -0.09270259841844784   -0.003066702290768169
-0.001790883236986208   -0.09309617423139616   -0.002724236263782621
-0.0057351353066324405   -0.1   -0.0031352001257422685
-0.004390626558328501   -0.1   -0.0032308427644012127
0.0019023710642234522   -0.09270259841844784   -0.003066702290768169
-0.003694709934139223   -0.1   -0.00269602098984406
-0.001790883236986208   -0.09309617423139616   -0.002724236263782621
0.0024551544044216357   -0.09267044466620851   -0.002667366979465165
-0.003694709934139223   -0.1   -0.00269602098984406
0.0019023710642234522   -0.09270259841844784   -0.003066702290768169
-0.001790883236986208   -0.09309617423139616   -0.002724236263782621
-0.003694709934139223   -0.1   -0.00269602098984406
-0.005315459444772776   -0.1   -0.002744026640944404
-0.0057351353066324405   -0.1   -0.0031352001257422685
-0.001790883236986208   -0.09309617423139616   -0.002724236263782621
-0.003694709934139223   -0.1   -0.00269602098984406
-0.0057351353066324405   -0.1   -0.0031352001257422685
0.0019023710642234522   -0.09270259841844784   -0.003066702290768169
-0.001790883236986208   -0.09309617423139616   -0.002724236263782621
-0.005315459444772776   -0.1   -0.002744026640944404
0.0024551544044216357   -0.09267044466620851   -0.002667366979465165
-0.0015620632390247616   -0.09315606260918766   -0.002500190685550229
-0.005315459444772776   -0.1   -0.002744026640944404
-0.003694709934139223   -0.1   -0.00269602098984406
0.0024551544044216357   -0.09267044466620851   -0.002667366979465165
-0.002835002528099723   -0.1   -0.002140826453823862
-0.0015620632390247616   -0.09315606260918766   -0.002500190685550229
0.003029366353290388   -0.09269716834758898   -0.0023027613176264277
-0.002835002528099723   -0.1   -0.002140826453823862
0.0024551544044216357   -0.09267044466620851   -0.002667366979465165
-0.0015620632390247616   -0.09315606260918766   -0.002500190685550229
-0.002835002528099723   -0.1   -0.002140826453823862
-0.004905070664007519   -0.1   -0.002358014632982392
-0.005315459444772776   -0.1   -0.002744026640944404
-0.0015620632390247616   -0.09315606260918766   -0.002500190685550229
-0.002835002528099723   -0.1   -0.002140826453823862
-0.005315459444772776   -0.1   -0.002744026640944404
0.0024551544044216357   -0.09267044466620851   -0.002667366979465165
-0.011864054594668461   -0.09766165523468591   -0.0024523619442812223
-0.007077913418855015   -0.09791667929618726   -0.0020988234396077145
-0.009996166096146595   -0.09815514762451337   -0.0027491841460617556
-0.011317806460286442   -0.0975516051140658   -0.002762209684965043
-0.007077913418855015   -0.09791667929618726   -0.0020988234396077145
-0.007512160621322043   -0.09829659047059157   -0.0024809798642971503
-0.009996166096146595   -0.09815514762451337   -0.0027491841460617556
-0.007318020083041479   -0.09816320430581961   -0.0026200482158018974
-0.011317806460286442   -0.0975516051140658   -0.002762209684965043
-0.00973937244740966   -0.09805744129336046   -0.0028510140138460994
-0.007318020083041479   -0.09816320430581961   -0.0026200482158018974
-0.009996166096146595   -0.09815514762451337   -0.0027491841460617556
-0.011317806460286442   -0.0975516051140658   -0.002762209684965043
-0.007318020083041479   -0.09816320430581961   -0.0026200482158018974
-0.006583078486740832   -0.09774543792917233   -0.0024243434306059596
-0.007077913418855015   -0.09791667929618726   -0.0020988234396077145
-0.011317806460286442   -0.0975516051140658   -0.002762209684965043
-0.007318020083041479   -0.09816320430581961   -0.0026200482158018974
-0.007077913418855015   -0.09791667929618726   -0.0020988234396077145
-0.009996166096146595   -0.09815514762451337   -0.0027491841460617556
-0.011317806460286442   -0.0975516051140658   -0.002762209684965043
-0.006583078486740832   -0.09774543792917233   -0.0024243434306059596
-0.00973937244740966   -0.09805744129336046   -0.0028510140138460994
-0.010846479111713044   -0.0975607312200905   -0.003070841426688513
-0.006583078486740832   -0.09774543792917233   -0.0024243434306059596
-0.007318020083041479   -0.09816320430581961   -0.0026200482158018974
-0.00973937244740966   -0.09805744129336046   -0.0028510140138460994
-0.007090368122630725   -0.09811370203689365   -0.0027483091995217394
-0.010846479111713044   -0.0975607312200905   -0.003070841426688513
-0.00945505797823844   -0.09806201258209785   -0.0029538714372862643
-0.007090368122630725   -0.09811370203689365   -0.0027483091995217394
-0.00973937244740966   -0.09805744129336046   -0.0028510140138460994
-0.010846479111713044   -0.0975607312200905   -0.003070841426688513
-0.007090368122630725   -0.09811370203689365   -0.0027483091995217394
-0.006171154308591502   -0.0976924256355188   -0.0027364497221198667
-0.006583078486740832   -0.09774543792917233   -0.0024243434306059596
-0.010846479111713044   -0.0975607312200905   -0.003070841426688513
-0.007090368122630725   -0.09811370203689365   -0.0027483091995217394
-0.006583078486740832   -0.09774543792917233   -0.0024243434306059596
-0.00973937244740966   -0.09805744129336046   -0.0028510140138460994
-0.010846479111713044   -0.0975607312200905   -0.003070841426688513
-0.006171154308591502   -0.0976924256355188   -0.0027364497221198667
-0.00945505797823844   -0.09806201258209785   -0.0029538714372862643
-0.010287499250012634   -0.09769584912527515   -0.0033861281910355224
-0.006171154308591502   -0.0976924256355188   -0.0027364497221198667
-0.007090368122630725   -0.09811370203689365   -0.0027483091995217394
-0.00945505797823844   -0.09806201258209785   -0.0029538714372862643
-0.006895314357907722   -0.09814878727001015   -0.002865087265392712
-0.010287499250012634   -0.09769584912527515   -0.0033861281910355224
-0.009190882532604893   -0.09816932444578144   -0.00305818768223668
-0.006895314357907722   -0.09814878727001015   -0.002865087265392712
-0.00945505797823844   -0.09806201258209785   -0.0029538714372862643
-0.010287499250012634   -0.09769584912527515   -0.0033861281910355224
-0.006895314357907722   -0.09814878727001015   -0.002865087265392712
-0.005705243428105299   -0.09773621031133874   -0.0030337458627695177
-0.006171154308591502   -0.0976924256355188   -0.0027364497221198667
-0.010287499250012634   -0.09769584912527515   -0.0033861281910355224
-0.006895314357907722   -0.09814878727001015   -0.002865087265392712
-0.006171154308591502   -0.0976924256355188   -0.0027364497221198667
-0.00945505797823844   -0.09806201258209785   -0.0029538714372862643
-0.009996166096146595   -0.09815514762451337   -0.0027491841460617556
-0.007512160621322043   -0.09829659047059157   -0.0024809798642971503
-0.008629211159268648   -0.0986513308938268   -0.0030115796946509777
-0.00973937244740966   -0.09805744129336046   -0.0028510140138460994
-0.007512160621322043   -0.09829659047059157   -0.0024809798642971503
-0.008097873422648642   -0.09853191452942824   -0.002786600993018911
-0.008629211159268648   -0.0986513308938268   -0.0030115796946509777
-0.007926011170074214   -0.09841282748357573   -0.0027903063637907356
-0.00973937244740966   -0.09805744129336046   -0.0028510140138460994
-0.008358188260114575   -0.09855112906452247   -0.002939972140687525
-0.007926011170074214   -0.09841282748357573   -0.0027903063637907356
-0.008629211159268648   -0.0986513308938268   -0.0030115796946509777
-0.00973937244740966   -0.09805744129336046   -0.0028510140138460994
-0.007926011170074214   -0.09841282748357573   -0.0027903063637907356
-0.007318020083041479   -0.09816320430581961   -0.0026200482158018974
-0.007512160621322043   -0.09829659047059157   -0.0024809798642971503
-0.00973937244740966   -0.09805744129336046   -0.0028510140138460994
-0.007926011170074214   -0.09841282748357573   -0.0027903063637907356
-0.007512160621322043   -0.09829659047059157   -0.0024809798642971503
-0.008629211159268648   -0.0986513308938268   -0.0030115796946509777
-0.00973937244740966   -0.09805744129336046   -0.0028510140138460994
-0.007318020083041479   -0.09816320430581961   -0.0026200482158018974
-0.008358188260114575   -0.09855112906452247   -0.002939972140687525
-0.00945505797823844   -0.09806201258209785   -0.0029538714372862643
-0.007318020083041479   -0.09816320430581961   -0.0026200482158018974
-0.007926011170074214   -0.09841282748357573   -0.0027903063637907356
-0.008358188260114575   -0.09855112906452247   -0.002939972140687525
-0.007734700701021001   -0.09836971847455322   -0.0027799996482617347
-0.00945505797823844   -0.09806201258209785   -0.0029538714372862643
-0.008096189687344947   -0.09854914079806452   -0.00286746793196366
-0.007734700701021001   -0.09836971847455322   -0.0027799996482617347
-0.008358188260114575   -0.09855112906452247   -0.002939972140687525
-0.00945505797823844   -0.09806201258209785   -0.0029538714372862643
-0.007734700701021001   -0.09836971847455322   -0.0027799996482617347
-0.007090368122630725   -0.09811370203689365   -0.0027483091995217394
-0.007318020083041479   -0.09816320430581961   -0.0026200482158018974
-0.00945505797823844   -0.09806201258209785   -0.0029538714372862643
-0.007734700701021001   -0.09836971847455322   -0.0027799996482617347
-0.007318020083041479   -0.09816320430581961   -0.0026200482158018974
-0.008358188260114575   -0.09855112906452247   -0.002939972140687525
-0.00945505797823844   -0.09806201258209785   -0.0029538714372862643
-0.007090368122630725   -0.09811370203689365   -0.0027483091995217394
-0.008096189687344947   -0.09854914079806452   -0.00286746793196366
-0.009190882532604893   -0.09816932444578144   -0.00305818768223668
-0.007090368122630725   -0.09811370203689365   -0.0027483091995217394
-0.007734700701021001   -0.09836971847455322   -0.0027799996482617347
-0.008096189687344947   -0.09854914079806452   -0.00286746793196366
-0.007540169252931132   -0.09839909304456254   -0.002758698825289582
-0.009190882532604893   -0.09816932444578144   -0.00305818768223668
-0.00782301446519466   -0.09864330409499683   -0.002797812008665888
-0.007540169252931132   -0.09839909304456254   -0.002758698825289582
-0.008096189687344947   -0.09854914079806452   -0.00286746793196366
-0.009190882532604893   -0.09816932444578144   -0.00305818768223668
-0.007540169252931132   -0.09839909304456254   -0.002758698825289582
-0.006895314357907722   -0.09814878727001015   -0.002865087265392712
-0.007090368122630725   -0.09811370203689365   -0.0027483091995217394
-0.009190882532604893   -0.09816932444578144   -0.00305818768223668
-0.007540169252931132   -0.09839909304456254   -0.002758698825289582
-0.007090368122630725   -0.09811370203689365   -0.0027483091995217394
-0.008096189687344947   -0.09854914079806452   -0.00286746793196366
-0.008629211159268648   -0.0986513308938268   -0.0030115796946509777
-0.008097873422648642   -0.09853191452942824   -0.002786600993018911
-0.007381200624275456   -0.09925107163766206   -0.0033004052658125523
-0.008358188260114575   -0.09855112906452247   -0.002939972140687525
-0.008097873422648642   -0.09853191452942824   -0.002786600993018911
-0.008725486789540021   -0.09863151148539112   -0.0030873306983779767
-0.007381200624275456   -0.09925107163766206   -0.0033004052658125523
-0.008547458752190143   -0.0985180168525358   -0.002960882053029481
-0.008358188260114575   -0.09855112906452247   -0.002939972140687525
-0.007048898287095657   -0.09916421278507409   -0.003045612119378419
-0.008547458752190143   -0.0985180168525358   -0.002960882053029481
-0.007381200624275456   -0.09925107163766206   -0.0033004052658125523
-0.008358188260114575   -0.09855112906452247   -0.002939972140687525
-0.008547458752190143   -0.0985180168525358   -0.002960882053029481
-0.007926011170074214   -0.09841282748357573   -0.0027903063637907356
-0.008097873422648642   -0.09853191452942824   -0.002786600993018911
-0.008358188260114575   -0.09855112906452247   -0.002939972140687525
-0.008547458752190143   -0.0985180168525358   -0.002960882053029481
-0.008097873422648642   -0.09853191452942824   -0.002786600993018911
-0.007381200624275456   -0.09925107163766206   -0.0033004052658125523
-0.008358188260114575   -0.09855112906452247   -0.002939972140687525
-0.007926011170074214   -0.09841282748357573   -0.0027903063637907356
-0.007048898287095657   -0.09916421278507409   -0.003045612119378419
-0.008096189687344947   -0.09854914079806452   -0.00286746793196366
-0.007926011170074214   -0.09841282748357573   -0.0027903063637907356
-0.008547458752190143   -0.0985180168525358   -0.002960882053029481
-0.007048898287095657   -0.09916421278507409   -0.003045612119378419
-0.00833386859179152   -0.09848174808838905   -0.0028173697210310085
-0.008096189687344947   -0.09854914079806452   -0.00286746793196366
-0.006741054922090556   -0.0991594523446144   -0.0027917183684471585
-0.00833386859179152   -0.09848174808838905   -0.0028173697210310085
-0.007048898287095657   -0.09916421278507409   -0.003045612119378419
-0.008096189687344947   -0.09854914079806452   -0.00286746793196366
-0.00833386859179152   -0.09848174808838905   -0.0028173697210310085
-0.007734700701021001   -0.09836971847455322   -0.0027799996482617347
-0.007926011170074214   -0.09841282748357573   -0.0027903063637907356
-0.008096189687344947   -0.09854914079806452   -0.00286746793196366
-0.00833386859179152   -0.09848174808838905   -0.0028173697210310085
-0.007926011170074214   -0.09841282748357573   -0.0027903063637907356
-0.007048898287095657   -0.09916421278507409   -0.003045612119378419
-0.008096189687344947   -0.09854914079806452   -0.00286746793196366
-0.007734700701021001   -0.09836971847455322   -0.0027799996482617347
-0.006741054922090556   -0.0991594523446144   -0.0027917183684471585
-0.00782301446519466   -0.09864330409499683   -0.002797812008665888
-0.007734700701021001   -0.09836971847455322   -0.0027799996482617347
-0.00833386859179152   -0.09848174808838905   -0.0028173697210310085
-0.006741054922090556   -0.0991594523446144   -0.0027917183684471585
-0.008114184854988651   -0.09851051222098382   -0.00266448120531781
-0.00782301446519466   -0.09864330409499683   -0.002797812008665888
-0.006410468414819578   -0.09923232726953356   -0.0025371936820876434
-0.008114184854988651   -0.09851051222098382   -0.00266448120531781
-0.006741054922090556   -0.0991594523446144   -0.0027917183684471585
-0.00782301446519466   -0.09864330409499683   -0.002797812008665888
-0.008114184854988651   -0.09851051222098382   -0.00266448120531781
-0.007540169252931132   -0.09839909304456254   -0.002758698825289582
-0.007734700701021001   -0.09836971847455322   -0.0027799996482617347
-0.00782301446519466   -0.09864330409499683   -0.002797812008665888
-0.008114184854988651   -0.09851051222098382   -0.00266448120531781
-0.007734700701021001   -0.09836971847455322   -0.0027799996482617347
-0.006741054922090556   -0.0991594523446144   -0.0027917183684471585
-0.007381200624275456   -0.09925107163766206   -0.0033004052658125523
-0.008725486789540021   -0.09863151148539112   -0.0030873306983779767
-0.006152941450582425   -0.1   -0.0035217850809967375
-0.007048898287095657   -0.09916421278507409   -0.003045612119378419
-0.008725486789540021   -0.09863151148539112   -0.0030873306983779767
-0.009634257798730337   -0.09852624403985895   -0.0033728637586519362
-0.006152941450582425   -0.1   -0.0035217850809967375
-0.009401691761894782   -0.09841920127020942   -0.003122541508896575
-0.007048898287095657   -0.09916421278507409   -0.003045612119378419
-0.0057351353066324405   -0.1   -0.0031352001257422685
-0.009401691761894782   -0.09841920127020942   -0.003122541508896575
-0.006152941450582425   -0.1   -0.0035217850809967375
-0.007048898287095657   -0.09916421278507409   -0.003045612119378419
-0.009401691761894782   -0.09841920127020942   -0.003122541508896575
-0.008547458752190143   -0.0985180168525358   -0.002960882053029481
-0.008725486789540021   -0.09863151148539112   -0.0030873306983779767
-0.007048898287095657   -0.09916421278507409   -0.003045612119378419
-0.009401691761894782   -0.09841920127020942   -0.003122541508896575
-0.008725486789540021   -0.09863151148539112   -0.0030873306983779767
-0.006152941450582425   -0.1   -0.0035217850809967375
-0.007048898287095657   -0.09916421278507409   -0.003045612119378419
-0.008547458752190143   -0.0985180168525358   -0.002960882053029481
-0.0057351353066324405   -0.1   -0.0031352001257422685
-0.006741054922090556   -0.0991594523446144   -0.0027917183684471585
-0.008547458752190143   -0.0985180168525358   -0.002960882053029481
-0.009401691761894782   -0.09841920127020942   -0.003122541508896575
-0.0057351353066324405   -0.1   -0.0031352001257422685
-0.009094951435551661   -0.09839470974126668   -0.002853236497395407
-0.006741054922090556   -0.0991594523446144   -0.0027917183684471585
-0.005315459444772776   -0.1   -0.002744026640944404
-0.009094951435551661   -0.09839470974126668   -0.002853236497395407
-0.0057351353066324405   -0.1   -0.0031352001257422685
-0.006741054922090556   -0.0991594523446144   -0.0027917183684471585
-0.009094951435551661   -0.09839470974126668   -0.002853236497395407
-0.00833386859179152   -0.09848174808838905   -0.0028173697210310085
-0.008547458752190143   -0.0985180168525358   -0.002960882053029481
-0.006741054922090556   -0.0991594523446144   -0.0027917183684471585
-0.009094951435551661   -0.09839470974126668   -0.002853236497395407
-0.008547458752190143   -0.0985180168525358   -0.002960882053029481
-0.0057351353066324405   -0.1   -0.0031352001257422685
-0.006741054922090556   -0.0991594523446144   -0.0027917183684471585
-0.00833386859179152   -0.09848174808838905   -0.0028173697210310085
-0.005315459444772776   -0.1   -0.002744026640944404
-0.006410468414819578   -0.09923232726953356   -0.0025371936820876434
-0.00833386859179152   -0.09848174808838905   -0.0028173697210310085
-0.009094951435551661   -0.09839470974126668   -0.002853236497395407
-0.005315459444772776   -0.1   -0.002744026640944404
-0.008806211367015098   -0.09843679327209297   -0.0025734917029836646
-0.006410468414819578   -0.09923232726953356   -0.0025371936820876434
-0.004905070664007519   -0.1   -0.002358014632982392
-0.008806211367015098   -0.09843679327209297   -0.0025734917029836646
-0.005315459444772776   -0.1   -0.002744026640944404
-0.006410468414819578   -0.09923232726953356   -0.0025371936820876434
-0.008806211367015098   -0.09843679327209297   -0.0025734917029836646
-0.008114184854988651   -0.09851051222098382   -0.00266448120531781
-0.00833386859179152   -0.09848174808838905   -0.0028173697210310085
-0.006410468414819578   -0.09923232726953356   -0.0025371936820876434
-0.008806211367015098   -0.09843679327209297   -0.0025734917029836646
-0.00833386859179152   -0.09848174808838905   -0.0028173697210310085
-0.005315459444772776   -0.1   -0.002744026640944404
-0.006152941450582425   -0.1   -0.0035217850809967375
-0.009634257798730337   -0.09852624403985895   -0.0033728637586519362
-0.005263253417690105   -0.1   -0.0037899016957346505
-0.0057351353066324405   -0.1   -0.0031352001257422685
-0.009634257798730337   -0.09852624403985895   -0.0033728637586519362
-0.011398168059914516   -0.09804384312905566   -0.003675264335132706
-0.005263253417690105   -0.1   -0.0037899016957346505
-0.010781288631802811   -0.0979538072345071   -0.003264549877309595
-0.0057351353066324405   -0.1   -0.0031352001257422685
-0.004390626558328501   -0.1   -0.0032308427644012127
-0.010781288631802811   -0.0979538072345071   -0.003264549877309595
-0.005263253417690105   -0.1   -0.0037899016957346505
-0.0057351353066324405   -0.1   -0.0031352001257422685
-0.010781288631802811   -0.0979538072345071   -0.003264549877309595
-0.009401691761894782   -0.09841920127020942   -0.003122541508896575
-0.009634257798730337   -0.09852624403985895   -0.0033728637586519362
-0.0057351353066324405   -0.1   -0.0031352001257422685
-0.010781288631802811   -0.0979538072345071   -0.003264549877309595
-0.009634257798730337   -0.09852624403985895   -0.0033728637586519362
-0.005263253417690105   -0.1   -0.0037899016957346505
-0.0057351353066324405   -0.1   -0.0031352001257422685
-0.009401691761894782   -0.09841920127020942   -0.003122541508896575
-0.004390626558328501   -0.1   -0.0032308427644012127
-0.005315459444772776   -0.1   -0.002744026640944404
-0.009401691761894782   -0.09841920127020942   -0.003122541508896575
-0.010781288631802811   -0.0979538072345071   -0.003264549877309595
-0.004390626558328501   -0.1   -0.0032308427644012127
-0.010214209248772232   -0.09794132496481292   -0.0028260270162719092
-0.005315459444772776   -0.1   -0.002744026640944404
-0.003694709934139223   -0.1   -0.00269602098984406
-0.010214209248772232   -0.09794132496481292   -0.0028260270162719092
-0.004390626558328501   -0.1   -0.0032308427644012127
-0.005315459444772776   -0.1   -0.002744026640944404
-0.010214209248772232   -0.09794132496481292   -0.0028260270162719092
-0.009094951435551661   -0.09839470974126668   -0.002853236497395407
-0.009401691761894782   -0.09841920127020942   -0.003122541508896575
-0.005315459444772776   -0.1   -0.002744026640944404
-0.010214209248772232   -0.09794132496481292   -0.0028260270162719092
-0.009401691761894782   -0.09841920127020942   -0.003122541508896575
-0.004390626558328501   -0.1   -0.0032308427644012127
-0.005315459444772776   -0.1   -0.002744026640944404
-0.009094951435551661   -0.09839470974126668   -0.002853236497395407
-0.003694709934139223   -0.1   -0.00269602098984406
-0.004905070664007519   -0.1   -0.002358014632982392
-0.009094951435551661   -0.09839470974126668   -0.002853236497395407
-0.010214209248772232   -0.09794132496481292   -0.0028260270162719092
-0.003694709934139223   -0.1   -0.00269602098984406
-0.009498102817818023   -0.09805953786087176   -0.002367285543262979
-0.004905070664007519   -0.1   -0.002358014632982392
-0.002835002528099723   -0.1   -0.002140826453823862
-0.009498102817818023   -0.09805953786087176   -0.002367285543262979
-0.003694709934139223   -0.1   -0.00269602098984406
-0.004905070664007519   -0.1   -0.002358014632982392
-0.009498102817818023   -0.09805953786087176   -0.002367285543262979
-0.008806211367015098   -0.09843679327209297   -0.0025734917029836646
-0.009094951435551661   -0.09839470974126668   -0.002853236497395407
-0.004905070664007519   -0.1   -0.002358014632982392
-0.009498102817818023   -0.09805953786087176   -0.002367285543262979
-0.009094951435551661   -0.09839470974126668   -0.002853236497395407
-0.003694709934139223   -0.1   -0.00269602098984406
-0.007077913418855015   -0.09791667929618726   -0.0020988234396077145
-0.0028708924129756466   -0.0942038092099301   -0.0018140319654908667
-0.007512160621322043   -0.09829659047059157   -0.0024809798642971503
-0.006583078486740832   -0.09774543792917233   -0.0024243434306059596
-0.0028708924129756466   -0.0942038092099301   -0.0018140319654908667
-0.005383870419798545   -0.09449004055241385   -0.0022198545487496484
-0.007512160621322043   -0.09829659047059157   -0.0024809798642971503
-0.005246049526401531   -0.09432866234869013   -0.002343763102889696
-0.006583078486740832   -0.09774543792917233   -0.0024243434306059596
-0.007318020083041479   -0.09816320430581961   -0.0026200482158018974
-0.005246049526401531   -0.09432866234869013   -0.002343763102889696
-0.007512160621322043   -0.09829659047059157   -0.0024809798642971503
-0.006583078486740832   -0.09774543792917233   -0.0024243434306059596
-0.005246049526401531   -0.09432866234869013   -0.002343763102889696
-0.0024766759631070045   -0.09400417227263043   -0.0020951415383962503
-0.0028708924129756466   -0.0942038092099301   -0.0018140319654908667
-0.006583078486740832   -0.09774543792917233   -0.0024243434306059596
-0.005246049526401531   -0.09432866234869013   -0.002343763102889696
-0.0028708924129756466   -0.0942038092099301   -0.0018140319654908667
-0.007512160621322043   -0.09829659047059157   -0.0024809798642971503
-0.006583078486740832   -0.09774543792917233   -0.0024243434306059596
-0.0024766759631070045   -0.09400417227263043   -0.0020951415383962503
-0.007318020083041479   -0.09816320430581961   -0.0026200482158018974
-0.006171154308591502   -0.0976924256355188   -0.0027364497221198667
-0.0024766759631070045   -0.09400417227263043   -0.0020951415383962503
-0.005246049526401531   -0.09432866234869013   -0.002343763102889696
-0.007318020083041479   -0.09816320430581961   -0.0026200482158018974
-0.005090971859788304   -0.09423895539756388   -0.0024564565794445293
-0.006171154308591502   -0.0976924256355188   -0.0027364497221198667
-0.007090368122630725   -0.09811370203689365   -0.0027483091995217394
-0.005090971859788304   -0.09423895539756388   -0.0024564565794445293
-0.007318020083041479   -0.09816320430581961   -0.0026200482158018974
-0.006171154308591502   -0.0976924256355188   -0.0027364497221198667
-0.005090971859788304   -0.09423895539756388   -0.0024564565794445293
-0.002166482367941764   -0.09390875894673545   -0.002359624725436198
-0.0024766759631070045   -0.09400417227263043   -0.0020951415383962503
-0.006171154308591502   -0.0976924256355188   -0.0027364497221198667
-0.005090971859788304   -0.09423895539756388   -0.0024564565794445293
-0.0024766759631070045   -0.09400417227263043   -0.0020951415383962503
-0.007318020083041479   -0.09816320430581961   -0.0026200482158018974
-0.006171154308591502   -0.0976924256355188   -0.0027364497221198667
-0.002166482367941764   -0.09390875894673545   -0.002359624725436198
-0.007090368122630725   -0.09811370203689365   -0.0027483091995217394
-0.005705243428105299   -0.09773621031133874   -0.0030337458627695177
-0.002166482367941764   -0.09390875894673545   -0.002359624725436198
-0.005090971859788304   -0.09423895539756388   -0.0024564565794445293
-0.007090368122630725   -0.09811370203689365   -0.0027483091995217394
-0.00497204970607857   -0.0942184173433503   -0.0025582904737983816
-0.005705243428105299   -0.09773621031133874   -0.0030337458627695177
-0.006895314357907722   -0.09814878727001015   -0.002865087265392712
-0.00497204970607857   -0.0942184173433503   -0.0025582904737983816
-0.007090368122630725   -0.09811370203689365   -0.0027483091995217394
-0.005705243428105299   -0.09773621031133874   -0.0030337458627695177
-0.00497204970607857   -0.0942184173433503   -0.0025582904737983816
-0.0018279066895868952   -0.09389022240718825   -0.002606775131543693
-0.002166482367941764   -0.09390875894673545   -0.002359624725436198
-0.005705243428105299   -0.09773621031133874   -0.0030337458627695177
-0.00497204970607857   -0.0942184173433503   -0.0025582904737983816
-0.002166482367941764   -0.09390875894673545   -0.002359624725436198
-0.007090368122630725   -0.09811370203689365   -0.0027483091995217394
-0.007512160621322043   -0.09829659047059157   -0.0024809798642971503
-0.005383870419798545   -0.09449004055241385   -0.0022198545487496484
-0.008097873422648642   -0.09853191452942824   -0.002786600993018911
-0.007318020083041479   -0.09816320430581961   -0.0026200482158018974
-0.005383870419798545   -0.09449004055241385   -0.0022198545487496484
-0.007863201693642099   -0.0945911392384267   -0.002550999508930296
-0.008097873422648642   -0.09853191452942824   -0.002786600993018911
-0.007747270891140478   -0.09445033884042336   -0.002557896425133596
-0.007318020083041479   -0.09816320430581961   -0.0026200482158018974
-0.007926011170074214   -0.09841282748357573   -0.0027903063637907356
-0.007747270891140478   -0.09445033884042336   -0.002557896425133596
-0.008097873422648642   -0.09853191452942824   -0.002786600993018911
-0.007318020083041479   -0.09816320430581961   -0.0026200482158018974
-0.007747270891140478   -0.09445033884042336   -0.002557896425133596
-0.005246049526401531   -0.09432866234869013   -0.002343763102889696
-0.005383870419798545   -0.09449004055241385   -0.0022198545487496484
-0.007318020083041479   -0.09816320430581961   -0.0026200482158018974
-0.007747270891140478   -0.09445033884042336   -0.002557896425133596
-0.005383870419798545   -0.09449004055241385   -0.0022198545487496484
-0.008097873422648642   -0.09853191452942824   -0.002786600993018911
-0.007318020083041479   -0.09816320430581961   -0.0026200482158018974
-0.005246049526401531   -0.09432866234869013   -0.002343763102889696
-0.007926011170074214   -0.09841282748357573   -0.0027903063637907356
-0.007090368122630725   -0.09811370203689365   -0.0027483091995217394
-0.005246049526401531   -0.09432866234869013   -0.002343763102889696
-0.007747270891140478   -0.09445033884042336   -0.002557896425133596
-0.007926011170074214   -0.09841282748357573   -0.0027903063637907356
-0.007627375529172194   -0.09437415109546544   -0.002554408090502947
-0.007090368122630725   -0.09811370203689365   -0.0027483091995217394
-0.007734700701021001   -0.09836971847455322   -0.0027799996482617347
-0.007627375529172194   -0.09437415109546544   -0.002554408090502947
-0.007926011170074214   -0.09841282748357573   -0.0027903063637907356
-0.007090368122630725   -0.09811370203689365   -0.0027483091995217394
-0.007627375529172194   -0.09437415109546544   -0.002554408090502947
-0.005090971859788304   -0.09423895539756388   -0.0024564565794445293
-0.005246049526401531   -0.09432866234869013   -0.002343763102889696
-0.007090368122630725   -0.09811370203689365   -0.0027483091995217394
-0.007627375529172194   -0.09437415109546544   -0.002554408090502947
-0.005246049526401531   -0.09432866234869013   -0.002343763102889696
-0.007926011170074214   -0.09841282748357573   -0.0027903063637907356
-0.007090368122630725   -0.09811370203689365   -0.0027483091995217394
-0.005090971859788304   -0.09423895539756388   -0.0024564565794445293
-0.007734700701021001   -0.09836971847455322   -0.0027799996482617347
-0.006895314357907722   -0.09814878727001015   -0.002865087265392712
-0.005090971859788304   -0.09423895539756388   -0.0024564565794445293
-0.007627375529172194   -0.09437415109546544   -0.002554408090502947
-0.007734700701021001   -0.09836971847455322   -0.0027799996482617347
-0.007511737326985085   -0.09435944195955365   -0.0025404315713820104
-0.006895314357907722   -0.09814878727001015   -0.002865087265392712
-0.007540169252931132   -0.09839909304456254   -0.002758698825289582
-0.007511737326985085   -0.09435944195955365   -0.0025404315713820104
-0.007734700701021001   -0.09836971847455322   -0.0027799996482617347
-0.006895314357907722   -0.09814878727001015   -0.002865087265392712
-0.007511737326985085   -0.09435944195955365   -0.0025404315713820104
-0.00497204970607857   -0.0942184173433503   -0.0025582904737983816
-0.005090971859788304   -0.09423895539756388   -0.0024564565794445293
-0.006895314357907722   -0.09814878727001015   -0.002865087265392712
-0.007511737326985085   -0.09435944195955365   -0.0025404315713820104
-0.005090971859788304   -0.09423895539756388   -0.0024564565794445293
-0.007734700701021001   -0.09836971847455322   -0.0027799996482617347
-0.008097873422648642   -0.09853191452942824   -0.002786600993018911
-0.007863201693642099   -0.0945911392384267   -0.002550999508930296
-0.008725486789540021   -0.09863151148539112   -0.0030873306983779767
-0.007926011170074214   -0.09841282748357573   -0.0027903063637907356
-0.007863201693642099   -0.0945911392384267   -0.002550999508930296
-0.01032518852669545   -0.09450151190300242   -0.002860885593100922
-0.008725486789540021   -0.09863151148539112   -0.0030873306983779767
-0.010210173083542492   -0.09437649294936505   -0.0027555966334753506
-0.007926011170074214   -0.09841282748357573   -0.0027903063637907356
-0.008547458752190143   -0.0985180168525358   -0.002960882053029481
-0.010210173083542492   -0.09437649294936505   -0.0027555966334753506
-0.008725486789540021   -0.09863151148539112   -0.0030873306983779767
-0.007926011170074214   -0.09841282748357573   -0.0027903063637907356
-0.010210173083542492   -0.09437649294936505   -0.0027555966334753506
-0.007747270891140478   -0.09445033884042336   -0.002557896425133596
-0.007863201693642099   -0.0945911392384267   -0.002550999508930296
-0.007926011170074214   -0.09841282748357573   -0.0027903063637907356
-0.010210173083542492   -0.09437649294936505   -0.0027555966334753506
-0.007863201693642099   -0.0945911392384267   -0.002550999508930296
-0.008725486789540021   -0.09863151148539112   -0.0030873306983779767
-0.007926011170074214   -0.09841282748357573   -0.0027903063637907356
-0.007747270891140478   -0.09445033884042336   -0.002557896425133596
-0.008547458752190143   -0.0985180168525358   -0.002960882053029481
-0.007734700701021001   -0.09836971847455322   -0.0027799996482617347
-0.007747270891140478   -0.09445033884042336   -0.002557896425133596
-0.010210173083542492   -0.09437649294936505   -0.0027555966334753506
-0.008547458752190143   -0.0985180168525358   -0.002960882053029481
-0.010081097896424359   -0.09431499617968593   -0.002640073677945372
-0.007734700701021001   -0.09836971847455322   -0.0027799996482617347
-0.00833386859179152   -0.09848174808838905   -0.0028173697210310085
-0.010081097896424359   -0.09431499617968593   -0.002640073677945372
-0.008547458752190143   -0.0985180168525358   -0.002960882053029481
-0.007734700701021001   -0.09836971847455322   -0.0027799996482617347
-0.010081097896424359   -0.09431499617968593   -0.002640073677945372
-0.007627375529172194   -0.09437415109546544   -0.002554408090502947
-0.007747270891140478   -0.09445033884042336   -0.002557896425133596
-0.007734700701021001   -0.09836971847455322   -0.0027799996482617347
-0.010081097896424359   -0.09431499617968593   -0.002640073677945372
-0.007747270891140478   -0.09445033884042336   -0.002557896425133596
-0.008547458752190143   -0.0985180168525358   -0.002960882053029481
-0.007734700701021001   -0.09836971847455322   -0.0027799996482617347
-0.007627375529172194   -0.09437415109546544   -0.002554408090502947
-0.00833386859179152   -0.09848174808838905   -0.0028173697210310085
-0.007540169252931132   -0.09839909304456254   -0.002758698825289582
-0.007627375529172194   -0.09437415109546544   -0.002554408090502947
-0.010081097896424359   -0.09431499617968593   -0.002640073677945372
-0.00833386859179152   -0.09848174808838905   -0.0028173697210310085
-0.00995145970762586   -0.09431087669383892   -0.002513069396925666
-0.007540169252931132   -0.09839909304456254   -0.002758698825289582
-0.008114184854988651   -0.09851051222098382   -0.00266448120531781
-0.00995145970762586   -0.09431087669383892   -0.002513069396925666
-0.00833386859179152   -0.09848174808838905   -0.0028173697210310085
-0.007540169252931132   -0.09839909304456254   -0.002758698825289582
-0.00995145970762586   -0.09431087669383892   -0.002513069396925666
-0.007511737326985085   -0.09435944195955365   -0.0025404315713820104
-0.007627375529172194   -0.09437415109546544   -0.002554408090502947
-0.007540169252931132   -0.09839909304456254   -0.002758698825289582
-0.00995145970762586   -0.09431087669383892   -0.002513069396925666
-0.007627375529172194   -0.09437415109546544   -0.002554408090502947
-0.00833386859179152   -0.09848174808838905   -0.0028173697210310085
-0.008725486789540021   -0.09863151148539112   -0.0030873306983779767
-0.01032518852669545   -0.09450151190300242   -0.002860885593100922
-0.009634257798730337   -0.09852624403985895   -0.0033728637586519362
-0.008547458752190143   -0.0985180168525358   -0.002960882053029481
-0.01032518852669545   -0.09450151190300242   -0.002860885593100922
-0.01303061627728383   -0.09420924381607329   -0.0031454154328740924
-0.009634257798730337   -0.09852624403985895   -0.0033728637586519362
-0.01288990167635578   -0.09410006353920705   -0.0029304698038104204
-0.008547458752190143   -0.0985180168525358   -0.002960882053029481
-0.009401691761894782   -0.09841920127020942   -0.003122541508896575
-0.01288990167635578   -0.09410006353920705   -0.0029304698038104204
-0.009634257798730337   -0.09852624403985895   -0.0033728637586519362
-0.008547458752190143   -0.0985180168525358   -0.002960882053029481
-0.01288990167635578   -0.09410006353920705   -0.0029304698038104204
-0.010210173083542492   -0.09437649294936505   -0.0027555966334753506
-0.01032518852669545   -0.09450151190300242   -0.002860885593100922
-0.008547458752190143   -0.0985180168525358   -0.002960882053029481
-0.01288990167635578   -0.09410006353920705   -0.0029304698038104204
-0.01032518852669545   -0.09450151190300242   -0.002860885593100922
-0.009634257798730337   -0.09852624403985895   -0.0033728637586519362
-0.008547458752190143   -0.0985180168525358   -0.002960882053029481
-0.010210173083542492   -0.09437649294936505   -0.0027555966334753506
-0.009401691761894782   -0.09841920127020942   -0.003122541508896575
-0.00833386859179152   -0.09848174808838905   -0.0028173697210310085
-0.010210173083542492   -0.09437649294936505   -0.0027555966334753506
-0.01288990167635578   -0.09410006353920705   -0.0029304698038104204
-0.009401691761894782   -0.09841920127020942   -0.003122541508896575
-0.012695698987618995   -0.09405319900413256   -0.00270603329060591
-0.00833386859179152   -0.09848174808838905   -0.0028173697210310085
-0.009094951435551661   -0.09839470974126668   -0.002853236497395407
-0.012695698987618995   -0.09405319900413256   -0.00270603329060591
-0.009401691761894782   -0.09841920127020942   -0.003122541508896575
-0.00833386859179152   -0.09848174808838905   -0.0028173697210310085
-0.012695698987618995   -0.09405319900413256   -0.00270603329060591
-0.010081097896424359   -0.09431499617968593   -0.002640073677945372
-0.010210173083542492   -0.09437649294936505   -0.0027555966334753506
-0.00833386859179152   -0.09848174808838905   -0.0028173697210310085
-0.012695698987618995   -0.09405319900413256   -0.00270603329060591
-0.010210173083542492   -0.09437649294936505   -0.0027555966334753506
-0.009401691761894782   -0.09841920127020942   -0.003122541508896575
-0.00833386859179152   -0.09848174808838905   -0.0028173697210310085
-0.010081097896424359   -0.09431499617968593   -0.002640073677945372
-0.009094951435551661   -0.09839470974126668   -0.002853236497395407
-0.008114184854988651   -0.09851051222098382   -0.00266448120531781
-0.010081097896424359   -0.09431499617968593   -0.002640073677945372
-0.012695698987618995   -0.09405319900413256   -0.00270603329060591
-0.009094951435551661   -0.09839470974126668   -0.002853236497395407
-0.012526063191703   -0.09406873133232946   -0.00246583101277573
-0.008114184854988651   -0.09851051222098382   -0.00266448120531781
-0.008806211367015098   -0.09843679327209297   -0.0025734917029836646
-0.012526063191703   -0.09406873133232946   -0.00246583101277573
-0.009094951435551661   -0.09839470974126668   -0.002853236497395407
-0.008114184854988651   -0.09851051222098382   -0.00266448120531781
-0.012526063191703   -0.09406873133232946   -0.00246583101277573
-0.00995145970762586   -0.09431087669383892   -0.002513069396925666
-0.010081097896424359   -0.09431499617968593   -0.002640073677945372
-0.008114184854988651   -0.09851051222098382   -0.00266448120531781
-0.012526063191703   -0.09406873133232946   -0.00246583101277573
-0.010081097896424359   -0.09431499617968593   -0.002640073677945372
-0.009094951435551661   -0.09839470974126668   -0.002853236497395407
-0.009634257798730337   -0.09852624403985895   -0.0033728637586519362
-0.01303061627728383   -0.09420924381607329   -0.0031454154328740924
-0.011398168059914516   -0.09804384312905566   -0.003675264335132706
-0.009401691761894782   -0.09841920127020942   -0.003122541508896575
-0.01303061627728383   -0.09420924381607329   -0.0031454154328740924
-0.01651467285324982   -0.09373392191522897   -0.0034181550478615446
-0.011398168059914516   -0.09804384312905566   -0.003675264335132706
-0.01606263244528812   -0.09361570502484497   -0.0030788305696159606
-0.009401691761894782   -0.09841920127020942   -0.003122541508896575
-0.010781288631802811   -0.0979538072345071   -0.003264549877309595
-0.01606263244528812   -0.09361570502484497   -0.0030788305696159606
-0.011398168059914516   -0.09804384312905566   -0.003675264335132706
-0.009401691761894782   -0.09841920127020942   -0.003122541508896575
-0.01606263244528812   -0.09361570502484497   -0.0030788305696159606
-0.01288990167635578   -0.09410006353920705   -0.0029304698038104204
-0.01303061627728383   -0.09420924381607329   -0.0031454154328740924
-0.009401691761894782   -0.09841920127020942   -0.003122541508896575
-0.01606263244528812   -0.09361570502484497   -0.0030788305696159606
-0.01303061627728383   -0.09420924381607329   -0.0031454154328740924
-0.011398168059914516   -0.09804384312905566   -0.003675264335132706
-0.009401691761894782   -0.09841920127020942   -0.003122541508896575
-0.01288990167635578   -0.09410006353920705   -0.0029304698038104204
-0.010781288631802811   -0.0979538072345071   -0.003264549877309595
-0.009094951435551661   -0.09839470974126668   -0.002853236497395407
-0.01288990167635578   -0.09410006353920705   -0.0029304698038104204
-0.01606263244528812   -0.09361570502484497   -0.0030788305696159606
-0.010781288631802811   -0.0979538072345071   -0.003264549877309595
-0.015657205615187558   -0.09357235671851569   -0.0027196207980457483
-0.009094951435551661   -0.09839470974126668   -0.002853236497395407
-0.010214209248772232   -0.09794132496481292   -0.0028260270162719092
-0.015657205615187558   -0.09357235671851569   -0.0027196207980457483
-0.010781288631802811   -0.0979538072345071   -0.003264549877309595
-0.009094951435551661   -0.09839470974126668   -0.002853236497395407
-0.015657205615187558   -0.09357235671851569   -0.0027196207980457483
-0.012695698987618995   -0.09405319900413256   -0.00270603329060591
-0.01288990167635578   -0.09410006353920705   -0.0029304698038104204
-0.009094951435551661   -0.09839470974126668   -0.002853236497395407
-0.015657205615187558   -0.09357235671851569   -0.0027196207980457483
-0.01288990167635578   -0.09410006353920705   -0.0029304698038104204
-0.010781288631802811   -0.0979538072345071   -0.003264549877309595
-0.009094951435551661   -0.09839470974126668   -0.002853236497395407
-0.012695698987618995   -0.09405319900413256   -0.00270603329060591
-0.010214209248772232   -0.09794132496481292   -0.0028260270162719092
-0.008806211367015098   -0.09843679327209297   -0.0025734917029836646
-0.012695698987618995   -0.09405319900413256   -0.00270603329060591
-0.015657205615187558   -0.09357235671851569   -0.0027196207980457483
-0.010214209248772232   -0.09794132496481292   -0.0028260270162719092
-0.015131721708812036   -0.09362616475755309   -0.0023439483383342315
-0.008806211367015098   -0.09843679327209297   -0.0025734917029836646
-0.009498102817818023   -0.09805953786087176   -0.002367285543262979
-0.015131721708812036   -0.09362616475755309   -0.0023439483383342315
-0.010214209248772232   -0.09794132496481292   -0.0028260270162719092
-0.008806211367015098   -0.09843679327209297   -0.0025734917029836646
-0.015131721708812036   -0.09362616475755309   -0.0023439483383342315
-0.012526063191703   -0.09406873133232946   -0.00246583101277573
-0.012695698987618995   -0.09405319900413256   -0.00270603329060591
-0.008806211367015098   -0.09843679327209297   -0.0025734917029836646
-0.015131721708812036   -0.09362616475755309   -0.0023439483383342315
-0.012695698987618995   -0.09405319900413256   -0.00270603329060591
-0.010214209248772232   -0.09794132496481292   -0.0028260270162719092
-0.0028708924129756466   -0.0942038092099301   -0.0018140319654908667
0.0005381750449701737   -0.0873824898830294   -0.001501015292574456
-0.005383870419798545   -0.09449004055241385   -0.0022198545487496484
-0.0024766759631070045   -0.09400417227263043   -0.0020951415383962503
0.0005381750449701737   -0.0873824898830294   -0.001501015292574456
-0.0036956102877363974   -0.08759211353798   -0.0018993461780494303
-0.005383870419798545   -0.09449004055241385   -0.0022198545487496484
-0.0036226564847632106   -0.08742300980468266   -0.0019975426578999573
-0.0024766759631070045   -0.09400417227263043   -0.0020951415383962503
-0.005246049526401531   -0.09432866234869013   -0.002343763102889696
-0.0036226564847632106   -0.08742300980468266   -0.0019975426578999573
-0.005383870419798545   -0.09449004055241385   -0.0022198545487496484
-0.0024766759631070045   -0.09400417227263043   -0.0020951415383962503
-0.0036226564847632106   -0.08742300980468266   -0.0019975426578999573
0.000813071862395898   -0.08717971514544551   -0.0017245996236510894
0.0005381750449701737   -0.0873824898830294   -0.001501015292574456
-0.0024766759631070045   -0.09400417227263043   -0.0020951415383962503
-0.0036226564847632106   -0.08742300980468266   -0.0019975426578999573
0.0005381750449701737   -0.0873824898830294   -0.001501015292574456
-0.005383870419798545   -0.09449004055241385   -0.0022198545487496484
-0.0024766759631070045   -0.09400417227263043   -0.0020951415383962503
0.000813071862395898   -0.08717971514544551   -0.0017245996236510894
-0.005246049526401531   -0.09432866234869013   -0.002343763102889696
-0.002166482367941764   -0.09390875894673545   -0.002359624725436198
0.000813071862395898   -0.08717971514544551   -0.0017245996236510894
-0.0036226564847632106   -0.08742300980468266   -0.0019975426578999573
-0.005246049526401531   -0.09432866234869013   -0.002343763102889696
-0.0035396450079906014   -0.08731228551552951   -0.0020842542656390197
-0.002166482367941764   -0.09390875894673545   -0.002359624725436198
-0.005090971859788304   -0.09423895539756388   -0.0024564565794445293
-0.0035396450079906014   -0.08731228551552951   -0.0020842542656390197
-0.005246049526401531   -0.09432866234869013   -0.002343763102889696
-0.002166482367941764   -0.09390875894673545   -0.002359624725436198
-0.0035396450079906014   -0.08731228551552951   -0.0020842542656390197
0.0010152460057132914   -0.08706221277622925   -0.00193210928772827
0.000813071862395898   -0.08717971514544551   -0.0017245996236510894
-0.002166482367941764   -0.09390875894673545   -0.002359624725436198
-0.0035396450079906014   -0.08731228551552951   -0.0020842542656390197
0.000813071862395898   -0.08717971514544551   -0.0017245996236510894
-0.005246049526401531   -0.09432866234869013   -0.002343763102889696
-0.002166482367941764   -0.09390875894673545   -0.002359624725436198
0.0010152460057132914   -0.08706221277622925   -0.00193210928772827
-0.005090971859788304   -0.09423895539756388   -0.0024564565794445293
-0.0018279066895868952   -0.09389022240718825   -0.002606775131543693
0.0010152460057132914   -0.08706221277622925   -0.00193210928772827
-0.0035396450079906014   -0.08731228551552951   -0.0020842542656390197
-0.005090971859788304   -0.09423895539756388   -0.0024564565794445293
-0.003490023492884358   -0.08725667395617144   -0.0021606145071872956
-0.0018279066895868952   -0.09389022240718825   -0.002606775131543693
-0.00497204970607857   -0.0942184173433503   -0.0025582904737983816
-0.003490023492884358   -0.08725667395617144   -0.0021606145071872956
-0.005090971859788304   -0.09423895539756388   -0.0024564565794445293
-0.0018279066895868952   -0.09389022240718825   -0.002606775131543693
-0.003490023492884358   -0.08725667395617144   -0.0021606145071872956
0.0012315072902159083   -0.08700379147816738   -0.002123462834369913
0.0010152460057132914   -0.08706221277622925   -0.00193210928772827
-0.0018279066895868952   -0.09389022240718825   -0.002606775131543693
-0.003490023492884358   -0.08725667395617144   -0.0021606145071872956
0.0010152460057132914   -0.08706221277622925   -0.00193210928772827
-0.005090971859788304   -0.09423895539756388   -0.0024564565794445293
-0.005383870419798545   -0.09449004055241385   -0.0022198545487496484
-0.0036956102877363974   -0.08759211353798   -0.0018993461780494303
-0.007863201693642099   -0.0945911392384267   -0.002550999508930296
-0.005246049526401531   -0.09432866234869013   -0.002343763102889696
-0.0036956102877363974   -0.08759211353798   -0.0018993461780494303
-0.007790156689542648   -0.08763218042650071   -0.002227752597878326
-0.007863201693642099   -0.0945911392384267   -0.002550999508930296
-0.007736482121266394   -0.08748696996583194   -0.0022303328592723237
-0.005246049526401531   -0.09432866234869013   -0.002343763102889696
-0.007747270891140478   -0.09445033884042336   -0.002557896425133596
-0.007736482121266394   -0.08748696996583194   -0.0022303328592723237
-0.007863201693642099   -0.0945911392384267   -0.002550999508930296
-0.005246049526401531   -0.09432866234869013   -0.002343763102889696
-0.007736482121266394   -0.08748696996583194   -0.0022303328592723237
-0.0036226564847632106   -0.08742300980468266   -0.0019975426578999573
-0.0036956102877363974   -0.08759211353798   -0.0018993461780494303
-0.005246049526401531   -0.09432866234869013   -0.002343763102889696
-0.007736482121266394   -0.08748696996583194   -0.0022303328592723237
-0.0036956102877363974   -0.08759211353798   -0.0018993461780494303
-0.007863201693642099   -0.0945911392384267   -0.002550999508930296
-0.005246049526401531   -0.09432866234869013   -0.002343763102889696
-0.0036226564847632106   -0.08742300980468266   -0.0019975426578999573
-0.007747270891140478   -0.09445033884042336   -0.002557896425133596
-0.005090971859788304   -0.09423895539756388   -0.0024564565794445293
-0.0036226564847632106   -0.08742300980468266   -0.0019975426578999573
-0.007736482121266394   -0.08748696996583194   -0.0022303328592723237
-0.007747270891140478   -0.09445033884042336   -0.002557896425133596
-0.007681297094440684   -0.08739401679969634   -0.0022219123469605644
-0.005090971859788304   -0.09423895539756388   -0.0024564565794445293
-0.007627375529172194   -0.09437415109546544   -0.002554408090502947
-0.007681297094440684   -0.08739401679969634   -0.0022219123469605644
-0.007747270891140478   -0.09445033884042336   -0.002557896425133596
-0.005090971859788304   -0.09423895539756388   -0.0024564565794445293
-0.007681297094440684   -0.08739401679969634   -0.0022219123469605644
-0.0035396450079906014   -0.08731228551552951   -0.0020842542656390197
-0.0036226564847632106   -0.08742300980468266   -0.0019975426578999573
-0.005090971859788304   -0.09423895539756388   -0.0024564565794445293
-0.007681297094440684   -0.08739401679969634   -0.0022219123469605644
-0.0036226564847632106   -0.08742300980468266   -0.0019975426578999573
-0.007747270891140478   -0.09445033884042336   -0.002557896425133596
-0.005090971859788304   -0.09423895539756388   -0.0024564565794445293
-0.0035396450079906014   -0.08731228551552951   -0.0020842542656390197
-0.007627375529172194   -0.09437415109546544   -0.002554408090502947
-0.00497204970607857   -0.0942184173433503   -0.0025582904737983816
-0.0035396450079906014   -0.08731228551552951   -0.0020842542656390197
-0.007681297094440684   -0.08739401679969634   -0.0022219123469605644
-0.007627375529172194   -0.09437415109546544   -0.002554408090502947
-0.007633026480238024   -0.08735245054940574   -0.0022032191022962606
-0.00497204970607857   -0.0942184173433503   -0.0025582904737983816
-0.007511737326985085   -0.09435944195955365   -0.0025404315713820104
-0.007633026480238024   -0.08735245054940574   -0.0022032191022962606
-0.007627375529172194   -0.09437415109546544   -0.002554408090502947
-0.00497204970607857   -0.0942184173433503   -0.0025582904737983816
-0.007633026480238024   -0.08735245054940574   -0.0022032191022962606
-0.003490023492884358   -0.08725667395617144   -0.0021606145071872956
-0.0035396450079906014   -0.08731228551552951   -0.0020842542656390197
-0.00497204970607857   -0.0942184173433503   -0.0025582904737983816
-0.007633026480238024   -0.08735245054940574   -0.0022032191022962606
-0.0035396450079906014   -0.08731228551552951   -0.0020842542656390197
-0.007627375529172194   -0.09437415109546544   -0.002554408090502947
-0.007863201693642099   -0.0945911392384267   -0.002550999508930296
-0.007790156689542648   -0.08763218042650071   -0.002227752597878326
-0.01032518852669545   -0.09450151190300242   -0.002860885593100922
-0.007747270891140478   -0.09445033884042336   -0.002557896425133596
-0.007790156689542648   -0.08763218042650071   -0.002227752597878326
-0.011820082204431087   -0.087501907001107   -0.0025242145227596436
-0.01032518852669545   -0.09450151190300242   -0.002860885593100922
-0.011770106520527217   -0.08737660409897871   -0.0024334877897998915
-0.007747270891140478   -0.09445033884042336   -0.002557896425133596
-0.010210173083542492   -0.09437649294936505   -0.0027555966334753506
-0.011770106520527217   -0.08737660409897871   -0.0024334877897998915
-0.01032518852669545   -0.09450151190300242   -0.002860885593100922
-0.007747270891140478   -0.09445033884042336   -0.002557896425133596
-0.011770106520527217   -0.08737660409897871   -0.0024334877897998915
-0.007736482121266394   -0.08748696996583194   -0.0022303328592723237
-0.007790156689542648   -0.08763218042650071   -0.002227752597878326
-0.007747270891140478   -0.09445033884042336   -0.002557896425133596
-0.011770106520527217   -0.08737660409897871   -0.0024334877897998915
-0.007790156689542648   -0.08763218042650071   -0.002227752597878326
-0.01032518852669545   -0.09450151190300242   -0.002860885593100922
-0.007747270891140478   -0.09445033884042336   -0.002557896425133596
-0.007736482121266394   -0.08748696996583194   -0.0022303328592723237
-0.010210173083542492   -0.09437649294936505   -0.0027555966334753506
-0.007627375529172194   -0.09437415109546544   -0.002554408090502947
-0.007736482121266394   -0.08748696996583194   -0.0022303328592723237
-0.011770106520527217   -0.08737660409897871   -0.0024334877897998915
-0.010210173083542492   -0.09437649294936505   -0.0027555966334753506
-0.011709722695672446   -0.08730298230347015   -0.002331996498087866
-0.007627375529172194   -0.09437415109546544   -0.002554408090502947
-0.010081097896424359   -0.09431499617968593   -0.002640073677945372
-0.011709722695672446   -0.08730298230347015   -0.002331996498087866
-0.010210173083542492   -0.09437649294936505   -0.0027555966334753506
-0.007627375529172194   -0.09437415109546544   -0.002554408090502947
-0.011709722695672446   -0.08730298230347015   -0.002331996498087866
-0.007681297094440684   -0.08739401679969634   -0.0022219123469605644
-0.007736482121266394   -0.08748696996583194   -0.0022303328592723237
-0.007627375529172194   -0.09437415109546544   -0.002554408090502947
-0.011709722695672446   -0.08730298230347015   -0.002331996498087866
-0.007736482121266394   -0.08748696996583194   -0.0022303328592723237
-0.010210173083542492   -0.09437649294936505   -0.0027555966334753506
-0.007627375529172194   -0.09437415109546544   -0.002554408090502947
-0.007681297094440684   -0.08739401679969634   -0.0022219123469605644
-0.010081097896424359   -0.09431499617968593   -0.002640073677945372
-0.007511737326985085   -0.09435944195955365   -0.0025404315713820104
-0.007681297094440684   -0.08739401679969634   -0.0022219123469605644
-0.011709722695672446   -0.08730298230347015   -0.002331996498087866
-0.010081097896424359   -0.09431499617968593   -0.002640073677945372
-0.011650974530017472   -0.08727862487648017   -0.0022200727407320447
-0.007511737326985085   -0.09435944195955365   -0.0025404315713820104
-0.00995145970762586   -0.09431087669383892   -0.002513069396925666
-0.011650974530017472   -0.08727862487648017   -0.0022200727407320447
-0.010081097896424359   -0.09431499617968593   -0.002640073677945372
-0.007511737326985085   -0.09435944195955365   -0.0025404315713820104
-0.011650974530017472   -0.08727862487648017   -0.0022200727407320447
-0.007633026480238024   -0.08735245054940574   -0.0022032191022962606
-0.007681297094440684   -0.08739401679969634   -0.0022219123469605644
-0.007511737326985085   -0.09435944195955365   -0.0025404315713820104
-0.011650974530017472   -0.08727862487648017   -0.0022200727407320447
-0.007681297094440684   -0.08739401679969634   -0.0022219123469605644
-0.010081097896424359   -0.09431499617968593   -0.002640073677945372
-0.01032518852669545   -0.09450151190300242   -0.002860885593100922
-0.011820082204431087   -0.087501907001107   -0.0025242145227596436
-0.01303061627728383   -0.09420924381607329   -0.0031454154328740924
-0.010210173083542492   -0.09437649294936505   -0.0027555966334753506
-0.011820082204431087   -0.087501907001107   -0.0025242145227596436
-0.01604363304631265   -0.08720594581671007   -0.0027875469197944196
-0.01303061627728383   -0.09420924381607329   -0.0031454154328740924
-0.01597843073941631   -0.08709967605995374   -0.0026034087655852946
-0.010210173083542492   -0.09437649294936505   -0.0027555966334753506
-0.01288990167635578   -0.09410006353920705   -0.0029304698038104204
-0.01597843073941631   -0.08709967605995374   -0.0026034087655852946
-0.01303061627728383   -0.09420924381607329   -0.0031454154328740924
-0.010210173083542492   -0.09437649294936505   -0.0027555966334753506
-0.01597843073941631   -0.08709967605995374   -0.0026034087655852946
-0.011770106520527217   -0.08737660409897871   -0.0024334877897998915
-0.011820082204431087   -0.087501907001107   -0.0025242145227596436
-0.010210173083542492   -0.09437649294936505   -0.0027555966334753506
-0.01597843073941631   -0.08709967605995374   -0.0026034087655852946
-0.011820082204431087   -0.087501907001107   -0.0025242145227596436
-0.01303061627728383   -0.09420924381607329   -0.0031454154328740924
-0.010210173083542492   -0.09437649294936505   -0.0027555966334753506
-0.011770106520527217   -0.08737660409897871   -0.0024334877897998915
-0.01288990167635578   -0.09410006353920705   -0.0029304698038104204
-0.010081097896424359   -0.09431499617968593   -0.002640073677945372
-0.011770106520527217   -0.08737660409897871   -0.0024334877897998915
-0.01597843073941631   -0.08709967605995374   -0.0026034087655852946
-0.01288990167635578   -0.09410006353920705   -0.0029304698038104204
-0.015867940300157986   -0.0870435809554705   -0.0024101563779616833
-0.010081097896424359   -0.09431499617968593   -0.002640073677945372
-0.012695698987618995   -0.09405319900413256   -0.00270603329060591
-0.015867940300157986   -0.0870435809554705   -0.0024101563779616833
-0.01288990167635578   -0.09410006353920705   -0.0029304698038104204
-0.010081097896424359   -0.09431499617968593   -0.002640073677945372
-0.015867940300157986   -0.0870435809554705   -0.0024101563779616833
-0.011709722695672446   -0.08730298230347015   -0.002331996498087866
-0.011770106520527217   -0.08737660409897871   -0.0024334877897998915
-0.010081097896424359   -0.09431499617968593   -0.002640073677945372
-0.015867940300157986   -0.0870435809554705   -0.0024101563779616833
-0.011770106520527217   -0.08737660409897871   -0.0024334877897998915
-0.01288990167635578   -0.09410006353920705   -0.0029304698038104204
-0.010081097896424359   -0.09431499617968593   -0.002640073677945372
-0.011709722695672446   -0.08730298230347015   -0.002331996498087866
-0.012695698987618995   -0.09405319900413256   -0.00270603329060591
-0.00995145970762586   -0.09431087669383892   -0.002513069396925666
-0.011709722695672446   -0.08730298230347015   -0.002331996498087866
-0.015867940300157986   -0.0870435809554705   -0.0024101563779616833
-0.012695698987618995   -0.09405319900413256   -0.00270603329060591
-0.01577809832769844   -0.08704060978931095   -0.0022049559452691973
-0.00995145970762586   -0.09431087669383892   -0.002513069396925666
-0.012526063191703   -0.09406873133232946   -0.00246583101277573
-0.01577809832769844   -0.08704060978931095   -0.0022049559452691973
-0.012695698987618995   -0.09405319900413256   -0.00270603329060591
-0.00995145970762586   -0.09431087669383892   -0.002513069396925666
-0.01577809832769844   -0.08704060978931095   -0.0022049559452691973
-0.011650974530017472   -0.08727862487648017   -0.0022200727407320447
-0.011709722695672446   -0.08730298230347015   -0.002331996498087866
-0.00995145970762586   -0.09431087669383892   -0.002513069396925666
-0.01577809832769844   -0.08704060978931095   -0.0022049559452691973
-0.011709722695672446   -0.08730298230347015   -0.002331996498087866
-0.012695698987618995   -0.09405319900413256   -0.00270603329060591
-0.01303061627728383   -0.09420924381607329   -0.0031454154328740924
-0.01604363304631265   -0.08720594581671007   -0.0027875469197944196
-0.01651467285324982   -0.09373392191522897   -0.0034181550478615446
-0.01288990167635578   -0.09410006353920705   -0.0029304698038104204
-0.01604363304631265   -0.08720594581671007   -0.0027875469197944196
-0.020969444876076125   -0.08678006244184774   -0.0030328175430704802
-0.01651467285324982   -0.09373392191522897   -0.0034181550478615446
-0.020636310110328085   -0.08666935016355237   -0.0027446546247156633
-0.01288990167635578   -0.09410006353920705   -0.0029304698038104204
-0.01606263244528812   -0.09361570502484497   -0.0030788305696159606
-0.020636310110328085   -0.08666935016355237   -0.0027446546247156633
-0.01651467285324982   -0.09373392191522897   -0.0034181550478615446
-0.01288990167635578   -0.09410006353920705   -0.0029304698038104204
-0.020636310110328085   -0.08666935016355237   -0.0027446546247156633
-0.01597843073941631   -0.08709967605995374   -0.0026034087655852946
-0.01604363304631265   -0.08720594581671007   -0.0027875469197944196
-0.01288990167635578   -0.09410006353920705   -0.0029304698038104204
-0.020636310110328085   -0.08666935016355237   -0.0027446546247156633
-0.01604363304631265   -0.08720594581671007   -0.0027875469197944196
-0.01651467285324982   -0.09373392191522897   -0.0034181550478615446
-0.01288990167635578   -0.09410006353920705   -0.0029304698038104204
-0.01597843073941631   -0.08709967605995374   -0.0026034087655852946
-0.01606263244528812   -0.09361570502484497   -0.0030788305696159606
-0.012695698987618995   -0.09405319900413256   -0.00270603329060591
-0.01597843073941631   -0.08709967605995374   -0.0026034087655852946
-0.020636310110328085   -0.08666935016355237   -0.0027446546247156633
-0.01606263244528812   -0.09361570502484497   -0.0030788305696159606
-0.02034701939208874   -0.08661801224454581   -0.002441475568516907
-0.012695698987618995   -0.09405319900413256   -0.00270603329060591
-0.015657205615187558   -0.09357235671851569   -0.0027196207980457483
-0.02034701939208874   -0.08661801224454581   -0.002441475568516907
-0.01606263244528812   -0.09361570502484497   -0.0030788305696159606
-0.012695698987618995   -0.09405319900413256   -0.00270603329060591
-0.02034701939208874   -0.08661801224454581   -0.002441475568516907
-0.015867940300157986   -0.0870435809554705   -0.0024101563779616833
-0.01597843073941631   -0.08709967605995374   -0.0026034087655852946
-0.012695698987618995   -0.09405319900413256   -0.00270603329060591
-0.02034701939208874   -0.08661801224454581   -0.002441475568516907
-0.01597843073941631   -0.08709967605995374   -0.0026034087655852946
-0.01606263244528812   -0.09361570502484497   -0.0030788305696159606
-0.012695698987618995   -0.09405319900413256   -0.00270603329060591
-0.015867940300157986   -0.0870435809554705   -0.0024101563779616833
-0.015657205615187558   -0.09357235671851569   -0.0027196207980457483
-0.012526063191703   -0.09406873133232946   -0.00246583101277573
-0.015867940300157986   -0.0870435809554705   -0.0024101563779616833
-0.02034701939208874   -0.08661801224454581   -0.002441475568516907
-0.015657205615187558   -0.09357235671851569   -0.0027196207980457483
-0.01995719954929529   -0.08664790901324884   -0.0021252144665949903
-0.012526063191703   -0.09406873133232946   -0.00246583101277573
-0.015131721708812036   -0.09362616475755309   -0.0023439483383342315
-0.01995719954929529   -0.08664790901324884   -0.0021252144665949903
-0.015657205615187558   -0.09357235671851569   -0.0027196207980457483
-0.012526063191703   -0.09406873133232946   -0.00246583101277573
-0.01995719954929529   -0.08664790901324884   -0.0021252144665949903
-0.01577809832769844   -0.08704060978931095   -0.0022049559452691973
-0.015867940300157986   -0.0870435809554705   -0.0024101563779616833
-0.012526063191703   -0.09406873133232946   -0.00246583101277573
-0.01995719954929529   -0.08664790901324884   -0.0021252144665949903
-0.015867940300157986   -0.0870435809554705   -0.0024101563779616833
-0.015657205615187558   -0.09357235671851569   -0.0027196207980457483
0.0005381750449701737   -0.0873824898830294   -0.001501015292574456
0.0031231954460988844   -0.07812992996394019   -0.001143996156440133
-0.0036956102877363974   -0.08759211353798   -0.0018993461780494303
0.000813071862395898   -0.08717971514544551   -0.0017245996236510894
0.0031231954460988844   -0.07812992996394019   -0.001143996156440133
-0.0024783806520929552   -0.07826824677655722   -0.0015241630506801
-0.0036956102877363974   -0.08759211353798   -0.0018993461780494303
-0.0024633364154304635   -0.07810005282122914   -0.0015921290390460106
0.000813071862395898   -0.08717971514544551   -0.0017245996236510894
-0.0036226564847632106   -0.08742300980468266   -0.0019975426578999573
-0.0024633364154304635   -0.07810005282122914   -0.0015921290390460106
-0.0036956102877363974   -0.08759211353798   -0.0018993461780494303
0.000813071862395898   -0.08717971514544551   -0.0017245996236510894
-0.0024633364154304635   -0.07810005282122914   -0.0015921290390460106
0.003286070786333387   -0.0779320921119069   -0.0013091258722411159
0.0031231954460988844   -0.07812992996394019   -0.001143996156440133
0.000813071862395898   -0.08717971514544551   -0.0017245996236510894
-0.0024633364154304635   -0.07810005282122914   -0.0015921290390460106
0.0031231954460988844   -0.07812992996394019   -0.001143996156440133
-0.0036956102877363974   -0.08759211353798   -0.0018993461780494303
0.000813071862395898   -0.08717971514544551   -0.0017245996236510894
0.003286070786333387   -0.0779320921119069   -0.0013091258722411159
-0.0036226564847632106   -0.08742300980468266   -0.0019975426578999573
0.0010152460057132914   -0.08706221277622925   -0.00193210928772827
0.003286070786333387   -0.0779320921119069   -0.0013091258722411159
-0.0024633364154304635   -0.07810005282122914   -0.0015921290390460106
-0.0036226564847632106   -0.08742300980468266   -0.0019975426578999573
-0.0024442214224454297   -0.07797785714143478   -0.0016496113027900247
0.0010152460057132914   -0.08706221277622925   -0.00193210928772827
-0.0035396450079906014   -0.08731228551552951   -0.0020842542656390197
-0.0024442214224454297   -0.07797785714143478   -0.0016496113027900247
-0.0036226564847632106   -0.08742300980468266   -0.0019975426578999573
0.0010152460057132914   -0.08706221277622925   -0.00193210928772827
-0.0024442214224454297   -0.07797785714143478   -0.0016496113027900247
0.0033900973224989376   -0.0778019648579176   -0.001459443209210086
0.003286070786333387   -0.0779320921119069   -0.0013091258722411159
0.0010152460057132914   -0.08706221277622925   -0.00193210928772827
-0.0024442214224454297   -0.07797785714143478   -0.0016496113027900247
0.003286070786333387   -0.0779320921119069   -0.0013091258722411159
-0.0036226564847632106   -0.08742300980468266   -0.0019975426578999573
0.0010152460057132914   -0.08706221277622925   -0.00193210928772827
0.0033900973224989376   -0.0778019648579176   -0.001459443209210086
-0.0035396450079906014   -0.08731228551552951   -0.0020842542656390197
0.0012315072902159083   -0.08700379147816738   -0.002123462834369913
0.0033900973224989376   -0.0778019648579176   -0.001459443209210086
-0.0024442214224454297   -0.07797785714143478   -0.0016496113027900247
-0.0035396450079906014   -0.08731228551552951   -0.0020842542656390197
-0.002453587548988341   -0.07789776435782496   -0.0016973750231332912
0.0012315072902159083   -0.08700379147816738   -0.002123462834369913
-0.003490023492884358   -0.08725667395617144   -0.0021606145071872956
-0.002453587548988341   -0.07789776435782496   -0.0016973750231332912
-0.0035396450079906014   -0.08731228551552951   -0.0020842542656390197
0.0012315072902159083   -0.08700379147816738   -0.002123462834369913
-0.002453587548988341   -0.07789776435782496   -0.0016973750231332912
0.003496738764411901   -0.07771440278514975   -0.00159525622386156
0.0033900973224989376   -0.0778019648579176   -0.001459443209210086
0.0012315072902159083   -0.08700379147816738   -0.002123462834369913
-0.002453587548988341   -0.07789776435782496   -0.0016973750231332912
0.0033900973224989376   -0.0778019648579176   -0.001459443209210086
-0.0035396450079906014   -0.08731228551552951   -0.0020842542656390197
-0.0036956102877363974   -0.08759211353798   -0.0018993461780494303
-0.0024783806520929552   -0.07826824677655722   -0.0015241630506801
-0.007790156689542648   -0.08763218042650071   -0.002227752597878326
-0.0036226564847632106   -0.08742300980468266   -0.0019975426578999573
-0.0024783806520929552   -0.07826824677655722   -0.0015241630506801
-0.00786771783943704   -0.07826883982354294   -0.0018379522945824749
-0.007790156689542648   -0.08763218042650071   -0.002227752597878326
-0.007868474273802906   -0.07812645256386914   -0.0018315443349091376
-0.0036226564847632106   -0.08742300980468266   -0.0019975426578999573
-0.007736482121266394   -0.08748696996583194   -0.0022303328592723237
-0.007868474273802906   -0.07812645256386914   -0.0018315443349091376
-0.007790156689542648   -0.08763218042650071   -0.002227752597878326
-0.0036226564847632106   -0.08742300980468266   -0.0019975426578999573
-0.007868474273802906   -0.07812645256386914   -0.0018315443349091376
-0.0024633364154304635   -0.07810005282122914   -0.0015921290390460106
-0.0024783806520929552   -0.07826824677655722   -0.0015241630506801
-0.0036226564847632106   -0.08742300980468266   -0.0019975426578999573
-0.007868474273802906   -0.07812645256386914   -0.0018315443349091376
-0.0024783806520929552   -0.07826824677655722   -0.0015241630506801
-0.007790156689542648   -0.08763218042650071   -0.002227752597878326
-0.0036226564847632106   -0.08742300980468266   -0.0019975426578999573
-0.0024633364154304635   -0.07810005282122914   -0.0015921290390460106
-0.007736482121266394   -0.08748696996583194   -0.0022303328592723237
-0.0035396450079906014   -0.08731228551552951   -0.0020842542656390197
-0.0024633364154304635   -0.07810005282122914   -0.0015921290390460106
-0.007868474273802906   -0.07812645256386914   -0.0018315443349091376
-0.007736482121266394   -0.08748696996583194   -0.0022303328592723237
-0.007868873392231931   -0.07802462026829113   -0.001814696639244771
-0.0035396450079906014   -0.08731228551552951   -0.0020842542656390197
-0.007681297094440684   -0.08739401679969634   -0.0022219123469605644
-0.007868873392231931   -0.07802462026829113   -0.001814696639244771
-0.007736482121266394   -0.08748696996583194   -0.0022303328592723237
-0.0035396450079906014   -0.08731228551552951   -0.0020842542656390197
-0.007868873392231931   -0.07802462026829113   -0.001814696639244771
-0.0024442214224454297   -0.07797785714143478   -0.0016496113027900247
-0.0024633364154304635   -0.07810005282122914   -0.0015921290390460106
-0.0035396450079906014   -0.08731228551552951   -0.0020842542656390197
-0.007868873392231931   -0.07802462026829113   -0.001814696639244771
-0.0024633364154304635   -0.07810005282122914   -0.0015921290390460106
-0.007736482121266394   -0.08748696996583194   -0.0022303328592723237
-0.0035396450079906014   -0.08731228551552951   -0.0020842542656390197
-0.0024442214224454297   -0.07797785714143478   -0.0016496113027900247
-0.007681297094440684   -0.08739401679969634   -0.0022219123469605644
-0.003490023492884358   -0.08725667395617144   -0.0021606145071872956
-0.0024442214224454297   -0.07797785714143478   -0.0016496113027900247
-0.007868873392231931   -0.07802462026829113   -0.001814696639244771
-0.007681297094440684   -0.08739401679969634   -0.0022219123469605644
-0.007876485451617414   -0.07796341327656847   -0.0017879466553635602
-0.003490023492884358   -0.08725667395617144   -0.0021606145071872956
-0.007633026480238024   -0.08735245054940574   -0.0022032191022962606
-0.007876485451617414   -0.07796341327656847   -0.0017879466553635602
-0.007681297094440684   -0.08739401679969634   -0.0022219123469605644
-0.003490023492884358   -0.08725667395617144   -0.0021606145071872956
-0.007876485451617414   -0.07796341327656847   -0.0017879466553635602
-0.002453587548988341   -0.07789776435782496   -0.0016973750231332912
-0.0024442214224454297   -0.07797785714143478   -0.0016496113027900247
-0.003490023492884358   -0.08725667395617144   -0.0021606145071872956
-0.007876485451617414   -0.07796341327656847   -0.0017879466553635602
-0.0024442214224454297   -0.07797785714143478   -0.0016496113027900247
-0.007681297094440684   -0.08739401679969634   -0.0022219123469605644
-0.007790156689542648   -0.08763218042650071   -0.002227752597878326
-0.00786771783943704   -0.07826883982354294   -0.0018379522945824749
-0.011820082204431087   -0.087501907001107   -0.0025242145227596436
-0.007736482121266394   -0.08748696996583194   -0.0022303328592723237
-0.00786771783943704   -0.07826883982354294   -0.0018379522945824749
-0.013165273828559965   -0.07813479709201959   -0.0021129029315821645
-0.011820082204431087   -0.087501907001107   -0.0025242145227596436
-0.013170010093273569   -0.0780151096529999   -0.0020330150095901897
-0.007736482121266394   -0.08748696996583194   -0.0022303328592723237
-0.011770106520527217   -0.08737660409897871   -0.0024334877897998915
-0.013170010093273569   -0.0780151096529999   -0.0020330150095901897
-0.011820082204431087   -0.087501907001107   -0.0025242145227596436
-0.007736482121266394   -0.08748696996583194   -0.0022303328592723237
-0.013170010093273569   -0.0780151096529999   -0.0020330150095901897
-0.007868474273802906   -0.07812645256386914   -0.0018315443349091376
-0.00786771783943704   -0.07826883982354294   -0.0018379522945824749
-0.007736482121266394   -0.08748696996583194   -0.0022303328592723237
-0.013170010093273569   -0.0780151096529999   -0.0020330150095901897
-0.00786771783943704   -0.07826883982354294   -0.0018379522945824749
-0.011820082204431087   -0.087501907001107   -0.0025242145227596436
-0.007736482121266394   -0.08748696996583194   -0.0022303328592723237
-0.007868474273802906   -0.07812645256386914   -0.0018315443349091376
-0.011770106520527217   -0.08737660409897871   -0.0024334877897998915
-0.007681297094440684   -0.08739401679969634   -0.0022219123469605644
-0.007868474273802906   -0.07812645256386914   -0.0018315443349091376
-0.013170010093273569   -0.0780151096529999   -0.0020330150095901897
-0.011770106520527217   -0.08737660409897871   -0.0024334877897998915
-0.013165711041261623   -0.07793561802123325   -0.0019428877873604417
-0.007681297094440684   -0.08739401679969634   -0.0022219123469605644
-0.011709722695672446   -0.08730298230347015   -0.002331996498087866
-0.013165711041261623   -0.07793561802123325   -0.0019428877873604417
-0.011770106520527217   -0.08737660409897871   -0.0024334877897998915
-0.007681297094440684   -0.08739401679969634   -0.0022219123469605644
-0.013165711041261623   -0.07793561802123325   -0.0019428877873604417
-0.007868873392231931   -0.07802462026829113   -0.001814696639244771
-0.007868474273802906   -0.07812645256386914   -0.0018315443349091376
-0.007681297094440684   -0.08739401679969634   -0.0022219123469605644
-0.013165711041261623   -0.07793561802123325   -0.0019428877873604417
-0.007868474273802906   -0.07812645256386914   -0.0018315443349091376
-0.011770106520527217   -0.08737660409897871   -0.0024334877897998915
-0.007681297094440684   -0.08739401679969634   -0.0022219123469605644
-0.007868873392231931   -0.07802462026829113   -0.001814696639244771
-0.011709722695672446   -0.08730298230347015   -0.002331996498087866
-0.007633026480238024   -0.08735245054940574   -0.0022032191022962606
-0.007868873392231931   -0.07802462026829113   -0.001814696639244771
-0.013165711041261623   -0.07793561802123325   -0.0019428877873604417
-0.011709722695672446   -0.08730298230347015   -0.002331996498087866
-0.013163031327377492   -0.07789561230156158   -0.0018428209060501423
-0.007633026480238024   -0.08735245054940574   -0.0022032191022962606
-0.011650974530017472   -0.08727862487648017   -0.0022200727407320447
-0.013163031327377492   -0.07789561230156158   -0.0018428209060501423
-0.011709722695672446   -0.08730298230347015   -0.002331996498087866
-0.007633026480238024   -0.08735245054940574   -0.0022032191022962606
-0.013163031327377492   -0.07789561230156158   -0.0018428209060501423
-0.007876485451617414   -0.07796341327656847   -0.0017879466553635602
-0.007868873392231931   -0.07802462026829113   -0.001814696639244771
-0.007633026480238024   -0.08735245054940574   -0.0022032191022962606
-0.013163031327377492   -0.07789561230156158   -0.0018428209060501423
-0.007868873392231931   -0.07802462026829113   -0.001814696639244771
-0.011709722695672446   -0.08730298230347015   -0.002331996498087866
-0.011820082204431087   -0.087501907001107   -0.0025242145227596436
-0.013165273828559965   -0.07813479709201959   -0.0021129029315821645
-0.01604363304631265   -0.08720594581671007   -0.0027875469197944196
-0.011770106520527217   -0.08737660409897871   -0.0024334877897998915
-0.013165273828559965   -0.07813479709201959   -0.0021129029315821645
-0.01862811416443241   -0.0778712242965897   -0.0023494935097923796
-0.01604363304631265   -0.08720594581671007   -0.0027875469197944196
-0.01862177280427163   -0.07777329743813123   -0.0021952617783795327
-0.011770106520527217   -0.08737660409897871   -0.0024334877897998915
-0.01597843073941631   -0.08709967605995374   -0.0026034087655852946
-0.01862177280427163   -0.07777329743813123   -0.0021952617783795327
-0.01604363304631265   -0.08720594581671007   -0.0027875469197944196
-0.011770106520527217   -0.08737660409897871   -0.0024334877897998915
-0.01862177280427163   -0.07777329743813123   -0.0021952617783795327
-0.013170010093273569   -0.0780151096529999   -0.0020330150095901897
-0.013165273828559965   -0.07813479709201959   -0.0021129029315821645
-0.011770106520527217   -0.08737660409897871   -0.0024334877897998915
-0.01862177280427163   -0.07777329743813123   -0.0021952617783795327
-0.013165273828559965   -0.07813479709201959   -0.0021129029315821645
-0.01604363304631265   -0.08720594581671007   -0.0027875469197944196
-0.011770106520527217   -0.08737660409897871   -0.0024334877897998915
-0.013170010093273569   -0.0780151096529999   -0.0020330150095901897
-0.01597843073941631   -0.08709967605995374   -0.0026034087655852946
-0.011709722695672446   -0.08730298230347015   -0.002331996498087866
-0.013170010093273569   -0.0780151096529999   -0.0020330150095901897
-0.01862177280427163   -0.07777329743813123   -0.0021952617783795327
-0.01597843073941631   -0.08709967605995374   -0.0026034087655852946
-0.018576095935692833   -0.07771406144309276   -0.002032332768129303
-0.011709722695672446   -0.08730298230347015   -0.002331996498087866
-0.015867940300157986   -0.0870435809554705   -0.0024101563779616833
-0.018576095935692833   -0.07771406144309276   -0.002032332768129303
-0.01597843073941631   -0.08709967605995374   -0.0026034087655852946
-0.011709722695672446   -0.08730298230347015   -0.002331996498087866
-0.018576095935692833   -0.07771406144309276   -0.002032332768129303
-0.013165711041261623   -0.07793561802123325   -0.0019428877873604417
-0.013170010093273569   -0.0780151096529999   -0.0020330150095901897
-0.011709722695672446   -0.08730298230347015   -0.002331996498087866
-0.018576095935692833   -0.07771406144309276   -0.002032332768129303
-0.013170010093273569   -0.0780151096529999   -0.0020330150095901897
-0.01597843073941631   -0.08709967605995374   -0.0026034087655852946
-0.011709722695672446   -0.08730298230347015   -0.002331996498087866
-0.013165711041261623   -0.07793561802123325   -0.0019428877873604417
-0.015867940300157986   -0.0870435809554705   -0.0024101563779616833
-0.011650974530017472   -0.08727862487648017   -0.0022200727407320447
-0.013165711041261623   -0.07793561802123325   -0.0019428877873604417
-0.018576095935692833   -0.07771406144309276   -0.002032332768129303
-0.015867940300157986   -0.0870435809554705   -0.0024101563779616833
-0.01854553658562595   -0.07769762534317627   -0.0018586677370269896
-0.011650974530017472   -0.08727862487648017   -0.0022200727407320447
-0.01577809832769844   -0.08704060978931095   -0.0022049559452691973
-0.01854553658562595   -0.07769762534317627   -0.0018586677370269896
-0.015867940300157986   -0.0870435809554705   -0.0024101563779616833
-0.011650974530017472   -0.08727862487648017   -0.0022200727407320447
-0.01854553658562595   -0.07769762534317627   -0.0018586677370269896
-0.013163031327377492   -0.07789561230156158   -0.0018428209060501423
-0.013165711041261623   -0.07793561802123325   -0.0019428877873604417
-0.011650974530017472   -0.08727862487648017   -0.0022200727407320447
-0.01854553658562595   -0.07769762534317627   -0.0018586677370269896
-0.013165711041261623   -0.07793561802123325   -0.0019428877873604417
-0.015867940300157986   -0.0870435809554705   -0.0024101563779616833
-0.01604363304631265   -0.08720594581671007   -0.0027875469197944196
-0.01862811416443241   -0.0778712242965897   -0.0023494935097923796
-0.020969444876076125   -0.08678006244184774   -0.0030328175430704802
-0.01597843073941631   -0.08709967605995374   -0.0026034087655852946
-0.01862811416443241   -0.0778712242965897   -0.0023494935097923796
-0.024729960860743104   -0.07750824204023825   -0.0025626879303760693
-0.020969444876076125   -0.08678006244184774   -0.0030328175430704802
-0.024502569839097942   -0.07741220810255846   -0.0023268331324063597
-0.01597843073941631   -0.08709967605995374   -0.0026034087655852946
-0.020636310110328085   -0.08666935016355237   -0.0027446546247156633
-0.024502569839097942   -0.07741220810255846   -0.0023268331324063597
-0.020969444876076125   -0.08678006244184774   -0.0030328175430704802
-0.01597843073941631   -0.08709967605995374   -0.0026034087655852946
-0.024502569839097942   -0.07741220810255846   -0.0023268331324063597
-0.01862177280427163   -0.07777329743813123   -0.0021952617783795327
-0.01862811416443241   -0.0778712242965897   -0.0023494935097923796
-0.01597843073941631   -0.08709967605995374   -0.0026034087655852946
-0.024502569839097942   -0.07741220810255846   -0.0023268331324063597
-0.01862811416443241   -0.0778712242965897   -0.0023494935097923796
-0.020969444876076125   -0.08678006244184774   -0.0030328175430704802
-0.01597843073941631   -0.08709967605995374   -0.0026034087655852946
-0.01862177280427163   -0.07777329743813123   -0.0021952617783795327
-0.020636310110328085   -0.08666935016355237   -0.0027446546247156633
-0.015867940300157986   -0.0870435809554705   -0.0024101563779616833
-0.01862177280427163   -0.07777329743813123   -0.0021952617783795327
-0.024502569839097942   -0.07741220810255846   -0.0023268331324063597
-0.020636310110328085   -0.08666935016355237   -0.0027446546247156633
-0.024307994388312097   -0.07736035634241806   -0.0020763698045862798
-0.015867940300157986   -0.0870435809554705   -0.0024101563779616833
-0.02034701939208874   -0.08661801224454581   -0.002441475568516907
-0.024307994388312097   -0.07736035634241806   -0.0020763698045862798
-0.020636310110328085   -0.08666935016355237   -0.0027446546247156633
-0.015867940300157986   -0.0870435809554705   -0.0024101563779616833
-0.024307994388312097   -0.07736035634241806   -0.0020763698045862798
-0.018576095935692833   -0.07771406144309276   -0.002032332768129303
-0.01862177280427163   -0.07777329743813123   -0.0021952617783795327
-0.015867940300157986   -0.0870435809554705   -0.0024101563779616833
-0.024307994388312097   -0.07736035634241806   -0.0020763698045862798
-0.01862177280427163   -0.07777329743813123   -0.0021952617783795327
-0.020636310110328085   -0.08666935016355237   -0.0027446546247156633
-0.015867940300157986   -0.0870435809554705   -0.0024101563779616833
-0.018576095935692833   -0.07771406144309276   -0.002032332768129303
-0.02034701939208874   -0.08661801224454581   -0.002441475568516907
-0.01577809832769844   -0.08704060978931095   -0.0022049559452691973
-0.018576095935692833   -0.07771406144309276   -0.002032332768129303
-0.024307994388312097   -0.07736035634241806   -0.0020763698045862798
-0.02034701939208874   -0.08661801224454581   -0.002441475568516907
-0.024027042929423113   -0.07737643115968032   -0.0018132956825418927
-0.01577809832769844   -0.08704060978931095   -0.0022049559452691973
-0.01995719954929529   -0.08664790901324884   -0.0021252144665949903
-0.024027042929423113   -0.07737643115968032   -0.0018132956825418927
-0.02034701939208874   -0.08661801224454581   -0.002441475568516907
-0.01577809832769844   -0.08704060978931095   -0.0022049559452691973
-0.024027042929423113   -0.07737643115968032   -0.0018132956825418927
-0.01854553658562595   -0.07769762534317627   -0.0018586677370269896
-0.018576095935692833   -0.07771406144309276   -0.002032332768129303
-0.01577809832769844   -0.08704060978931095   -0.0022049559452691973
-0.024027042929423113   -0.07737643115968032   -0.0018132956825418927
-0.018576095935692833   -0.07771406144309276   -0.002032332768129303
-0.02034701939208874   -0.08661801224454581   -0.002441475568516907
0.0031231954460988844   -0.07812992996394019   -0.001143996156440133
0.004901376656777147   -0.06700798661682533   -0.0007619110359349581
-0.0024783806520929552   -0.07826824677655722   -0.0015241630506801
0.003286070786333387   -0.0779320921119069   -0.0013091258722411159
0.004901376656777147   -0.06700798661682533   -0.0007619110359349581
-0.0017407210869365038   -0.06707573582538383   -0.001119606563695348
-0.0024783806520929552   -0.07826824677655722   -0.0015241630506801
-0.001772216043108445   -0.06691162172910027   -0.0011561155234007497
0.003286070786333387   -0.0779320921119069   -0.0013091258722411159
-0.0024633364154304635   -0.07810005282122914   -0.0015921290390460106
-0.001772216043108445   -0.06691162172910027   -0.0011561155234007497
-0.0024783806520929552   -0.07826824677655722   -0.0015241630506801
0.003286070786333387   -0.0779320921119069   -0.0013091258722411159
-0.001772216043108445   -0.06691162172910027   -0.0011561155234007497
0.0049652358885155885   -0.06681738608407828   -0.0008698605826362214
0.004901376656777147   -0.06700798661682533   -0.0007619110359349581
0.003286070786333387   -0.0779320921119069   -0.0013091258722411159
-0.001772216043108445   -0.06691162172910027   -0.0011561155234007497
0.004901376656777147   -0.06700798661682533   -0.0007619110359349581
-0.0024783806520929552   -0.07826824677655722   -0.0015241630506801
0.003286070786333387   -0.0779320921119069   -0.0013091258722411159
0.0049652358885155885   -0.06681738608407828   -0.0008698605826362214
-0.0024633364154304635   -0.07810005282122914   -0.0015921290390460106
0.0033900973224989376   -0.0778019648579176   -0.001459443209210086
0.0049652358885155885   -0.06681738608407828   -0.0008698605826362214
-0.001772216043108445   -0.06691162172910027   -0.0011561155234007497
-0.0024633364154304635   -0.07810005282122914   -0.0015921290390460106
-0.0018053466926568355   -0.06678154565664765   -0.0011832780410697056
0.0033900973224989376   -0.0778019648579176   -0.001459443209210086
-0.0024442214224454297   -0.07797785714143478   -0.0016496113027900247
-0.0018053466926568355   -0.06678154565664765   -0.0011832780410697056
-0.0024633364154304635   -0.07810005282122914   -0.0015921290390460106
0.0033900973224989376   -0.0778019648579176   -0.001459443209210086
-0.0018053466926568355   -0.06678154565664765   -0.0011832780410697056
0.004984289152615935   -0.06667817604169121   -0.0009640243929996969
0.0049652358885155885   -0.06681738608407828   -0.0008698605826362214
0.0033900973224989376   -0.0778019648579176   -0.001459443209210086
-0.0018053466926568355   -0.06678154565664765   -0.0011832780410697056
0.0049652358885155885   -0.06681738608407828   -0.0008698605826362214
-0.0024633364154304635   -0.07810005282122914   -0.0015921290390460106
0.0033900973224989376   -0.0778019648579176   -0.001459443209210086
0.004984289152615935   -0.06667817604169121   -0.0009640243929996969
-0.0024442214224454297   -0.07797785714143478   -0.0016496113027900247
0.003496738764411901   -0.07771440278514975   -0.00159525622386156
0.004984289152615935   -0.06667817604169121   -0.0009640243929996969
-0.0018053466926568355   -0.06678154565664765   -0.0011832780410697056
-0.0024442214224454297   -0.07797785714143478   -0.0016496113027900247
-0.0018615352017459434   -0.06668144080366356   -0.001201410844326541
0.003496738764411901   -0.07771440278514975   -0.00159525622386156
-0.002453587548988341   -0.07789776435782496   -0.0016973750231332912
-0.0018615352017459434   -0.06668144080366356   -0.001201410844326541
-0.0024442214224454297   -0.07797785714143478   -0.0016496113027900247
0.003496738764411901   -0.07771440278514975   -0.00159525622386156
-0.0018615352017459434   -0.06668144080366356   -0.001201410844326541
0.0049945959511076485   -0.0665659452471883   -0.0010450532840042177
0.004984289152615935   -0.06667817604169121   -0.0009640243929996969
0.003496738764411901   -0.07771440278514975   -0.00159525622386156
-0.0018615352017459434   -0.06668144080366356   -0.001201410844326541
0.004984289152615935   -0.06667817604169121   -0.0009640243929996969
-0.0024442214224454297   -0.07797785714143478   -0.0016496113027900247
-0.0024783806520929552   -0.07826824677655722   -0.0015241630506801
-0.0017407210869365038   -0.06707573582538383   -0.001119606563695348
-0.00786771783943704   -0.07826883982354294   -0.0018379522945824749
-0.0024633364154304635   -0.07810005282122914   -0.0015921290390460106
-0.0017407210869365038   -0.06707573582538383   -0.001119606563695348
-0.008106700047481527   -0.06704054727322906   -0.0014144619921579045
-0.00786771783943704   -0.07826883982354294   -0.0018379522945824749
-0.008150208740179797   -0.06690327541011767   -0.0013972881020536078
-0.0024633364154304635   -0.07810005282122914   -0.0015921290390460106
-0.007868474273802906   -0.07812645256386914   -0.0018315443349091376
-0.008150208740179797   -0.06690327541011767   -0.0013972881020536078
-0.00786771783943704   -0.07826883982354294   -0.0018379522945824749
-0.0024633364154304635   -0.07810005282122914   -0.0015921290390460106
-0.008150208740179797   -0.06690327541011767   -0.0013972881020536078
-0.001772216043108445   -0.06691162172910027   -0.0011561155234007497
-0.0017407210869365038   -0.06707573582538383   -0.001119606563695348
-0.0024633364154304635   -0.07810005282122914   -0.0015921290390460106
-0.008150208740179797   -0.06690327541011767   -0.0013972881020536078
-0.0017407210869365038   -0.06707573582538383   -0.001119606563695348
-0.00786771783943704   -0.07826883982354294   -0.0018379522945824749
-0.0024633364154304635   -0.07810005282122914   -0.0015921290390460106
-0.001772216043108445   -0.06691162172910027   -0.0011561155234007497
-0.007868474273802906   -0.07812645256386914   -0.0018315443349091376
-0.0024442214224454297   -0.07797785714143478   -0.0016496113027900247
-0.001772216043108445   -0.06691162172910027   -0.0011561155234007497
-0.008150208740179797   -0.06690327541011767   -0.0013972881020536078
-0.007868474273802906   -0.07812645256386914   -0.0018315443349091376
-0.008194313317247813   -0.06679518435234882   -0.0013704953481734076
-0.0024442214224454297   -0.07797785714143478   -0.0016496113027900247
-0.007868873392231931   -0.07802462026829113   -0.001814696639244771
-0.008194313317247813   -0.06679518435234882   -0.0013704953481734076
-0.007868474273802906   -0.07812645256386914   -0.0018315443349091376
-0.0024442214224454297   -0.07797785714143478   -0.0016496113027900247
-0.008194313317247813   -0.06679518435234882   -0.0013704953481734076
-0.0018053466926568355   -0.06678154565664765   -0.0011832780410697056
-0.001772216043108445   -0.06691162172910027   -0.0011561155234007497
-0.0024442214224454297   -0.07797785714143478   -0.0016496113027900247
-0.008194313317247813   -0.06679518435234882   -0.0013704953481734076
-0.001772216043108445   -0.06691162172910027   -0.0011561155234007497
-0.007868474273802906   -0.07812645256386914   -0.0018315443349091376
-0.0024442214224454297   -0.07797785714143478   -0.0016496113027900247
-0.0018053466926568355   -0.06678154565664765   -0.0011832780410697056
-0.007868873392231931   -0.07802462026829113   -0.001814696639244771
-0.002453587548988341   -0.07789776435782496   -0.0016973750231332912
-0.0018053466926568355   -0.06678154565664765   -0.0011832780410697056
-0.008194313317247813   -0.06679518435234882   -0.0013704953481734076
-0.007868873392231931   -0.07802462026829113   -0.001814696639244771
-0.008245259365966168   -0.06671677123915593   -0.0013345435868247237
-0.002453587548988341   -0.07789776435782496   -0.0016973750231332912
-0.007876485451617414   -0.07796341327656847   -0.0017879466553635602
-0.008245259365966168   -0.06671677123915593   -0.0013345435868247237
-0.007868873392231931   -0.07802462026829113   -0.001814696639244771
-0.002453587548988341   -0.07789776435782496   -0.0016973750231332912
-0.008245259365966168   -0.06671677123915593   -0.0013345435868247237
-0.0018615352017459434   -0.06668144080366356   -0.001201410844326541
-0.0018053466926568355   -0.06678154565664765   -0.0011832780410697056
-0.002453587548988341   -0.07789776435782496   -0.0016973750231332912
-0.008245259365966168   -0.06671677123915593   -0.0013345435868247237
-0.0018053466926568355   -0.06678154565664765   -0.0011832780410697056
-0.007868873392231931   -0.07802462026829113   -0.001814696639244771
-0.00786771783943704   -0.07826883982354294   -0.0018379522945824749
-0.008106700047481527   -0.06704054727322906   -0.0014144619921579045
-0.013165273828559965   -0.07813479709201959   -0.0021129029315821645
-0.007868474273802906   -0.07812645256386914   -0.0018315443349091376
-0.008106700047481527   -0.06704054727322906   -0.0014144619921579045
-0.014364896850902288   -0.06690870887100069   -0.0016668968852035619
-0.013165273828559965   -0.07813479709201959   -0.0021129029315821645
-0.014411799407255562   -0.0667958517099166   -0.0015962919525169125
-0.007868474273802906   -0.07812645256386914   -0.0018315443349091376
-0.013170010093273569   -0.0780151096529999   -0.0020330150095901897
-0.014411799407255562   -0.0667958517099166   -0.0015962919525169125
-0.013165273828559965   -0.07813479709201959   -0.0021129029315821645
-0.007868474273802906   -0.07812645256386914   -0.0018315443349091376
-0.014411799407255562   -0.0667958517099166   -0.0015962919525169125
-0.008150208740179797   -0.06690327541011767   -0.0013972881020536078
-0.008106700047481527   -0.06704054727322906   -0.0014144619921579045
-0.007868474273802906   -0.07812645256386914   -0.0018315443349091376
-0.014411799407255562   -0.0667958517099166   -0.0015962919525169125
-0.008106700047481527   -0.06704054727322906   -0.0014144619921579045
-0.013165273828559965   -0.07813479709201959   -0.0021129029315821645
-0.007868474273802906   -0.07812645256386914   -0.0018315443349091376
-0.008150208740179797   -0.06690327541011767   -0.0013972881020536078
-0.013170010093273569   -0.0780151096529999   -0.0020330150095901897
-0.007868873392231931   -0.07802462026829113   -0.001814696639244771
-0.008150208740179797   -0.06690327541011767   -0.0013972881020536078
-0.014411799407255562   -0.0667958517099166   -0.0015962919525169125
-0.013170010093273569   -0.0780151096529999   -0.0020330150095901897
-0.014450685885396277   -0.06671189603128776   -0.0015162364097316397
-0.007868873392231931   -0.07802462026829113   -0.001814696639244771
-0.013165711041261623   -0.07793561802123325   -0.0019428877873604417
-0.014450685885396277   -0.06671189603128776   -0.0015162364097316397
-0.013170010093273569   -0.0780151096529999   -0.0020330150095901897
-0.007868873392231931   -0.07802462026829113   -0.001814696639244771
-0.014450685885396277   -0.06671189603128776   -0.0015162364097316397
-0.008194313317247813   -0.06679518435234882   -0.0013704953481734076
-0.008150208740179797   -0.06690327541011767   -0.0013972881020536078
-0.007868873392231931   -0.07802462026829113   -0.001814696639244771
-0.014450685885396277   -0.06671189603128776   -0.0015162364097316397
-0.008150208740179797   -0.06690327541011767   -0.0013972881020536078
-0.013170010093273569   -0.0780151096529999   -0.0020330150095901897
-0.007868873392231931   -0.07802462026829113   -0.001814696639244771
-0.008194313317247813   -0.06679518435234882   -0.0013704953481734076
-0.013165711041261623   -0.07793561802123325   -0.0019428877873604417
-0.007876485451617414   -0.07796341327656847   -0.0017879466553635602
-0.008194313317247813   -0.06679518435234882   -0.0013704953481734076
-0.014450685885396277   -0.06671189603128776   -0.0015162364097316397
-0.013165711041261623   -0.07793561802123325   -0.0019428877873604417
-0.014490694060383539   -0.06665672217763244   -0.001427009738232095
-0.007876485451617414   -0.07796341327656847   -0.0017879466553635602
-0.013163031327377492   -0.07789561230156158   -0.0018428209060501423
-0.014490694060383539   -0.06665672217763244   -0.001427009738232095
-0.013165711041261623   -0.07793561802123325   -0.0019428877873604417
-0.007876485451617414   -0.07796341327656847   -0.0017879466553635602
-0.014490694060383539   -0.06665672217763244   -0.001427009738232095
-0.008245259365966168   -0.06671677123915593   -0.0013345435868247237
-0.008194313317247813   -0.06679518435234882   -0.0013704953481734076
-0.007876485451617414   -0.07796341327656847   -0.0017879466553635602
-0.014490694060383539   -0.06665672217763244   -0.001427009738232095
-0.008194313317247813   -0.06679518435234882   -0.0013704953481734076
-0.013165711041261623   -0.07793561802123325   -0.0019428877873604417
-0.013165273828559965   -0.07813479709201959   -0.0021129029315821645
-0.014364896850902288   -0.06690870887100069   -0.0016668968852035619
-0.01862811416443241   -0.0778712242965897   -0.0023494935097923796
-0.013170010093273569   -0.0780151096529999   -0.0020330150095901897
-0.014364896850902288   -0.06690870887100069   -0.0016668968852035619
-0.020771966443054554   -0.06668286393537158   -0.0018778401749587658
-0.01862811416443241   -0.0778712242965897   -0.0023494935097923796
-0.02081084084693226   -0.06659387411722709   -0.0017530805877502666
-0.013170010093273569   -0.0780151096529999   -0.0020330150095901897
-0.01862177280427163   -0.07777329743813123   -0.0021952617783795327
-0.02081084084693226   -0.06659387411722709   -0.0017530805877502666
-0.01862811416443241   -0.0778712242965897   -0.0023494935097923796
-0.013170010093273569   -0.0780151096529999   -0.0020330150095901897
-0.02081084084693226   -0.06659387411722709   -0.0017530805877502666
-0.014411799407255562   -0.0667958517099166   -0.0015962919525169125
-0.014364896850902288   -0.06690870887100069   -0.0016668968852035619
-0.013170010093273569   -0.0780151096529999   -0.0020330150095901897
-0.02081084084693226   -0.06659387411722709   -0.0017530805877502666
-0.014364896850902288   -0.06690870887100069   -0.0016668968852035619
-0.01862811416443241   -0.0778712242965897   -0.0023494935097923796
-0.013170010093273569   -0.0780151096529999   -0.0020330150095901897
-0.014411799407255562   -0.0667958517099166   -0.0015962919525169125
-0.01862177280427163   -0.07777329743813123   -0.0021952617783795327
-0.013165711041261623   -0.07793561802123325   -0.0019428877873604417
-0.014411799407255562   -0.0667958517099166   -0.0015962919525169125
-0.02081084084693226   -0.06659387411722709   -0.0017530805877502666
-0.01862177280427163   -0.07777329743813123   -0.0021952617783795327
-0.020816065109956115   -0.0665319846636774   -0.001620178763397969
-0.013165711041261623   -0.07793561802123325   -0.0019428877873604417
-0.018576095935692833   -0.07771406144309276   -0.002032332768129303
-0.020816065109956115   -0.0665319846636774   -0.001620178763397969
-0.01862177280427163   -0.07777329743813123   -0.0021952617783795327
-0.013165711041261623   -0.07793561802123325   -0.0019428877873604417
-0.020816065109956115   -0.0665319846636774   -0.001620178763397969
-0.014450685885396277   -0.06671189603128776   -0.0015162364097316397
-0.014411799407255562   -0.0667958517099166   -0.0015962919525169125
-0.013165711041261623   -0.07793561802123325   -0.0019428877873604417
-0.020816065109956115   -0.0665319846636774   -0.001620178763397969
-0.014411799407255562   -0.0667958517099166   -0.0015962919525169125
-0.01862177280427163   -0.07777329743813123   -0.0021952617783795327
-0.013165711041261623   -0.07793561802123325   -0.0019428877873604417
-0.014450685885396277   -0.06671189603128776   -0.0015162364097316397
-0.018576095935692833   -0.07771406144309276   -0.002032332768129303
-0.013163031327377492   -0.07789561230156158   -0.0018428209060501423
-0.014450685885396277   -0.06671189603128776   -0.0015162364097316397
-0.020816065109956115   -0.0665319846636774   -0.001620178763397969
-0.018576095935692833   -0.07771406144309276   -0.002032332768129303
-0.02083078392910174   -0.06650146008056115   -0.0014774122921564132
-0.013163031327377492   -0.07789561230156158   -0.0018428209060501423
-0.01854553658562595   -0.07769762534317627   -0.0018586677370269896
-0.02083078392910174   -0.06650146008056115   -0.0014774122921564132
-0.018576095935692833   -0.07771406144309276   -0.002032332768129303
-0.013163031327377492   -0.07789561230156158   -0.0018428209060501423
-0.02083078392910174   -0.06650146008056115   -0.0014774122921564132
-0.014490694060383539   -0.06665672217763244   -0.001427009738232095
-0.014450685885396277   -0.06671189603128776   -0.0015162364097316397
-0.013163031327377492   -0.07789561230156158   -0.0018428209060501423
-0.02083078392910174   -0.06650146008056115   -0.0014774122921564132
-0.014450685885396277   -0.06671189603128776   -0.0015162364097316397
-0.018576095935692833   -0.07771406144309276   -0.002032332768129303
-0.01862811416443241   -0.0778712242965897   -0.0023494935097923796
-0.020771966443054554   -0.06668286393537158   -0.0018778401749587658
-0.024729960860743104   -0.07750824204023825   -0.0025626879303760693
-0.01862177280427163   -0.07777329743813123   -0.0021952617783795327
-0.020771966443054554   -0.06668286393537158   -0.0018778401749587658
-0.027758353953834053   -0.06638689055889793   -0.0020580209250753243
-0.024729960860743104   -0.07750824204023825   -0.0025626879303760693
-0.027625443271980108   -0.06630560494069893   -0.001876084965356759
-0.01862177280427163   -0.07777329743813123   -0.0021952617783795327
-0.024502569839097942   -0.07741220810255846   -0.0023268331324063597
-0.027625443271980108   -0.06630560494069893   -0.001876084965356759
-0.024729960860743104   -0.07750824204023825   -0.0025626879303760693
-0.01862177280427163   -0.07777329743813123   -0.0021952617783795327
-0.027625443271980108   -0.06630560494069893   -0.001876084965356759
-0.02081084084693226   -0.06659387411722709   -0.0017530805877502666
-0.020771966443054554   -0.06668286393537158   -0.0018778401749587658
-0.01862177280427163   -0.07777329743813123   -0.0021952617783795327
-0.027625443271980108   -0.06630560494069893   -0.001876084965356759
-0.020771966443054554   -0.06668286393537158   -0.0018778401749587658
-0.024729960860743104   -0.07750824204023825   -0.0025626879303760693
-0.01862177280427163   -0.07777329743813123   -0.0021952617783795327
-0.02081084084693226   -0.06659387411722709   -0.0017530805877502666
-0.024502569839097942   -0.07741220810255846   -0.0023268331324063597
-0.018576095935692833   -0.07771406144309276   -0.002032332768129303
-0.02081084084693226   -0.06659387411722709   -0.0017530805877502666
-0.027625443271980108   -0.06630560494069893   -0.001876084965356759
-0.024502569839097942   -0.07741220810255846   -0.0023268331324063597
-0.027513339929685625   -0.06625306601122137   -0.0016799389495860443
-0.018576095935692833   -0.07771406144309276   -0.002032332768129303
-0.024307994388312097   -0.07736035634241806   -0.0020763698045862798
-0.027513339929685625   -0.06625306601122137   -0.0016799389495860443
-0.024502569839097942   -0.07741220810255846   -0.0023268331324063597
-0.018576095935692833   -0.07771406144309276   -0.002032332768129303
-0.027513339929685625   -0.06625306601122137   -0.0016799389495860443
-0.020816065109956115   -0.0665319846636774   -0.001620178763397969
-0.02081084084693226   -0.06659387411722709   -0.0017530805877502666
-0.018576095935692833   -0.07771406144309276   -0.002032332768129303
-0.027513339929685625   -0.06625306601122137   -0.0016799389495860443
-0.02081084084693226   -0.06659387411722709   -0.0017530805877502666
-0.024502569839097942   -0.07741220810255846   -0.0023268331324063597
-0.018576095935692833   -0.07771406144309276   -0.002032332768129303
-0.020816065109956115   -0.0665319846636774   -0.001620178763397969
-0.024307994388312097   -0.07736035634241806   -0.0020763698045862798
-0.01854553658562595   -0.07769762534317627   -0.0018586677370269896
-0.020816065109956115   -0.0665319846636774   -0.001620178763397969
-0.027513339929685625   -0.06625306601122137   -0.0016799389495860443
-0.024307994388312097   -0.07736035634241806   -0.0020763698045862798
-0.027328090549430577   -0.06625386761086946   -0.0014713525350566535
-0.01854553658562595   -0.07769762534317627   -0.0018586677370269896
-0.024027042929423113   -0.07737643115968032   -0.0018132956825418927
-0.027328090549430577   -0.06625386761086946   -0.0014713525350566535
-0.024307994388312097   -0.07736035634241806   -0.0020763698045862798
-0.01854553658562595   -0.07769762534317627   -0.0018586677370269896
-0.027328090549430577   -0.06625386761086946   -0.0014713525350566535
-0.02083078392910174   -0.06650146008056115   -0.0014774122921564132
-0.020816065109956115   -0.0665319846636774   -0.001620178763397969
-0.01854553658562595   -0.07769762534317627   -0.0018586677370269896
-0.027328090549430577   -0.06625386761086946   -0.0014713525350566535
-0.020816065109956115   -0.0665319846636774   -0.001620178763397969
-0.024307994388312097   -0.07736035634241806   -0.0020763698045862798
0.004901376656777147   -0.06700798661682533   -0.0007619110359349581
0.005885689330483143   -0.05453438875650023   -0.00038760491063766526
-0.0017407210869365038   -0.06707573582538383   -0.001119606563695348
0.0049652358885155885   -0.06681738608407828   -0.0008698605826362214
0.005885689330483143   -0.05453438875650023   -0.00038760491063766526
-0.0014845817750411415   -0.05453238318465736   -0.0007194020656826538
-0.0017407210869365038   -0.06707573582538383   -0.001119606563695348
-0.0015508358590121379   -0.05437359847711804   -0.000724097255660518
0.0049652358885155885   -0.06681738608407828   -0.0008698605826362214
-0.001772216043108445   -0.06691162172910027   -0.0011561155234007497
-0.0015508358590121379   -0.05437359847711804   -0.000724097255660518
-0.0017407210869365038   -0.06707573582538383   -0.001119606563695348
0.0049652358885155885   -0.06681738608407828   -0.0008698605826362214
-0.0015508358590121379   -0.05437359847711804   -0.000724097255660518
0.005863667594427616   -0.05435188885144911   -0.00043908974091750957
0.005885689330483143   -0.05453438875650023   -0.00038760491063766526
0.0049652358885155885   -0.06681738608407828   -0.0008698605826362214
-0.0015508358590121379   -0.05437359847711804   -0.000724097255660518
0.005885689330483143   -0.05453438875650023   -0.00038760491063766526
-0.0017407210869365038   -0.06707573582538383   -0.001119606563695348
0.0049652358885155885   -0.06681738608407828   -0.0008698605826362214
0.005863667594427616   -0.05435188885144911   -0.00043908974091750957
-0.001772216043108445   -0.06691162172910027   -0.0011561155234007497
0.004984289152615935   -0.06667817604169121   -0.0009640243929996969
0.005863667594427616   -0.05435188885144911   -0.00043908974091750957
-0.0015508358590121379   -0.05437359847711804   -0.000724097255660518
-0.001772216043108445   -0.06691162172910027   -0.0011561155234007497
-0.0016244499140095673   -0.054236701613963795   -0.0007205173453460517
0.004984289152615935   -0.06667817604169121   -0.0009640243929996969
-0.0018053466926568355   -0.06678154565664765   -0.0011832780410697056
-0.0016244499140095673   -0.054236701613963795   -0.0007205173453460517
-0.001772216043108445   -0.06691162172910027   -0.0011561155234007497
0.004984289152615935   -0.06667817604169121   -0.0009640243929996969
-0.0016244499140095673   -0.054236701613963795   -0.0007205173453460517
0.005810036005261238   -0.05420474372977948   -0.0004773111379572861
0.005863667594427616   -0.05435188885144911   -0.00043908974091750957
0.004984289152615935   -0.06667817604169121   -0.0009640243929996969
-0.0016244499140095673   -0.054236701613963795   -0.0007205173453460517
0.005863667594427616   -0.05435188885144911   -0.00043908974091750957
-0.001772216043108445   -0.06691162172910027   -0.0011561155234007497
0.004984289152615935   -0.06667817604169121   -0.0009640243929996969
0.005810036005261238   -0.05420474372977948   -0.0004773111379572861
-0.0018053466926568355   -0.06678154565664765   -0.0011832780410697056
0.0049945959511076485   -0.0665659452471883   -0.0010450532840042177
0.005810036005261238   -0.05420474372977948   -0.0004773111379572861
-0.0016244499140095673   -0.054236701613963795   -0.0007205173453460517
-0.0018053466926568355   -0.06678154565664765   -0.0011832780410697056
-0.0017157005013139948   -0.054118164855319735   -0.0007083361051354679
0.0049945959511076485   -0.0665659452471883   -0.0010450532840042177
-0.0018615352017459434   -0.06668144080366356   -0.001201410844326541
-0.0017157005013139948   -0.054118164855319735   -0.0007083361051354679
-0.0018053466926568355   -0.06678154565664765   -0.0011832780410697056
0.0049945959511076485   -0.0665659452471883   -0.0010450532840042177
-0.0017157005013139948   -0.054118164855319735   -0.0007083361051354679
0.005735271375523989   -0.05406909231365939   -0.0005031952298343117
0.005810036005261238   -0.05420474372977948   -0.0004773111379572861
0.0049945959511076485   -0.0665659452471883   -0.0010450532840042177
-0.0017157005013139948   -0.054118164855319735   -0.0007083361051354679
0.005810036005261238   -0.05420474372977948   -0.0004773111379572861
-0.0018053466926568355   -0.06678154565664765   -0.0011832780410697056
-0.0017407210869365038   -0.06707573582538383   -0.001119606563695348
-0.0014845817750411415   -0.05453238318465736   -0.0007194020656826538
-0.008106700047481527   -0.06704054727322906   -0.0014144619921579045
-0.001772216043108445   -0.06691162172910027   -0.0011561155234007497
-0.0014845817750411415   -0.05453238318465736   -0.0007194020656826538
-0.00851416794167906   -0.05446565726557602   -0.0009935877651781173
-0.008106700047481527   -0.06704054727322906   -0.0014144619921579045
-0.008588197455067519   -0.05433370177093748   -0.0009647667383945927
-0.001772216043108445   -0.06691162172910027   -0.0011561155234007497
-0.008150208740179797   -0.06690327541011767   -0.0013972881020536078
-0.008588197455067519   -0.05433370177093748   -0.0009647667383945927
-0.008106700047481527   -0.06704054727322906   -0.0014144619921579045
-0.001772216043108445   -0.06691162172910027   -0.0011561155234007497
-0.008588197455067519   -0.05433370177093748   -0.0009647667383945927
-0.0015508358590121379   -0.05437359847711804   -0.000724097255660518
-0.0014845817750411415   -0.05453238318465736   -0.0007194020656826538
-0.001772216043108445   -0.06691162172910027   -0.0011561155234007497
-0.008588197455067519   -0.05433370177093748   -0.0009647667383945927
-0.0014845817750411415   -0.05453238318465736   -0.0007194020656826538
-0.008106700047481527   -0.06704054727322906   -0.0014144619921579045
-0.001772216043108445   -0.06691162172910027   -0.0011561155234007497
-0.0015508358590121379   -0.05437359847711804   -0.000724097255660518
-0.008150208740179797   -0.06690327541011767   -0.0013972881020536078
-0.0018053466926568355   -0.06678154565664765   -0.0011832780410697056
-0.0015508358590121379   -0.05437359847711804   -0.000724097255660518
-0.008588197455067519   -0.05433370177093748   -0.0009647667383945927
-0.008150208740179797   -0.06690327541011767   -0.0013972881020536078
-0.008663708119138892   -0.05421956537674773   -0.0009273292191846721
-0.0018053466926568355   -0.06678154565664765   -0.0011832780410697056
-0.008194313317247813   -0.06679518435234882   -0.0013704953481734076
-0.008663708119138892   -0.05421956537674773   -0.0009273292191846721
-0.008150208740179797   -0.06690327541011767   -0.0013972881020536078
-0.0018053466926568355   -0.06678154565664765   -0.0011832780410697056
-0.008663708119138892   -0.05421956537674773   -0.0009273292191846721
-0.0016244499140095673   -0.054236701613963795   -0.0007205173453460517
-0.0015508358590121379   -0.05437359847711804   -0.000724097255660518
-0.0018053466926568355   -0.06678154565664765   -0.0011832780410697056
-0.008663708119138892   -0.05421956537674773   -0.0009273292191846721
-0.0015508358590121379   -0.05437359847711804   -0.000724097255660518
-0.008150208740179797   -0.06690327541011767   -0.0013972881020536078
-0.0018053466926568355   -0.06678154565664765   -0.0011832780410697056
-0.0016244499140095673   -0.054236701613963795   -0.0007205173453460517
-0.008194313317247813   -0.06679518435234882   -0.0013704953481734076
-0.0018615352017459434   -0.06668144080366356   -0.001201410844326541
-0.0016244499140095673   -0.054236701613963795   -0.0007205173453460517
-0.008663708119138892   -0.05421956537674773   -0.0009273292191846721
-0.008194313317247813   -0.06679518435234882   -0.0013704953481734076
-0.008745584873558998   -0.054124315888286964   -0.0008816754137533234
-0.0018615352017459434   -0.06668144080366356   -0.001201410844326541
-0.008245259365966168   -0.06671677123915593   -0.0013345435868247237
-0.008745584873558998   -0.054124315888286964   -0.0008816754137533234
-0.008194313317247813   -0.06679518435234882   -0.0013704953481734076
-0.0018615352017459434   -0.06668144080366356   -0.001201410844326541
-0.008745584873558998   -0.054124315888286964   -0.0008816754137533234
-0.0017157005013139948   -0.054118164855319735   -0.0007083361051354679
-0.0016244499140095673   -0.054236701613963795   -0.0007205173453460517
-0.0018615352017459434   -0.06668144080366356   -0.001201410844326541
-0.008745584873558998   -0.054124315888286964   -0.0008816754137533234
-0.0016244499140095673   -0.054236701613963795   -0.0007205173453460517
-0.008194313317247813   -0.06679518435234882   -0.0013704953481734076
-0.008106700047481527   -0.06704054727322906   -0.0014144619921579045
-0.00851416794167906   -0.05446565726557602   -0.0009935877651781173
-0.014364896850902288   -0.06690870887100069   -0.0016668968852035619
-0.008150208740179797   -0.06690327541011767   -0.0013972881020536078
-0.00851416794167906   -0.05446565726557602   -0.0009935877651781173
-0.015424876839433839   -0.05434144929210851   -0.0012250966274996837
-0.014364896850902288   -0.06690870887100069   -0.0016668968852035619
-0.015501050999687105   -0.054234251697211217   -0.0011628085199604696
-0.008150208740179797   -0.06690327541011767   -0.0013972881020536078
-0.014411799407255562   -0.0667958517099166   -0.0015962919525169125
-0.015501050999687105   -0.054234251697211217   -0.0011628085199604696
-0.014364896850902288   -0.06690870887100069   -0.0016668968852035619
-0.008150208740179797   -0.06690327541011767   -0.0013972881020536078
-0.015501050999687105   -0.054234251697211217   -0.0011628085199604696
-0.008588197455067519   -0.05433370177093748   -0.0009647667383945927
-0.00851416794167906   -0.05446565726557602   -0.0009935877651781173
-0.008150208740179797   -0.06690327541011767   -0.0013972881020536078
-0.015501050999687105   -0.054234251697211217   -0.0011628085199604696
-0.00851416794167906   -0.05446565726557602   -0.0009935877651781173
-0.014364896850902288   -0.06690870887100069   -0.0016668968852035619
-0.008150208740179797   -0.06690327541011767   -0.0013972881020536078
-0.008588197455067519   -0.05433370177093748   -0.0009647667383945927
-0.014411799407255562   -0.0667958517099166   -0.0015962919525169125
-0.008194313317247813   -0.06679518435234882   -0.0013704953481734076
-0.008588197455067519   -0.05433370177093748   -0.0009647667383945927
-0.015501050999687105   -0.054234251697211217   -0.0011628085199604696
-0.014411799407255562   -0.0667958517099166   -0.0015962919525169125
-0.01557017377644702   -0.05414474711997253   -0.001092103515584166
-0.008194313317247813   -0.06679518435234882   -0.0013704953481734076
-0.014450685885396277   -0.06671189603128776   -0.0015162364097316397
-0.01557017377644702   -0.05414474711997253   -0.001092103515584166
-0.014411799407255562   -0.0667958517099166   -0.0015962919525169125
-0.008194313317247813   -0.06679518435234882   -0.0013704953481734076
-0.01557017377644702   -0.05414474711997253   -0.001092103515584166
-0.008663708119138892   -0.05421956537674773   -0.0009273292191846721
-0.008588197455067519   -0.05433370177093748   -0.0009647667383945927
-0.008194313317247813   -0.06679518435234882   -0.0013704953481734076
-0.01557017377644702   -0.05414474711997253   -0.001092103515584166
-0.008588197455067519   -0.05433370177093748   -0.0009647667383945927
-0.014411799407255562   -0.0667958517099166   -0.0015962919525169125
-0.008194313317247813   -0.06679518435234882   -0.0013704953481734076
-0.008663708119138892   -0.05421956537674773   -0.0009273292191846721
-0.014450685885396277   -0.06671189603128776   -0.0015162364097316397
-0.008245259365966168   -0.06671677123915593   -0.0013345435868247237
-0.008663708119138892   -0.05421956537674773   -0.0009273292191846721
-0.01557017377644702   -0.05414474711997253   -0.001092103515584166
-0.014450685885396277   -0.06671189603128776   -0.0015162364097316397
-0.015639949392307832   -0.05407308945031892   -0.0010133040076416892
-0.008245259365966168   -0.06671677123915593   -0.0013345435868247237
-0.014490694060383539   -0.06665672217763244   -0.001427009738232095
-0.015639949392307832   -0.05407308945031892   -0.0010133040076416892
-0.014450685885396277   -0.06671189603128776   -0.0015162364097316397
-0.008245259365966168   -0.06671677123915593   -0.0013345435868247237
-0.015639949392307832   -0.05407308945031892   -0.0010133040076416892
-0.008745584873558998   -0.054124315888286964   -0.0008816754137533234
-0.008663708119138892   -0.05421956537674773   -0.0009273292191846721
-0.008245259365966168   -0.06671677123915593   -0.0013345435868247237
-0.015639949392307832   -0.05407308945031892   -0.0010133040076416892
-0.008663708119138892   -0.05421956537674773   -0.0009273292191846721
-0.014450685885396277   -0.06671189603128776   -0.0015162364097316397
-0.014364896850902288   -0.06690870887100069   -0.0016668968852035619
-0.015424876839433839   -0.05434144929210851   -0.0012250966274996837
-0.020771966443054554   -0.06668286393537158   -0.0018778401749587658
-0.014411799407255562   -0.0667958517099166   -0.0015962919525169125
-0.015424876839433839   -0.05434144929210851   -0.0012250966274996837
-0.0224723737475562   -0.05415711106206466   -0.0014144256942397924
-0.020771966443054554   -0.06668286393537158   -0.0018778401749587658
-0.022543139170793612   -0.05407489247930935   -0.0013184167022960575
-0.014411799407255562   -0.0667958517099166   -0.0015962919525169125
-0.02081084084693226   -0.06659387411722709   -0.0017530805877502666
-0.022543139170793612   -0.05407489247930935   -0.0013184167022960575
-0.020771966443054554   -0.06668286393537158   -0.0018778401749587658
-0.014411799407255562   -0.0667958517099166   -0.0015962919525169125
-0.022543139170793612   -0.05407489247930935   -0.0013184167022960575
-0.015501050999687105   -0.054234251697211217   -0.0011628085199604696
-0.015424876839433839   -0.05434144929210851   -0.0012250966274996837
-0.014411799407255562   -0.0667958517099166   -0.0015962919525169125
-0.022543139170793612   -0.05407489247930935   -0.0013184167022960575
-0.015424876839433839   -0.05434144929210851   -0.0012250966274996837
-0.020771966443054554   -0.06668286393537158   -0.0018778401749587658
-0.014411799407255562   -0.0667958517099166   -0.0015962919525169125
-0.015501050999687105   -0.054234251697211217   -0.0011628085199604696
-0.02081084084693226   -0.06659387411722709   -0.0017530805877502666
-0.014450685885396277   -0.06671189603128776   -0.0015162364097316397
-0.015501050999687105   -0.054234251697211217   -0.0011628085199604696
-0.022543139170793612   -0.05407489247930935   -0.0013184167022960575
-0.02081084084693226   -0.06659387411722709   -0.0017530805877502666
-0.02258614874584693   -0.054008081480892076   -0.0012151298465575974
-0.014450685885396277   -0.06671189603128776   -0.0015162364097316397
-0.020816065109956115   -0.0665319846636774   -0.001620178763397969
-0.02258614874584693   -0.054008081480892076   -0.0012151298465575974
-0.02081084084693226   -0.06659387411722709   -0.0017530805877502666
-0.014450685885396277   -0.06671189603128776   -0.0015162364097316397
-0.02258614874584693   -0.054008081480892076   -0.0012151298465575974
-0.01557017377644702   -0.05414474711997253   -0.001092103515584166
-0.015501050999687105   -0.054234251697211217   -0.0011628085199604696
-0.014450685885396277   -0.06671189603128776   -0.0015162364097316397
-0.02258614874584693   -0.054008081480892076   -0.0012151298465575974
-0.015501050999687105   -0.054234251697211217   -0.0011628085199604696
-0.02081084084693226   -0.06659387411722709   -0.0017530805877502666
-0.014450685885396277   -0.06671189603128776   -0.0015162364097316397
-0.01557017377644702   -0.05414474711997253   -0.001092103515584166
-0.020816065109956115   -0.0665319846636774   -0.001620178763397969
-0.014490694060383539   -0.06665672217763244   -0.001427009738232095
-0.01557017377644702   -0.05414474711997253   -0.001092103515584166
-0.02258614874584693   -0.054008081480892076   -0.0012151298465575974
-0.020816065109956115   -0.0665319846636774   -0.001620178763397969
-0.02263331395558446   -0.05396065808646809   -0.0011030587670607086
-0.014490694060383539   -0.06665672217763244   -0.001427009738232095
-0.02083078392910174   -0.06650146008056115   -0.0014774122921564132
-0.02263331395558446   -0.05396065808646809   -0.0011030587670607086
-0.020816065109956115   -0.0665319846636774   -0.001620178763397969
-0.014490694060383539   -0.06665672217763244   -0.001427009738232095
-0.02263331395558446   -0.05396065808646809   -0.0011030587670607086
-0.015639949392307832   -0.05407308945031892   -0.0010133040076416892
-0.01557017377644702   -0.05414474711997253   -0.001092103515584166
-0.014490694060383539   -0.06665672217763244   -0.001427009738232095
-0.02263331395558446   -0.05396065808646809   -0.0011030587670607086
-0.01557017377644702   -0.05414474711997253   -0.001092103515584166
-0.020816065109956115   -0.0665319846636774   -0.001620178763397969
-0.020771966443054554   -0.06668286393537158   -0.0018778401749587658
-0.0224723737475562   -0.05415711106206466   -0.0014144256942397924
-0.027758353953834053   -0.06638689055889793   -0.0020580209250753243
-0.02081084084693226   -0.06659387411722709   -0.0017530805877502666
-0.0224723737475562   -0.05415711106206466   -0.0014144256942397924
-0.030035441921427253   -0.05393059063645565   -0.0015650846097945155
-0.027758353953834053   -0.06638689055889793   -0.0020580209250753243
-0.029984247955226355   -0.05386120472925693   -0.0014373364114593837
-0.02081084084693226   -0.06659387411722709   -0.0017530805877502666
-0.027625443271980108   -0.06630560494069893   -0.001876084965356759
-0.029984247955226355   -0.05386120472925693   -0.0014373364114593837
-0.027758353953834053   -0.06638689055889793   -0.0020580209250753243
-0.02081084084693226   -0.06659387411722709   -0.0017530805877502666
-0.029984247955226355   -0.05386120472925693   -0.0014373364114593837
-0.022543139170793612   -0.05407489247930935   -0.0013184167022960575
-0.0224723737475562   -0.05415711106206466   -0.0014144256942397924
-0.02081084084693226   -0.06659387411722709   -0.0017530805877502666
-0.029984247955226355   -0.05386120472925693   -0.0014373364114593837
-0.0224723737475562   -0.05415711106206466   -0.0014144256942397924
-0.027758353953834053   -0.06638689055889793   -0.0020580209250753243
-0.02081084084693226   -0.06659387411722709   -0.0017530805877502666
-0.022543139170793612   -0.05407489247930935   -0.0013184167022960575
-0.027625443271980108   -0.06630560494069893   -0.001876084965356759
-0.020816065109956115   -0.0665319846636774   -0.001620178763397969
-0.022543139170793612   -0.05407489247930935   -0.0013184167022960575
-0.029984247955226355   -0.05386120472925693   -0.0014373364114593837
-0.027625443271980108   -0.06630560494069893   -0.001876084965356759
-0.02994254046121782   -0.05380508144005576   -0.001296234294719214
-0.020816065109956115   -0.0665319846636774   -0.001620178763397969
-0.027513339929685625   -0.06625306601122137   -0.0016799389495860443
-0.02994254046121782   -0.05380508144005576   -0.001296234294719214
-0.027625443271980108   -0.06630560494069893   -0.001876084965356759
-0.020816065109956115   -0.0665319846636774   -0.001620178763397969
-0.02994254046121782   -0.05380508144005576   -0.001296234294719214
-0.02258614874584693   -0.054008081480892076   -0.0012151298465575974
-0.022543139170793612   -0.05407489247930935   -0.0013184167022960575
-0.020816065109956115   -0.0665319846636774   -0.001620178763397969
-0.02994254046121782   -0.05380508144005576   -0.001296234294719214
-0.022543139170793612   -0.05407489247930935   -0.0013184167022960575
-0.027625443271980108   -0.06630560494069893   -0.001876084965356759
-0.020816065109956115   -0.0665319846636774   -0.001620178763397969
-0.02258614874584693   -0.054008081480892076   -0.0012151298465575974
-0.027513339929685625   -0.06625306601122137   -0.0016799389495860443
-0.02083078392910174   -0.06650146008056115   -0.0014774122921564132
-0.02258614874584693   -0.054008081480892076   -0.0012151298465575974
-0.02994254046121782   -0.05380508144005576   -0.001296234294719214
-0.027513339929685625   -0.06625306601122137   -0.0016799389495860443
-0.029841586843032897   -0.053786671713047754   -0.0011433024191359754
-0.02083078392910174   -0.06650146008056115   -0.0014774122921564132
-0.027328090549430577   -0.06625386761086946   -0.0014713525350566535
-0.029841586843032897   -0.053786671713047754   -0.0011433024191359754
-0.027513339929685625   -0.06625306601122137   -0.0016799389495860443
-0.02083078392910174   -0.06650146008056115   -0.0014774122921564132
-0.029841586843032897   -0.053786671713047754   -0.0011433024191359754
-0.02263331395558446   -0.05396065808646809   -0.0011030587670607086
-0.02258614874584693   -0.054008081480892076   -0.0012151298465575974
-0.02083078392910174   -0.06650146008056115   -0.0014774122921564132
-0.029841586843032897   -0.053786671713047754   -0.0011433024191359754
-0.02258614874584693   -0.054008081480892076   -0.0012151298465575974
-0.027513339929685625   -0.06625306601122137   -0.0016799389495860443
0.005885689330483143   -0.05453438875650023   -0.00038760491063766526
0.006077506864645429   -0.04120515392699229   -5.969104873162979e-05
-0.0014845817750411415   -0.05453238318465736   -0.0007194020656826538
0.005863667594427616   -0.05435188885144911   -0.00043908974091750957
0.006077506864645429   -0.04120515392699229   -5.969104873162979e-05
-0.0017078138826384078   -0.04113625852856292   -0.0003582010285388308
-0.0014845817750411415   -0.05453238318465736   -0.0007194020656826538
-0.0017986021399761928   -0.040984225422709845   -0.0003311369277573873
0.005863667594427616   -0.05435188885144911   -0.00043908974091750957
-0.0015508358590121379   -0.05437359847711804   -0.000724097255660518
-0.0017986021399761928   -0.040984225422709845   -0.0003311369277573873
-0.0014845817750411415   -0.05453238318465736   -0.0007194020656826538
0.005863667594427616   -0.05435188885144911   -0.00043908974091750957
-0.0017986021399761928   -0.040984225422709845   -0.0003311369277573873
0.005980749610689617   -0.04103100095976866   -5.379657111133229e-05
0.006077506864645429   -0.04120515392699229   -5.969104873162979e-05
0.005863667594427616   -0.05435188885144911   -0.00043908974091750957
-0.0017986021399761928   -0.040984225422709845   -0.0003311369277573873
0.006077506864645429   -0.04120515392699229   -5.969104873162979e-05
-0.0014845817750411415   -0.05453238318465736   -0.0007194020656826538
0.005863667594427616   -0.05435188885144911   -0.00043908974091750957
0.005980749610689617   -0.04103100095976866   -5.379657111133229e-05
-0.0015508358590121379   -0.05437359847711804   -0.000724097255660518
0.005810036005261238   -0.05420474372977948   -0.0004773111379572861
0.005980749610689617   -0.04103100095976866   -5.379657111133229e-05
-0.0017986021399761928   -0.040984225422709845   -0.0003311369277573873
-0.0015508358590121379   -0.05437359847711804   -0.000724097255660518
-0.001902509763029803   -0.04084056780546938   -0.00029658081995043736
0.005810036005261238   -0.05420474372977948   -0.0004773111379572861
-0.0016244499140095673   -0.054236701613963795   -0.0007205173453460517
-0.001902509763029803   -0.04084056780546938   -0.00029658081995043736
-0.0015508358590121379   -0.05437359847711804   -0.000724097255660518
0.005810036005261238   -0.05420474372977948   -0.0004773111379572861
-0.001902509763029803   -0.04084056780546938   -0.00029658081995043736
0.005862303215608435   -0.040875133817268254   -3.258604667968919e-05
0.005980749610689617   -0.04103100095976866   -5.379657111133229e-05
0.005810036005261238   -0.05420474372977948   -0.0004773111379572861
-0.001902509763029803   -0.04084056780546938   -0.00029658081995043736
0.005980749610689617   -0.04103100095976866   -5.379657111133229e-05
-0.0015508358590121379   -0.05437359847711804   -0.000724097255660518
0.005810036005261238   -0.05420474372977948   -0.0004773111379572861
0.005862303215608435   -0.040875133817268254   -3.258604667968919e-05
-0.0016244499140095673   -0.054236701613963795   -0.0007205173453460517
0.005735271375523989   -0.05406909231365939   -0.0005031952298343117
0.005862303215608435   -0.040875133817268254   -3.258604667968919e-05
-0.001902509763029803   -0.04084056780546938   -0.00029658081995043736
-0.0016244499140095673   -0.054236701613963795   -0.0007205173453460517
-0.002019054858576437   -0.04070332805627295   -0.00025265312021003483
0.005735271375523989   -0.05406909231365939   -0.0005031952298343117
-0.0017157005013139948   -0.054118164855319735   -0.0007083361051354679
-0.002019054858576437   -0.04070332805627295   -0.00025265312021003483
-0.0016244499140095673   -0.054236701613963795   -0.0007205173453460517
0.005735271375523989   -0.05406909231365939   -0.0005031952298343117
-0.002019054858576437   -0.04070332805627295   -0.00025265312021003483
0.005706252983800436   -0.040711965889246776   3.2450309344593723e-06
0.005862303215608435   -0.040875133817268254   -3.258604667968919e-05
0.005735271375523989   -0.05406909231365939   -0.0005031952298343117
-0.002019054858576437   -0.04070332805627295   -0.00025265312021003483
0.005862303215608435   -0.040875133817268254   -3.258604667968919e-05
-0.0016244499140095673   -0.054236701613963795   -0.0007205173453460517
-0.0014845817750411415   -0.05453238318465736   -0.0007194020656826538
-0.0017078138826384078   -0.04113625852856292   -0.0003582010285388308
-0.00851416794167906   -0.05446565726557602   -0.0009935877651781173
-0.0015508358590121379   -0.05437359847711804   -0.000724097255660518
-0.0017078138826384078   -0.04113625852856292   -0.0003582010285388308
-0.00908491189422879   -0.04105639897256053   -0.0006111817548745451
-0.00851416794167906   -0.05446565726557602   -0.0009935877651781173
-0.009177414586155954   -0.04092908607743113   -0.0005699982108478424
-0.0015508358590121379   -0.05437359847711804   -0.000724097255660518
-0.008588197455067519   -0.05433370177093748   -0.0009647667383945927
-0.009177414586155954   -0.04092908607743113   -0.0005699982108478424
-0.00851416794167906   -0.05446565726557602   -0.0009935877651781173
-0.0015508358590121379   -0.05437359847711804   -0.000724097255660518
-0.009177414586155954   -0.04092908607743113   -0.0005699982108478424
-0.0017986021399761928   -0.040984225422709845   -0.0003311369277573873
-0.0017078138826384078   -0.04113625852856292   -0.0003582010285388308
-0.0015508358590121379   -0.05437359847711804   -0.000724097255660518
-0.009177414586155954   -0.04092908607743113   -0.0005699982108478424
-0.0017078138826384078   -0.04113625852856292   -0.0003582010285388308
-0.00851416794167906   -0.05446565726557602   -0.0009935877651781173
-0.0015508358590121379   -0.05437359847711804   -0.000724097255660518
-0.0017986021399761928   -0.040984225422709845   -0.0003311369277573873
-0.008588197455067519   -0.05433370177093748   -0.0009647667383945927
-0.0016244499140095673   -0.054236701613963795   -0.0007205173453460517
-0.0017986021399761928   -0.040984225422709845   -0.0003311369277573873
-0.009177414586155954   -0.04092908607743113   -0.0005699982108478424
-0.008588197455067519   -0.05433370177093748   -0.0009647667383945927
-0.009271975072165092   -0.04080827807508751   -0.0005216814495812651
-0.0016244499140095673   -0.054236701613963795   -0.0007205173453460517
-0.008663708119138892   -0.05421956537674773   -0.0009273292191846721
-0.009271975072165092   -0.04080827807508751   -0.0005216814495812651
-0.008588197455067519   -0.05433370177093748   -0.0009647667383945927
-0.0016244499140095673   -0.054236701613963795   -0.0007205173453460517
-0.009271975072165092   -0.04080827807508751   -0.0005216814495812651
-0.001902509763029803   -0.04084056780546938   -0.00029658081995043736
-0.0017986021399761928   -0.040984225422709845   -0.0003311369277573873
-0.0016244499140095673   -0.054236701613963795   -0.0007205173453460517
-0.009271975072165092   -0.04080827807508751   -0.0005216814495812651
-0.0017986021399761928   -0.040984225422709845   -0.0003311369277573873
-0.008588197455067519   -0.05433370177093748   -0.0009647667383945927
-0.0016244499140095673   -0.054236701613963795   -0.0007205173453460517
-0.001902509763029803   -0.04084056780546938   -0.00029658081995043736
-0.008663708119138892   -0.05421956537674773   -0.0009273292191846721
-0.0017157005013139948   -0.054118164855319735   -0.0007083361051354679
-0.001902509763029803   -0.04084056780546938   -0.00029658081995043736
-0.009271975072165092   -0.04080827807508751   -0.0005216814495812651
-0.008663708119138892   -0.05421956537674773   -0.0009273292191846721
-0.009372527531561778   -0.04069582567279694   -0.0004661493337548311
-0.0017157005013139948   -0.054118164855319735   -0.0007083361051354679
-0.008745584873558998   -0.054124315888286964   -0.0008816754137533234
-0.009372527531561778   -0.04069582567279694   -0.0004661493337548311
-0.008663708119138892   -0.05421956537674773   -0.0009273292191846721
-0.0017157005013139948   -0.054118164855319735   -0.0007083361051354679
-0.009372527531561778   -0.04069582567279694   -0.0004661493337548311
-0.002019054858576437   -0.04070332805627295   -0.00025265312021003483
-0.001902509763029803   -0.04084056780546938   -0.00029658081995043736
-0.0017157005013139948   -0.054118164855319735   -0.0007083361051354679
-0.009372527531561778   -0.04069582567279694   -0.0004661493337548311
-0.001902509763029803   -0.04084056780546938   -0.00029658081995043736
-0.008663708119138892   -0.05421956537674773   -0.0009273292191846721
-0.00851416794167906   -0.05446565726557602   -0.0009935877651781173
-0.00908491189422879   -0.04105639897256053   -0.0006111817548745451
-0.015424876839433839   -0.05434144929210851   -0.0012250966274996837
-0.008588197455067519   -0.05433370177093748   -0.0009647667383945927
-0.00908491189422879   -0.04105639897256053   -0.0006111817548745451
-0.016342226271614732   -0.04096083359261498   -0.0008262344595368608
-0.015424876839433839   -0.05434144929210851   -0.0012250966274996837
-0.016434015732628236   -0.04085645308510237   -0.0007709241206084204
-0.008588197455067519   -0.05433370177093748   -0.0009647667383945927
-0.015501050999687105   -0.054234251697211217   -0.0011628085199604696
-0.016434015732628236   -0.04085645308510237   -0.0007709241206084204
-0.015424876839433839   -0.05434144929210851   -0.0012250966274996837
-0.008588197455067519   -0.05433370177093748   -0.0009647667383945927
-0.016434015732628236   -0.04085645308510237   -0.0007709241206084204
-0.009177414586155954   -0.04092908607743113   -0.0005699982108478424
-0.00908491189422879   -0.04105639897256053   -0.0006111817548745451
-0.008588197455067519   -0.05433370177093748   -0.0009647667383945927
-0.016434015732628236   -0.04085645308510237   -0.0007709241206084204
-0.00908491189422879   -0.04105639897256053   -0.0006111817548745451
-0.015424876839433839   -0.05434144929210851   -0.0012250966274996837
-0.008588197455067519   -0.05433370177093748   -0.0009647667383945927
-0.009177414586155954   -0.04092908607743113   -0.0005699982108478424
-0.015501050999687105   -0.054234251697211217   -0.0011628085199604696
-0.008663708119138892   -0.05421956537674773   -0.0009273292191846721
-0.009177414586155954   -0.04092908607743113   -0.0005699982108478424
-0.016434015732628236   -0.04085645308510237   -0.0007709241206084204
-0.015501050999687105   -0.054234251697211217   -0.0011628085199604696
-0.016519878871297265   -0.04075895488418667   -0.0007087247669141717
-0.008663708119138892   -0.05421956537674773   -0.0009273292191846721
-0.01557017377644702   -0.05414474711997253   -0.001092103515584166
-0.016519878871297265   -0.04075895488418667   -0.0007087247669141717
-0.015501050999687105   -0.054234251697211217   -0.0011628085199604696
-0.008663708119138892   -0.05421956537674773   -0.0009273292191846721
-0.016519878871297265   -0.04075895488418667   -0.0007087247669141717
-0.009271975072165092   -0.04080827807508751   -0.0005216814495812651
-0.009177414586155954   -0.04092908607743113   -0.0005699982108478424
-0.008663708119138892   -0.05421956537674773   -0.0009273292191846721
-0.016519878871297265   -0.04075895488418667   -0.0007087247669141717
-0.009177414586155954   -0.04092908607743113   -0.0005699982108478424
-0.015501050999687105   -0.054234251697211217   -0.0011628085199604696
-0.008663708119138892   -0.05421956537674773   -0.0009273292191846721
-0.009271975072165092   -0.04080827807508751   -0.0005216814495812651
-0.01557017377644702   -0.05414474711997253   -0.001092103515584166
-0.008745584873558998   -0.054124315888286964   -0.0008816754137533234
-0.009271975072165092   -0.04080827807508751   -0.0005216814495812651
-0.016519878871297265   -0.04075895488418667   -0.0007087247669141717
-0.01557017377644702   -0.05414474711997253   -0.001092103515584166
-0.01660604873008345   -0.040668612250379765   -0.0006399791226558175
-0.008745584873558998   -0.054124315888286964   -0.0008816754137533234
-0.015639949392307832   -0.05407308945031892   -0.0010133040076416892
-0.01660604873008345   -0.040668612250379765   -0.0006399791226558175
-0.01557017377644702   -0.05414474711997253   -0.001092103515584166
-0.008745584873558998   -0.054124315888286964   -0.0008816754137533234
-0.01660604873008345   -0.040668612250379765   -0.0006399791226558175
-0.009372527531561778   -0.04069582567279694   -0.0004661493337548311
-0.009271975072165092   -0.04080827807508751   -0.0005216814495812651
-0.008745584873558998   -0.054124315888286964   -0.0008816754137533234
-0.01660604873008345   -0.040668612250379765   -0.0006399791226558175
-0.009271975072165092   -0.04080827807508751   -0.0005216814495812651
-0.01557017377644702   -0.05414474711997253   -0.001092103515584166
-0.015424876839433839   -0.05434144929210851   -0.0012250966274996837
-0.016342226271614732   -0.04096083359261498   -0.0008262344595368608
-0.0224723737475562   -0.05415711106206466   -0.0014144256942397924
-0.015501050999687105   -0.054234251697211217   -0.0011628085199604696
-0.016342226271614732   -0.04096083359261498   -0.0008262344595368608
-0.02373048816597423   -0.040831769475313924   -0.0010015245535242043
-0.0224723737475562   -0.05415711106206466   -0.0014144256942397924
-0.02381840469778077   -0.04075151872267465   -0.0009322544237051309
-0.015501050999687105   -0.054234251697211217   -0.0011628085199604696
-0.022543139170793612   -0.05407489247930935   -0.0013184167022960575
-0.02381840469778077   -0.04075151872267465   -0.0009322544237051309
-0.0224723737475562   -0.05415711106206466   -0.0014144256942397924
-0.015501050999687105   -0.054234251697211217   -0.0011628085199604696
-0.02381840469778077   -0.04075151872267465   -0.0009322544237051309
-0.016434015732628236   -0.04085645308510237   -0.0007709241206084204
-0.016342226271614732   -0.04096083359261498   -0.0008262344595368608
-0.015501050999687105   -0.054234251697211217   -0.0011628085199604696
-0.02381840469778077   -0.04075151872267465   -0.0009322544237051309
-0.016342226271614732   -0.04096083359261498   -0.0008262344595368608
-0.0224723737475562   -0.05415711106206466   -0.0014144256942397924
-0.015501050999687105   -0.054234251697211217   -0.0011628085199604696
-0.016434015732628236   -0.04085645308510237   -0.0007709241206084204
-0.022543139170793612   -0.05407489247930935   -0.0013184167022960575
-0.01557017377644702   -0.05414474711997253   -0.001092103515584166
-0.016434015732628236   -0.04085645308510237   -0.0007709241206084204
-0.02381840469778077   -0.04075151872267465   -0.0009322544237051309
-0.022543139170793612   -0.05407489247930935   -0.0013184167022960575
-0.02388515549417089   -0.04067547440008926   -0.0008572392588835016
-0.01557017377644702   -0.05414474711997253   -0.001092103515584166
-0.02258614874584693   -0.054008081480892076   -0.0012151298465575974
-0.02388515549417089   -0.04067547440008926   -0.0008572392588835016
-0.022543139170793612   -0.05407489247930935   -0.0013184167022960575
-0.01557017377644702   -0.05414474711997253   -0.001092103515584166
-0.02388515549417089   -0.04067547440008926   -0.0008572392588835016
-0.016519878871297265   -0.04075895488418667   -0.0007087247669141717
-0.016434015732628236   -0.04085645308510237   -0.0007709241206084204
-0.01557017377644702   -0.05414474711997253   -0.001092103515584166
-0.02388515549417089   -0.04067547440008926   -0.0008572392588835016
-0.016434015732628236   -0.04085645308510237   -0.0007709241206084204
-0.022543139170793612   -0.05407489247930935   -0.0013184167022960575
-0.01557017377644702   -0.05414474711997253   -0.001092103515584166
-0.016519878871297265   -0.04075895488418667   -0.0007087247669141717
-0.02258614874584693   -0.054008081480892076   -0.0012151298465575974
-0.015639949392307832   -0.05407308945031892   -0.0010133040076416892
-0.016519878871297265   -0.04075895488418667   -0.0007087247669141717
-0.02388515549417089   -0.04067547440008926   -0.0008572392588835016
-0.02258614874584693   -0.054008081480892076   -0.0012151298465575974
-0.02395136248814721   -0.04060697329700965   -0.0007749739707821867
-0.015639949392307832   -0.05407308945031892   -0.0010133040076416892
-0.02263331395558446   -0.05396065808646809   -0.0011030587670607086
-0.02395136248814721   -0.04060697329700965   -0.0007749739707821867
-0.02258614874584693   -0.054008081480892076   -0.0012151298465575974
-0.015639949392307832   -0.05407308945031892   -0.0010133040076416892
-0.02395136248814721   -0.04060697329700965   -0.0007749739707821867
-0.01660604873008345   -0.040668612250379765   -0.0006399791226558175
-0.016519878871297265   -0.04075895488418667   -0.0007087247669141717
-0.015639949392307832   -0.05407308945031892   -0.0010133040076416892
-0.02395136248814721   -0.04060697329700965   -0.0007749739707821867
-0.016519878871297265   -0.04075895488418667   -0.0007087247669141717
-0.02258614874584693   -0.054008081480892076   -0.0012151298465575974
-0.0224723737475562   -0.05415711106206466   -0.0014144256942397924
-0.02373048816597423   -0.040831769475313924   -0.0010015245535242043
-0.030035441921427253   -0.05393059063645565   -0.0015650846097945155
-0.022543139170793612   -0.05407489247930935   -0.0013184167022960575
-0.02373048816597423   -0.040831769475313924   -0.0010015245535242043
-0.03156003829053648   -0.040679511372238776   -0.001131864568791721
-0.030035441921427253   -0.05393059063645565   -0.0015650846097945155
-0.031574058164140606   -0.04061532067168384   -0.0010555195458577268
-0.022543139170793612   -0.05407489247930935   -0.0013184167022960575
-0.029984247955226355   -0.05386120472925693   -0.0014373364114593837
-0.031574058164140606   -0.04061532067168384   -0.0010555195458577268
-0.030035441921427253   -0.05393059063645565   -0.0015650846097945155
-0.022543139170793612   -0.05407489247930935   -0.0013184167022960575
-0.031574058164140606   -0.04061532067168384   -0.0010555195458577268
-0.02381840469778077   -0.04075151872267465   -0.0009322544237051309
-0.02373048816597423   -0.040831769475313924   -0.0010015245535242043
-0.022543139170793612   -0.05407489247930935   -0.0013184167022960575
-0.031574058164140606   -0.04061532067168384   -0.0010555195458577268
-0.02373048816597423   -0.040831769475313924   -0.0010015245535242043
-0.030035441921427253   -0.05393059063645565   -0.0015650846097945155
-0.022543139170793612   -0.05407489247930935   -0.0013184167022960575
-0.02381840469778077   -0.04075151872267465   -0.0009322544237051309
-0.029984247955226355   -0.05386120472925693   -0.0014373364114593837
-0.02258614874584693   -0.054008081480892076   -0.0012151298465575974
-0.02381840469778077   -0.04075151872267465   -0.0009322544237051309
-0.031574058164140606   -0.04061532067168384   -0.0010555195458577268
-0.029984247955226355   -0.05386120472925693   -0.0014373364114593837
-0.03158836917173034   -0.04055029295831984   -0.0009675992118670638
-0.02258614874584693   -0.054008081480892076   -0.0012151298465575974
-0.02994254046121782   -0.05380508144005576   -0.001296234294719214
-0.03158836917173034   -0.04055029295831984   -0.0009675992118670638
-0.029984247955226355   -0.05386120472925693   -0.0014373364114593837
-0.02258614874584693   -0.054008081480892076   -0.0012151298465575974
-0.03158836917173034   -0.04055029295831984   -0.0009675992118670638
-0.02388515549417089   -0.04067547440008926   -0.0008572392588835016
-0.02381840469778077   -0.04075151872267465   -0.0009322544237051309
-0.02258614874584693   -0.054008081480892076   -0.0012151298465575974
-0.03158836917173034   -0.04055029295831984   -0.0009675992118670638
-0.02381840469778077   -0.04075151872267465   -0.0009322544237051309
-0.029984247955226355   -0.05386120472925693   -0.0014373364114593837
-0.02258614874584693   -0.054008081480892076   -0.0012151298465575974
-0.02388515549417089   -0.04067547440008926   -0.0008572392588835016
-0.02994254046121782   -0.05380508144005576   -0.001296234294719214
-0.02263331395558446   -0.05396065808646809   -0.0011030587670607086
-0.02388515549417089   -0.04067547440008926   -0.0008572392588835016
-0.03158836917173034   -0.04055029295831984   -0.0009675992118670638
-0.02994254046121782   -0.05380508144005576   -0.001296234294719214
-0.031558811390120324   -0.0405070251498396   -0.0008694814386282304
-0.02263331395558446   -0.05396065808646809   -0.0011030587670607086
-0.029841586843032897   -0.053786671713047754   -0.0011433024191359754
-0.031558811390120324   -0.0405070251498396   -0.0008694814386282304
-0.02994254046121782   -0.05380508144005576   -0.001296234294719214
-0.02263331395558446   -0.05396065808646809   -0.0011030587670607086
-0.031558811390120324   -0.0405070251498396   -0.0008694814386282304
-0.02395136248814721   -0.04060697329700965   -0.0007749739707821867
-0.02388515549417089   -0.04067547440008926   -0.0008572392588835016
-0.02263331395558446   -0.05396065808646809   -0.0011030587670607086
-0.031558811390120324   -0.0405070251498396   -0.0008694814386282304
-0.02388515549417089   -0.04067547440008926   -0.0008572392588835016
-0.02994254046121782   -0.05380508144005576   -0.001296234294719214
0.006077506864645429   -0.04120515392699229   -5.969104873162979e-05
0.005443432770397707   -0.027485567277257407   0.00016657689135380848
-0.0017078138826384078   -0.04113625852856292   -0.0003582010285388308
0.005980749610689617   -0.04103100095976866   -5.379657111133229e-05
0.005443432770397707   -0.027485567277257407   0.00016657689135380848
-0.0023968935458057723   -0.027355912845775147   -7.103436466122317e-05
-0.0017078138826384078   -0.04113625852856292   -0.0003582010285388308
-0.0025051855650478614   -0.02721817577654916   -1.4793944749024707e-05
0.005980749610689617   -0.04103100095976866   -5.379657111133229e-05
-0.0017986021399761928   -0.040984225422709845   -0.0003311369277573873
-0.0025051855650478614   -0.02721817577654916   -1.4793944749024707e-05
-0.0017078138826384078   -0.04113625852856292   -0.0003582010285388308
0.005980749610689617   -0.04103100095976866   -5.379657111133229e-05
-0.0025051855650478614   -0.02721817577654916   -1.4793944749024707e-05
0.005272583426016473   -0.02731956499941208   0.0002368183190969437
0.005443432770397707   -0.027485567277257407   0.00016657689135380848
0.005980749610689617   -0.04103100095976866   -5.379657111133229e-05
-0.0025051855650478614   -0.02721817577654916   -1.4793944749024707e-05
0.005443432770397707   -0.027485567277257407   0.00016657689135380848
-0.0017078138826384078   -0.04113625852856292   -0.0003582010285388308
0.005980749610689617   -0.04103100095976866   -5.379657111133229e-05
0.005272583426016473   -0.02731956499941208   0.0002368183190969437
-0.0017986021399761928   -0.040984225422709845   -0.0003311369277573873
0.005862303215608435   -0.040875133817268254   -3.258604667968919e-05
0.005272583426016473   -0.02731956499941208   0.0002368183190969437
-0.0025051855650478614   -0.02721817577654916   -1.4793944749024707e-05
-0.0017986021399761928   -0.040984225422709845   -0.0003311369277573873
-0.0026318197147913243   -0.027072744559133156   5.141390497041648e-05
0.005862303215608435   -0.040875133817268254   -3.258604667968919e-05
-0.001902509763029803   -0.04084056780546938   -0.00029658081995043736
-0.0026318197147913243   -0.027072744559133156   5.141390497041648e-05
-0.0017986021399761928   -0.040984225422709845   -0.0003311369277573873
0.005862303215608435   -0.040875133817268254   -3.258604667968919e-05
-0.0026318197147913243   -0.027072744559133156   5.141390497041648e-05
0.005082125966073349   -0.027154556875765807   0.0003374891884922902
0.005272583426016473   -0.02731956499941208   0.0002368183190969437
0.005862303215608435   -0.040875133817268254   -3.258604667968919e-05
-0.0026318197147913243   -0.027072744559133156   5.141390497041648e-05
0.005272583426016473   -0.02731956499941208   0.0002368183190969437
-0.0017986021399761928   -0.040984225422709845   -0.0003311369277573873
0.005862303215608435   -0.040875133817268254   -3.258604667968919e-05
0.005082125966073349   -0.027154556875765807   0.0003374891884922902
-0.001902509763029803   -0.04084056780546938   -0.00029658081995043736
0.005706252983800436   -0.040711965889246776   3.2450309344593723e-06
0.005082125966073349   -0.027154556875765807   0.0003374891884922902
-0.0026318197147913243   -0.027072744559133156   5.141390497041648e-05
-0.001902509763029803   -0.04084056780546938   -0.00029658081995043736
-0.0027627503184029134   -0.026918271861980647   0.00012744837440060351
0.005706252983800436   -0.040711965889246776   3.2450309344593723e-06
-0.002019054858576437   -0.04070332805627295   -0.00025265312021003483
-0.0027627503184029134   -0.026918271861980647   0.00012744837440060351
-0.001902509763029803   -0.04084056780546938   -0.00029658081995043736
0.005706252983800436   -0.040711965889246776   3.2450309344593723e-06
-0.0027627503184029134   -0.026918271861980647   0.00012744837440060351
0.004849435600312448   -0.02695191239756344   0.00044822611057565966
0.005082125966073349   -0.027154556875765807   0.0003374891884922902
0.005706252983800436   -0.040711965889246776   3.2450309344593723e-06
-0.0027627503184029134   -0.026918271861980647   0.00012744837440060351
0.005082125966073349   -0.027154556875765807   0.0003374891884922902
-0.001902509763029803   -0.04084056780546938   -0.00029658081995043736
-0.0017078138826384078   -0.04113625852856292   -0.0003582010285388308
-0.0023968935458057723   -0.027355912845775147   -7.103436466122317e-05
-0.00908491189422879   -0.04105639897256053   -0.0006111817548745451
-0.0017986021399761928   -0.040984225422709845   -0.0003311369277573873
-0.0023968935458057723   -0.027355912845775147   -7.103436466122317e-05
-0.0097807352119494   -0.027322377197011822   -0.0003002333620644127
-0.00908491189422879   -0.04105639897256053   -0.0006111817548745451
-0.009878531377600006   -0.027202031959361744   -0.00024802365272649036
-0.0017986021399761928   -0.040984225422709845   -0.0003311369277573873
-0.009177414586155954   -0.04092908607743113   -0.0005699982108478424
-0.009878531377600006   -0.027202031959361744   -0.00024802365272649036
-0.00908491189422879   -0.04105639897256053   -0.0006111817548745451
-0.0017986021399761928   -0.040984225422709845   -0.0003311369277573873
-0.009878531377600006   -0.027202031959361744   -0.00024802365272649036
-0.0025051855650478614   -0.02721817577654916   -1.4793944749024707e-05
-0.0023968935458057723   -0.027355912845775147   -7.103436466122317e-05
-0.0017986021399761928   -0.040984225422709845   -0.0003311369277573873
-0.009878531377600006   -0.027202031959361744   -0.00024802365272649036
-0.0023968935458057723   -0.027355912845775147   -7.103436466122317e-05
-0.00908491189422879   -0.04105639897256053   -0.0006111817548745451
-0.0017986021399761928   -0.040984225422709845   -0.0003311369277573873
-0.0025051855650478614   -0.02721817577654916   -1.4793944749024707e-05
-0.009177414586155954   -0.04092908607743113   -0.0005699982108478424
-0.001902509763029803   -0.04084056780546938   -0.00029658081995043736
-0.0025051855650478614   -0.02721817577654916   -1.4793944749024707e-05
-0.009878531377600006   -0.027202031959361744   -0.00024802365272649036
-0.009177414586155954   -0.04092908607743113   -0.0005699982108478424
-0.009979673556936278   -0.027076826258592302   -0.0001906569360333641
-0.001902509763029803   -0.04084056780546938   -0.00029658081995043736
-0.009271975072165092   -0.04080827807508751   -0.0005216814495812651
-0.009979673556936278   -0.027076826258592302   -0.0001906569360333641
-0.009177414586155954   -0.04092908607743113   -0.0005699982108478424
-0.001902509763029803   -0.04084056780546938   -0.00029658081995043736
-0.009979673556936278   -0.027076826258592302   -0.0001906569360333641
-0.0026318197147913243   -0.027072744559133156   5.141390497041648e-05
-0.0025051855650478614   -0.02721817577654916   -1.4793944749024707e-05
-0.001902509763029803   -0.04084056780546938   -0.00029658081995043736
-0.009979673556936278   -0.027076826258592302   -0.0001906569360333641
-0.0025051855650478614   -0.02721817577654916   -1.4793944749024707e-05
-0.009177414586155954   -0.04092908607743113   -0.0005699982108478424
-0.001902509763029803   -0.04084056780546938   -0.00029658081995043736
-0.0026318197147913243   -0.027072744559133156   5.141390497041648e-05
-0.009271975072165092   -0.04080827807508751   -0.0005216814495812651
-0.002019054858576437   -0.04070332805627295   -0.00025265312021003483
-0.0026318197147913243   -0.027072744559133156   5.141390497041648e-05
-0.009979673556936278   -0.027076826258592302   -0.0001906569360333641
-0.009271975072165092   -0.04080827807508751   -0.0005216814495812651
-0.01008494748224252   -0.02694896755237994   -0.00012709735685728803
-0.002019054858576437   -0.04070332805627295   -0.00025265312021003483
-0.009372527531561778   -0.04069582567279694   -0.0004661493337548311
-0.01008494748224252   -0.02694896755237994   -0.00012709735685728803
-0.009271975072165092   -0.04080827807508751   -0.0005216814495812651
-0.002019054858576437   -0.04070332805627295   -0.00025265312021003483
-0.01008494748224252   -0.02694896755237994   -0.00012709735685728803
-0.0027627503184029134   -0.026918271861980647   0.00012744837440060351
-0.0026318197147913243   -0.027072744559133156   5.141390497041648e-05
-0.002019054858576437   -0.04070332805627295   -0.00025265312021003483
-0.01008494748224252   -0.02694896755237994   -0.00012709735685728803
-0.0026318197147913243   -0.027072744559133156   5.141390497041648e-05
-0.009271975072165092   -0.04080827807508751   -0.0005216814495812651
-0.00908491189422879   -0.04105639897256053   -0.0006111817548745451
-0.0097807352119494   -0.027322377197011822   -0.0003002333620644127
-0.016342226271614732   -0.04096083359261498   -0.0008262344595368608
-0.009177414586155954   -0.04092908607743113   -0.0005699982108478424
-0.0097807352119494   -0.027322377197011822   -0.0003002333620644127
-0.017089429461873428   -0.027313081111453655   -0.0005075106927935864
-0.016342226271614732   -0.04096083359261498   -0.0008262344595368608
-0.01718287740692569   -0.027207463047381853   -0.0004578045082069124
-0.009177414586155954   -0.04092908607743113   -0.0005699982108478424
-0.016434015732628236   -0.04085645308510237   -0.0007709241206084204
-0.01718287740692569   -0.027207463047381853   -0.0004578045082069124
-0.016342226271614732   -0.04096083359261498   -0.0008262344595368608
-0.009177414586155954   -0.04092908607743113   -0.0005699982108478424
-0.01718287740692569   -0.027207463047381853   -0.0004578045082069124
-0.009878531377600006   -0.027202031959361744   -0.00024802365272649036
-0.0097807352119494   -0.027322377197011822   -0.0003002333620644127
-0.009177414586155954   -0.04092908607743113   -0.0005699982108478424
-0.01718287740692569   -0.027207463047381853   -0.0004578045082069124
-0.0097807352119494   -0.027322377197011822   -0.0003002333620644127
-0.016342226271614732   -0.04096083359261498   -0.0008262344595368608
-0.009177414586155954   -0.04092908607743113   -0.0005699982108478424
-0.009878531377600006   -0.027202031959361744   -0.00024802365272649036
-0.016434015732628236   -0.04085645308510237   -0.0007709241206084204
-0.009271975072165092   -0.04080827807508751   -0.0005216814495812651
-0.009878531377600006   -0.027202031959361744   -0.00024802365272649036
-0.01718287740692569   -0.027207463047381853   -0.0004578045082069124
-0.016434015732628236   -0.04085645308510237   -0.0007709241206084204
-0.017271893828313477   -0.027099895410826667   -0.00040359278718689296
-0.009271975072165092   -0.04080827807508751   -0.0005216814495812651
-0.016519878871297265   -0.04075895488418667   -0.0007087247669141717
-0.017271893828313477   -0.027099895410826667   -0.00040359278718689296
-0.016434015732628236   -0.04085645308510237   -0.0007709241206084204
-0.009271975072165092   -0.04080827807508751   -0.0005216814495812651
-0.017271893828313477   -0.027099895410826667   -0.00040359278718689296
-0.009979673556936278   -0.027076826258592302   -0.0001906569360333641
-0.009878531377600006   -0.027202031959361744   -0.00024802365272649036
-0.009271975072165092   -0.04080827807508751   -0.0005216814495812651
-0.017271893828313477   -0.027099895410826667   -0.00040359278718689296
-0.009878531377600006   -0.027202031959361744   -0.00024802365272649036
-0.016434015732628236   -0.04085645308510237   -0.0007709241206084204
-0.009271975072165092   -0.04080827807508751   -0.0005216814495812651
-0.009979673556936278   -0.027076826258592302   -0.0001906569360333641
-0.016519878871297265   -0.04075895488418667   -0.0007087247669141717
-0.009372527531561778   -0.04069582567279694   -0.0004661493337548311
-0.009979673556936278   -0.027076826258592302   -0.0001906569360333641
-0.017271893828313477   -0.027099895410826667   -0.00040359278718689296
-0.016519878871297265   -0.04075895488418667   -0.0007087247669141717
-0.017360012234751726   -0.026989770761946964   -0.000345134590896701
-0.009372527531561778   -0.04069582567279694   -0.0004661493337548311
-0.01660604873008345   -0.040668612250379765   -0.0006399791226558175
-0.017360012234751726   -0.026989770761946964   -0.000345134590896701
-0.016519878871297265   -0.04075895488418667   -0.0007087247669141717
-0.009372527531561778   -0.04069582567279694   -0.0004661493337548311
-0.017360012234751726   -0.026989770761946964   -0.000345134590896701
-0.01008494748224252   -0.02694896755237994   -0.00012709735685728803
-0.009979673556936278   -0.027076826258592302   -0.0001906569360333641
-0.009372527531561778   -0.04069582567279694   -0.0004661493337548311
-0.017360012234751726   -0.026989770761946964   -0.000345134590896701
-0.009979673556936278   -0.027076826258592302   -0.0001906569360333641
-0.016519878871297265   -0.04075895488418667   -0.0007087247669141717
-0.016342226271614732   -0.04096083359261498   -0.0008262344595368608
-0.017089429461873428   -0.027313081111453655   -0.0005075106927935864
-0.02373048816597423   -0.040831769475313924   -0.0010015245535242043
-0.016434015732628236   -0.04085645308510237   -0.0007709241206084204
-0.017089429461873428   -0.027313081111453655   -0.0005075106927935864
-0.024552866321896384   -0.02727076125642056   -0.0006818264272251441
-0.02373048816597423   -0.040831769475313924   -0.0010015245535242043
-0.02464195389663187   -0.02718453351868038   -0.0006348618370259413
-0.016434015732628236   -0.04085645308510237   -0.0007709241206084204
-0.02381840469778077   -0.04075151872267465   -0.0009322544237051309
-0.02464195389663187   -0.02718453351868038   -0.0006348618370259413
-0.02373048816597423   -0.040831769475313924   -0.0010015245535242043
-0.016434015732628236   -0.04085645308510237   -0.0007709241206084204
-0.02464195389663187   -0.02718453351868038   -0.0006348618370259413
-0.01718287740692569   -0.027207463047381853   -0.0004578045082069124
-0.017089429461873428   -0.027313081111453655   -0.0005075106927935864
-0.016434015732628236   -0.04085645308510237   -0.0007709241206084204
-0.02464195389663187   -0.02718453351868038   -0.0006348618370259413
-0.017089429461873428   -0.027313081111453655   -0.0005075106927935864
-0.02373048816597423   -0.040831769475313924   -0.0010015245535242043
-0.016434015732628236   -0.04085645308510237   -0.0007709241206084204
-0.01718287740692569   -0.027207463047381853   -0.0004578045082069124
-0.02381840469778077   -0.04075151872267465   -0.0009322544237051309
-0.016519878871297265   -0.04075895488418667   -0.0007087247669141717
-0.01718287740692569   -0.027207463047381853   -0.0004578045082069124
-0.02464195389663187   -0.02718453351868038   -0.0006348618370259413
-0.02381840469778077   -0.04075151872267465   -0.0009322544237051309
-0.024717489091081495   -0.027093562280164643   -0.0005847092324913476
-0.016519878871297265   -0.04075895488418667   -0.0007087247669141717
-0.02388515549417089   -0.04067547440008926   -0.0008572392588835016
-0.024717489091081495   -0.027093562280164643   -0.0005847092324913476
-0.02381840469778077   -0.04075151872267465   -0.0009322544237051309
-0.016519878871297265   -0.04075895488418667   -0.0007087247669141717
-0.024717489091081495   -0.027093562280164643   -0.0005847092324913476
-0.017271893828313477   -0.027099895410826667   -0.00040359278718689296
-0.01718287740692569   -0.027207463047381853   -0.0004578045082069124
-0.016519878871297265   -0.04075895488418667   -0.0007087247669141717
-0.024717489091081495   -0.027093562280164643   -0.0005847092324913476
-0.01718287740692569   -0.027207463047381853   -0.0004578045082069124
-0.02381840469778077   -0.04075151872267465   -0.0009322544237051309
-0.016519878871297265   -0.04075895488418667   -0.0007087247669141717
-0.017271893828313477   -0.027099895410826667   -0.00040359278718689296
-0.02388515549417089   -0.04067547440008926   -0.0008572392588835016
-0.01660604873008345   -0.040668612250379765   -0.0006399791226558175
-0.017271893828313477   -0.027099895410826667   -0.00040359278718689296
-0.024717489091081495   -0.027093562280164643   -0.0005847092324913476
-0.02388515549417089   -0.04067547440008926   -0.0008572392588835016
-0.024788883874196293   -0.027000163166339197   -0.0005299691317737348
-0.01660604873008345   -0.040668612250379765   -0.0006399791226558175
-0.02395136248814721   -0.04060697329700965   -0.0007749739707821867
-0.024788883874196293   -0.027000163166339197   -0.0005299691317737348
-0.02388515549417089   -0.04067547440008926   -0.0008572392588835016
-0.01660604873008345   -0.040668612250379765   -0.0006399791226558175
-0.024788883874196293   -0.027000163166339197   -0.0005299691317737348
-0.017360012234751726   -0.026989770761946964   -0.000345134590896701
-0.017271893828313477   -0.027099895410826667   -0.00040359278718689296
-0.01660604873008345   -0.040668612250379765   -0.0006399791226558175
-0.024788883874196293   -0.027000163166339197   -0.0005299691317737348
-0.017271893828313477   -0.027099895410826667   -0.00040359278718689296
-0.02388515549417089   -0.04067547440008926   -0.0008572392588835016
-0.02373048816597423   -0.040831769475313924   -0.0010015245535242043
-0.024552866321896384   -0.02727076125642056   -0.0006818264272251441
-0.03156003829053648   -0.040679511372238776   -0.001131864568791721
-0.02381840469778077   -0.04075151872267465   -0.0009322544237051309
-0.024552866321896384   -0.02727076125642056   -0.0006818264272251441
-0.032369721650896105   -0.027201188380324936   -0.0008111310288580056
-0.03156003829053648   -0.040679511372238776   -0.001131864568791721
-0.032425364694723055   -0.02712866060886595   -0.0007760693042467751
-0.02381840469778077   -0.04075151872267465   -0.0009322544237051309
-0.031574058164140606   -0.04061532067168384   -0.0010555195458577268
-0.032425364694723055   -0.02712866060886595   -0.0007760693042467751
-0.03156003829053648   -0.040679511372238776   -0.001131864568791721
-0.02381840469778077   -0.04075151872267465   -0.0009322544237051309
-0.032425364694723055   -0.02712866060886595   -0.0007760693042467751
-0.02464195389663187   -0.02718453351868038   -0.0006348618370259413
-0.024552866321896384   -0.02727076125642056   -0.0006818264272251441
-0.02381840469778077   -0.04075151872267465   -0.0009322544237051309
-0.032425364694723055   -0.02712866060886595   -0.0007760693042467751
-0.024552866321896384   -0.02727076125642056   -0.0006818264272251441
-0.03156003829053648   -0.040679511372238776   -0.001131864568791721
-0.02381840469778077   -0.04075151872267465   -0.0009322544237051309
-0.02464195389663187   -0.02718453351868038   -0.0006348618370259413
-0.031574058164140606   -0.04061532067168384   -0.0010555195458577268
-0.02388515549417089   -0.04067547440008926   -0.0008572392588835016
-0.02464195389663187   -0.02718453351868038   -0.0006348618370259413
-0.032425364694723055   -0.02712866060886595   -0.0007760693042467751
-0.031574058164140606   -0.04061532067168384   -0.0010555195458577268
-0.032476243664641004   -0.027046653118626925   -0.0007331633926989519
-0.02388515549417089   -0.04067547440008926   -0.0008572392588835016
-0.03158836917173034   -0.04055029295831984   -0.0009675992118670638
-0.032476243664641004   -0.027046653118626925   -0.0007331633926989519
-0.031574058164140606   -0.04061532067168384   -0.0010555195458577268
-0.02388515549417089   -0.04067547440008926   -0.0008572392588835016
-0.032476243664641004   -0.027046653118626925   -0.0007331633926989519
-0.024717489091081495   -0.027093562280164643   -0.0005847092324913476
-0.02464195389663187   -0.02718453351868038   -0.0006348618370259413
-0.02388515549417089   -0.04067547440008926   -0.0008572392588835016
-0.032476243664641004   -0.027046653118626925   -0.0007331633926989519
-0.02464195389663187   -0.02718453351868038   -0.0006348618370259413
-0.031574058164140606   -0.04061532067168384   -0.0010555195458577268
-0.02388515549417089   -0.04067547440008926   -0.0008572392588835016
-0.024717489091081495   -0.027093562280164643   -0.0005847092324913476
-0.03158836917173034   -0.04055029295831984   -0.0009675992118670638
-0.02395136248814721   -0.04060697329700965   -0.0007749739707821867
-0.024717489091081495   -0.027093562280164643   -0.0005847092324913476
-0.032476243664641004   -0.027046653118626925   -0.0007331633926989519
-0.03158836917173034   -0.04055029295831984   -0.0009675992118670638
-0.03250120997621237   -0.026971216888458438   -0.0006843872898040426
-0.02395136248814721   -0.04060697329700965   -0.0007749739707821867
-0.031558811390120324   -0.0405070251498396   -0.0008694814386282304
-0.03250120997621237   -0.026971216888458438   -0.0006843872898040426
-0.03158836917173034   -0.04055029295831984   -0.0009675992118670638
-0.02395136248814721   -0.04060697329700965   -0.0007749739707821867
-0.03250120997621237   -0.026971216888458438   -0.0006843872898040426
-0.024788883874196293   -0.027000163166339197   -0.0005299691317737348
-0.024717489091081495   -0.027093562280164643   -0.0005847092324913476
-0.02395136248814721   -0.04060697329700965   -0.0007749739707821867
-0.03250120997621237   -0.026971216888458438   -0.0006843872898040426
-0.024717489091081495   -0.027093562280164643   -0.0005847092324913476
-0.03158836917173034   -0.04055029295831984   -0.0009675992118670638
0.005443432770397707   -0.027485567277257407   0.00016657689135380848
0.0038111202127248675   -0.01379760375886336   0.0001786454301379545
-0.0023968935458057723   -0.027355912845775147   -7.103436466122317e-05
0.005272583426016473   -0.02731956499941208   0.0002368183190969437
0.0038111202127248675   -0.01379760375886336   0.0001786454301379545
-0.0034966730683567426   -0.013617909851353378   8.95553083618183e-05
-0.0023968935458057723   -0.027355912845775147   -7.103436466122317e-05
-0.003604282976497378   -0.01354797058099978   0.000167523479279332
0.005272583426016473   -0.02731956499941208   0.0002368183190969437
-0.0025051855650478614   -0.02721817577654916   -1.4793944749024707e-05
-0.003604282976497378   -0.01354797058099978   0.000167523479279332
-0.0023968935458057723   -0.027355912845775147   -7.103436466122317e-05
0.005272583426016473   -0.02731956499941208   0.0002368183190969437
-0.003604282976497378   -0.01354797058099978   0.000167523479279332
0.0034758395826500078   -0.013621449986285285   0.000371818013788431
0.0038111202127248675   -0.01379760375886336   0.0001786454301379545
0.005272583426016473   -0.02731956499941208   0.0002368183190969437
-0.003604282976497378   -0.01354797058099978   0.000167523479279332
0.0038111202127248675   -0.01379760375886336   0.0001786454301379545
-0.0023968935458057723   -0.027355912845775147   -7.103436466122317e-05
0.005272583426016473   -0.02731956499941208   0.0002368183190969437
0.0034758395826500078   -0.013621449986285285   0.000371818013788431
-0.0025051855650478614   -0.02721817577654916   -1.4793944749024707e-05
0.005082125966073349   -0.027154556875765807   0.0003374891884922902
0.0034758395826500078   -0.013621449986285285   0.000371818013788431
-0.003604282976497378   -0.01354797058099978   0.000167523479279332
-0.0025051855650478614   -0.02721817577654916   -1.4793944749024707e-05
-0.003745513044051995   -0.013424078876506679   0.00026214250823616294
0.005082125966073349   -0.027154556875765807   0.0003374891884922902
-0.0026318197147913243   -0.027072744559133156   5.141390497041648e-05
-0.003745513044051995   -0.013424078876506679   0.00026214250823616294
-0.0025051855650478614   -0.02721817577654916   -1.4793944749024707e-05
0.005082125966073349   -0.027154556875765807   0.0003374891884922902
-0.003745513044051995   -0.013424078876506679   0.00026214250823616294
0.003279418697394356   -0.013477049082490847   0.0005160852303078285
0.0034758395826500078   -0.013621449986285285   0.000371818013788431
0.005082125966073349   -0.027154556875765807   0.0003374891884922902
-0.003745513044051995   -0.013424078876506679   0.00026214250823616294
0.0034758395826500078   -0.013621449986285285   0.000371818013788431
-0.0025051855650478614   -0.02721817577654916   -1.4793944749024707e-05
0.005082125966073349   -0.027154556875765807   0.0003374891884922902
0.003279418697394356   -0.013477049082490847   0.0005160852303078285
-0.0026318197147913243   -0.027072744559133156   5.141390497041648e-05
0.004849435600312448   -0.02695191239756344   0.00044822611057565966
0.003279418697394356   -0.013477049082490847   0.0005160852303078285
-0.003745513044051995   -0.013424078876506679   0.00026214250823616294
-0.0026318197147913243   -0.027072744559133156   5.141390497041648e-05
-0.003864163925132223   -0.013290748254129245   0.0003454464088808231
0.004849435600312448   -0.02695191239756344   0.00044822611057565966
-0.0027627503184029134   -0.026918271861980647   0.00012744837440060351
-0.003864163925132223   -0.013290748254129245   0.0003454464088808231
-0.0026318197147913243   -0.027072744559133156   5.141390497041648e-05
0.004849435600312448   -0.02695191239756344   0.00044822611057565966
-0.003864163925132223   -0.013290748254129245   0.0003454464088808231
0.0030278394359707656   -0.01325664407310414   0.0006812253735735067
0.003279418697394356   -0.013477049082490847   0.0005160852303078285
0.004849435600312448   -0.02695191239756344   0.00044822611057565966
-0.003864163925132223   -0.013290748254129245   0.0003454464088808231
0.003279418697394356   -0.013477049082490847   0.0005160852303078285
-0.0026318197147913243   -0.027072744559133156   5.141390497041648e-05
-0.0023968935458057723   -0.027355912845775147   -7.103436466122317e-05
-0.0034966730683567426   -0.013617909851353378   8.95553083618183e-05
-0.0097807352119494   -0.027322377197011822   -0.0003002333620644127
-0.0025051855650478614   -0.02721817577654916   -1.4793944749024707e-05
-0.0034966730683567426   -0.013617909851353378   8.95553083618183e-05
-0.01045448249733244   -0.013818623036335421   -9.324354528414514e-05
-0.0097807352119494   -0.027322377197011822   -0.0003002333620644127
-0.010553393491984153   -0.013712139819697301   -3.8086397797638065e-05
-0.0025051855650478614   -0.02721817577654916   -1.4793944749024707e-05
-0.009878531377600006   -0.027202031959361744   -0.00024802365272649036
-0.010553393491984153   -0.013712139819697301   -3.8086397797638065e-05
-0.0097807352119494   -0.027322377197011822   -0.0003002333620644127
-0.0025051855650478614   -0.02721817577654916   -1.4793944749024707e-05
-0.010553393491984153   -0.013712139819697301   -3.8086397797638065e-05
-0.003604282976497378   -0.01354797058099978   0.000167523479279332
-0.0034966730683567426   -0.013617909851353378   8.95553083618183e-05
-0.0025051855650478614   -0.02721817577654916   -1.4793944749024707e-05
-0.010553393491984153   -0.013712139819697301   -3.8086397797638065e-05
-0.0034966730683567426   -0.013617909851353378   8.95553083618183e-05
-0.0097807352119494   -0.027322377197011822   -0.0003002333620644127
-0.0025051855650478614   -0.02721817577654916   -1.4793944749024707e-05
-0.003604282976497378   -0.01354797058099978   0.000167523479279332
-0.009878531377600006   -0.027202031959361744   -0.00024802365272649036
-0.0026318197147913243   -0.027072744559133156   5.141390497041648e-05
-0.003604282976497378   -0.01354797058099978   0.000167523479279332
-0.010553393491984153   -0.013712139819697301   -3.8086397797638065e-05
-0.009878531377600006   -0.027202031959361744   -0.00024802365272649036
-0.010656831610904442   -0.013592031354618271   2.0239650653281765e-05
-0.0026318197147913243   -0.027072744559133156   5.141390497041648e-05
-0.009979673556936278   -0.027076826258592302   -0.0001906569360333641
-0.010656831610904442   -0.013592031354618271   2.0239650653281765e-05
-0.009878531377600006   -0.027202031959361744   -0.00024802365272649036
-0.0026318197147913243   -0.027072744559133156   5.141390497041648e-05
-0.010656831610904442   -0.013592031354618271   2.0239650653281765e-05
-0.003745513044051995   -0.013424078876506679   0.00026214250823616294
-0.003604282976497378   -0.01354797058099978   0.000167523479279332
-0.0026318197147913243   -0.027072744559133156   5.141390497041648e-05
-0.010656831610904442   -0.013592031354618271   2.0239650653281765e-05
-0.003604282976497378   -0.01354797058099978   0.000167523479279332
-0.009878531377600006   -0.027202031959361744   -0.00024802365272649036
-0.0026318197147913243   -0.027072744559133156   5.141390497041648e-05
-0.003745513044051995   -0.013424078876506679   0.00026214250823616294
-0.009979673556936278   -0.027076826258592302   -0.0001906569360333641
-0.0027627503184029134   -0.026918271861980647   0.00012744837440060351
-0.003745513044051995   -0.013424078876506679   0.00026214250823616294
-0.010656831610904442   -0.013592031354618271   2.0239650653281765e-05
-0.009979673556936278   -0.027076826258592302   -0.0001906569360333641
-0.010755069865982871   -0.01346039397143356   8.453583116568251e-05
-0.0027627503184029134   -0.026918271861980647   0.00012744837440060351
-0.01008494748224252   -0.02694896755237994   -0.00012709735685728803
-0.010755069865982871   -0.01346039397143356   8.453583116568251e-05
-0.009979673556936278   -0.027076826258592302   -0.0001906569360333641
-0.0027627503184029134   -0.026918271861980647   0.00012744837440060351
-0.010755069865982871   -0.01346039397143356   8.453583116568251e-05
-0.003864163925132223   -0.013290748254129245   0.0003454464088808231
-0.003745513044051995   -0.013424078876506679   0.00026214250823616294
-0.0027627503184029134   -0.026918271861980647   0.00012744837440060351
-0.010755069865982871   -0.01346039397143356   8.453583116568251e-05
-0.003745513044051995   -0.013424078876506679   0.00026214250823616294
-0.009979673556936278   -0.027076826258592302   -0.0001906569360333641
-0.0097807352119494   -0.027322377197011822   -0.0003002333620644127
-0.01045448249733244   -0.013818623036335421   -9.324354528414514e-05
-0.017089429461873428   -0.027313081111453655   -0.0005075106927935864
-0.009878531377600006   -0.027202031959361744   -0.00024802365272649036
-0.01045448249733244   -0.013818623036335421   -9.324354528414514e-05
-0.017584013696099583   -0.013975399508119357   -0.0002955387006250235
-0.017089429461873428   -0.027313081111453655   -0.0005075106927935864
-0.017672773307807966   -0.013866111778335298   -0.0002528583295511339
-0.009878531377600006   -0.027202031959361744   -0.00024802365272649036
-0.01718287740692569   -0.027207463047381853   -0.0004578045082069124
-0.017672773307807966   -0.013866111778335298   -0.0002528583295511339
-0.017089429461873428   -0.027313081111453655   -0.0005075106927935864
-0.009878531377600006   -0.027202031959361744   -0.00024802365272649036
-0.017672773307807966   -0.013866111778335298   -0.0002528583295511339
-0.010553393491984153   -0.013712139819697301   -3.8086397797638065e-05
-0.01045448249733244   -0.013818623036335421   -9.324354528414514e-05
-0.009878531377600006   -0.027202031959361744   -0.00024802365272649036
-0.017672773307807966   -0.013866111778335298   -0.0002528583295511339
-0.01045448249733244   -0.013818623036335421   -9.324354528414514e-05
-0.017089429461873428   -0.027313081111453655   -0.0005075106927935864
-0.009878531377600006   -0.027202031959361744   -0.00024802365272649036
-0.010553393491984153   -0.013712139819697301   -3.8086397797638065e-05
-0.01718287740692569   -0.027207463047381853   -0.0004578045082069124
-0.009979673556936278   -0.027076826258592302   -0.0001906569360333641
-0.010553393491984153   -0.013712139819697301   -3.8086397797638065e-05
-0.017672773307807966   -0.013866111778335298   -0.0002528583295511339
-0.01718287740692569   -0.027207463047381853   -0.0004578045082069124
-0.017757677407272368   -0.013750739393921844   -0.00021035162385701168
-0.009979673556936278   -0.027076826258592302   -0.0001906569360333641
-0.017271893828313477   -0.027099895410826667   -0.00040359278718689296
-0.017757677407272368   -0.013750739393921844   -0.00021035162385701168
-0.01718287740692569   -0.027207463047381853   -0.0004578045082069124
-0.009979673556936278   -0.027076826258592302   -0.0001906569360333641
-0.017757677407272368   -0.013750739393921844   -0.00021035162385701168
-0.010656831610904442   -0.013592031354618271   2.0239650653281765e-05
-0.010553393491984153   -0.013712139819697301   -3.8086397797638065e-05
-0.009979673556936278   -0.027076826258592302   -0.0001906569360333641
-0.017757677407272368   -0.013750739393921844   -0.00021035162385701168
-0.010553393491984153   -0.013712139819697301   -3.8086397797638065e-05
-0.01718287740692569   -0.027207463047381853   -0.0004578045082069124
-0.009979673556936278   -0.027076826258592302   -0.0001906569360333641
-0.010656831610904442   -0.013592031354618271   2.0239650653281765e-05
-0.017271893828313477   -0.027099895410826667   -0.00040359278718689296
-0.01008494748224252   -0.02694896755237994   -0.00012709735685728803
-0.010656831610904442   -0.013592031354618271   2.0239650653281765e-05
-0.017757677407272368   -0.013750739393921844   -0.00021035162385701168
-0.017271893828313477   -0.027099895410826667   -0.00040359278718689296
-0.017835892646483772   -0.01362586801187805   -0.00016411165667659243
-0.01008494748224252   -0.02694896755237994   -0.00012709735685728803
-0.017360012234751726   -0.026989770761946964   -0.000345134590896701
-0.017835892646483772   -0.01362586801187805   -0.00016411165667659243
-0.017271893828313477   -0.027099895410826667   -0.00040359278718689296
-0.01008494748224252   -0.02694896755237994   -0.00012709735685728803
-0.017835892646483772   -0.01362586801187805   -0.00016411165667659243
-0.010755069865982871   -0.01346039397143356   8.453583116568251e-05
-0.010656831610904442   -0.013592031354618271   2.0239650653281765e-05
-0.01008494748224252   -0.02694896755237994   -0.00012709735685728803
-0.017835892646483772   -0.01362586801187805   -0.00016411165667659243
-0.010656831610904442   -0.013592031354618271   2.0239650653281765e-05
-0.017271893828313477   -0.027099895410826667   -0.00040359278718689296
-0.017089429461873428   -0.027313081111453655   -0.0005075106927935864
-0.017584013696099583   -0.013975399508119357   -0.0002955387006250235
-0.024552866321896384   -0.02727076125642056   -0.0006818264272251441
-0.01718287740692569   -0.027207463047381853   -0.0004578045082069124
-0.017584013696099583   -0.013975399508119357   -0.0002955387006250235
-0.024963943262829764   -0.014039664292194045   -0.00048236822670688227
-0.024552866321896384   -0.02727076125642056   -0.0006818264272251441
-0.025043891308441073   -0.01394140152531979   -0.0004513081875515299
-0.01718287740692569   -0.027207463047381853   -0.0004578045082069124
-0.02464195389663187   -0.02718453351868038   -0.0006348618370259413
-0.025043891308441073   -0.01394140152531979   -0.0004513081875515299
-0.024552866321896384   -0.02727076125642056   -0.0006818264272251441
-0.01718287740692569   -0.027207463047381853   -0.0004578045082069124
-0.025043891308441073   -0.01394140152531979   -0.0004513081875515299
-0.017672773307807966   -0.013866111778335298   -0.0002528583295511339
-0.017584013696099583   -0.013975399508119357   -0.0002955387006250235
-0.01718287740692569   -0.027207463047381853   -0.0004578045082069124
-0.025043891308441073   -0.01394140152531979   -0.0004513081875515299
-0.017584013696099583   -0.013975399508119357   -0.0002955387006250235
-0.024552866321896384   -0.02727076125642056   -0.0006818264272251441
-0.01718287740692569   -0.027207463047381853   -0.0004578045082069124
-0.017672773307807966   -0.013866111778335298   -0.0002528583295511339
-0.02464195389663187   -0.02718453351868038   -0.0006348618370259413
-0.017271893828313477   -0.027099895410826667   -0.00040359278718689296
-0.017672773307807966   -0.013866111778335298   -0.0002528583295511339
-0.025043891308441073   -0.01394140152531979   -0.0004513081875515299
-0.02464195389663187   -0.02718453351868038   -0.0006348618370259413
-0.0251151301909308   -0.013834453698615674   -0.00042116639860953026
-0.017271893828313477   -0.027099895410826667   -0.00040359278718689296
-0.024717489091081495   -0.027093562280164643   -0.0005847092324913476
-0.0251151301909308   -0.013834453698615674   -0.00042116639860953026
-0.02464195389663187   -0.02718453351868038   -0.0006348618370259413
-0.017271893828313477   -0.027099895410826667   -0.00040359278718689296
-0.0251151301909308   -0.013834453698615674   -0.00042116639860953026
-0.017757677407272368   -0.013750739393921844   -0.00021035162385701168
-0.017672773307807966   -0.013866111778335298   -0.0002528583295511339
-0.017271893828313477   -0.027099895410826667   -0.00040359278718689296
-0.0251151301909308   -0.013834453698615674   -0.00042116639860953026
-0.017672773307807966   -0.013866111778335298   -0.0002528583295511339
-0.02464195389663187   -0.02718453351868038   -0.0006348618370259413
-0.017271893828313477   -0.027099895410826667   -0.00040359278718689296
-0.017757677407272368   -0.013750739393921844   -0.00021035162385701168
-0.024717489091081495   -0.027093562280164643   -0.0005847092324913476
-0.017360012234751726   -0.026989770761946964   -0.000345134590896701
-0.017757677407272368   -0.013750739393921844   -0.00021035162385701168
-0.0251151301909308   -0.013834453698615674   -0.00042116639860953026
-0.024717489091081495   -0.027093562280164643   -0.0005847092324913476
-0.02517962504067566   -0.013720646724752756   -0.00039016793437612196
-0.017360012234751726   -0.026989770761946964   -0.000345134590896701
-0.024788883874196293   -0.027000163166339197   -0.0005299691317737348
-0.02517962504067566   -0.013720646724752756   -0.00039016793437612196
-0.024717489091081495   -0.027093562280164643   -0.0005847092324913476
-0.017360012234751726   -0.026989770761946964   -0.000345134590896701
-0.02517962504067566   -0.013720646724752756   -0.00039016793437612196
-0.017835892646483772   -0.01362586801187805   -0.00016411165667659243
-0.017757677407272368   -0.013750739393921844   -0.00021035162385701168
-0.017360012234751726   -0.026989770761946964   -0.000345134590896701
-0.02517962504067566   -0.013720646724752756   -0.00039016793437612196
-0.017757677407272368   -0.013750739393921844   -0.00021035162385701168
-0.024717489091081495   -0.027093562280164643   -0.0005847092324913476
-0.024552866321896384   -0.02727076125642056   -0.0006818264272251441
-0.024963943262829764   -0.014039664292194045   -0.00048236822670688227
-0.032369721650896105   -0.027201188380324936   -0.0008111310288580056
-0.02464195389663187   -0.02718453351868038   -0.0006348618370259413
-0.024963943262829764   -0.014039664292194045   -0.00048236822670688227
-0.03260548190573816   -0.014046963666793073   -0.0006377271515077225
-0.032369721650896105   -0.027201188380324936   -0.0008111310288580056
-0.03267427250428579   -0.013951533431193727   -0.0006244961209773901
-0.02464195389663187   -0.02718453351868038   -0.0006348618370259413
-0.032425364694723055   -0.02712866060886595   -0.0007760693042467751
-0.03267427250428579   -0.013951533431193727   -0.0006244961209773901
-0.032369721650896105   -0.027201188380324936   -0.0008111310288580056
-0.02464195389663187   -0.02718453351868038   -0.0006348618370259413
-0.03267427250428579   -0.013951533431193727   -0.0006244961209773901
-0.025043891308441073   -0.01394140152531979   -0.0004513081875515299
-0.024963943262829764   -0.014039664292194045   -0.00048236822670688227
-0.02464195389663187   -0.02718453351868038   -0.0006348618370259413
-0.03267427250428579   -0.013951533431193727   -0.0006244961209773901
-0.024963943262829764   -0.014039664292194045   -0.00048236822670688227
-0.032369721650896105   -0.027201188380324936   -0.0008111310288580056
-0.02464195389663187   -0.02718453351868038   -0.0006348618370259413
-0.025043891308441073   -0.01394140152531979   -0.0004513081875515299
-0.032425364694723055   -0.02712866060886595   -0.0007760693042467751
-0.024717489091081495   -0.027093562280164643   -0.0005847092324913476
-0.025043891308441073   -0.01394140152531979   -0.0004513081875515299
-0.03267427250428579   -0.013951533431193727   -0.0006244961209773901
-0.032425364694723055   -0.02712866060886595   -0.0007760693042467751
-0.03273590273128834   -0.013848435133014663   -0.0006090409385227002
-0.024717489091081495   -0.027093562280164643   -0.0005847092324913476
-0.032476243664641004   -0.027046653118626925   -0.0007331633926989519
-0.03273590273128834   -0.013848435133014663   -0.0006090409385227002
-0.032425364694723055   -0.02712866060886595   -0.0007760693042467751
-0.024717489091081495   -0.027093562280164643   -0.0005847092324913476
-0.03273590273128834   -0.013848435133014663   -0.0006090409385227002
-0.0251151301909308   -0.013834453698615674   -0.00042116639860953026
-0.025043891308441073   -0.01394140152531979   -0.0004513081875515299
-0.024717489091081495   -0.027093562280164643   -0.0005847092324913476
-0.03273590273128834   -0.013848435133014663   -0.0006090409385227002
-0.025043891308441073   -0.01394140152531979   -0.0004513081875515299
-0.032425364694723055   -0.02712866060886595   -0.0007760693042467751
-0.024717489091081495   -0.027093562280164643   -0.0005847092324913476
-0.0251151301909308   -0.013834453698615674   -0.00042116639860953026
-0.032476243664641004   -0.027046653118626925   -0.0007331633926989519
-0.024788883874196293   -0.027000163166339197   -0.0005299691317737348
-0.0251151301909308   -0.013834453698615674   -0.00042116639860953026
-0.03273590273128834   -0.013848435133014663   -0.0006090409385227002
-0.032476243664641004   -0.027046653118626925   -0.0007331633926989519
-0.032787856721223904   -0.013739248534363388   -0.0005947329971078677
-0.024788883874196293   -0.027000163166339197   -0.0005299691317737348
-0.03250120997621237   -0.026971216888458438   -0.0006843872898040426
-0.032787856721223904   -0.013739248534363388   -0.0005947329971078677
-0.032476243664641004   -0.027046653118626925   -0.0007331633926989519
-0.024788883874196293   -0.027000163166339197   -0.0005299691317737348
-0.032787856721223904   -0.013739248534363388   -0.0005947329971078677
-0.02517962504067566   -0.013720646724752756   -0.00039016793437612196
-0.0251151301909308   -0.013834453698615674   -0.00042116639860953026
-0.024788883874196293   -0.027000163166339197   -0.0005299691317737348
-0.032787856721223904   -0.013739248534363388   -0.0005947329971078677
-0.0251151301909308   -0.013834453698615674   -0.00042116639860953026
-0.032476243664641004   -0.027046653118626925   -0.0007331633926989519
0.0038111202127248675   -0.01379760375886336   0.0001786454301379545
0.0   0.0   0.0
-0.0034966730683567426   -0.013617909851353378   8.95553083618183e-05
0.0034758395826500078   -0.013621449986285285   0.000371818013788431
0.0   0.0   0.0
-0.0043943801925752386   -0.0011061876909768244   -3.8919849140743144e-05
-0.0034966730683567426   -0.013617909851353378   8.95553083618183e-05
-0.004656762235991576   -0.0008580917393164582   0.00011164145516905018
0.0034758395826500078   -0.013621449986285285   0.000371818013788431
-0.003604282976497378   -0.01354797058099978   0.000167523479279332
-0.004656762235991576   -0.0008580917393164582   0.00011164145516905018
-0.0034966730683567426   -0.013617909851353378   8.95553083618183e-05
0.0034758395826500078   -0.013621449986285285   0.000371818013788431
-0.004656762235991576   -0.0008580917393164582   0.00011164145516905018
0.0   0.0   0.0
0.0   0.0   0.0
0.0034758395826500078   -0.013621449986285285   0.000371818013788431
-0.004656762235991576   -0.0008580917393164582   0.00011164145516905018
0.0   0.0   0.0
-0.0034966730683567426   -0.013617909851353378   8.95553083618183e-05
0.0034758395826500078   -0.013621449986285285   0.000371818013788431
0.0   0.0   0.0
-0.003604282976497378   -0.01354797058099978   0.000167523479279332
0.003279418697394356   -0.013477049082490847   0.0005160852303078285
0.0   0.0   0.0
-0.004656762235991576   -0.0008580917393164582   0.00011164145516905018
-0.003604282976497378   -0.01354797058099978   0.000167523479279332
-0.004821191285722799   -0.0007383196864949046   0.00019828681208809837
0.003279418697394356   -0.013477049082490847   0.0005160852303078285
-0.003745513044051995   -0.013424078876506679   0.00026214250823616294
-0.004821191285722799   -0.0007383196864949046   0.00019828681208809837
-0.003604282976497378   -0.01354797058099978   0.000167523479279332
0.003279418697394356   -0.013477049082490847   0.0005160852303078285
-0.004821191285722799   -0.0007383196864949046   0.00019828681208809837
0.0   0.0   0.0
0.0   0.0   0.0
0.003279418697394356   -0.013477049082490847   0.0005160852303078285
-0.004821191285722799   -0.0007383196864949046   0.00019828681208809837
0.0   0.0   0.0
-0.003604282976497378   -0.01354797058099978   0.000167523479279332
0.003279418697394356   -0.013477049082490847   0.0005160852303078285
0.0   0.0   0.0
-0.003745513044051995   -0.013424078876506679   0.00026214250823616294
0.0030278394359707656   -0.01325664407310414   0.0006812253735735067
0.0   0.0   0.0
-0.004821191285722799   -0.0007383196864949046   0.00019828681208809837
-0.003745513044051995   -0.013424078876506679   0.00026214250823616294
-0.005041226132521984   -0.0005794079333187068   0.00029769012849878933
0.0030278394359707656   -0.01325664407310414   0.0006812253735735067
-0.003864163925132223   -0.013290748254129245   0.0003454464088808231
-0.005041226132521984   -0.0005794079333187068   0.00029769012849878933
-0.003745513044051995   -0.013424078876506679   0.00026214250823616294
0.0030278394359707656   -0.01325664407310414   0.0006812253735735067
-0.005041226132521984   -0.0005794079333187068   0.00029769012849878933
0.0   0.0   0.0
0.0   0.0   0.0
0.0030278394359707656   -0.01325664407310414   0.0006812253735735067
-0.005041226132521984   -0.0005794079333187068   0.00029769012849878933
0.0   0.0   0.0
-0.003745513044051995   -0.013424078876506679   0.00026214250823616294
-0.0034966730683567426   -0.013617909851353378   8.95553083618183e-05
-0.0043943801925752386   -0.0011061876909768244   -3.8919849140743144e-05
-0.01045448249733244   -0.013818623036335421   -9.324354528414514e-05
-0.003604282976497378   -0.01354797058099978   0.000167523479279332
-0.0043943801925752386   -0.0011061876909768244   -3.8919849140743144e-05
-0.010767703939948463   -0.0014460093793989019   -3.950021351393089e-05
-0.01045448249733244   -0.013818623036335421   -9.324354528414514e-05
-0.010902588697971581   -0.0013099299705534953   -1.2911144102240756e-06
-0.003604282976497378   -0.01354797058099978   0.000167523479279332
-0.010553393491984153   -0.013712139819697301   -3.8086397797638065e-05
-0.010902588697971581   -0.0013099299705534953   -1.2911144102240756e-06
-0.01045448249733244   -0.013818623036335421   -9.324354528414514e-05
-0.003604282976497378   -0.01354797058099978   0.000167523479279332
-0.010902588697971581   -0.0013099299705534953   -1.2911144102240756e-06
-0.004656762235991576   -0.0008580917393164582   0.00011164145516905018
-0.0043943801925752386   -0.0011061876909768244   -3.8919849140743144e-05
-0.003604282976497378   -0.01354797058099978   0.000167523479279332
-0.010902588697971581   -0.0013099299705534953   -1.2911144102240756e-06
-0.0043943801925752386   -0.0011061876909768244   -3.8919849140743144e-05
-0.01045448249733244   -0.013818623036335421   -9.324354528414514e-05
-0.003604282976497378   -0.01354797058099978   0.000167523479279332
-0.004656762235991576   -0.0008580917393164582   0.00011164145516905018
-0.010553393491984153   -0.013712139819697301   -3.8086397797638065e-05
-0.003745513044051995   -0.013424078876506679   0.00026214250823616294
-0.004656762235991576   -0.0008580917393164582   0.00011164145516905018
-0.010902588697971581   -0.0013099299705534953   -1.2911144102240756e-06
-0.010553393491984153   -0.013712139819697301   -3.8086397797638065e-05
-0.011036793214910249   -0.0011508417264228697   6.744434038250976e-05
-0.003745513044051995   -0.013424078876506679   0.00026214250823616294
-0.010656831610904442   -0.013592031354618271   2.0239650653281765e-05
-0.011036793214910249   -0.0011508417264228697   6.744434038250976e-05
-0.010553393491984153   -0.013712139819697301   -3.8086397797638065e-05
-0.003745513044051995   -0.013424078876506679   0.00026214250823616294
-0.011036793214910249   -0.0011508417264228697   6.744434038250976e-05
-0.004821191285722799   -0.0007383196864949046   0.00019828681208809837
-0.004656762235991576   -0.0008580917393164582   0.00011164145516905018
-0.003745513044051995   -0.013424078876506679   0.00026214250823616294
-0.011036793214910249   -0.0011508417264228697   6.744434038250976e-05
-0.004656762235991576   -0.0008580917393164582   0.00011164145516905018
-0.010553393491984153   -0.013712139819697301   -3.8086397797638065e-05
-0.003745513044051995   -0.013424078876506679   0.00026214250823616294
-0.004821191285722799   -0.0007383196864949046   0.00019828681208809837
-0.010656831610904442   -0.013592031354618271   2.0239650653281765e-05
-0.003864163925132223   -0.013290748254129245   0.0003454464088808231
-0.004821191285722799   -0.0007383196864949046   0.00019828681208809837
-0.011036793214910249   -0.0011508417264228697   6.744434038250976e-05
-0.010656831610904442   -0.013592031354618271   2.0239650653281765e-05
-0.01118496030003782   -0.0009672080423789381   0.00013307525213386505
-0.003864163925132223   -0.013290748254129245   0.0003454464088808231
-0.010755069865982871   -0.01346039397143356   8.453583116568251e-05
-0.01118496030003782   -0.0009672080423789381   0.00013307525213386505
-0.010656831610904442   -0.013592031354618271   2.0239650653281765e-05
-0.003864163925132223   -0.013290748254129245   0.0003454464088808231
-0.01118496030003782   -0.0009672080423789381   0.00013307525213386505
-0.005041226132521984   -0.0005794079333187068   0.00029769012849878933
-0.004821191285722799   -0.0007383196864949046   0.00019828681208809837
-0.003864163925132223   -0.013290748254129245   0.0003454464088808231
-0.01118496030003782   -0.0009672080423789381   0.00013307525213386505
-0.004821191285722799   -0.0007383196864949046   0.00019828681208809837
-0.010656831610904442   -0.013592031354618271   2.0239650653281765e-05
-0.01045448249733244   -0.013818623036335421   -9.324354528414514e-05
-0.010767703939948463   -0.0014460093793989019   -3.950021351393089e-05
-0.017584013696099583   -0.013975399508119357   -0.0002955387006250235
-0.010553393491984153   -0.013712139819697301   -3.8086397797638065e-05
-0.010767703939948463   -0.0014460093793989019   -3.950021351393089e-05
-0.01775845043474588   -0.0015391995696665216   -0.00016861176475228316
-0.017584013696099583   -0.013975399508119357   -0.0002955387006250235
-0.01784007818778545   -0.0014324867408456992   -0.00015824627036884766
-0.010553393491984153   -0.013712139819697301   -3.8086397797638065e-05
-0.017672773307807966   -0.013866111778335298   -0.0002528583295511339
-0.01784007818778545   -0.0014324867408456992   -0.00015824627036884766
-0.017584013696099583   -0.013975399508119357   -0.0002955387006250235
-0.010553393491984153   -0.013712139819697301   -3.8086397797638065e-05
-0.01784007818778545   -0.0014324867408456992   -0.00015824627036884766
-0.010902588697971581   -0.0013099299705534953   -1.2911144102240756e-06
-0.010767703939948463   -0.0014460093793989019   -3.950021351393089e-05
-0.010553393491984153   -0.013712139819697301   -3.8086397797638065e-05
-0.01784007818778545   -0.0014324867408456992   -0.00015824627036884766
-0.010767703939948463   -0.0014460093793989019   -3.950021351393089e-05
-0.017584013696099583   -0.013975399508119357   -0.0002955387006250235
-0.010553393491984153   -0.013712139819697301   -3.8086397797638065e-05
-0.010902588697971581   -0.0013099299705534953   -1.2911144102240756e-06
-0.017672773307807966   -0.013866111778335298   -0.0002528583295511339
-0.010656831610904442   -0.013592031354618271   2.0239650653281765e-05
-0.010902588697971581   -0.0013099299705534953   -1.2911144102240756e-06
-0.01784007818778545   -0.0014324867408456992   -0.00015824627036884766
-0.017672773307807966   -0.013866111778335298   -0.0002528583295511339
-0.017924917337287294   -0.0013089293301007203   -0.0001399299956949532
-0.010656831610904442   -0.013592031354618271   2.0239650653281765e-05
-0.017757677407272368   -0.013750739393921844   -0.00021035162385701168
-0.017924917337287294   -0.0013089293301007203   -0.0001399299956949532
-0.017672773307807966   -0.013866111778335298   -0.0002528583295511339
-0.010656831610904442   -0.013592031354618271   2.0239650653281765e-05
-0.017924917337287294   -0.0013089293301007203   -0.0001399299956949532
-0.011036793214910249   -0.0011508417264228697   6.744434038250976e-05
-0.010902588697971581   -0.0013099299705534953   -1.2911144102240756e-06
-0.010656831610904442   -0.013592031354618271   2.0239650653281765e-05
-0.017924917337287294   -0.0013089293301007203   -0.0001399299956949532
-0.010902588697971581   -0.0013099299705534953   -1.2911144102240756e-06
-0.017672773307807966   -0.013866111778335298   -0.0002528583295511339
-0.010656831610904442   -0.013592031354618271   2.0239650653281765e-05
-0.011036793214910249   -0.0011508417264228697   6.744434038250976e-05
-0.017757677407272368   -0.013750739393921844   -0.00021035162385701168
-0.010755069865982871   -0.01346039397143356   8.453583116568251e-05
-0.011036793214910249   -0.0011508417264228697   6.744434038250976e-05
-0.017924917337287294   -0.0013089293301007203   -0.0001399299956949532
-0.017757677407272368   -0.013750739393921844   -0.00021035162385701168
-0.018005048691739498   -0.001159094426717506   -0.0001156966262779891
-0.010755069865982871   -0.01346039397143356   8.453583116568251e-05
-0.017835892646483772   -0.01362586801187805   -0.00016411165667659243
-0.018005048691739498   -0.001159094426717506   -0.0001156966262779891
-0.017757677407272368   -0.013750739393921844   -0.00021035162385701168
-0.010755069865982871   -0.01346039397143356   8.453583116568251e-05
-0.018005048691739498   -0.001159094426717506   -0.0001156966262779891
-0.01118496030003782   -0.0009672080423789381   0.00013307525213386505
-0.011036793214910249   -0.0011508417264228697   6.744434038250976e-05
-0.010755069865982871   -0.01346039397143356   8.453583116568251e-05
-0.018005048691739498   -0.001159094426717506   -0.0001156966262779891
-0.011036793214910249   -0.0011508417264228697   6.744434038250976e-05
-0.017757677407272368   -0.013750739393921844   -0.00021035162385701168
-0.017584013696099583   -0.013975399508119357   -0.0002955387006250235
-0.01775845043474588   -0.0015391995696665216   -0.00016861176475228316
-0.024963943262829764   -0.014039664292194045   -0.00048236822670688227
-0.017672773307807966   -0.013866111778335298   -0.0002528583295511339
-0.01775845043474588   -0.0015391995696665216   -0.00016861176475228316
-0.025092814883719845   -0.0015211658226664715   -0.00035277072768404277
-0.024963943262829764   -0.014039664292194045   -0.00048236822670688227
-0.02514789260089217   -0.0014248247251406481   -0.00034836589190949505
-0.017672773307807966   -0.013866111778335298   -0.0002528583295511339
-0.025043891308441073   -0.01394140152531979   -0.0004513081875515299
-0.02514789260089217   -0.0014248247251406481   -0.00034836589190949505
-0.024963943262829764   -0.014039664292194045   -0.00048236822670688227
-0.017672773307807966   -0.013866111778335298   -0.0002528583295511339
-0.02514789260089217   -0.0014248247251406481   -0.00034836589190949505
-0.01784007818778545   -0.0014324867408456992   -0.00015824627036884766
-0.01775845043474588   -0.0015391995696665216   -0.00016861176475228316
-0.017672773307807966   -0.013866111778335298   -0.0002528583295511339
-0.02514789260089217   -0.0014248247251406481   -0.00034836589190949505
-0.01775845043474588   -0.0015391995696665216   -0.00016861176475228316
-0.024963943262829764   -0.014039664292194045   -0.00048236822670688227
-0.017672773307807966   -0.013866111778335298   -0.0002528583295511339
-0.01784007818778545   -0.0014324867408456992   -0.00015824627036884766
-0.025043891308441073   -0.01394140152531979   -0.0004513081875515299
-0.017757677407272368   -0.013750739393921844   -0.00021035162385701168
-0.01784007818778545   -0.0014324867408456992   -0.00015824627036884766
-0.02514789260089217   -0.0014248247251406481   -0.00034836589190949505
-0.025043891308441073   -0.01394140152531979   -0.0004513081875515299
-0.02520536769096498   -0.0013178800052979656   -0.00034548597665200377
-0.017757677407272368   -0.013750739393921844   -0.00021035162385701168
-0.0251151301909308   -0.013834453698615674   -0.00042116639860953026
-0.02520536769096498   -0.0013178800052979656   -0.00034548597665200377
-0.025043891308441073   -0.01394140152531979   -0.0004513081875515299
-0.017757677407272368   -0.013750739393921844   -0.00021035162385701168
-0.02520536769096498   -0.0013178800052979656   -0.00034548597665200377
-0.017924917337287294   -0.0013089293301007203   -0.0001399299956949532
-0.01784007818778545   -0.0014324867408456992   -0.00015824627036884766
-0.017757677407272368   -0.013750739393921844   -0.00021035162385701168
-0.02520536769096498   -0.0013178800052979656   -0.00034548597665200377
-0.01784007818778545   -0.0014324867408456992   -0.00015824627036884766
-0.025043891308441073   -0.01394140152531979   -0.0004513081875515299
-0.017757677407272368   -0.013750739393921844   -0.00021035162385701168
-0.017924917337287294   -0.0013089293301007203   -0.0001399299956949532
-0.0251151301909308   -0.013834453698615674   -0.00042116639860953026
-0.017835892646483772   -0.01362586801187805   -0.00016411165667659243
-0.017924917337287294   -0.0013089293301007203   -0.0001399299956949532
-0.02520536769096498   -0.0013178800052979656   -0.00034548597665200377
-0.0251151301909308   -0.013834453698615674   -0.00042116639860953026
-0.025248733679525556   -0.00120237936677307   -0.00034439305672270154
-0.017835892646483772   -0.01362586801187805   -0.00016411165667659243
-0.02517962504067566   -0.013720646724752756   -0.00039016793437612196
-0.025248733679525556   -0.00120237936677307   -0.00034439305672270154
-0.0251151301909308   -0.013834453698615674   -0.00042116639860953026
-0.017835892646483772   -0.01362586801187805   -0.00016411165667659243
-0.025248733679525556   -0.00120237936677307   -0.00034439305672270154
-0.018005048691739498   -0.001159094426717506   -0.0001156966262779891
-0.017924917337287294   -0.0013089293301007203   -0.0001399299956949532
-0.017835892646483772   -0.01362586801187805   -0.00016411165667659243
-0.025248733679525556   -0.00120237936677307   -0.00034439305672270154
-0.017924917337287294   -0.0013089293301007203   -0.0001399299956949532
-0.0251151301909308   -0.013834453698615674   -0.00042116639860953026
-0.024963943262829764   -0.014039664292194045   -0.00048236822670688227
-0.025092814883719845   -0.0015211658226664715   -0.00035277072768404277
-0.03260548190573816   -0.014046963666793073   -0.0006377271515077225
-0.025043891308441073   -0.01394140152531979   -0.0004513081875515299
-0.025092814883719845   -0.0015211658226664715   -0.00035277072768404277
-0.03262875057694422   -0.0015099245475203424   -0.0005339234956256958
-0.03260548190573816   -0.014046963666793073   -0.0006377271515077225
-0.03267309322877944   -0.001405309930235489   -0.0005339354506720386
-0.025043891308441073   -0.01394140152531979   -0.0004513081875515299
-0.03267427250428579   -0.013951533431193727   -0.0006244961209773901
-0.03267309322877944   -0.001405309930235489   -0.0005339354506720386
-0.03260548190573816   -0.014046963666793073   -0.0006377271515077225
-0.025043891308441073   -0.01394140152531979   -0.0004513081875515299
-0.03267309322877944   -0.001405309930235489   -0.0005339354506720386
-0.02514789260089217   -0.0014248247251406481   -0.00034836589190949505
-0.025092814883719845   -0.0015211658226664715   -0.00035277072768404277
-0.025043891308441073   -0.01394140152531979   -0.0004513081875515299
-0.03267309322877944   -0.001405309930235489   -0.0005339354506720386
-0.025092814883719845   -0.0015211658226664715   -0.00035277072768404277
-0.03260548190573816   -0.014046963666793073   -0.0006377271515077225
-0.025043891308441073   -0.01394140152531979   -0.0004513081875515299
-0.02514789260089217   -0.0014248247251406481   -0.00034836589190949505
-0.03267427250428579   -0.013951533431193727   -0.0006244961209773901
-0.0251151301909308   -0.013834453698615674   -0.00042116639860953026
-0.02514789260089217   -0.0014248247251406481   -0.00034836589190949505
-0.03267309322877944   -0.001405309930235489   -0.0005339354506720386
-0.03267427250428579   -0.013951533431193727   -0.0006244961209773901
-0.03272179515380666   -0.0013009931701670951   -0.0005421001489708864
-0.0251151301909308   -0.013834453698615674   -0.00042116639860953026
-0.03273590273128834   -0.013848435133014663   -0.0006090409385227002
-0.03272179515380666   -0.0013009931701670951   -0.0005421001489708864
-0.03267427250428579   -0.013951533431193727   -0.0006244961209773901
-0.0251151301909308   -0.013834453698615674   -0.00042116639860953026
-0.03272179515380666   -0.0013009931701670951   -0.0005421001489708864
-0.02520536769096498   -0.0013178800052979656   -0.00034548597665200377
-0.02514789260089217   -0.0014248247251406481   -0.00034836589190949505
-0.0251151301909308   -0.013834453698615674   -0.00042116639860953026
-0.03272179515380666   -0.0013009931701670951   -0.0005421001489708864
-0.02514789260089217   -0.0014248247251406481   -0.00034836589190949505
-0.03267427250428579   -0.013951533431193727   -0.0006244961209773901
-0.0251151301909308   -0.013834453698615674   -0.00042116639860953026
-0.02520536769096498   -0.0013178800052979656   -0.00034548597665200377
-0.03273590273128834   -0.013848435133014663   -0.0006090409385227002
-0.02517962504067566   -0.013720646724752756   -0.00039016793437612196
-0.02520536769096498   -0.0013178800052979656   -0.00034548597665200377
-0.03272179515380666   -0.0013009931701670951   -0.0005421001489708864
-0.03273590273128834   -0.013848435133014663   -0.0006090409385227002
-0.0327575810946444   -0.0011875577427910083   -0.000550827012789726
-0.02517962504067566   -0.013720646724752756   -0.00039016793437612196
-0.032787856721223904   -0.013739248534363388   -0.0005947329971078677
-0.0327575810946444   -0.0011875577427910083   -0.000550827012789726
-0.03273590273128834   -0.013848435133014663   -0.0006090409385227002
-0.02517962504067566   -0.013720646724752756   -0.00039016793437612196
-0.0327575810946444   -0.0011875577427910083   -0.000550827012789726
-0.025248733679525556   -0.00120237936677307   -0.00034439305672270154
-0.02520536769096498   -0.0013178800052979656   -0.00034548597665200377
-0.02517962504067566   -0.013720646724752756   -0.00039016793437612196
-0.0327575810946444   -0.0011875577427910083   -0.000550827012789726
-0.02520536769096498   -0.0013178800052979656   -0.00034548597665200377
-0.03273590273128834   -0.013848435133014663   -0.0006090409385227002
              </DataArray>   
          </PointData>  
       </Piece>  
   </UnstructuredGrid> 
</VTKFile> 
