<?xml version="1.0"?> 
<VTKFile type="UnstructuredGrid"> 
   <UnstructuredGrid> 
      <Piece NumberOfPoints="6000"  NumberOfCells="1500">  
          <Points>  
             <DataArray type="Float64" NumberOfComponents="3" format="ascii">   
-500.0   0.0   0.0
-450.0   0.0   0.0
-500.0   30.0   0.0
-500.0   0.0   16.666666666666668
-450.0   0.0   0.0
-450.0   30.0   0.0
-500.0   30.0   0.0
-450.0   30.0   16.666666666666668
-500.0   0.0   16.666666666666668
-500.0   30.0   16.666666666666668
-450.0   30.0   16.666666666666668
-500.0   30.0   0.0
-500.0   0.0   16.666666666666668
-450.0   30.0   16.666666666666668
-450.0   0.0   16.666666666666668
-450.0   0.0   0.0
-500.0   0.0   16.666666666666668
-450.0   30.0   16.666666666666668
-450.0   0.0   0.0
-500.0   30.0   0.0
-500.0   0.0   16.666666666666668
-450.0   0.0   16.666666666666668
-500.0   30.0   16.666666666666668
-500.0   0.0   33.333333333333336
-450.0   0.0   16.666666666666668
-450.0   30.0   16.666666666666668
-500.0   30.0   16.666666666666668
-450.0   30.0   33.333333333333336
-500.0   0.0   33.333333333333336
-500.0   30.0   33.333333333333336
-450.0   30.0   33.333333333333336
-500.0   30.0   16.666666666666668
-500.0   0.0   33.333333333333336
-450.0   30.0   33.333333333333336
-450.0   0.0   33.333333333333336
-450.0   0.0   16.666666666666668
-500.0   0.0   33.333333333333336
-450.0   30.0   33.333333333333336
-450.0   0.0   16.666666666666668
-500.0   30.0   16.666666666666668
-500.0   0.0   33.333333333333336
-450.0   0.0   33.333333333333336
-500.0   30.0   33.333333333333336
-500.0   0.0   50.0
-450.0   0.0   33.333333333333336
-450.0   30.0   33.333333333333336
-500.0   30.0   33.333333333333336
-450.0   30.0   50.0
-500.0   0.0   50.0
-500.0   30.0   50.0
-450.0   30.0   50.0
-500.0   30.0   33.333333333333336
-500.0   0.0   50.0
-450.0   30.0   50.0
-450.0   0.0   50.0
-450.0   0.0   33.333333333333336
-500.0   0.0   50.0
-450.0   30.0   50.0
-450.0   0.0   33.333333333333336
-500.0   30.0   33.333333333333336
-500.0   30.0   0.0
-450.0   30.0   0.0
-500.0   60.0   0.0
-500.0   30.0   16.666666666666668
-450.0   30.0   0.0
-450.0   60.0   0.0
-500.0   60.0   0.0
-450.0   60.0   16.666666666666668
-500.0   30.0   16.666666666666668
-500.0   60.0   16.666666666666668
-450.0   60.0   16.666666666666668
-500.0   60.0   0.0
-500.0   30.0   16.666666666666668
-450.0   60.0   16.666666666666668
-450.0   30.0   16.666666666666668
-450.0   30.0   0.0
-500.0   30.0   16.666666666666668
-450.0   60.0   16.666666666666668
-450.0   30.0   0.0
-500.0   60.0   0.0
-500.0   30.0   16.666666666666668
-450.0   30.0   16.666666666666668
-500.0   60.0   16.666666666666668
-500.0   30.0   33.333333333333336
-450.0   30.0   16.666666666666668
-450.0   60.0   16.666666666666668
-500.0   60.0   16.666666666666668
-450.0   60.0   33.333333333333336
-500.0   30.0   33.333333333333336
-500.0   60.0   33.333333333333336
-450.0   60.0   33.333333333333336
-500.0   60.0   16.666666666666668
-500.0   30.0   33.333333333333336
-450.0   60.0   33.333333333333336
-450.0   30.0   33.333333333333336
-450.0   30.0   16.666666666666668
-500.0   30.0   33.333333333333336
-450.0   60.0   33.333333333333336
-450.0   30.0   16.666666666666668
-500.0   60.0   16.666666666666668
-500.0   30.0   33.333333333333336
-450.0   30.0   33.333333333333336
-500.0   60.0   33.333333333333336
-500.0   30.0   50.0
-450.0   30.0   33.333333333333336
-450.0   60.0   33.333333333333336
-500.0   60.0   33.333333333333336
-450.0   60.0   50.0
-500.0   30.0   50.0
-500.0   60.0   50.0
-450.0   60.0   50.0
-500.0   60.0   33.333333333333336
-500.0   30.0   50.0
-450.0   60.0   50.0
-450.0   30.0   50.0
-450.0   30.0   33.333333333333336
-500.0   30.0   50.0
-450.0   60.0   50.0
-450.0   30.0   33.333333333333336
-500.0   60.0   33.333333333333336
-500.0   60.0   0.0
-450.0   60.0   0.0
-500.0   90.0   0.0
-500.0   60.0   16.666666666666668
-450.0   60.0   0.0
-450.0   90.0   0.0
-500.0   90.0   0.0
-450.0   90.0   16.666666666666668
-500.0   60.0   16.666666666666668
-500.0   90.0   16.666666666666668
-450.0   90.0   16.666666666666668
-500.0   90.0   0.0
-500.0   60.0   16.666666666666668
-450.0   90.0   16.666666666666668
-450.0   60.0   16.666666666666668
-450.0   60.0   0.0
-500.0   60.0   16.666666666666668
-450.0   90.0   16.666666666666668
-450.0   60.0   0.0
-500.0   90.0   0.0
-500.0   60.0   16.666666666666668
-450.0   60.0   16.666666666666668
-500.0   90.0   16.666666666666668
-500.0   60.0   33.333333333333336
-450.0   60.0   16.666666666666668
-450.0   90.0   16.666666666666668
-500.0   90.0   16.666666666666668
-450.0   90.0   33.333333333333336
-500.0   60.0   33.333333333333336
-500.0   90.0   33.333333333333336
-450.0   90.0   33.333333333333336
-500.0   90.0   16.666666666666668
-500.0   60.0   33.333333333333336
-450.0   90.0   33.333333333333336
-450.0   60.0   33.333333333333336
-450.0   60.0   16.666666666666668
-500.0   60.0   33.333333333333336
-450.0   90.0   33.333333333333336
-450.0   60.0   16.666666666666668
-500.0   90.0   16.666666666666668
-500.0   60.0   33.333333333333336
-450.0   60.0   33.333333333333336
-500.0   90.0   33.333333333333336
-500.0   60.0   50.0
-450.0   60.0   33.333333333333336
-450.0   90.0   33.333333333333336
-500.0   90.0   33.333333333333336
-450.0   90.0   50.0
-500.0   60.0   50.0
-500.0   90.0   50.0
-450.0   90.0   50.0
-500.0   90.0   33.333333333333336
-500.0   60.0   50.0
-450.0   90.0   50.0
-450.0   60.0   50.0
-450.0   60.0   33.333333333333336
-500.0   60.0   50.0
-450.0   90.0   50.0
-450.0   60.0   33.333333333333336
-500.0   90.0   33.333333333333336
-500.0   90.0   0.0
-450.0   90.0   0.0
-500.0   120.0   0.0
-500.0   90.0   16.666666666666668
-450.0   90.0   0.0
-450.0   120.0   0.0
-500.0   120.0   0.0
-450.0   120.0   16.666666666666668
-500.0   90.0   16.666666666666668
-500.0   120.0   16.666666666666668
-450.0   120.0   16.666666666666668
-500.0   120.0   0.0
-500.0   90.0   16.666666666666668
-450.0   120.0   16.666666666666668
-450.0   90.0   16.666666666666668
-450.0   90.0   0.0
-500.0   90.0   16.666666666666668
-450.0   120.0   16.666666666666668
-450.0   90.0   0.0
-500.0   120.0   0.0
-500.0   90.0   16.666666666666668
-450.0   90.0   16.666666666666668
-500.0   120.0   16.666666666666668
-500.0   90.0   33.333333333333336
-450.0   90.0   16.666666666666668
-450.0   120.0   16.666666666666668
-500.0   120.0   16.666666666666668
-450.0   120.0   33.333333333333336
-500.0   90.0   33.333333333333336
-500.0   120.0   33.333333333333336
-450.0   120.0   33.333333333333336
-500.0   120.0   16.666666666666668
-500.0   90.0   33.333333333333336
-450.0   120.0   33.333333333333336
-450.0   90.0   33.333333333333336
-450.0   90.0   16.666666666666668
-500.0   90.0   33.333333333333336
-450.0   120.0   33.333333333333336
-450.0   90.0   16.666666666666668
-500.0   120.0   16.666666666666668
-500.0   90.0   33.333333333333336
-450.0   90.0   33.333333333333336
-500.0   120.0   33.333333333333336
-500.0   90.0   50.0
-450.0   90.0   33.333333333333336
-450.0   120.0   33.333333333333336
-500.0   120.0   33.333333333333336
-450.0   120.0   50.0
-500.0   90.0   50.0
-500.0   120.0   50.0
-450.0   120.0   50.0
-500.0   120.0   33.333333333333336
-500.0   90.0   50.0
-450.0   120.0   50.0
-450.0   90.0   50.0
-450.0   90.0   33.333333333333336
-500.0   90.0   50.0
-450.0   120.0   50.0
-450.0   90.0   33.333333333333336
-500.0   120.0   33.333333333333336
-500.0   120.0   0.0
-450.0   120.0   0.0
-500.0   150.0   0.0
-500.0   120.0   16.666666666666668
-450.0   120.0   0.0
-450.0   150.0   0.0
-500.0   150.0   0.0
-450.0   150.0   16.666666666666668
-500.0   120.0   16.666666666666668
-500.0   150.0   16.666666666666668
-450.0   150.0   16.666666666666668
-500.0   150.0   0.0
-500.0   120.0   16.666666666666668
-450.0   150.0   16.666666666666668
-450.0   120.0   16.666666666666668
-450.0   120.0   0.0
-500.0   120.0   16.666666666666668
-450.0   150.0   16.666666666666668
-450.0   120.0   0.0
-500.0   150.0   0.0
-500.0   120.0   16.666666666666668
-450.0   120.0   16.666666666666668
-500.0   150.0   16.666666666666668
-500.0   120.0   33.333333333333336
-450.0   120.0   16.666666666666668
-450.0   150.0   16.666666666666668
-500.0   150.0   16.666666666666668
-450.0   150.0   33.333333333333336
-500.0   120.0   33.333333333333336
-500.0   150.0   33.333333333333336
-450.0   150.0   33.333333333333336
-500.0   150.0   16.666666666666668
-500.0   120.0   33.333333333333336
-450.0   150.0   33.333333333333336
-450.0   120.0   33.333333333333336
-450.0   120.0   16.666666666666668
-500.0   120.0   33.333333333333336
-450.0   150.0   33.333333333333336
-450.0   120.0   16.666666666666668
-500.0   150.0   16.666666666666668
-500.0   120.0   33.333333333333336
-450.0   120.0   33.333333333333336
-500.0   150.0   33.333333333333336
-500.0   120.0   50.0
-450.0   120.0   33.333333333333336
-450.0   150.0   33.333333333333336
-500.0   150.0   33.333333333333336
-450.0   150.0   50.0
-500.0   120.0   50.0
-500.0   150.0   50.0
-450.0   150.0   50.0
-500.0   150.0   33.333333333333336
-500.0   120.0   50.0
-450.0   150.0   50.0
-450.0   120.0   50.0
-450.0   120.0   33.333333333333336
-500.0   120.0   50.0
-450.0   150.0   50.0
-450.0   120.0   33.333333333333336
-500.0   150.0   33.333333333333336
-450.0   0.0   0.0
-400.0   0.0   0.0
-450.0   30.0   0.0
-450.0   0.0   16.666666666666668
-400.0   0.0   0.0
-400.0   30.0   0.0
-450.0   30.0   0.0
-400.0   30.0   16.666666666666668
-450.0   0.0   16.666666666666668
-450.0   30.0   16.666666666666668
-400.0   30.0   16.666666666666668
-450.0   30.0   0.0
-450.0   0.0   16.666666666666668
-400.0   30.0   16.666666666666668
-400.0   0.0   16.666666666666668
-400.0   0.0   0.0
-450.0   0.0   16.666666666666668
-400.0   30.0   16.666666666666668
-400.0   0.0   0.0
-450.0   30.0   0.0
-450.0   0.0   16.666666666666668
-400.0   0.0   16.666666666666668
-450.0   30.0   16.666666666666668
-450.0   0.0   33.333333333333336
-400.0   0.0   16.666666666666668
-400.0   30.0   16.666666666666668
-450.0   30.0   16.666666666666668
-400.0   30.0   33.333333333333336
-450.0   0.0   33.333333333333336
-450.0   30.0   33.333333333333336
-400.0   30.0   33.333333333333336
-450.0   30.0   16.666666666666668
-450.0   0.0   33.333333333333336
-400.0   30.0   33.333333333333336
-400.0   0.0   33.333333333333336
-400.0   0.0   16.666666666666668
-450.0   0.0   33.333333333333336
-400.0   30.0   33.333333333333336
-400.0   0.0   16.666666666666668
-450.0   30.0   16.666666666666668
-450.0   0.0   33.333333333333336
-400.0   0.0   33.333333333333336
-450.0   30.0   33.333333333333336
-450.0   0.0   50.0
-400.0   0.0   33.333333333333336
-400.0   30.0   33.333333333333336
-450.0   30.0   33.333333333333336
-400.0   30.0   50.0
-450.0   0.0   50.0
-450.0   30.0   50.0
-400.0   30.0   50.0
-450.0   30.0   33.333333333333336
-450.0   0.0   50.0
-400.0   30.0   50.0
-400.0   0.0   50.0
-400.0   0.0   33.333333333333336
-450.0   0.0   50.0
-400.0   30.0   50.0
-400.0   0.0   33.333333333333336
-450.0   30.0   33.333333333333336
-450.0   30.0   0.0
-400.0   30.0   0.0
-450.0   60.0   0.0
-450.0   30.0   16.666666666666668
-400.0   30.0   0.0
-400.0   60.0   0.0
-450.0   60.0   0.0
-400.0   60.0   16.666666666666668
-450.0   30.0   16.666666666666668
-450.0   60.0   16.666666666666668
-400.0   60.0   16.666666666666668
-450.0   60.0   0.0
-450.0   30.0   16.666666666666668
-400.0   60.0   16.666666666666668
-400.0   30.0   16.666666666666668
-400.0   30.0   0.0
-450.0   30.0   16.666666666666668
-400.0   60.0   16.666666666666668
-400.0   30.0   0.0
-450.0   60.0   0.0
-450.0   30.0   16.666666666666668
-400.0   30.0   16.666666666666668
-450.0   60.0   16.666666666666668
-450.0   30.0   33.333333333333336
-400.0   30.0   16.666666666666668
-400.0   60.0   16.666666666666668
-450.0   60.0   16.666666666666668
-400.0   60.0   33.333333333333336
-450.0   30.0   33.333333333333336
-450.0   60.0   33.333333333333336
-400.0   60.0   33.333333333333336
-450.0   60.0   16.666666666666668
-450.0   30.0   33.333333333333336
-400.0   60.0   33.333333333333336
-400.0   30.0   33.333333333333336
-400.0   30.0   16.666666666666668
-450.0   30.0   33.333333333333336
-400.0   60.0   33.333333333333336
-400.0   30.0   16.666666666666668
-450.0   60.0   16.666666666666668
-450.0   30.0   33.333333333333336
-400.0   30.0   33.333333333333336
-450.0   60.0   33.333333333333336
-450.0   30.0   50.0
-400.0   30.0   33.333333333333336
-400.0   60.0   33.333333333333336
-450.0   60.0   33.333333333333336
-400.0   60.0   50.0
-450.0   30.0   50.0
-450.0   60.0   50.0
-400.0   60.0   50.0
-450.0   60.0   33.333333333333336
-450.0   30.0   50.0
-400.0   60.0   50.0
-400.0   30.0   50.0
-400.0   30.0   33.333333333333336
-450.0   30.0   50.0
-400.0   60.0   50.0
-400.0   30.0   33.333333333333336
-450.0   60.0   33.333333333333336
-450.0   60.0   0.0
-400.0   60.0   0.0
-450.0   90.0   0.0
-450.0   60.0   16.666666666666668
-400.0   60.0   0.0
-400.0   90.0   0.0
-450.0   90.0   0.0
-400.0   90.0   16.666666666666668
-450.0   60.0   16.666666666666668
-450.0   90.0   16.666666666666668
-400.0   90.0   16.666666666666668
-450.0   90.0   0.0
-450.0   60.0   16.666666666666668
-400.0   90.0   16.666666666666668
-400.0   60.0   16.666666666666668
-400.0   60.0   0.0
-450.0   60.0   16.666666666666668
-400.0   90.0   16.666666666666668
-400.0   60.0   0.0
-450.0   90.0   0.0
-450.0   60.0   16.666666666666668
-400.0   60.0   16.666666666666668
-450.0   90.0   16.666666666666668
-450.0   60.0   33.333333333333336
-400.0   60.0   16.666666666666668
-400.0   90.0   16.666666666666668
-450.0   90.0   16.666666666666668
-400.0   90.0   33.333333333333336
-450.0   60.0   33.333333333333336
-450.0   90.0   33.333333333333336
-400.0   90.0   33.333333333333336
-450.0   90.0   16.666666666666668
-450.0   60.0   33.333333333333336
-400.0   90.0   33.333333333333336
-400.0   60.0   33.333333333333336
-400.0   60.0   16.666666666666668
-450.0   60.0   33.333333333333336
-400.0   90.0   33.333333333333336
-400.0   60.0   16.666666666666668
-450.0   90.0   16.666666666666668
-450.0   60.0   33.333333333333336
-400.0   60.0   33.333333333333336
-450.0   90.0   33.333333333333336
-450.0   60.0   50.0
-400.0   60.0   33.333333333333336
-400.0   90.0   33.333333333333336
-450.0   90.0   33.333333333333336
-400.0   90.0   50.0
-450.0   60.0   50.0
-450.0   90.0   50.0
-400.0   90.0   50.0
-450.0   90.0   33.333333333333336
-450.0   60.0   50.0
-400.0   90.0   50.0
-400.0   60.0   50.0
-400.0   60.0   33.333333333333336
-450.0   60.0   50.0
-400.0   90.0   50.0
-400.0   60.0   33.333333333333336
-450.0   90.0   33.333333333333336
-450.0   90.0   0.0
-400.0   90.0   0.0
-450.0   120.0   0.0
-450.0   90.0   16.666666666666668
-400.0   90.0   0.0
-400.0   120.0   0.0
-450.0   120.0   0.0
-400.0   120.0   16.666666666666668
-450.0   90.0   16.666666666666668
-450.0   120.0   16.666666666666668
-400.0   120.0   16.666666666666668
-450.0   120.0   0.0
-450.0   90.0   16.666666666666668
-400.0   120.0   16.666666666666668
-400.0   90.0   16.666666666666668
-400.0   90.0   0.0
-450.0   90.0   16.666666666666668
-400.0   120.0   16.666666666666668
-400.0   90.0   0.0
-450.0   120.0   0.0
-450.0   90.0   16.666666666666668
-400.0   90.0   16.666666666666668
-450.0   120.0   16.666666666666668
-450.0   90.0   33.333333333333336
-400.0   90.0   16.666666666666668
-400.0   120.0   16.666666666666668
-450.0   120.0   16.666666666666668
-400.0   120.0   33.333333333333336
-450.0   90.0   33.333333333333336
-450.0   120.0   33.333333333333336
-400.0   120.0   33.333333333333336
-450.0   120.0   16.666666666666668
-450.0   90.0   33.333333333333336
-400.0   120.0   33.333333333333336
-400.0   90.0   33.333333333333336
-400.0   90.0   16.666666666666668
-450.0   90.0   33.333333333333336
-400.0   120.0   33.333333333333336
-400.0   90.0   16.666666666666668
-450.0   120.0   16.666666666666668
-450.0   90.0   33.333333333333336
-400.0   90.0   33.333333333333336
-450.0   120.0   33.333333333333336
-450.0   90.0   50.0
-400.0   90.0   33.333333333333336
-400.0   120.0   33.333333333333336
-450.0   120.0   33.333333333333336
-400.0   120.0   50.0
-450.0   90.0   50.0
-450.0   120.0   50.0
-400.0   120.0   50.0
-450.0   120.0   33.333333333333336
-450.0   90.0   50.0
-400.0   120.0   50.0
-400.0   90.0   50.0
-400.0   90.0   33.333333333333336
-450.0   90.0   50.0
-400.0   120.0   50.0
-400.0   90.0   33.333333333333336
-450.0   120.0   33.333333333333336
-450.0   120.0   0.0
-400.0   120.0   0.0
-450.0   150.0   0.0
-450.0   120.0   16.666666666666668
-400.0   120.0   0.0
-400.0   150.0   0.0
-450.0   150.0   0.0
-400.0   150.0   16.666666666666668
-450.0   120.0   16.666666666666668
-450.0   150.0   16.666666666666668
-400.0   150.0   16.666666666666668
-450.0   150.0   0.0
-450.0   120.0   16.666666666666668
-400.0   150.0   16.666666666666668
-400.0   120.0   16.666666666666668
-400.0   120.0   0.0
-450.0   120.0   16.666666666666668
-400.0   150.0   16.666666666666668
-400.0   120.0   0.0
-450.0   150.0   0.0
-450.0   120.0   16.666666666666668
-400.0   120.0   16.666666666666668
-450.0   150.0   16.666666666666668
-450.0   120.0   33.333333333333336
-400.0   120.0   16.666666666666668
-400.0   150.0   16.666666666666668
-450.0   150.0   16.666666666666668
-400.0   150.0   33.333333333333336
-450.0   120.0   33.333333333333336
-450.0   150.0   33.333333333333336
-400.0   150.0   33.333333333333336
-450.0   150.0   16.666666666666668
-450.0   120.0   33.333333333333336
-400.0   150.0   33.333333333333336
-400.0   120.0   33.333333333333336
-400.0   120.0   16.666666666666668
-450.0   120.0   33.333333333333336
-400.0   150.0   33.333333333333336
-400.0   120.0   16.666666666666668
-450.0   150.0   16.666666666666668
-450.0   120.0   33.333333333333336
-400.0   120.0   33.333333333333336
-450.0   150.0   33.333333333333336
-450.0   120.0   50.0
-400.0   120.0   33.333333333333336
-400.0   150.0   33.333333333333336
-450.0   150.0   33.333333333333336
-400.0   150.0   50.0
-450.0   120.0   50.0
-450.0   150.0   50.0
-400.0   150.0   50.0
-450.0   150.0   33.333333333333336
-450.0   120.0   50.0
-400.0   150.0   50.0
-400.0   120.0   50.0
-400.0   120.0   33.333333333333336
-450.0   120.0   50.0
-400.0   150.0   50.0
-400.0   120.0   33.333333333333336
-450.0   150.0   33.333333333333336
-400.0   0.0   0.0
-350.0   0.0   0.0
-400.0   30.0   0.0
-400.0   0.0   16.666666666666668
-350.0   0.0   0.0
-350.0   30.0   0.0
-400.0   30.0   0.0
-350.0   30.0   16.666666666666668
-400.0   0.0   16.666666666666668
-400.0   30.0   16.666666666666668
-350.0   30.0   16.666666666666668
-400.0   30.0   0.0
-400.0   0.0   16.666666666666668
-350.0   30.0   16.666666666666668
-350.0   0.0   16.666666666666668
-350.0   0.0   0.0
-400.0   0.0   16.666666666666668
-350.0   30.0   16.666666666666668
-350.0   0.0   0.0
-400.0   30.0   0.0
-400.0   0.0   16.666666666666668
-350.0   0.0   16.666666666666668
-400.0   30.0   16.666666666666668
-400.0   0.0   33.333333333333336
-350.0   0.0   16.666666666666668
-350.0   30.0   16.666666666666668
-400.0   30.0   16.666666666666668
-350.0   30.0   33.333333333333336
-400.0   0.0   33.333333333333336
-400.0   30.0   33.333333333333336
-350.0   30.0   33.333333333333336
-400.0   30.0   16.666666666666668
-400.0   0.0   33.333333333333336
-350.0   30.0   33.333333333333336
-350.0   0.0   33.333333333333336
-350.0   0.0   16.666666666666668
-400.0   0.0   33.333333333333336
-350.0   30.0   33.333333333333336
-350.0   0.0   16.666666666666668
-400.0   30.0   16.666666666666668
-400.0   0.0   33.333333333333336
-350.0   0.0   33.333333333333336
-400.0   30.0   33.333333333333336
-400.0   0.0   50.0
-350.0   0.0   33.333333333333336
-350.0   30.0   33.333333333333336
-400.0   30.0   33.333333333333336
-350.0   30.0   50.0
-400.0   0.0   50.0
-400.0   30.0   50.0
-350.0   30.0   50.0
-400.0   30.0   33.333333333333336
-400.0   0.0   50.0
-350.0   30.0   50.0
-350.0   0.0   50.0
-350.0   0.0   33.333333333333336
-400.0   0.0   50.0
-350.0   30.0   50.0
-350.0   0.0   33.333333333333336
-400.0   30.0   33.333333333333336
-400.0   30.0   0.0
-350.0   30.0   0.0
-400.0   60.0   0.0
-400.0   30.0   16.666666666666668
-350.0   30.0   0.0
-350.0   60.0   0.0
-400.0   60.0   0.0
-350.0   60.0   16.666666666666668
-400.0   30.0   16.666666666666668
-400.0   60.0   16.666666666666668
-350.0   60.0   16.666666666666668
-400.0   60.0   0.0
-400.0   30.0   16.666666666666668
-350.0   60.0   16.666666666666668
-350.0   30.0   16.666666666666668
-350.0   30.0   0.0
-400.0   30.0   16.666666666666668
-350.0   60.0   16.666666666666668
-350.0   30.0   0.0
-400.0   60.0   0.0
-400.0   30.0   16.666666666666668
-350.0   30.0   16.666666666666668
-400.0   60.0   16.666666666666668
-400.0   30.0   33.333333333333336
-350.0   30.0   16.666666666666668
-350.0   60.0   16.666666666666668
-400.0   60.0   16.666666666666668
-350.0   60.0   33.333333333333336
-400.0   30.0   33.333333333333336
-400.0   60.0   33.333333333333336
-350.0   60.0   33.333333333333336
-400.0   60.0   16.666666666666668
-400.0   30.0   33.333333333333336
-350.0   60.0   33.333333333333336
-350.0   30.0   33.333333333333336
-350.0   30.0   16.666666666666668
-400.0   30.0   33.333333333333336
-350.0   60.0   33.333333333333336
-350.0   30.0   16.666666666666668
-400.0   60.0   16.666666666666668
-400.0   30.0   33.333333333333336
-350.0   30.0   33.333333333333336
-400.0   60.0   33.333333333333336
-400.0   30.0   50.0
-350.0   30.0   33.333333333333336
-350.0   60.0   33.333333333333336
-400.0   60.0   33.333333333333336
-350.0   60.0   50.0
-400.0   30.0   50.0
-400.0   60.0   50.0
-350.0   60.0   50.0
-400.0   60.0   33.333333333333336
-400.0   30.0   50.0
-350.0   60.0   50.0
-350.0   30.0   50.0
-350.0   30.0   33.333333333333336
-400.0   30.0   50.0
-350.0   60.0   50.0
-350.0   30.0   33.333333333333336
-400.0   60.0   33.333333333333336
-400.0   60.0   0.0
-350.0   60.0   0.0
-400.0   90.0   0.0
-400.0   60.0   16.666666666666668
-350.0   60.0   0.0
-350.0   90.0   0.0
-400.0   90.0   0.0
-350.0   90.0   16.666666666666668
-400.0   60.0   16.666666666666668
-400.0   90.0   16.666666666666668
-350.0   90.0   16.666666666666668
-400.0   90.0   0.0
-400.0   60.0   16.666666666666668
-350.0   90.0   16.666666666666668
-350.0   60.0   16.666666666666668
-350.0   60.0   0.0
-400.0   60.0   16.666666666666668
-350.0   90.0   16.666666666666668
-350.0   60.0   0.0
-400.0   90.0   0.0
-400.0   60.0   16.666666666666668
-350.0   60.0   16.666666666666668
-400.0   90.0   16.666666666666668
-400.0   60.0   33.333333333333336
-350.0   60.0   16.666666666666668
-350.0   90.0   16.666666666666668
-400.0   90.0   16.666666666666668
-350.0   90.0   33.333333333333336
-400.0   60.0   33.333333333333336
-400.0   90.0   33.333333333333336
-350.0   90.0   33.333333333333336
-400.0   90.0   16.666666666666668
-400.0   60.0   33.333333333333336
-350.0   90.0   33.333333333333336
-350.0   60.0   33.333333333333336
-350.0   60.0   16.666666666666668
-400.0   60.0   33.333333333333336
-350.0   90.0   33.333333333333336
-350.0   60.0   16.666666666666668
-400.0   90.0   16.666666666666668
-400.0   60.0   33.333333333333336
-350.0   60.0   33.333333333333336
-400.0   90.0   33.333333333333336
-400.0   60.0   50.0
-350.0   60.0   33.333333333333336
-350.0   90.0   33.333333333333336
-400.0   90.0   33.333333333333336
-350.0   90.0   50.0
-400.0   60.0   50.0
-400.0   90.0   50.0
-350.0   90.0   50.0
-400.0   90.0   33.333333333333336
-400.0   60.0   50.0
-350.0   90.0   50.0
-350.0   60.0   50.0
-350.0   60.0   33.333333333333336
-400.0   60.0   50.0
-350.0   90.0   50.0
-350.0   60.0   33.333333333333336
-400.0   90.0   33.333333333333336
-400.0   90.0   0.0
-350.0   90.0   0.0
-400.0   120.0   0.0
-400.0   90.0   16.666666666666668
-350.0   90.0   0.0
-350.0   120.0   0.0
-400.0   120.0   0.0
-350.0   120.0   16.666666666666668
-400.0   90.0   16.666666666666668
-400.0   120.0   16.666666666666668
-350.0   120.0   16.666666666666668
-400.0   120.0   0.0
-400.0   90.0   16.666666666666668
-350.0   120.0   16.666666666666668
-350.0   90.0   16.666666666666668
-350.0   90.0   0.0
-400.0   90.0   16.666666666666668
-350.0   120.0   16.666666666666668
-350.0   90.0   0.0
-400.0   120.0   0.0
-400.0   90.0   16.666666666666668
-350.0   90.0   16.666666666666668
-400.0   120.0   16.666666666666668
-400.0   90.0   33.333333333333336
-350.0   90.0   16.666666666666668
-350.0   120.0   16.666666666666668
-400.0   120.0   16.666666666666668
-350.0   120.0   33.333333333333336
-400.0   90.0   33.333333333333336
-400.0   120.0   33.333333333333336
-350.0   120.0   33.333333333333336
-400.0   120.0   16.666666666666668
-400.0   90.0   33.333333333333336
-350.0   120.0   33.333333333333336
-350.0   90.0   33.333333333333336
-350.0   90.0   16.666666666666668
-400.0   90.0   33.333333333333336
-350.0   120.0   33.333333333333336
-350.0   90.0   16.666666666666668
-400.0   120.0   16.666666666666668
-400.0   90.0   33.333333333333336
-350.0   90.0   33.333333333333336
-400.0   120.0   33.333333333333336
-400.0   90.0   50.0
-350.0   90.0   33.333333333333336
-350.0   120.0   33.333333333333336
-400.0   120.0   33.333333333333336
-350.0   120.0   50.0
-400.0   90.0   50.0
-400.0   120.0   50.0
-350.0   120.0   50.0
-400.0   120.0   33.333333333333336
-400.0   90.0   50.0
-350.0   120.0   50.0
-350.0   90.0   50.0
-350.0   90.0   33.333333333333336
-400.0   90.0   50.0
-350.0   120.0   50.0
-350.0   90.0   33.333333333333336
-400.0   120.0   33.333333333333336
-400.0   120.0   0.0
-350.0   120.0   0.0
-400.0   150.0   0.0
-400.0   120.0   16.666666666666668
-350.0   120.0   0.0
-350.0   150.0   0.0
-400.0   150.0   0.0
-350.0   150.0   16.666666666666668
-400.0   120.0   16.666666666666668
-400.0   150.0   16.666666666666668
-350.0   150.0   16.666666666666668
-400.0   150.0   0.0
-400.0   120.0   16.666666666666668
-350.0   150.0   16.666666666666668
-350.0   120.0   16.666666666666668
-350.0   120.0   0.0
-400.0   120.0   16.666666666666668
-350.0   150.0   16.666666666666668
-350.0   120.0   0.0
-400.0   150.0   0.0
-400.0   120.0   16.666666666666668
-350.0   120.0   16.666666666666668
-400.0   150.0   16.666666666666668
-400.0   120.0   33.333333333333336
-350.0   120.0   16.666666666666668
-350.0   150.0   16.666666666666668
-400.0   150.0   16.666666666666668
-350.0   150.0   33.333333333333336
-400.0   120.0   33.333333333333336
-400.0   150.0   33.333333333333336
-350.0   150.0   33.333333333333336
-400.0   150.0   16.666666666666668
-400.0   120.0   33.333333333333336
-350.0   150.0   33.333333333333336
-350.0   120.0   33.333333333333336
-350.0   120.0   16.666666666666668
-400.0   120.0   33.333333333333336
-350.0   150.0   33.333333333333336
-350.0   120.0   16.666666666666668
-400.0   150.0   16.666666666666668
-400.0   120.0   33.333333333333336
-350.0   120.0   33.333333333333336
-400.0   150.0   33.333333333333336
-400.0   120.0   50.0
-350.0   120.0   33.333333333333336
-350.0   150.0   33.333333333333336
-400.0   150.0   33.333333333333336
-350.0   150.0   50.0
-400.0   120.0   50.0
-400.0   150.0   50.0
-350.0   150.0   50.0
-400.0   150.0   33.333333333333336
-400.0   120.0   50.0
-350.0   150.0   50.0
-350.0   120.0   50.0
-350.0   120.0   33.333333333333336
-400.0   120.0   50.0
-350.0   150.0   50.0
-350.0   120.0   33.333333333333336
-400.0   150.0   33.333333333333336
-350.0   0.0   0.0
-300.0   0.0   0.0
-350.0   30.0   0.0
-350.0   0.0   16.666666666666668
-300.0   0.0   0.0
-300.0   30.0   0.0
-350.0   30.0   0.0
-300.0   30.0   16.666666666666668
-350.0   0.0   16.666666666666668
-350.0   30.0   16.666666666666668
-300.0   30.0   16.666666666666668
-350.0   30.0   0.0
-350.0   0.0   16.666666666666668
-300.0   30.0   16.666666666666668
-300.0   0.0   16.666666666666668
-300.0   0.0   0.0
-350.0   0.0   16.666666666666668
-300.0   30.0   16.666666666666668
-300.0   0.0   0.0
-350.0   30.0   0.0
-350.0   0.0   16.666666666666668
-300.0   0.0   16.666666666666668
-350.0   30.0   16.666666666666668
-350.0   0.0   33.333333333333336
-300.0   0.0   16.666666666666668
-300.0   30.0   16.666666666666668
-350.0   30.0   16.666666666666668
-300.0   30.0   33.333333333333336
-350.0   0.0   33.333333333333336
-350.0   30.0   33.333333333333336
-300.0   30.0   33.333333333333336
-350.0   30.0   16.666666666666668
-350.0   0.0   33.333333333333336
-300.0   30.0   33.333333333333336
-300.0   0.0   33.333333333333336
-300.0   0.0   16.666666666666668
-350.0   0.0   33.333333333333336
-300.0   30.0   33.333333333333336
-300.0   0.0   16.666666666666668
-350.0   30.0   16.666666666666668
-350.0   0.0   33.333333333333336
-300.0   0.0   33.333333333333336
-350.0   30.0   33.333333333333336
-350.0   0.0   50.0
-300.0   0.0   33.333333333333336
-300.0   30.0   33.333333333333336
-350.0   30.0   33.333333333333336
-300.0   30.0   50.0
-350.0   0.0   50.0
-350.0   30.0   50.0
-300.0   30.0   50.0
-350.0   30.0   33.333333333333336
-350.0   0.0   50.0
-300.0   30.0   50.0
-300.0   0.0   50.0
-300.0   0.0   33.333333333333336
-350.0   0.0   50.0
-300.0   30.0   50.0
-300.0   0.0   33.333333333333336
-350.0   30.0   33.333333333333336
-350.0   30.0   0.0
-300.0   30.0   0.0
-350.0   60.0   0.0
-350.0   30.0   16.666666666666668
-300.0   30.0   0.0
-300.0   60.0   0.0
-350.0   60.0   0.0
-300.0   60.0   16.666666666666668
-350.0   30.0   16.666666666666668
-350.0   60.0   16.666666666666668
-300.0   60.0   16.666666666666668
-350.0   60.0   0.0
-350.0   30.0   16.666666666666668
-300.0   60.0   16.666666666666668
-300.0   30.0   16.666666666666668
-300.0   30.0   0.0
-350.0   30.0   16.666666666666668
-300.0   60.0   16.666666666666668
-300.0   30.0   0.0
-350.0   60.0   0.0
-350.0   30.0   16.666666666666668
-300.0   30.0   16.666666666666668
-350.0   60.0   16.666666666666668
-350.0   30.0   33.333333333333336
-300.0   30.0   16.666666666666668
-300.0   60.0   16.666666666666668
-350.0   60.0   16.666666666666668
-300.0   60.0   33.333333333333336
-350.0   30.0   33.333333333333336
-350.0   60.0   33.333333333333336
-300.0   60.0   33.333333333333336
-350.0   60.0   16.666666666666668
-350.0   30.0   33.333333333333336
-300.0   60.0   33.333333333333336
-300.0   30.0   33.333333333333336
-300.0   30.0   16.666666666666668
-350.0   30.0   33.333333333333336
-300.0   60.0   33.333333333333336
-300.0   30.0   16.666666666666668
-350.0   60.0   16.666666666666668
-350.0   30.0   33.333333333333336
-300.0   30.0   33.333333333333336
-350.0   60.0   33.333333333333336
-350.0   30.0   50.0
-300.0   30.0   33.333333333333336
-300.0   60.0   33.333333333333336
-350.0   60.0   33.333333333333336
-300.0   60.0   50.0
-350.0   30.0   50.0
-350.0   60.0   50.0
-300.0   60.0   50.0
-350.0   60.0   33.333333333333336
-350.0   30.0   50.0
-300.0   60.0   50.0
-300.0   30.0   50.0
-300.0   30.0   33.333333333333336
-350.0   30.0   50.0
-300.0   60.0   50.0
-300.0   30.0   33.333333333333336
-350.0   60.0   33.333333333333336
-350.0   60.0   0.0
-300.0   60.0   0.0
-350.0   90.0   0.0
-350.0   60.0   16.666666666666668
-300.0   60.0   0.0
-300.0   90.0   0.0
-350.0   90.0   0.0
-300.0   90.0   16.666666666666668
-350.0   60.0   16.666666666666668
-350.0   90.0   16.666666666666668
-300.0   90.0   16.666666666666668
-350.0   90.0   0.0
-350.0   60.0   16.666666666666668
-300.0   90.0   16.666666666666668
-300.0   60.0   16.666666666666668
-300.0   60.0   0.0
-350.0   60.0   16.666666666666668
-300.0   90.0   16.666666666666668
-300.0   60.0   0.0
-350.0   90.0   0.0
-350.0   60.0   16.666666666666668
-300.0   60.0   16.666666666666668
-350.0   90.0   16.666666666666668
-350.0   60.0   33.333333333333336
-300.0   60.0   16.666666666666668
-300.0   90.0   16.666666666666668
-350.0   90.0   16.666666666666668
-300.0   90.0   33.333333333333336
-350.0   60.0   33.333333333333336
-350.0   90.0   33.333333333333336
-300.0   90.0   33.333333333333336
-350.0   90.0   16.666666666666668
-350.0   60.0   33.333333333333336
-300.0   90.0   33.333333333333336
-300.0   60.0   33.333333333333336
-300.0   60.0   16.666666666666668
-350.0   60.0   33.333333333333336
-300.0   90.0   33.333333333333336
-300.0   60.0   16.666666666666668
-350.0   90.0   16.666666666666668
-350.0   60.0   33.333333333333336
-300.0   60.0   33.333333333333336
-350.0   90.0   33.333333333333336
-350.0   60.0   50.0
-300.0   60.0   33.333333333333336
-300.0   90.0   33.333333333333336
-350.0   90.0   33.333333333333336
-300.0   90.0   50.0
-350.0   60.0   50.0
-350.0   90.0   50.0
-300.0   90.0   50.0
-350.0   90.0   33.333333333333336
-350.0   60.0   50.0
-300.0   90.0   50.0
-300.0   60.0   50.0
-300.0   60.0   33.333333333333336
-350.0   60.0   50.0
-300.0   90.0   50.0
-300.0   60.0   33.333333333333336
-350.0   90.0   33.333333333333336
-350.0   90.0   0.0
-300.0   90.0   0.0
-350.0   120.0   0.0
-350.0   90.0   16.666666666666668
-300.0   90.0   0.0
-300.0   120.0   0.0
-350.0   120.0   0.0
-300.0   120.0   16.666666666666668
-350.0   90.0   16.666666666666668
-350.0   120.0   16.666666666666668
-300.0   120.0   16.666666666666668
-350.0   120.0   0.0
-350.0   90.0   16.666666666666668
-300.0   120.0   16.666666666666668
-300.0   90.0   16.666666666666668
-300.0   90.0   0.0
-350.0   90.0   16.666666666666668
-300.0   120.0   16.666666666666668
-300.0   90.0   0.0
-350.0   120.0   0.0
-350.0   90.0   16.666666666666668
-300.0   90.0   16.666666666666668
-350.0   120.0   16.666666666666668
-350.0   90.0   33.333333333333336
-300.0   90.0   16.666666666666668
-300.0   120.0   16.666666666666668
-350.0   120.0   16.666666666666668
-300.0   120.0   33.333333333333336
-350.0   90.0   33.333333333333336
-350.0   120.0   33.333333333333336
-300.0   120.0   33.333333333333336
-350.0   120.0   16.666666666666668
-350.0   90.0   33.333333333333336
-300.0   120.0   33.333333333333336
-300.0   90.0   33.333333333333336
-300.0   90.0   16.666666666666668
-350.0   90.0   33.333333333333336
-300.0   120.0   33.333333333333336
-300.0   90.0   16.666666666666668
-350.0   120.0   16.666666666666668
-350.0   90.0   33.333333333333336
-300.0   90.0   33.333333333333336
-350.0   120.0   33.333333333333336
-350.0   90.0   50.0
-300.0   90.0   33.333333333333336
-300.0   120.0   33.333333333333336
-350.0   120.0   33.333333333333336
-300.0   120.0   50.0
-350.0   90.0   50.0
-350.0   120.0   50.0
-300.0   120.0   50.0
-350.0   120.0   33.333333333333336
-350.0   90.0   50.0
-300.0   120.0   50.0
-300.0   90.0   50.0
-300.0   90.0   33.333333333333336
-350.0   90.0   50.0
-300.0   120.0   50.0
-300.0   90.0   33.333333333333336
-350.0   120.0   33.333333333333336
-350.0   120.0   0.0
-300.0   120.0   0.0
-350.0   150.0   0.0
-350.0   120.0   16.666666666666668
-300.0   120.0   0.0
-300.0   150.0   0.0
-350.0   150.0   0.0
-300.0   150.0   16.666666666666668
-350.0   120.0   16.666666666666668
-350.0   150.0   16.666666666666668
-300.0   150.0   16.666666666666668
-350.0   150.0   0.0
-350.0   120.0   16.666666666666668
-300.0   150.0   16.666666666666668
-300.0   120.0   16.666666666666668
-300.0   120.0   0.0
-350.0   120.0   16.666666666666668
-300.0   150.0   16.666666666666668
-300.0   120.0   0.0
-350.0   150.0   0.0
-350.0   120.0   16.666666666666668
-300.0   120.0   16.666666666666668
-350.0   150.0   16.666666666666668
-350.0   120.0   33.333333333333336
-300.0   120.0   16.666666666666668
-300.0   150.0   16.666666666666668
-350.0   150.0   16.666666666666668
-300.0   150.0   33.333333333333336
-350.0   120.0   33.333333333333336
-350.0   150.0   33.333333333333336
-300.0   150.0   33.333333333333336
-350.0   150.0   16.666666666666668
-350.0   120.0   33.333333333333336
-300.0   150.0   33.333333333333336
-300.0   120.0   33.333333333333336
-300.0   120.0   16.666666666666668
-350.0   120.0   33.333333333333336
-300.0   150.0   33.333333333333336
-300.0   120.0   16.666666666666668
-350.0   150.0   16.666666666666668
-350.0   120.0   33.333333333333336
-300.0   120.0   33.333333333333336
-350.0   150.0   33.333333333333336
-350.0   120.0   50.0
-300.0   120.0   33.333333333333336
-300.0   150.0   33.333333333333336
-350.0   150.0   33.333333333333336
-300.0   150.0   50.0
-350.0   120.0   50.0
-350.0   150.0   50.0
-300.0   150.0   50.0
-350.0   150.0   33.333333333333336
-350.0   120.0   50.0
-300.0   150.0   50.0
-300.0   120.0   50.0
-300.0   120.0   33.333333333333336
-350.0   120.0   50.0
-300.0   150.0   50.0
-300.0   120.0   33.333333333333336
-350.0   150.0   33.333333333333336
-300.0   0.0   0.0
-250.0   0.0   0.0
-300.0   30.0   0.0
-300.0   0.0   16.666666666666668
-250.0   0.0   0.0
-250.0   30.0   0.0
-300.0   30.0   0.0
-250.0   30.0   16.666666666666668
-300.0   0.0   16.666666666666668
-300.0   30.0   16.666666666666668
-250.0   30.0   16.666666666666668
-300.0   30.0   0.0
-300.0   0.0   16.666666666666668
-250.0   30.0   16.666666666666668
-250.0   0.0   16.666666666666668
-250.0   0.0   0.0
-300.0   0.0   16.666666666666668
-250.0   30.0   16.666666666666668
-250.0   0.0   0.0
-300.0   30.0   0.0
-300.0   0.0   16.666666666666668
-250.0   0.0   16.666666666666668
-300.0   30.0   16.666666666666668
-300.0   0.0   33.333333333333336
-250.0   0.0   16.666666666666668
-250.0   30.0   16.666666666666668
-300.0   30.0   16.666666666666668
-250.0   30.0   33.333333333333336
-300.0   0.0   33.333333333333336
-300.0   30.0   33.333333333333336
-250.0   30.0   33.333333333333336
-300.0   30.0   16.666666666666668
-300.0   0.0   33.333333333333336
-250.0   30.0   33.333333333333336
-250.0   0.0   33.333333333333336
-250.0   0.0   16.666666666666668
-300.0   0.0   33.333333333333336
-250.0   30.0   33.333333333333336
-250.0   0.0   16.666666666666668
-300.0   30.0   16.666666666666668
-300.0   0.0   33.333333333333336
-250.0   0.0   33.333333333333336
-300.0   30.0   33.333333333333336
-300.0   0.0   50.0
-250.0   0.0   33.333333333333336
-250.0   30.0   33.333333333333336
-300.0   30.0   33.333333333333336
-250.0   30.0   50.0
-300.0   0.0   50.0
-300.0   30.0   50.0
-250.0   30.0   50.0
-300.0   30.0   33.333333333333336
-300.0   0.0   50.0
-250.0   30.0   50.0
-250.0   0.0   50.0
-250.0   0.0   33.333333333333336
-300.0   0.0   50.0
-250.0   30.0   50.0
-250.0   0.0   33.333333333333336
-300.0   30.0   33.333333333333336
-300.0   30.0   0.0
-250.0   30.0   0.0
-300.0   60.0   0.0
-300.0   30.0   16.666666666666668
-250.0   30.0   0.0
-250.0   60.0   0.0
-300.0   60.0   0.0
-250.0   60.0   16.666666666666668
-300.0   30.0   16.666666666666668
-300.0   60.0   16.666666666666668
-250.0   60.0   16.666666666666668
-300.0   60.0   0.0
-300.0   30.0   16.666666666666668
-250.0   60.0   16.666666666666668
-250.0   30.0   16.666666666666668
-250.0   30.0   0.0
-300.0   30.0   16.666666666666668
-250.0   60.0   16.666666666666668
-250.0   30.0   0.0
-300.0   60.0   0.0
-300.0   30.0   16.666666666666668
-250.0   30.0   16.666666666666668
-300.0   60.0   16.666666666666668
-300.0   30.0   33.333333333333336
-250.0   30.0   16.666666666666668
-250.0   60.0   16.666666666666668
-300.0   60.0   16.666666666666668
-250.0   60.0   33.333333333333336
-300.0   30.0   33.333333333333336
-300.0   60.0   33.333333333333336
-250.0   60.0   33.333333333333336
-300.0   60.0   16.666666666666668
-300.0   30.0   33.333333333333336
-250.0   60.0   33.333333333333336
-250.0   30.0   33.333333333333336
-250.0   30.0   16.666666666666668
-300.0   30.0   33.333333333333336
-250.0   60.0   33.333333333333336
-250.0   30.0   16.666666666666668
-300.0   60.0   16.666666666666668
-300.0   30.0   33.333333333333336
-250.0   30.0   33.333333333333336
-300.0   60.0   33.333333333333336
-300.0   30.0   50.0
-250.0   30.0   33.333333333333336
-250.0   60.0   33.333333333333336
-300.0   60.0   33.333333333333336
-250.0   60.0   50.0
-300.0   30.0   50.0
-300.0   60.0   50.0
-250.0   60.0   50.0
-300.0   60.0   33.333333333333336
-300.0   30.0   50.0
-250.0   60.0   50.0
-250.0   30.0   50.0
-250.0   30.0   33.333333333333336
-300.0   30.0   50.0
-250.0   60.0   50.0
-250.0   30.0   33.333333333333336
-300.0   60.0   33.333333333333336
-300.0   60.0   0.0
-250.0   60.0   0.0
-300.0   90.0   0.0
-300.0   60.0   16.666666666666668
-250.0   60.0   0.0
-250.0   90.0   0.0
-300.0   90.0   0.0
-250.0   90.0   16.666666666666668
-300.0   60.0   16.666666666666668
-300.0   90.0   16.666666666666668
-250.0   90.0   16.666666666666668
-300.0   90.0   0.0
-300.0   60.0   16.666666666666668
-250.0   90.0   16.666666666666668
-250.0   60.0   16.666666666666668
-250.0   60.0   0.0
-300.0   60.0   16.666666666666668
-250.0   90.0   16.666666666666668
-250.0   60.0   0.0
-300.0   90.0   0.0
-300.0   60.0   16.666666666666668
-250.0   60.0   16.666666666666668
-300.0   90.0   16.666666666666668
-300.0   60.0   33.333333333333336
-250.0   60.0   16.666666666666668
-250.0   90.0   16.666666666666668
-300.0   90.0   16.666666666666668
-250.0   90.0   33.333333333333336
-300.0   60.0   33.333333333333336
-300.0   90.0   33.333333333333336
-250.0   90.0   33.333333333333336
-300.0   90.0   16.666666666666668
-300.0   60.0   33.333333333333336
-250.0   90.0   33.333333333333336
-250.0   60.0   33.333333333333336
-250.0   60.0   16.666666666666668
-300.0   60.0   33.333333333333336
-250.0   90.0   33.333333333333336
-250.0   60.0   16.666666666666668
-300.0   90.0   16.666666666666668
-300.0   60.0   33.333333333333336
-250.0   60.0   33.333333333333336
-300.0   90.0   33.333333333333336
-300.0   60.0   50.0
-250.0   60.0   33.333333333333336
-250.0   90.0   33.333333333333336
-300.0   90.0   33.333333333333336
-250.0   90.0   50.0
-300.0   60.0   50.0
-300.0   90.0   50.0
-250.0   90.0   50.0
-300.0   90.0   33.333333333333336
-300.0   60.0   50.0
-250.0   90.0   50.0
-250.0   60.0   50.0
-250.0   60.0   33.333333333333336
-300.0   60.0   50.0
-250.0   90.0   50.0
-250.0   60.0   33.333333333333336
-300.0   90.0   33.333333333333336
-300.0   90.0   0.0
-250.0   90.0   0.0
-300.0   120.0   0.0
-300.0   90.0   16.666666666666668
-250.0   90.0   0.0
-250.0   120.0   0.0
-300.0   120.0   0.0
-250.0   120.0   16.666666666666668
-300.0   90.0   16.666666666666668
-300.0   120.0   16.666666666666668
-250.0   120.0   16.666666666666668
-300.0   120.0   0.0
-300.0   90.0   16.666666666666668
-250.0   120.0   16.666666666666668
-250.0   90.0   16.666666666666668
-250.0   90.0   0.0
-300.0   90.0   16.666666666666668
-250.0   120.0   16.666666666666668
-250.0   90.0   0.0
-300.0   120.0   0.0
-300.0   90.0   16.666666666666668
-250.0   90.0   16.666666666666668
-300.0   120.0   16.666666666666668
-300.0   90.0   33.333333333333336
-250.0   90.0   16.666666666666668
-250.0   120.0   16.666666666666668
-300.0   120.0   16.666666666666668
-250.0   120.0   33.333333333333336
-300.0   90.0   33.333333333333336
-300.0   120.0   33.333333333333336
-250.0   120.0   33.333333333333336
-300.0   120.0   16.666666666666668
-300.0   90.0   33.333333333333336
-250.0   120.0   33.333333333333336
-250.0   90.0   33.333333333333336
-250.0   90.0   16.666666666666668
-300.0   90.0   33.333333333333336
-250.0   120.0   33.333333333333336
-250.0   90.0   16.666666666666668
-300.0   120.0   16.666666666666668
-300.0   90.0   33.333333333333336
-250.0   90.0   33.333333333333336
-300.0   120.0   33.333333333333336
-300.0   90.0   50.0
-250.0   90.0   33.333333333333336
-250.0   120.0   33.333333333333336
-300.0   120.0   33.333333333333336
-250.0   120.0   50.0
-300.0   90.0   50.0
-300.0   120.0   50.0
-250.0   120.0   50.0
-300.0   120.0   33.333333333333336
-300.0   90.0   50.0
-250.0   120.0   50.0
-250.0   90.0   50.0
-250.0   90.0   33.333333333333336
-300.0   90.0   50.0
-250.0   120.0   50.0
-250.0   90.0   33.333333333333336
-300.0   120.0   33.333333333333336
-300.0   120.0   0.0
-250.0   120.0   0.0
-300.0   150.0   0.0
-300.0   120.0   16.666666666666668
-250.0   120.0   0.0
-250.0   150.0   0.0
-300.0   150.0   0.0
-250.0   150.0   16.666666666666668
-300.0   120.0   16.666666666666668
-300.0   150.0   16.666666666666668
-250.0   150.0   16.666666666666668
-300.0   150.0   0.0
-300.0   120.0   16.666666666666668
-250.0   150.0   16.666666666666668
-250.0   120.0   16.666666666666668
-250.0   120.0   0.0
-300.0   120.0   16.666666666666668
-250.0   150.0   16.666666666666668
-250.0   120.0   0.0
-300.0   150.0   0.0
-300.0   120.0   16.666666666666668
-250.0   120.0   16.666666666666668
-300.0   150.0   16.666666666666668
-300.0   120.0   33.333333333333336
-250.0   120.0   16.666666666666668
-250.0   150.0   16.666666666666668
-300.0   150.0   16.666666666666668
-250.0   150.0   33.333333333333336
-300.0   120.0   33.333333333333336
-300.0   150.0   33.333333333333336
-250.0   150.0   33.333333333333336
-300.0   150.0   16.666666666666668
-300.0   120.0   33.333333333333336
-250.0   150.0   33.333333333333336
-250.0   120.0   33.333333333333336
-250.0   120.0   16.666666666666668
-300.0   120.0   33.333333333333336
-250.0   150.0   33.333333333333336
-250.0   120.0   16.666666666666668
-300.0   150.0   16.666666666666668
-300.0   120.0   33.333333333333336
-250.0   120.0   33.333333333333336
-300.0   150.0   33.333333333333336
-300.0   120.0   50.0
-250.0   120.0   33.333333333333336
-250.0   150.0   33.333333333333336
-300.0   150.0   33.333333333333336
-250.0   150.0   50.0
-300.0   120.0   50.0
-300.0   150.0   50.0
-250.0   150.0   50.0
-300.0   150.0   33.333333333333336
-300.0   120.0   50.0
-250.0   150.0   50.0
-250.0   120.0   50.0
-250.0   120.0   33.333333333333336
-300.0   120.0   50.0
-250.0   150.0   50.0
-250.0   120.0   33.333333333333336
-300.0   150.0   33.333333333333336
-250.0   0.0   0.0
-200.0   0.0   0.0
-250.0   30.0   0.0
-250.0   0.0   16.666666666666668
-200.0   0.0   0.0
-200.0   30.0   0.0
-250.0   30.0   0.0
-200.0   30.0   16.666666666666668
-250.0   0.0   16.666666666666668
-250.0   30.0   16.666666666666668
-200.0   30.0   16.666666666666668
-250.0   30.0   0.0
-250.0   0.0   16.666666666666668
-200.0   30.0   16.666666666666668
-200.0   0.0   16.666666666666668
-200.0   0.0   0.0
-250.0   0.0   16.666666666666668
-200.0   30.0   16.666666666666668
-200.0   0.0   0.0
-250.0   30.0   0.0
-250.0   0.0   16.666666666666668
-200.0   0.0   16.666666666666668
-250.0   30.0   16.666666666666668
-250.0   0.0   33.333333333333336
-200.0   0.0   16.666666666666668
-200.0   30.0   16.666666666666668
-250.0   30.0   16.666666666666668
-200.0   30.0   33.333333333333336
-250.0   0.0   33.333333333333336
-250.0   30.0   33.333333333333336
-200.0   30.0   33.333333333333336
-250.0   30.0   16.666666666666668
-250.0   0.0   33.333333333333336
-200.0   30.0   33.333333333333336
-200.0   0.0   33.333333333333336
-200.0   0.0   16.666666666666668
-250.0   0.0   33.333333333333336
-200.0   30.0   33.333333333333336
-200.0   0.0   16.666666666666668
-250.0   30.0   16.666666666666668
-250.0   0.0   33.333333333333336
-200.0   0.0   33.333333333333336
-250.0   30.0   33.333333333333336
-250.0   0.0   50.0
-200.0   0.0   33.333333333333336
-200.0   30.0   33.333333333333336
-250.0   30.0   33.333333333333336
-200.0   30.0   50.0
-250.0   0.0   50.0
-250.0   30.0   50.0
-200.0   30.0   50.0
-250.0   30.0   33.333333333333336
-250.0   0.0   50.0
-200.0   30.0   50.0
-200.0   0.0   50.0
-200.0   0.0   33.333333333333336
-250.0   0.0   50.0
-200.0   30.0   50.0
-200.0   0.0   33.333333333333336
-250.0   30.0   33.333333333333336
-250.0   30.0   0.0
-200.0   30.0   0.0
-250.0   60.0   0.0
-250.0   30.0   16.666666666666668
-200.0   30.0   0.0
-200.0   60.0   0.0
-250.0   60.0   0.0
-200.0   60.0   16.666666666666668
-250.0   30.0   16.666666666666668
-250.0   60.0   16.666666666666668
-200.0   60.0   16.666666666666668
-250.0   60.0   0.0
-250.0   30.0   16.666666666666668
-200.0   60.0   16.666666666666668
-200.0   30.0   16.666666666666668
-200.0   30.0   0.0
-250.0   30.0   16.666666666666668
-200.0   60.0   16.666666666666668
-200.0   30.0   0.0
-250.0   60.0   0.0
-250.0   30.0   16.666666666666668
-200.0   30.0   16.666666666666668
-250.0   60.0   16.666666666666668
-250.0   30.0   33.333333333333336
-200.0   30.0   16.666666666666668
-200.0   60.0   16.666666666666668
-250.0   60.0   16.666666666666668
-200.0   60.0   33.333333333333336
-250.0   30.0   33.333333333333336
-250.0   60.0   33.333333333333336
-200.0   60.0   33.333333333333336
-250.0   60.0   16.666666666666668
-250.0   30.0   33.333333333333336
-200.0   60.0   33.333333333333336
-200.0   30.0   33.333333333333336
-200.0   30.0   16.666666666666668
-250.0   30.0   33.333333333333336
-200.0   60.0   33.333333333333336
-200.0   30.0   16.666666666666668
-250.0   60.0   16.666666666666668
-250.0   30.0   33.333333333333336
-200.0   30.0   33.333333333333336
-250.0   60.0   33.333333333333336
-250.0   30.0   50.0
-200.0   30.0   33.333333333333336
-200.0   60.0   33.333333333333336
-250.0   60.0   33.333333333333336
-200.0   60.0   50.0
-250.0   30.0   50.0
-250.0   60.0   50.0
-200.0   60.0   50.0
-250.0   60.0   33.333333333333336
-250.0   30.0   50.0
-200.0   60.0   50.0
-200.0   30.0   50.0
-200.0   30.0   33.333333333333336
-250.0   30.0   50.0
-200.0   60.0   50.0
-200.0   30.0   33.333333333333336
-250.0   60.0   33.333333333333336
-250.0   60.0   0.0
-200.0   60.0   0.0
-250.0   90.0   0.0
-250.0   60.0   16.666666666666668
-200.0   60.0   0.0
-200.0   90.0   0.0
-250.0   90.0   0.0
-200.0   90.0   16.666666666666668
-250.0   60.0   16.666666666666668
-250.0   90.0   16.666666666666668
-200.0   90.0   16.666666666666668
-250.0   90.0   0.0
-250.0   60.0   16.666666666666668
-200.0   90.0   16.666666666666668
-200.0   60.0   16.666666666666668
-200.0   60.0   0.0
-250.0   60.0   16.666666666666668
-200.0   90.0   16.666666666666668
-200.0   60.0   0.0
-250.0   90.0   0.0
-250.0   60.0   16.666666666666668
-200.0   60.0   16.666666666666668
-250.0   90.0   16.666666666666668
-250.0   60.0   33.333333333333336
-200.0   60.0   16.666666666666668
-200.0   90.0   16.666666666666668
-250.0   90.0   16.666666666666668
-200.0   90.0   33.333333333333336
-250.0   60.0   33.333333333333336
-250.0   90.0   33.333333333333336
-200.0   90.0   33.333333333333336
-250.0   90.0   16.666666666666668
-250.0   60.0   33.333333333333336
-200.0   90.0   33.333333333333336
-200.0   60.0   33.333333333333336
-200.0   60.0   16.666666666666668
-250.0   60.0   33.333333333333336
-200.0   90.0   33.333333333333336
-200.0   60.0   16.666666666666668
-250.0   90.0   16.666666666666668
-250.0   60.0   33.333333333333336
-200.0   60.0   33.333333333333336
-250.0   90.0   33.333333333333336
-250.0   60.0   50.0
-200.0   60.0   33.333333333333336
-200.0   90.0   33.333333333333336
-250.0   90.0   33.333333333333336
-200.0   90.0   50.0
-250.0   60.0   50.0
-250.0   90.0   50.0
-200.0   90.0   50.0
-250.0   90.0   33.333333333333336
-250.0   60.0   50.0
-200.0   90.0   50.0
-200.0   60.0   50.0
-200.0   60.0   33.333333333333336
-250.0   60.0   50.0
-200.0   90.0   50.0
-200.0   60.0   33.333333333333336
-250.0   90.0   33.333333333333336
-250.0   90.0   0.0
-200.0   90.0   0.0
-250.0   120.0   0.0
-250.0   90.0   16.666666666666668
-200.0   90.0   0.0
-200.0   120.0   0.0
-250.0   120.0   0.0
-200.0   120.0   16.666666666666668
-250.0   90.0   16.666666666666668
-250.0   120.0   16.666666666666668
-200.0   120.0   16.666666666666668
-250.0   120.0   0.0
-250.0   90.0   16.666666666666668
-200.0   120.0   16.666666666666668
-200.0   90.0   16.666666666666668
-200.0   90.0   0.0
-250.0   90.0   16.666666666666668
-200.0   120.0   16.666666666666668
-200.0   90.0   0.0
-250.0   120.0   0.0
-250.0   90.0   16.666666666666668
-200.0   90.0   16.666666666666668
-250.0   120.0   16.666666666666668
-250.0   90.0   33.333333333333336
-200.0   90.0   16.666666666666668
-200.0   120.0   16.666666666666668
-250.0   120.0   16.666666666666668
-200.0   120.0   33.333333333333336
-250.0   90.0   33.333333333333336
-250.0   120.0   33.333333333333336
-200.0   120.0   33.333333333333336
-250.0   120.0   16.666666666666668
-250.0   90.0   33.333333333333336
-200.0   120.0   33.333333333333336
-200.0   90.0   33.333333333333336
-200.0   90.0   16.666666666666668
-250.0   90.0   33.333333333333336
-200.0   120.0   33.333333333333336
-200.0   90.0   16.666666666666668
-250.0   120.0   16.666666666666668
-250.0   90.0   33.333333333333336
-200.0   90.0   33.333333333333336
-250.0   120.0   33.333333333333336
-250.0   90.0   50.0
-200.0   90.0   33.333333333333336
-200.0   120.0   33.333333333333336
-250.0   120.0   33.333333333333336
-200.0   120.0   50.0
-250.0   90.0   50.0
-250.0   120.0   50.0
-200.0   120.0   50.0
-250.0   120.0   33.333333333333336
-250.0   90.0   50.0
-200.0   120.0   50.0
-200.0   90.0   50.0
-200.0   90.0   33.333333333333336
-250.0   90.0   50.0
-200.0   120.0   50.0
-200.0   90.0   33.333333333333336
-250.0   120.0   33.333333333333336
-250.0   120.0   0.0
-200.0   120.0   0.0
-250.0   150.0   0.0
-250.0   120.0   16.666666666666668
-200.0   120.0   0.0
-200.0   150.0   0.0
-250.0   150.0   0.0
-200.0   150.0   16.666666666666668
-250.0   120.0   16.666666666666668
-250.0   150.0   16.666666666666668
-200.0   150.0   16.666666666666668
-250.0   150.0   0.0
-250.0   120.0   16.666666666666668
-200.0   150.0   16.666666666666668
-200.0   120.0   16.666666666666668
-200.0   120.0   0.0
-250.0   120.0   16.666666666666668
-200.0   150.0   16.666666666666668
-200.0   120.0   0.0
-250.0   150.0   0.0
-250.0   120.0   16.666666666666668
-200.0   120.0   16.666666666666668
-250.0   150.0   16.666666666666668
-250.0   120.0   33.333333333333336
-200.0   120.0   16.666666666666668
-200.0   150.0   16.666666666666668
-250.0   150.0   16.666666666666668
-200.0   150.0   33.333333333333336
-250.0   120.0   33.333333333333336
-250.0   150.0   33.333333333333336
-200.0   150.0   33.333333333333336
-250.0   150.0   16.666666666666668
-250.0   120.0   33.333333333333336
-200.0   150.0   33.333333333333336
-200.0   120.0   33.333333333333336
-200.0   120.0   16.666666666666668
-250.0   120.0   33.333333333333336
-200.0   150.0   33.333333333333336
-200.0   120.0   16.666666666666668
-250.0   150.0   16.666666666666668
-250.0   120.0   33.333333333333336
-200.0   120.0   33.333333333333336
-250.0   150.0   33.333333333333336
-250.0   120.0   50.0
-200.0   120.0   33.333333333333336
-200.0   150.0   33.333333333333336
-250.0   150.0   33.333333333333336
-200.0   150.0   50.0
-250.0   120.0   50.0
-250.0   150.0   50.0
-200.0   150.0   50.0
-250.0   150.0   33.333333333333336
-250.0   120.0   50.0
-200.0   150.0   50.0
-200.0   120.0   50.0
-200.0   120.0   33.333333333333336
-250.0   120.0   50.0
-200.0   150.0   50.0
-200.0   120.0   33.333333333333336
-250.0   150.0   33.333333333333336
-200.0   0.0   0.0
-150.0   0.0   0.0
-200.0   30.0   0.0
-200.0   0.0   16.666666666666668
-150.0   0.0   0.0
-150.0   30.0   0.0
-200.0   30.0   0.0
-150.0   30.0   16.666666666666668
-200.0   0.0   16.666666666666668
-200.0   30.0   16.666666666666668
-150.0   30.0   16.666666666666668
-200.0   30.0   0.0
-200.0   0.0   16.666666666666668
-150.0   30.0   16.666666666666668
-150.0   0.0   16.666666666666668
-150.0   0.0   0.0
-200.0   0.0   16.666666666666668
-150.0   30.0   16.666666666666668
-150.0   0.0   0.0
-200.0   30.0   0.0
-200.0   0.0   16.666666666666668
-150.0   0.0   16.666666666666668
-200.0   30.0   16.666666666666668
-200.0   0.0   33.333333333333336
-150.0   0.0   16.666666666666668
-150.0   30.0   16.666666666666668
-200.0   30.0   16.666666666666668
-150.0   30.0   33.333333333333336
-200.0   0.0   33.333333333333336
-200.0   30.0   33.333333333333336
-150.0   30.0   33.333333333333336
-200.0   30.0   16.666666666666668
-200.0   0.0   33.333333333333336
-150.0   30.0   33.333333333333336
-150.0   0.0   33.333333333333336
-150.0   0.0   16.666666666666668
-200.0   0.0   33.333333333333336
-150.0   30.0   33.333333333333336
-150.0   0.0   16.666666666666668
-200.0   30.0   16.666666666666668
-200.0   0.0   33.333333333333336
-150.0   0.0   33.333333333333336
-200.0   30.0   33.333333333333336
-200.0   0.0   50.0
-150.0   0.0   33.333333333333336
-150.0   30.0   33.333333333333336
-200.0   30.0   33.333333333333336
-150.0   30.0   50.0
-200.0   0.0   50.0
-200.0   30.0   50.0
-150.0   30.0   50.0
-200.0   30.0   33.333333333333336
-200.0   0.0   50.0
-150.0   30.0   50.0
-150.0   0.0   50.0
-150.0   0.0   33.333333333333336
-200.0   0.0   50.0
-150.0   30.0   50.0
-150.0   0.0   33.333333333333336
-200.0   30.0   33.333333333333336
-200.0   30.0   0.0
-150.0   30.0   0.0
-200.0   60.0   0.0
-200.0   30.0   16.666666666666668
-150.0   30.0   0.0
-150.0   60.0   0.0
-200.0   60.0   0.0
-150.0   60.0   16.666666666666668
-200.0   30.0   16.666666666666668
-200.0   60.0   16.666666666666668
-150.0   60.0   16.666666666666668
-200.0   60.0   0.0
-200.0   30.0   16.666666666666668
-150.0   60.0   16.666666666666668
-150.0   30.0   16.666666666666668
-150.0   30.0   0.0
-200.0   30.0   16.666666666666668
-150.0   60.0   16.666666666666668
-150.0   30.0   0.0
-200.0   60.0   0.0
-200.0   30.0   16.666666666666668
-150.0   30.0   16.666666666666668
-200.0   60.0   16.666666666666668
-200.0   30.0   33.333333333333336
-150.0   30.0   16.666666666666668
-150.0   60.0   16.666666666666668
-200.0   60.0   16.666666666666668
-150.0   60.0   33.333333333333336
-200.0   30.0   33.333333333333336
-200.0   60.0   33.333333333333336
-150.0   60.0   33.333333333333336
-200.0   60.0   16.666666666666668
-200.0   30.0   33.333333333333336
-150.0   60.0   33.333333333333336
-150.0   30.0   33.333333333333336
-150.0   30.0   16.666666666666668
-200.0   30.0   33.333333333333336
-150.0   60.0   33.333333333333336
-150.0   30.0   16.666666666666668
-200.0   60.0   16.666666666666668
-200.0   30.0   33.333333333333336
-150.0   30.0   33.333333333333336
-200.0   60.0   33.333333333333336
-200.0   30.0   50.0
-150.0   30.0   33.333333333333336
-150.0   60.0   33.333333333333336
-200.0   60.0   33.333333333333336
-150.0   60.0   50.0
-200.0   30.0   50.0
-200.0   60.0   50.0
-150.0   60.0   50.0
-200.0   60.0   33.333333333333336
-200.0   30.0   50.0
-150.0   60.0   50.0
-150.0   30.0   50.0
-150.0   30.0   33.333333333333336
-200.0   30.0   50.0
-150.0   60.0   50.0
-150.0   30.0   33.333333333333336
-200.0   60.0   33.333333333333336
-200.0   60.0   0.0
-150.0   60.0   0.0
-200.0   90.0   0.0
-200.0   60.0   16.666666666666668
-150.0   60.0   0.0
-150.0   90.0   0.0
-200.0   90.0   0.0
-150.0   90.0   16.666666666666668
-200.0   60.0   16.666666666666668
-200.0   90.0   16.666666666666668
-150.0   90.0   16.666666666666668
-200.0   90.0   0.0
-200.0   60.0   16.666666666666668
-150.0   90.0   16.666666666666668
-150.0   60.0   16.666666666666668
-150.0   60.0   0.0
-200.0   60.0   16.666666666666668
-150.0   90.0   16.666666666666668
-150.0   60.0   0.0
-200.0   90.0   0.0
-200.0   60.0   16.666666666666668
-150.0   60.0   16.666666666666668
-200.0   90.0   16.666666666666668
-200.0   60.0   33.333333333333336
-150.0   60.0   16.666666666666668
-150.0   90.0   16.666666666666668
-200.0   90.0   16.666666666666668
-150.0   90.0   33.333333333333336
-200.0   60.0   33.333333333333336
-200.0   90.0   33.333333333333336
-150.0   90.0   33.333333333333336
-200.0   90.0   16.666666666666668
-200.0   60.0   33.333333333333336
-150.0   90.0   33.333333333333336
-150.0   60.0   33.333333333333336
-150.0   60.0   16.666666666666668
-200.0   60.0   33.333333333333336
-150.0   90.0   33.333333333333336
-150.0   60.0   16.666666666666668
-200.0   90.0   16.666666666666668
-200.0   60.0   33.333333333333336
-150.0   60.0   33.333333333333336
-200.0   90.0   33.333333333333336
-200.0   60.0   50.0
-150.0   60.0   33.333333333333336
-150.0   90.0   33.333333333333336
-200.0   90.0   33.333333333333336
-150.0   90.0   50.0
-200.0   60.0   50.0
-200.0   90.0   50.0
-150.0   90.0   50.0
-200.0   90.0   33.333333333333336
-200.0   60.0   50.0
-150.0   90.0   50.0
-150.0   60.0   50.0
-150.0   60.0   33.333333333333336
-200.0   60.0   50.0
-150.0   90.0   50.0
-150.0   60.0   33.333333333333336
-200.0   90.0   33.333333333333336
-200.0   90.0   0.0
-150.0   90.0   0.0
-200.0   120.0   0.0
-200.0   90.0   16.666666666666668
-150.0   90.0   0.0
-150.0   120.0   0.0
-200.0   120.0   0.0
-150.0   120.0   16.666666666666668
-200.0   90.0   16.666666666666668
-200.0   120.0   16.666666666666668
-150.0   120.0   16.666666666666668
-200.0   120.0   0.0
-200.0   90.0   16.666666666666668
-150.0   120.0   16.666666666666668
-150.0   90.0   16.666666666666668
-150.0   90.0   0.0
-200.0   90.0   16.666666666666668
-150.0   120.0   16.666666666666668
-150.0   90.0   0.0
-200.0   120.0   0.0
-200.0   90.0   16.666666666666668
-150.0   90.0   16.666666666666668
-200.0   120.0   16.666666666666668
-200.0   90.0   33.333333333333336
-150.0   90.0   16.666666666666668
-150.0   120.0   16.666666666666668
-200.0   120.0   16.666666666666668
-150.0   120.0   33.333333333333336
-200.0   90.0   33.333333333333336
-200.0   120.0   33.333333333333336
-150.0   120.0   33.333333333333336
-200.0   120.0   16.666666666666668
-200.0   90.0   33.333333333333336
-150.0   120.0   33.333333333333336
-150.0   90.0   33.333333333333336
-150.0   90.0   16.666666666666668
-200.0   90.0   33.333333333333336
-150.0   120.0   33.333333333333336
-150.0   90.0   16.666666666666668
-200.0   120.0   16.666666666666668
-200.0   90.0   33.333333333333336
-150.0   90.0   33.333333333333336
-200.0   120.0   33.333333333333336
-200.0   90.0   50.0
-150.0   90.0   33.333333333333336
-150.0   120.0   33.333333333333336
-200.0   120.0   33.333333333333336
-150.0   120.0   50.0
-200.0   90.0   50.0
-200.0   120.0   50.0
-150.0   120.0   50.0
-200.0   120.0   33.333333333333336
-200.0   90.0   50.0
-150.0   120.0   50.0
-150.0   90.0   50.0
-150.0   90.0   33.333333333333336
-200.0   90.0   50.0
-150.0   120.0   50.0
-150.0   90.0   33.333333333333336
-200.0   120.0   33.333333333333336
-200.0   120.0   0.0
-150.0   120.0   0.0
-200.0   150.0   0.0
-200.0   120.0   16.666666666666668
-150.0   120.0   0.0
-150.0   150.0   0.0
-200.0   150.0   0.0
-150.0   150.0   16.666666666666668
-200.0   120.0   16.666666666666668
-200.0   150.0   16.666666666666668
-150.0   150.0   16.666666666666668
-200.0   150.0   0.0
-200.0   120.0   16.666666666666668
-150.0   150.0   16.666666666666668
-150.0   120.0   16.666666666666668
-150.0   120.0   0.0
-200.0   120.0   16.666666666666668
-150.0   150.0   16.666666666666668
-150.0   120.0   0.0
-200.0   150.0   0.0
-200.0   120.0   16.666666666666668
-150.0   120.0   16.666666666666668
-200.0   150.0   16.666666666666668
-200.0   120.0   33.333333333333336
-150.0   120.0   16.666666666666668
-150.0   150.0   16.666666666666668
-200.0   150.0   16.666666666666668
-150.0   150.0   33.333333333333336
-200.0   120.0   33.333333333333336
-200.0   150.0   33.333333333333336
-150.0   150.0   33.333333333333336
-200.0   150.0   16.666666666666668
-200.0   120.0   33.333333333333336
-150.0   150.0   33.333333333333336
-150.0   120.0   33.333333333333336
-150.0   120.0   16.666666666666668
-200.0   120.0   33.333333333333336
-150.0   150.0   33.333333333333336
-150.0   120.0   16.666666666666668
-200.0   150.0   16.666666666666668
-200.0   120.0   33.333333333333336
-150.0   120.0   33.333333333333336
-200.0   150.0   33.333333333333336
-200.0   120.0   50.0
-150.0   120.0   33.333333333333336
-150.0   150.0   33.333333333333336
-200.0   150.0   33.333333333333336
-150.0   150.0   50.0
-200.0   120.0   50.0
-200.0   150.0   50.0
-150.0   150.0   50.0
-200.0   150.0   33.333333333333336
-200.0   120.0   50.0
-150.0   150.0   50.0
-150.0   120.0   50.0
-150.0   120.0   33.333333333333336
-200.0   120.0   50.0
-150.0   150.0   50.0
-150.0   120.0   33.333333333333336
-200.0   150.0   33.333333333333336
-150.0   0.0   0.0
-100.0   0.0   0.0
-150.0   30.0   0.0
-150.0   0.0   16.666666666666668
-100.0   0.0   0.0
-100.0   30.0   0.0
-150.0   30.0   0.0
-100.0   30.0   16.666666666666668
-150.0   0.0   16.666666666666668
-150.0   30.0   16.666666666666668
-100.0   30.0   16.666666666666668
-150.0   30.0   0.0
-150.0   0.0   16.666666666666668
-100.0   30.0   16.666666666666668
-100.0   0.0   16.666666666666668
-100.0   0.0   0.0
-150.0   0.0   16.666666666666668
-100.0   30.0   16.666666666666668
-100.0   0.0   0.0
-150.0   30.0   0.0
-150.0   0.0   16.666666666666668
-100.0   0.0   16.666666666666668
-150.0   30.0   16.666666666666668
-150.0   0.0   33.333333333333336
-100.0   0.0   16.666666666666668
-100.0   30.0   16.666666666666668
-150.0   30.0   16.666666666666668
-100.0   30.0   33.333333333333336
-150.0   0.0   33.333333333333336
-150.0   30.0   33.333333333333336
-100.0   30.0   33.333333333333336
-150.0   30.0   16.666666666666668
-150.0   0.0   33.333333333333336
-100.0   30.0   33.333333333333336
-100.0   0.0   33.333333333333336
-100.0   0.0   16.666666666666668
-150.0   0.0   33.333333333333336
-100.0   30.0   33.333333333333336
-100.0   0.0   16.666666666666668
-150.0   30.0   16.666666666666668
-150.0   0.0   33.333333333333336
-100.0   0.0   33.333333333333336
-150.0   30.0   33.333333333333336
-150.0   0.0   50.0
-100.0   0.0   33.333333333333336
-100.0   30.0   33.333333333333336
-150.0   30.0   33.333333333333336
-100.0   30.0   50.0
-150.0   0.0   50.0
-150.0   30.0   50.0
-100.0   30.0   50.0
-150.0   30.0   33.333333333333336
-150.0   0.0   50.0
-100.0   30.0   50.0
-100.0   0.0   50.0
-100.0   0.0   33.333333333333336
-150.0   0.0   50.0
-100.0   30.0   50.0
-100.0   0.0   33.333333333333336
-150.0   30.0   33.333333333333336
-150.0   30.0   0.0
-100.0   30.0   0.0
-150.0   60.0   0.0
-150.0   30.0   16.666666666666668
-100.0   30.0   0.0
-100.0   60.0   0.0
-150.0   60.0   0.0
-100.0   60.0   16.666666666666668
-150.0   30.0   16.666666666666668
-150.0   60.0   16.666666666666668
-100.0   60.0   16.666666666666668
-150.0   60.0   0.0
-150.0   30.0   16.666666666666668
-100.0   60.0   16.666666666666668
-100.0   30.0   16.666666666666668
-100.0   30.0   0.0
-150.0   30.0   16.666666666666668
-100.0   60.0   16.666666666666668
-100.0   30.0   0.0
-150.0   60.0   0.0
-150.0   30.0   16.666666666666668
-100.0   30.0   16.666666666666668
-150.0   60.0   16.666666666666668
-150.0   30.0   33.333333333333336
-100.0   30.0   16.666666666666668
-100.0   60.0   16.666666666666668
-150.0   60.0   16.666666666666668
-100.0   60.0   33.333333333333336
-150.0   30.0   33.333333333333336
-150.0   60.0   33.333333333333336
-100.0   60.0   33.333333333333336
-150.0   60.0   16.666666666666668
-150.0   30.0   33.333333333333336
-100.0   60.0   33.333333333333336
-100.0   30.0   33.333333333333336
-100.0   30.0   16.666666666666668
-150.0   30.0   33.333333333333336
-100.0   60.0   33.333333333333336
-100.0   30.0   16.666666666666668
-150.0   60.0   16.666666666666668
-150.0   30.0   33.333333333333336
-100.0   30.0   33.333333333333336
-150.0   60.0   33.333333333333336
-150.0   30.0   50.0
-100.0   30.0   33.333333333333336
-100.0   60.0   33.333333333333336
-150.0   60.0   33.333333333333336
-100.0   60.0   50.0
-150.0   30.0   50.0
-150.0   60.0   50.0
-100.0   60.0   50.0
-150.0   60.0   33.333333333333336
-150.0   30.0   50.0
-100.0   60.0   50.0
-100.0   30.0   50.0
-100.0   30.0   33.333333333333336
-150.0   30.0   50.0
-100.0   60.0   50.0
-100.0   30.0   33.333333333333336
-150.0   60.0   33.333333333333336
-150.0   60.0   0.0
-100.0   60.0   0.0
-150.0   90.0   0.0
-150.0   60.0   16.666666666666668
-100.0   60.0   0.0
-100.0   90.0   0.0
-150.0   90.0   0.0
-100.0   90.0   16.666666666666668
-150.0   60.0   16.666666666666668
-150.0   90.0   16.666666666666668
-100.0   90.0   16.666666666666668
-150.0   90.0   0.0
-150.0   60.0   16.666666666666668
-100.0   90.0   16.666666666666668
-100.0   60.0   16.666666666666668
-100.0   60.0   0.0
-150.0   60.0   16.666666666666668
-100.0   90.0   16.666666666666668
-100.0   60.0   0.0
-150.0   90.0   0.0
-150.0   60.0   16.666666666666668
-100.0   60.0   16.666666666666668
-150.0   90.0   16.666666666666668
-150.0   60.0   33.333333333333336
-100.0   60.0   16.666666666666668
-100.0   90.0   16.666666666666668
-150.0   90.0   16.666666666666668
-100.0   90.0   33.333333333333336
-150.0   60.0   33.333333333333336
-150.0   90.0   33.333333333333336
-100.0   90.0   33.333333333333336
-150.0   90.0   16.666666666666668
-150.0   60.0   33.333333333333336
-100.0   90.0   33.333333333333336
-100.0   60.0   33.333333333333336
-100.0   60.0   16.666666666666668
-150.0   60.0   33.333333333333336
-100.0   90.0   33.333333333333336
-100.0   60.0   16.666666666666668
-150.0   90.0   16.666666666666668
-150.0   60.0   33.333333333333336
-100.0   60.0   33.333333333333336
-150.0   90.0   33.333333333333336
-150.0   60.0   50.0
-100.0   60.0   33.333333333333336
-100.0   90.0   33.333333333333336
-150.0   90.0   33.333333333333336
-100.0   90.0   50.0
-150.0   60.0   50.0
-150.0   90.0   50.0
-100.0   90.0   50.0
-150.0   90.0   33.333333333333336
-150.0   60.0   50.0
-100.0   90.0   50.0
-100.0   60.0   50.0
-100.0   60.0   33.333333333333336
-150.0   60.0   50.0
-100.0   90.0   50.0
-100.0   60.0   33.333333333333336
-150.0   90.0   33.333333333333336
-150.0   90.0   0.0
-100.0   90.0   0.0
-150.0   120.0   0.0
-150.0   90.0   16.666666666666668
-100.0   90.0   0.0
-100.0   120.0   0.0
-150.0   120.0   0.0
-100.0   120.0   16.666666666666668
-150.0   90.0   16.666666666666668
-150.0   120.0   16.666666666666668
-100.0   120.0   16.666666666666668
-150.0   120.0   0.0
-150.0   90.0   16.666666666666668
-100.0   120.0   16.666666666666668
-100.0   90.0   16.666666666666668
-100.0   90.0   0.0
-150.0   90.0   16.666666666666668
-100.0   120.0   16.666666666666668
-100.0   90.0   0.0
-150.0   120.0   0.0
-150.0   90.0   16.666666666666668
-100.0   90.0   16.666666666666668
-150.0   120.0   16.666666666666668
-150.0   90.0   33.333333333333336
-100.0   90.0   16.666666666666668
-100.0   120.0   16.666666666666668
-150.0   120.0   16.666666666666668
-100.0   120.0   33.333333333333336
-150.0   90.0   33.333333333333336
-150.0   120.0   33.333333333333336
-100.0   120.0   33.333333333333336
-150.0   120.0   16.666666666666668
-150.0   90.0   33.333333333333336
-100.0   120.0   33.333333333333336
-100.0   90.0   33.333333333333336
-100.0   90.0   16.666666666666668
-150.0   90.0   33.333333333333336
-100.0   120.0   33.333333333333336
-100.0   90.0   16.666666666666668
-150.0   120.0   16.666666666666668
-150.0   90.0   33.333333333333336
-100.0   90.0   33.333333333333336
-150.0   120.0   33.333333333333336
-150.0   90.0   50.0
-100.0   90.0   33.333333333333336
-100.0   120.0   33.333333333333336
-150.0   120.0   33.333333333333336
-100.0   120.0   50.0
-150.0   90.0   50.0
-150.0   120.0   50.0
-100.0   120.0   50.0
-150.0   120.0   33.333333333333336
-150.0   90.0   50.0
-100.0   120.0   50.0
-100.0   90.0   50.0
-100.0   90.0   33.333333333333336
-150.0   90.0   50.0
-100.0   120.0   50.0
-100.0   90.0   33.333333333333336
-150.0   120.0   33.333333333333336
-150.0   120.0   0.0
-100.0   120.0   0.0
-150.0   150.0   0.0
-150.0   120.0   16.666666666666668
-100.0   120.0   0.0
-100.0   150.0   0.0
-150.0   150.0   0.0
-100.0   150.0   16.666666666666668
-150.0   120.0   16.666666666666668
-150.0   150.0   16.666666666666668
-100.0   150.0   16.666666666666668
-150.0   150.0   0.0
-150.0   120.0   16.666666666666668
-100.0   150.0   16.666666666666668
-100.0   120.0   16.666666666666668
-100.0   120.0   0.0
-150.0   120.0   16.666666666666668
-100.0   150.0   16.666666666666668
-100.0   120.0   0.0
-150.0   150.0   0.0
-150.0   120.0   16.666666666666668
-100.0   120.0   16.666666666666668
-150.0   150.0   16.666666666666668
-150.0   120.0   33.333333333333336
-100.0   120.0   16.666666666666668
-100.0   150.0   16.666666666666668
-150.0   150.0   16.666666666666668
-100.0   150.0   33.333333333333336
-150.0   120.0   33.333333333333336
-150.0   150.0   33.333333333333336
-100.0   150.0   33.333333333333336
-150.0   150.0   16.666666666666668
-150.0   120.0   33.333333333333336
-100.0   150.0   33.333333333333336
-100.0   120.0   33.333333333333336
-100.0   120.0   16.666666666666668
-150.0   120.0   33.333333333333336
-100.0   150.0   33.333333333333336
-100.0   120.0   16.666666666666668
-150.0   150.0   16.666666666666668
-150.0   120.0   33.333333333333336
-100.0   120.0   33.333333333333336
-150.0   150.0   33.333333333333336
-150.0   120.0   50.0
-100.0   120.0   33.333333333333336
-100.0   150.0   33.333333333333336
-150.0   150.0   33.333333333333336
-100.0   150.0   50.0
-150.0   120.0   50.0
-150.0   150.0   50.0
-100.0   150.0   50.0
-150.0   150.0   33.333333333333336
-150.0   120.0   50.0
-100.0   150.0   50.0
-100.0   120.0   50.0
-100.0   120.0   33.333333333333336
-150.0   120.0   50.0
-100.0   150.0   50.0
-100.0   120.0   33.333333333333336
-150.0   150.0   33.333333333333336
-100.0   0.0   0.0
-50.0   0.0   0.0
-100.0   30.0   0.0
-100.0   0.0   16.666666666666668
-50.0   0.0   0.0
-50.0   30.0   0.0
-100.0   30.0   0.0
-50.0   30.0   16.666666666666668
-100.0   0.0   16.666666666666668
-100.0   30.0   16.666666666666668
-50.0   30.0   16.666666666666668
-100.0   30.0   0.0
-100.0   0.0   16.666666666666668
-50.0   30.0   16.666666666666668
-50.0   0.0   16.666666666666668
-50.0   0.0   0.0
-100.0   0.0   16.666666666666668
-50.0   30.0   16.666666666666668
-50.0   0.0   0.0
-100.0   30.0   0.0
-100.0   0.0   16.666666666666668
-50.0   0.0   16.666666666666668
-100.0   30.0   16.666666666666668
-100.0   0.0   33.333333333333336
-50.0   0.0   16.666666666666668
-50.0   30.0   16.666666666666668
-100.0   30.0   16.666666666666668
-50.0   30.0   33.333333333333336
-100.0   0.0   33.333333333333336
-100.0   30.0   33.333333333333336
-50.0   30.0   33.333333333333336
-100.0   30.0   16.666666666666668
-100.0   0.0   33.333333333333336
-50.0   30.0   33.333333333333336
-50.0   0.0   33.333333333333336
-50.0   0.0   16.666666666666668
-100.0   0.0   33.333333333333336
-50.0   30.0   33.333333333333336
-50.0   0.0   16.666666666666668
-100.0   30.0   16.666666666666668
-100.0   0.0   33.333333333333336
-50.0   0.0   33.333333333333336
-100.0   30.0   33.333333333333336
-100.0   0.0   50.0
-50.0   0.0   33.333333333333336
-50.0   30.0   33.333333333333336
-100.0   30.0   33.333333333333336
-50.0   30.0   50.0
-100.0   0.0   50.0
-100.0   30.0   50.0
-50.0   30.0   50.0
-100.0   30.0   33.333333333333336
-100.0   0.0   50.0
-50.0   30.0   50.0
-50.0   0.0   50.0
-50.0   0.0   33.333333333333336
-100.0   0.0   50.0
-50.0   30.0   50.0
-50.0   0.0   33.333333333333336
-100.0   30.0   33.333333333333336
-100.0   30.0   0.0
-50.0   30.0   0.0
-100.0   60.0   0.0
-100.0   30.0   16.666666666666668
-50.0   30.0   0.0
-50.0   60.0   0.0
-100.0   60.0   0.0
-50.0   60.0   16.666666666666668
-100.0   30.0   16.666666666666668
-100.0   60.0   16.666666666666668
-50.0   60.0   16.666666666666668
-100.0   60.0   0.0
-100.0   30.0   16.666666666666668
-50.0   60.0   16.666666666666668
-50.0   30.0   16.666666666666668
-50.0   30.0   0.0
-100.0   30.0   16.666666666666668
-50.0   60.0   16.666666666666668
-50.0   30.0   0.0
-100.0   60.0   0.0
-100.0   30.0   16.666666666666668
-50.0   30.0   16.666666666666668
-100.0   60.0   16.666666666666668
-100.0   30.0   33.333333333333336
-50.0   30.0   16.666666666666668
-50.0   60.0   16.666666666666668
-100.0   60.0   16.666666666666668
-50.0   60.0   33.333333333333336
-100.0   30.0   33.333333333333336
-100.0   60.0   33.333333333333336
-50.0   60.0   33.333333333333336
-100.0   60.0   16.666666666666668
-100.0   30.0   33.333333333333336
-50.0   60.0   33.333333333333336
-50.0   30.0   33.333333333333336
-50.0   30.0   16.666666666666668
-100.0   30.0   33.333333333333336
-50.0   60.0   33.333333333333336
-50.0   30.0   16.666666666666668
-100.0   60.0   16.666666666666668
-100.0   30.0   33.333333333333336
-50.0   30.0   33.333333333333336
-100.0   60.0   33.333333333333336
-100.0   30.0   50.0
-50.0   30.0   33.333333333333336
-50.0   60.0   33.333333333333336
-100.0   60.0   33.333333333333336
-50.0   60.0   50.0
-100.0   30.0   50.0
-100.0   60.0   50.0
-50.0   60.0   50.0
-100.0   60.0   33.333333333333336
-100.0   30.0   50.0
-50.0   60.0   50.0
-50.0   30.0   50.0
-50.0   30.0   33.333333333333336
-100.0   30.0   50.0
-50.0   60.0   50.0
-50.0   30.0   33.333333333333336
-100.0   60.0   33.333333333333336
-100.0   60.0   0.0
-50.0   60.0   0.0
-100.0   90.0   0.0
-100.0   60.0   16.666666666666668
-50.0   60.0   0.0
-50.0   90.0   0.0
-100.0   90.0   0.0
-50.0   90.0   16.666666666666668
-100.0   60.0   16.666666666666668
-100.0   90.0   16.666666666666668
-50.0   90.0   16.666666666666668
-100.0   90.0   0.0
-100.0   60.0   16.666666666666668
-50.0   90.0   16.666666666666668
-50.0   60.0   16.666666666666668
-50.0   60.0   0.0
-100.0   60.0   16.666666666666668
-50.0   90.0   16.666666666666668
-50.0   60.0   0.0
-100.0   90.0   0.0
-100.0   60.0   16.666666666666668
-50.0   60.0   16.666666666666668
-100.0   90.0   16.666666666666668
-100.0   60.0   33.333333333333336
-50.0   60.0   16.666666666666668
-50.0   90.0   16.666666666666668
-100.0   90.0   16.666666666666668
-50.0   90.0   33.333333333333336
-100.0   60.0   33.333333333333336
-100.0   90.0   33.333333333333336
-50.0   90.0   33.333333333333336
-100.0   90.0   16.666666666666668
-100.0   60.0   33.333333333333336
-50.0   90.0   33.333333333333336
-50.0   60.0   33.333333333333336
-50.0   60.0   16.666666666666668
-100.0   60.0   33.333333333333336
-50.0   90.0   33.333333333333336
-50.0   60.0   16.666666666666668
-100.0   90.0   16.666666666666668
-100.0   60.0   33.333333333333336
-50.0   60.0   33.333333333333336
-100.0   90.0   33.333333333333336
-100.0   60.0   50.0
-50.0   60.0   33.333333333333336
-50.0   90.0   33.333333333333336
-100.0   90.0   33.333333333333336
-50.0   90.0   50.0
-100.0   60.0   50.0
-100.0   90.0   50.0
-50.0   90.0   50.0
-100.0   90.0   33.333333333333336
-100.0   60.0   50.0
-50.0   90.0   50.0
-50.0   60.0   50.0
-50.0   60.0   33.333333333333336
-100.0   60.0   50.0
-50.0   90.0   50.0
-50.0   60.0   33.333333333333336
-100.0   90.0   33.333333333333336
-100.0   90.0   0.0
-50.0   90.0   0.0
-100.0   120.0   0.0
-100.0   90.0   16.666666666666668
-50.0   90.0   0.0
-50.0   120.0   0.0
-100.0   120.0   0.0
-50.0   120.0   16.666666666666668
-100.0   90.0   16.666666666666668
-100.0   120.0   16.666666666666668
-50.0   120.0   16.666666666666668
-100.0   120.0   0.0
-100.0   90.0   16.666666666666668
-50.0   120.0   16.666666666666668
-50.0   90.0   16.666666666666668
-50.0   90.0   0.0
-100.0   90.0   16.666666666666668
-50.0   120.0   16.666666666666668
-50.0   90.0   0.0
-100.0   120.0   0.0
-100.0   90.0   16.666666666666668
-50.0   90.0   16.666666666666668
-100.0   120.0   16.666666666666668
-100.0   90.0   33.333333333333336
-50.0   90.0   16.666666666666668
-50.0   120.0   16.666666666666668
-100.0   120.0   16.666666666666668
-50.0   120.0   33.333333333333336
-100.0   90.0   33.333333333333336
-100.0   120.0   33.333333333333336
-50.0   120.0   33.333333333333336
-100.0   120.0   16.666666666666668
-100.0   90.0   33.333333333333336
-50.0   120.0   33.333333333333336
-50.0   90.0   33.333333333333336
-50.0   90.0   16.666666666666668
-100.0   90.0   33.333333333333336
-50.0   120.0   33.333333333333336
-50.0   90.0   16.666666666666668
-100.0   120.0   16.666666666666668
-100.0   90.0   33.333333333333336
-50.0   90.0   33.333333333333336
-100.0   120.0   33.333333333333336
-100.0   90.0   50.0
-50.0   90.0   33.333333333333336
-50.0   120.0   33.333333333333336
-100.0   120.0   33.333333333333336
-50.0   120.0   50.0
-100.0   90.0   50.0
-100.0   120.0   50.0
-50.0   120.0   50.0
-100.0   120.0   33.333333333333336
-100.0   90.0   50.0
-50.0   120.0   50.0
-50.0   90.0   50.0
-50.0   90.0   33.333333333333336
-100.0   90.0   50.0
-50.0   120.0   50.0
-50.0   90.0   33.333333333333336
-100.0   120.0   33.333333333333336
-100.0   120.0   0.0
-50.0   120.0   0.0
-100.0   150.0   0.0
-100.0   120.0   16.666666666666668
-50.0   120.0   0.0
-50.0   150.0   0.0
-100.0   150.0   0.0
-50.0   150.0   16.666666666666668
-100.0   120.0   16.666666666666668
-100.0   150.0   16.666666666666668
-50.0   150.0   16.666666666666668
-100.0   150.0   0.0
-100.0   120.0   16.666666666666668
-50.0   150.0   16.666666666666668
-50.0   120.0   16.666666666666668
-50.0   120.0   0.0
-100.0   120.0   16.666666666666668
-50.0   150.0   16.666666666666668
-50.0   120.0   0.0
-100.0   150.0   0.0
-100.0   120.0   16.666666666666668
-50.0   120.0   16.666666666666668
-100.0   150.0   16.666666666666668
-100.0   120.0   33.333333333333336
-50.0   120.0   16.666666666666668
-50.0   150.0   16.666666666666668
-100.0   150.0   16.666666666666668
-50.0   150.0   33.333333333333336
-100.0   120.0   33.333333333333336
-100.0   150.0   33.333333333333336
-50.0   150.0   33.333333333333336
-100.0   150.0   16.666666666666668
-100.0   120.0   33.333333333333336
-50.0   150.0   33.333333333333336
-50.0   120.0   33.333333333333336
-50.0   120.0   16.666666666666668
-100.0   120.0   33.333333333333336
-50.0   150.0   33.333333333333336
-50.0   120.0   16.666666666666668
-100.0   150.0   16.666666666666668
-100.0   120.0   33.333333333333336
-50.0   120.0   33.333333333333336
-100.0   150.0   33.333333333333336
-100.0   120.0   50.0
-50.0   120.0   33.333333333333336
-50.0   150.0   33.333333333333336
-100.0   150.0   33.333333333333336
-50.0   150.0   50.0
-100.0   120.0   50.0
-100.0   150.0   50.0
-50.0   150.0   50.0
-100.0   150.0   33.333333333333336
-100.0   120.0   50.0
-50.0   150.0   50.0
-50.0   120.0   50.0
-50.0   120.0   33.333333333333336
-100.0   120.0   50.0
-50.0   150.0   50.0
-50.0   120.0   33.333333333333336
-100.0   150.0   33.333333333333336
-50.0   0.0   0.0
0.0   0.0   0.0
-50.0   30.0   0.0
-50.0   0.0   16.666666666666668
0.0   0.0   0.0
0.0   30.0   0.0
-50.0   30.0   0.0
0.0   30.0   16.666666666666668
-50.0   0.0   16.666666666666668
-50.0   30.0   16.666666666666668
0.0   30.0   16.666666666666668
-50.0   30.0   0.0
-50.0   0.0   16.666666666666668
0.0   30.0   16.666666666666668
0.0   0.0   16.666666666666668
0.0   0.0   0.0
-50.0   0.0   16.666666666666668
0.0   30.0   16.666666666666668
0.0   0.0   0.0
-50.0   30.0   0.0
-50.0   0.0   16.666666666666668
0.0   0.0   16.666666666666668
-50.0   30.0   16.666666666666668
-50.0   0.0   33.333333333333336
0.0   0.0   16.666666666666668
0.0   30.0   16.666666666666668
-50.0   30.0   16.666666666666668
0.0   30.0   33.333333333333336
-50.0   0.0   33.333333333333336
-50.0   30.0   33.333333333333336
0.0   30.0   33.333333333333336
-50.0   30.0   16.666666666666668
-50.0   0.0   33.333333333333336
0.0   30.0   33.333333333333336
0.0   0.0   33.333333333333336
0.0   0.0   16.666666666666668
-50.0   0.0   33.333333333333336
0.0   30.0   33.333333333333336
0.0   0.0   16.666666666666668
-50.0   30.0   16.666666666666668
-50.0   0.0   33.333333333333336
0.0   0.0   33.333333333333336
-50.0   30.0   33.333333333333336
-50.0   0.0   50.0
0.0   0.0   33.333333333333336
0.0   30.0   33.333333333333336
-50.0   30.0   33.333333333333336
0.0   30.0   50.0
-50.0   0.0   50.0
-50.0   30.0   50.0
0.0   30.0   50.0
-50.0   30.0   33.333333333333336
-50.0   0.0   50.0
0.0   30.0   50.0
0.0   0.0   50.0
0.0   0.0   33.333333333333336
-50.0   0.0   50.0
0.0   30.0   50.0
0.0   0.0   33.333333333333336
-50.0   30.0   33.333333333333336
-50.0   30.0   0.0
0.0   30.0   0.0
-50.0   60.0   0.0
-50.0   30.0   16.666666666666668
0.0   30.0   0.0
0.0   60.0   0.0
-50.0   60.0   0.0
0.0   60.0   16.666666666666668
-50.0   30.0   16.666666666666668
-50.0   60.0   16.666666666666668
0.0   60.0   16.666666666666668
-50.0   60.0   0.0
-50.0   30.0   16.666666666666668
0.0   60.0   16.666666666666668
0.0   30.0   16.666666666666668
0.0   30.0   0.0
-50.0   30.0   16.666666666666668
0.0   60.0   16.666666666666668
0.0   30.0   0.0
-50.0   60.0   0.0
-50.0   30.0   16.666666666666668
0.0   30.0   16.666666666666668
-50.0   60.0   16.666666666666668
-50.0   30.0   33.333333333333336
0.0   30.0   16.666666666666668
0.0   60.0   16.666666666666668
-50.0   60.0   16.666666666666668
0.0   60.0   33.333333333333336
-50.0   30.0   33.333333333333336
-50.0   60.0   33.333333333333336
0.0   60.0   33.333333333333336
-50.0   60.0   16.666666666666668
-50.0   30.0   33.333333333333336
0.0   60.0   33.333333333333336
0.0   30.0   33.333333333333336
0.0   30.0   16.666666666666668
-50.0   30.0   33.333333333333336
0.0   60.0   33.333333333333336
0.0   30.0   16.666666666666668
-50.0   60.0   16.666666666666668
-50.0   30.0   33.333333333333336
0.0   30.0   33.333333333333336
-50.0   60.0   33.333333333333336
-50.0   30.0   50.0
0.0   30.0   33.333333333333336
0.0   60.0   33.333333333333336
-50.0   60.0   33.333333333333336
0.0   60.0   50.0
-50.0   30.0   50.0
-50.0   60.0   50.0
0.0   60.0   50.0
-50.0   60.0   33.333333333333336
-50.0   30.0   50.0
0.0   60.0   50.0
0.0   30.0   50.0
0.0   30.0   33.333333333333336
-50.0   30.0   50.0
0.0   60.0   50.0
0.0   30.0   33.333333333333336
-50.0   60.0   33.333333333333336
-50.0   60.0   0.0
0.0   60.0   0.0
-50.0   90.0   0.0
-50.0   60.0   16.666666666666668
0.0   60.0   0.0
0.0   90.0   0.0
-50.0   90.0   0.0
0.0   90.0   16.666666666666668
-50.0   60.0   16.666666666666668
-50.0   90.0   16.666666666666668
0.0   90.0   16.666666666666668
-50.0   90.0   0.0
-50.0   60.0   16.666666666666668
0.0   90.0   16.666666666666668
0.0   60.0   16.666666666666668
0.0   60.0   0.0
-50.0   60.0   16.666666666666668
0.0   90.0   16.666666666666668
0.0   60.0   0.0
-50.0   90.0   0.0
-50.0   60.0   16.666666666666668
0.0   60.0   16.666666666666668
-50.0   90.0   16.666666666666668
-50.0   60.0   33.333333333333336
0.0   60.0   16.666666666666668
0.0   90.0   16.666666666666668
-50.0   90.0   16.666666666666668
0.0   90.0   33.333333333333336
-50.0   60.0   33.333333333333336
-50.0   90.0   33.333333333333336
0.0   90.0   33.333333333333336
-50.0   90.0   16.666666666666668
-50.0   60.0   33.333333333333336
0.0   90.0   33.333333333333336
0.0   60.0   33.333333333333336
0.0   60.0   16.666666666666668
-50.0   60.0   33.333333333333336
0.0   90.0   33.333333333333336
0.0   60.0   16.666666666666668
-50.0   90.0   16.666666666666668
-50.0   60.0   33.333333333333336
0.0   60.0   33.333333333333336
-50.0   90.0   33.333333333333336
-50.0   60.0   50.0
0.0   60.0   33.333333333333336
0.0   90.0   33.333333333333336
-50.0   90.0   33.333333333333336
0.0   90.0   50.0
-50.0   60.0   50.0
-50.0   90.0   50.0
0.0   90.0   50.0
-50.0   90.0   33.333333333333336
-50.0   60.0   50.0
0.0   90.0   50.0
0.0   60.0   50.0
0.0   60.0   33.333333333333336
-50.0   60.0   50.0
0.0   90.0   50.0
0.0   60.0   33.333333333333336
-50.0   90.0   33.333333333333336
-50.0   90.0   0.0
0.0   90.0   0.0
-50.0   120.0   0.0
-50.0   90.0   16.666666666666668
0.0   90.0   0.0
0.0   120.0   0.0
-50.0   120.0   0.0
0.0   120.0   16.666666666666668
-50.0   90.0   16.666666666666668
-50.0   120.0   16.666666666666668
0.0   120.0   16.666666666666668
-50.0   120.0   0.0
-50.0   90.0   16.666666666666668
0.0   120.0   16.666666666666668
0.0   90.0   16.666666666666668
0.0   90.0   0.0
-50.0   90.0   16.666666666666668
0.0   120.0   16.666666666666668
0.0   90.0   0.0
-50.0   120.0   0.0
-50.0   90.0   16.666666666666668
0.0   90.0   16.666666666666668
-50.0   120.0   16.666666666666668
-50.0   90.0   33.333333333333336
0.0   90.0   16.666666666666668
0.0   120.0   16.666666666666668
-50.0   120.0   16.666666666666668
0.0   120.0   33.333333333333336
-50.0   90.0   33.333333333333336
-50.0   120.0   33.333333333333336
0.0   120.0   33.333333333333336
-50.0   120.0   16.666666666666668
-50.0   90.0   33.333333333333336
0.0   120.0   33.333333333333336
0.0   90.0   33.333333333333336
0.0   90.0   16.666666666666668
-50.0   90.0   33.333333333333336
0.0   120.0   33.333333333333336
0.0   90.0   16.666666666666668
-50.0   120.0   16.666666666666668
-50.0   90.0   33.333333333333336
0.0   90.0   33.333333333333336
-50.0   120.0   33.333333333333336
-50.0   90.0   50.0
0.0   90.0   33.333333333333336
0.0   120.0   33.333333333333336
-50.0   120.0   33.333333333333336
0.0   120.0   50.0
-50.0   90.0   50.0
-50.0   120.0   50.0
0.0   120.0   50.0
-50.0   120.0   33.333333333333336
-50.0   90.0   50.0
0.0   120.0   50.0
0.0   90.0   50.0
0.0   90.0   33.333333333333336
-50.0   90.0   50.0
0.0   120.0   50.0
0.0   90.0   33.333333333333336
-50.0   120.0   33.333333333333336
-50.0   120.0   0.0
0.0   120.0   0.0
-50.0   150.0   0.0
-50.0   120.0   16.666666666666668
0.0   120.0   0.0
0.0   150.0   0.0
-50.0   150.0   0.0
0.0   150.0   16.666666666666668
-50.0   120.0   16.666666666666668
-50.0   150.0   16.666666666666668
0.0   150.0   16.666666666666668
-50.0   150.0   0.0
-50.0   120.0   16.666666666666668
0.0   150.0   16.666666666666668
0.0   120.0   16.666666666666668
0.0   120.0   0.0
-50.0   120.0   16.666666666666668
0.0   150.0   16.666666666666668
0.0   120.0   0.0
-50.0   150.0   0.0
-50.0   120.0   16.666666666666668
0.0   120.0   16.666666666666668
-50.0   150.0   16.666666666666668
-50.0   120.0   33.333333333333336
0.0   120.0   16.666666666666668
0.0   150.0   16.666666666666668
-50.0   150.0   16.666666666666668
0.0   150.0   33.333333333333336
-50.0   120.0   33.333333333333336
-50.0   150.0   33.333333333333336
0.0   150.0   33.333333333333336
-50.0   150.0   16.666666666666668
-50.0   120.0   33.333333333333336
0.0   150.0   33.333333333333336
0.0   120.0   33.333333333333336
0.0   120.0   16.666666666666668
-50.0   120.0   33.333333333333336
0.0   150.0   33.333333333333336
0.0   120.0   16.666666666666668
-50.0   150.0   16.666666666666668
-50.0   120.0   33.333333333333336
0.0   120.0   33.333333333333336
-50.0   150.0   33.333333333333336
-50.0   120.0   50.0
0.0   120.0   33.333333333333336
0.0   150.0   33.333333333333336
-50.0   150.0   33.333333333333336
0.0   150.0   50.0
-50.0   120.0   50.0
-50.0   150.0   50.0
0.0   150.0   50.0
-50.0   150.0   33.333333333333336
-50.0   120.0   50.0
0.0   150.0   50.0
0.0   120.0   50.0
0.0   120.0   33.333333333333336
-50.0   120.0   50.0
0.0   150.0   50.0
0.0   120.0   33.333333333333336
-50.0   150.0   33.333333333333336
0.0   0.0   0.0
50.0   0.0   0.0
0.0   30.0   0.0
0.0   0.0   16.666666666666668
50.0   0.0   0.0
50.0   30.0   0.0
0.0   30.0   0.0
50.0   30.0   16.666666666666668
0.0   0.0   16.666666666666668
0.0   30.0   16.666666666666668
50.0   30.0   16.666666666666668
0.0   30.0   0.0
0.0   0.0   16.666666666666668
50.0   30.0   16.666666666666668
50.0   0.0   16.666666666666668
50.0   0.0   0.0
0.0   0.0   16.666666666666668
50.0   30.0   16.666666666666668
50.0   0.0   0.0
0.0   30.0   0.0
0.0   0.0   16.666666666666668
50.0   0.0   16.666666666666668
0.0   30.0   16.666666666666668
0.0   0.0   33.333333333333336
50.0   0.0   16.666666666666668
50.0   30.0   16.666666666666668
0.0   30.0   16.666666666666668
50.0   30.0   33.333333333333336
0.0   0.0   33.333333333333336
0.0   30.0   33.333333333333336
50.0   30.0   33.333333333333336
0.0   30.0   16.666666666666668
0.0   0.0   33.333333333333336
50.0   30.0   33.333333333333336
50.0   0.0   33.333333333333336
50.0   0.0   16.666666666666668
0.0   0.0   33.333333333333336
50.0   30.0   33.333333333333336
50.0   0.0   16.666666666666668
0.0   30.0   16.666666666666668
0.0   0.0   33.333333333333336
50.0   0.0   33.333333333333336
0.0   30.0   33.333333333333336
0.0   0.0   50.0
50.0   0.0   33.333333333333336
50.0   30.0   33.333333333333336
0.0   30.0   33.333333333333336
50.0   30.0   50.0
0.0   0.0   50.0
0.0   30.0   50.0
50.0   30.0   50.0
0.0   30.0   33.333333333333336
0.0   0.0   50.0
50.0   30.0   50.0
50.0   0.0   50.0
50.0   0.0   33.333333333333336
0.0   0.0   50.0
50.0   30.0   50.0
50.0   0.0   33.333333333333336
0.0   30.0   33.333333333333336
0.0   30.0   0.0
50.0   30.0   0.0
0.0   60.0   0.0
0.0   30.0   16.666666666666668
50.0   30.0   0.0
50.0   60.0   0.0
0.0   60.0   0.0
50.0   60.0   16.666666666666668
0.0   30.0   16.666666666666668
0.0   60.0   16.666666666666668
50.0   60.0   16.666666666666668
0.0   60.0   0.0
0.0   30.0   16.666666666666668
50.0   60.0   16.666666666666668
50.0   30.0   16.666666666666668
50.0   30.0   0.0
0.0   30.0   16.666666666666668
50.0   60.0   16.666666666666668
50.0   30.0   0.0
0.0   60.0   0.0
0.0   30.0   16.666666666666668
50.0   30.0   16.666666666666668
0.0   60.0   16.666666666666668
0.0   30.0   33.333333333333336
50.0   30.0   16.666666666666668
50.0   60.0   16.666666666666668
0.0   60.0   16.666666666666668
50.0   60.0   33.333333333333336
0.0   30.0   33.333333333333336
0.0   60.0   33.333333333333336
50.0   60.0   33.333333333333336
0.0   60.0   16.666666666666668
0.0   30.0   33.333333333333336
50.0   60.0   33.333333333333336
50.0   30.0   33.333333333333336
50.0   30.0   16.666666666666668
0.0   30.0   33.333333333333336
50.0   60.0   33.333333333333336
50.0   30.0   16.666666666666668
0.0   60.0   16.666666666666668
0.0   30.0   33.333333333333336
50.0   30.0   33.333333333333336
0.0   60.0   33.333333333333336
0.0   30.0   50.0
50.0   30.0   33.333333333333336
50.0   60.0   33.333333333333336
0.0   60.0   33.333333333333336
50.0   60.0   50.0
0.0   30.0   50.0
0.0   60.0   50.0
50.0   60.0   50.0
0.0   60.0   33.333333333333336
0.0   30.0   50.0
50.0   60.0   50.0
50.0   30.0   50.0
50.0   30.0   33.333333333333336
0.0   30.0   50.0
50.0   60.0   50.0
50.0   30.0   33.333333333333336
0.0   60.0   33.333333333333336
0.0   60.0   0.0
50.0   60.0   0.0
0.0   90.0   0.0
0.0   60.0   16.666666666666668
50.0   60.0   0.0
50.0   90.0   0.0
0.0   90.0   0.0
50.0   90.0   16.666666666666668
0.0   60.0   16.666666666666668
0.0   90.0   16.666666666666668
50.0   90.0   16.666666666666668
0.0   90.0   0.0
0.0   60.0   16.666666666666668
50.0   90.0   16.666666666666668
50.0   60.0   16.666666666666668
50.0   60.0   0.0
0.0   60.0   16.666666666666668
50.0   90.0   16.666666666666668
50.0   60.0   0.0
0.0   90.0   0.0
0.0   60.0   16.666666666666668
50.0   60.0   16.666666666666668
0.0   90.0   16.666666666666668
0.0   60.0   33.333333333333336
50.0   60.0   16.666666666666668
50.0   90.0   16.666666666666668
0.0   90.0   16.666666666666668
50.0   90.0   33.333333333333336
0.0   60.0   33.333333333333336
0.0   90.0   33.333333333333336
50.0   90.0   33.333333333333336
0.0   90.0   16.666666666666668
0.0   60.0   33.333333333333336
50.0   90.0   33.333333333333336
50.0   60.0   33.333333333333336
50.0   60.0   16.666666666666668
0.0   60.0   33.333333333333336
50.0   90.0   33.333333333333336
50.0   60.0   16.666666666666668
0.0   90.0   16.666666666666668
0.0   60.0   33.333333333333336
50.0   60.0   33.333333333333336
0.0   90.0   33.333333333333336
0.0   60.0   50.0
50.0   60.0   33.333333333333336
50.0   90.0   33.333333333333336
0.0   90.0   33.333333333333336
50.0   90.0   50.0
0.0   60.0   50.0
0.0   90.0   50.0
50.0   90.0   50.0
0.0   90.0   33.333333333333336
0.0   60.0   50.0
50.0   90.0   50.0
50.0   60.0   50.0
50.0   60.0   33.333333333333336
0.0   60.0   50.0
50.0   90.0   50.0
50.0   60.0   33.333333333333336
0.0   90.0   33.333333333333336
0.0   90.0   0.0
50.0   90.0   0.0
0.0   120.0   0.0
0.0   90.0   16.666666666666668
50.0   90.0   0.0
50.0   120.0   0.0
0.0   120.0   0.0
50.0   120.0   16.666666666666668
0.0   90.0   16.666666666666668
0.0   120.0   16.666666666666668
50.0   120.0   16.666666666666668
0.0   120.0   0.0
0.0   90.0   16.666666666666668
50.0   120.0   16.666666666666668
50.0   90.0   16.666666666666668
50.0   90.0   0.0
0.0   90.0   16.666666666666668
50.0   120.0   16.666666666666668
50.0   90.0   0.0
0.0   120.0   0.0
0.0   90.0   16.666666666666668
50.0   90.0   16.666666666666668
0.0   120.0   16.666666666666668
0.0   90.0   33.333333333333336
50.0   90.0   16.666666666666668
50.0   120.0   16.666666666666668
0.0   120.0   16.666666666666668
50.0   120.0   33.333333333333336
0.0   90.0   33.333333333333336
0.0   120.0   33.333333333333336
50.0   120.0   33.333333333333336
0.0   120.0   16.666666666666668
0.0   90.0   33.333333333333336
50.0   120.0   33.333333333333336
50.0   90.0   33.333333333333336
50.0   90.0   16.666666666666668
0.0   90.0   33.333333333333336
50.0   120.0   33.333333333333336
50.0   90.0   16.666666666666668
0.0   120.0   16.666666666666668
0.0   90.0   33.333333333333336
50.0   90.0   33.333333333333336
0.0   120.0   33.333333333333336
0.0   90.0   50.0
50.0   90.0   33.333333333333336
50.0   120.0   33.333333333333336
0.0   120.0   33.333333333333336
50.0   120.0   50.0
0.0   90.0   50.0
0.0   120.0   50.0
50.0   120.0   50.0
0.0   120.0   33.333333333333336
0.0   90.0   50.0
50.0   120.0   50.0
50.0   90.0   50.0
50.0   90.0   33.333333333333336
0.0   90.0   50.0
50.0   120.0   50.0
50.0   90.0   33.333333333333336
0.0   120.0   33.333333333333336
0.0   120.0   0.0
50.0   120.0   0.0
0.0   150.0   0.0
0.0   120.0   16.666666666666668
50.0   120.0   0.0
50.0   150.0   0.0
0.0   150.0   0.0
50.0   150.0   16.666666666666668
0.0   120.0   16.666666666666668
0.0   150.0   16.666666666666668
50.0   150.0   16.666666666666668
0.0   150.0   0.0
0.0   120.0   16.666666666666668
50.0   150.0   16.666666666666668
50.0   120.0   16.666666666666668
50.0   120.0   0.0
0.0   120.0   16.666666666666668
50.0   150.0   16.666666666666668
50.0   120.0   0.0
0.0   150.0   0.0
0.0   120.0   16.666666666666668
50.0   120.0   16.666666666666668
0.0   150.0   16.666666666666668
0.0   120.0   33.333333333333336
50.0   120.0   16.666666666666668
50.0   150.0   16.666666666666668
0.0   150.0   16.666666666666668
50.0   150.0   33.333333333333336
0.0   120.0   33.333333333333336
0.0   150.0   33.333333333333336
50.0   150.0   33.333333333333336
0.0   150.0   16.666666666666668
0.0   120.0   33.333333333333336
50.0   150.0   33.333333333333336
50.0   120.0   33.333333333333336
50.0   120.0   16.666666666666668
0.0   120.0   33.333333333333336
50.0   150.0   33.333333333333336
50.0   120.0   16.666666666666668
0.0   150.0   16.666666666666668
0.0   120.0   33.333333333333336
50.0   120.0   33.333333333333336
0.0   150.0   33.333333333333336
0.0   120.0   50.0
50.0   120.0   33.333333333333336
50.0   150.0   33.333333333333336
0.0   150.0   33.333333333333336
50.0   150.0   50.0
0.0   120.0   50.0
0.0   150.0   50.0
50.0   150.0   50.0
0.0   150.0   33.333333333333336
0.0   120.0   50.0
50.0   150.0   50.0
50.0   120.0   50.0
50.0   120.0   33.333333333333336
0.0   120.0   50.0
50.0   150.0   50.0
50.0   120.0   33.333333333333336
0.0   150.0   33.333333333333336
50.0   0.0   0.0
100.0   0.0   0.0
50.0   30.0   0.0
50.0   0.0   16.666666666666668
100.0   0.0   0.0
100.0   30.0   0.0
50.0   30.0   0.0
100.0   30.0   16.666666666666668
50.0   0.0   16.666666666666668
50.0   30.0   16.666666666666668
100.0   30.0   16.666666666666668
50.0   30.0   0.0
50.0   0.0   16.666666666666668
100.0   30.0   16.666666666666668
100.0   0.0   16.666666666666668
100.0   0.0   0.0
50.0   0.0   16.666666666666668
100.0   30.0   16.666666666666668
100.0   0.0   0.0
50.0   30.0   0.0
50.0   0.0   16.666666666666668
100.0   0.0   16.666666666666668
50.0   30.0   16.666666666666668
50.0   0.0   33.333333333333336
100.0   0.0   16.666666666666668
100.0   30.0   16.666666666666668
50.0   30.0   16.666666666666668
100.0   30.0   33.333333333333336
50.0   0.0   33.333333333333336
50.0   30.0   33.333333333333336
100.0   30.0   33.333333333333336
50.0   30.0   16.666666666666668
50.0   0.0   33.333333333333336
100.0   30.0   33.333333333333336
100.0   0.0   33.333333333333336
100.0   0.0   16.666666666666668
50.0   0.0   33.333333333333336
100.0   30.0   33.333333333333336
100.0   0.0   16.666666666666668
50.0   30.0   16.666666666666668
50.0   0.0   33.333333333333336
100.0   0.0   33.333333333333336
50.0   30.0   33.333333333333336
50.0   0.0   50.0
100.0   0.0   33.333333333333336
100.0   30.0   33.333333333333336
50.0   30.0   33.333333333333336
100.0   30.0   50.0
50.0   0.0   50.0
50.0   30.0   50.0
100.0   30.0   50.0
50.0   30.0   33.333333333333336
50.0   0.0   50.0
100.0   30.0   50.0
100.0   0.0   50.0
100.0   0.0   33.333333333333336
50.0   0.0   50.0
100.0   30.0   50.0
100.0   0.0   33.333333333333336
50.0   30.0   33.333333333333336
50.0   30.0   0.0
100.0   30.0   0.0
50.0   60.0   0.0
50.0   30.0   16.666666666666668
100.0   30.0   0.0
100.0   60.0   0.0
50.0   60.0   0.0
100.0   60.0   16.666666666666668
50.0   30.0   16.666666666666668
50.0   60.0   16.666666666666668
100.0   60.0   16.666666666666668
50.0   60.0   0.0
50.0   30.0   16.666666666666668
100.0   60.0   16.666666666666668
100.0   30.0   16.666666666666668
100.0   30.0   0.0
50.0   30.0   16.666666666666668
100.0   60.0   16.666666666666668
100.0   30.0   0.0
50.0   60.0   0.0
50.0   30.0   16.666666666666668
100.0   30.0   16.666666666666668
50.0   60.0   16.666666666666668
50.0   30.0   33.333333333333336
100.0   30.0   16.666666666666668
100.0   60.0   16.666666666666668
50.0   60.0   16.666666666666668
100.0   60.0   33.333333333333336
50.0   30.0   33.333333333333336
50.0   60.0   33.333333333333336
100.0   60.0   33.333333333333336
50.0   60.0   16.666666666666668
50.0   30.0   33.333333333333336
100.0   60.0   33.333333333333336
100.0   30.0   33.333333333333336
100.0   30.0   16.666666666666668
50.0   30.0   33.333333333333336
100.0   60.0   33.333333333333336
100.0   30.0   16.666666666666668
50.0   60.0   16.666666666666668
50.0   30.0   33.333333333333336
100.0   30.0   33.333333333333336
50.0   60.0   33.333333333333336
50.0   30.0   50.0
100.0   30.0   33.333333333333336
100.0   60.0   33.333333333333336
50.0   60.0   33.333333333333336
100.0   60.0   50.0
50.0   30.0   50.0
50.0   60.0   50.0
100.0   60.0   50.0
50.0   60.0   33.333333333333336
50.0   30.0   50.0
100.0   60.0   50.0
100.0   30.0   50.0
100.0   30.0   33.333333333333336
50.0   30.0   50.0
100.0   60.0   50.0
100.0   30.0   33.333333333333336
50.0   60.0   33.333333333333336
50.0   60.0   0.0
100.0   60.0   0.0
50.0   90.0   0.0
50.0   60.0   16.666666666666668
100.0   60.0   0.0
100.0   90.0   0.0
50.0   90.0   0.0
100.0   90.0   16.666666666666668
50.0   60.0   16.666666666666668
50.0   90.0   16.666666666666668
100.0   90.0   16.666666666666668
50.0   90.0   0.0
50.0   60.0   16.666666666666668
100.0   90.0   16.666666666666668
100.0   60.0   16.666666666666668
100.0   60.0   0.0
50.0   60.0   16.666666666666668
100.0   90.0   16.666666666666668
100.0   60.0   0.0
50.0   90.0   0.0
50.0   60.0   16.666666666666668
100.0   60.0   16.666666666666668
50.0   90.0   16.666666666666668
50.0   60.0   33.333333333333336
100.0   60.0   16.666666666666668
100.0   90.0   16.666666666666668
50.0   90.0   16.666666666666668
100.0   90.0   33.333333333333336
50.0   60.0   33.333333333333336
50.0   90.0   33.333333333333336
100.0   90.0   33.333333333333336
50.0   90.0   16.666666666666668
50.0   60.0   33.333333333333336
100.0   90.0   33.333333333333336
100.0   60.0   33.333333333333336
100.0   60.0   16.666666666666668
50.0   60.0   33.333333333333336
100.0   90.0   33.333333333333336
100.0   60.0   16.666666666666668
50.0   90.0   16.666666666666668
50.0   60.0   33.333333333333336
100.0   60.0   33.333333333333336
50.0   90.0   33.333333333333336
50.0   60.0   50.0
100.0   60.0   33.333333333333336
100.0   90.0   33.333333333333336
50.0   90.0   33.333333333333336
100.0   90.0   50.0
50.0   60.0   50.0
50.0   90.0   50.0
100.0   90.0   50.0
50.0   90.0   33.333333333333336
50.0   60.0   50.0
100.0   90.0   50.0
100.0   60.0   50.0
100.0   60.0   33.333333333333336
50.0   60.0   50.0
100.0   90.0   50.0
100.0   60.0   33.333333333333336
50.0   90.0   33.333333333333336
50.0   90.0   0.0
100.0   90.0   0.0
50.0   120.0   0.0
50.0   90.0   16.666666666666668
100.0   90.0   0.0
100.0   120.0   0.0
50.0   120.0   0.0
100.0   120.0   16.666666666666668
50.0   90.0   16.666666666666668
50.0   120.0   16.666666666666668
100.0   120.0   16.666666666666668
50.0   120.0   0.0
50.0   90.0   16.666666666666668
100.0   120.0   16.666666666666668
100.0   90.0   16.666666666666668
100.0   90.0   0.0
50.0   90.0   16.666666666666668
100.0   120.0   16.666666666666668
100.0   90.0   0.0
50.0   120.0   0.0
50.0   90.0   16.666666666666668
100.0   90.0   16.666666666666668
50.0   120.0   16.666666666666668
50.0   90.0   33.333333333333336
100.0   90.0   16.666666666666668
100.0   120.0   16.666666666666668
50.0   120.0   16.666666666666668
100.0   120.0   33.333333333333336
50.0   90.0   33.333333333333336
50.0   120.0   33.333333333333336
100.0   120.0   33.333333333333336
50.0   120.0   16.666666666666668
50.0   90.0   33.333333333333336
100.0   120.0   33.333333333333336
100.0   90.0   33.333333333333336
100.0   90.0   16.666666666666668
50.0   90.0   33.333333333333336
100.0   120.0   33.333333333333336
100.0   90.0   16.666666666666668
50.0   120.0   16.666666666666668
50.0   90.0   33.333333333333336
100.0   90.0   33.333333333333336
50.0   120.0   33.333333333333336
50.0   90.0   50.0
100.0   90.0   33.333333333333336
100.0   120.0   33.333333333333336
50.0   120.0   33.333333333333336
100.0   120.0   50.0
50.0   90.0   50.0
50.0   120.0   50.0
100.0   120.0   50.0
50.0   120.0   33.333333333333336
50.0   90.0   50.0
100.0   120.0   50.0
100.0   90.0   50.0
100.0   90.0   33.333333333333336
50.0   90.0   50.0
100.0   120.0   50.0
100.0   90.0   33.333333333333336
50.0   120.0   33.333333333333336
50.0   120.0   0.0
100.0   120.0   0.0
50.0   150.0   0.0
50.0   120.0   16.666666666666668
100.0   120.0   0.0
100.0   150.0   0.0
50.0   150.0   0.0
100.0   150.0   16.666666666666668
50.0   120.0   16.666666666666668
50.0   150.0   16.666666666666668
100.0   150.0   16.666666666666668
50.0   150.0   0.0
50.0   120.0   16.666666666666668
100.0   150.0   16.666666666666668
100.0   120.0   16.666666666666668
100.0   120.0   0.0
50.0   120.0   16.666666666666668
100.0   150.0   16.666666666666668
100.0   120.0   0.0
50.0   150.0   0.0
50.0   120.0   16.666666666666668
100.0   120.0   16.666666666666668
50.0   150.0   16.666666666666668
50.0   120.0   33.333333333333336
100.0   120.0   16.666666666666668
100.0   150.0   16.666666666666668
50.0   150.0   16.666666666666668
100.0   150.0   33.333333333333336
50.0   120.0   33.333333333333336
50.0   150.0   33.333333333333336
100.0   150.0   33.333333333333336
50.0   150.0   16.666666666666668
50.0   120.0   33.333333333333336
100.0   150.0   33.333333333333336
100.0   120.0   33.333333333333336
100.0   120.0   16.666666666666668
50.0   120.0   33.333333333333336
100.0   150.0   33.333333333333336
100.0   120.0   16.666666666666668
50.0   150.0   16.666666666666668
50.0   120.0   33.333333333333336
100.0   120.0   33.333333333333336
50.0   150.0   33.333333333333336
50.0   120.0   50.0
100.0   120.0   33.333333333333336
100.0   150.0   33.333333333333336
50.0   150.0   33.333333333333336
100.0   150.0   50.0
50.0   120.0   50.0
50.0   150.0   50.0
100.0   150.0   50.0
50.0   150.0   33.333333333333336
50.0   120.0   50.0
100.0   150.0   50.0
100.0   120.0   50.0
100.0   120.0   33.333333333333336
50.0   120.0   50.0
100.0   150.0   50.0
100.0   120.0   33.333333333333336
50.0   150.0   33.333333333333336
100.0   0.0   0.0
150.0   0.0   0.0
100.0   30.0   0.0
100.0   0.0   16.666666666666668
150.0   0.0   0.0
150.0   30.0   0.0
100.0   30.0   0.0
150.0   30.0   16.666666666666668
100.0   0.0   16.666666666666668
100.0   30.0   16.666666666666668
150.0   30.0   16.666666666666668
100.0   30.0   0.0
100.0   0.0   16.666666666666668
150.0   30.0   16.666666666666668
150.0   0.0   16.666666666666668
150.0   0.0   0.0
100.0   0.0   16.666666666666668
150.0   30.0   16.666666666666668
150.0   0.0   0.0
100.0   30.0   0.0
100.0   0.0   16.666666666666668
150.0   0.0   16.666666666666668
100.0   30.0   16.666666666666668
100.0   0.0   33.333333333333336
150.0   0.0   16.666666666666668
150.0   30.0   16.666666666666668
100.0   30.0   16.666666666666668
150.0   30.0   33.333333333333336
100.0   0.0   33.333333333333336
100.0   30.0   33.333333333333336
150.0   30.0   33.333333333333336
100.0   30.0   16.666666666666668
100.0   0.0   33.333333333333336
150.0   30.0   33.333333333333336
150.0   0.0   33.333333333333336
150.0   0.0   16.666666666666668
100.0   0.0   33.333333333333336
150.0   30.0   33.333333333333336
150.0   0.0   16.666666666666668
100.0   30.0   16.666666666666668
100.0   0.0   33.333333333333336
150.0   0.0   33.333333333333336
100.0   30.0   33.333333333333336
100.0   0.0   50.0
150.0   0.0   33.333333333333336
150.0   30.0   33.333333333333336
100.0   30.0   33.333333333333336
150.0   30.0   50.0
100.0   0.0   50.0
100.0   30.0   50.0
150.0   30.0   50.0
100.0   30.0   33.333333333333336
100.0   0.0   50.0
150.0   30.0   50.0
150.0   0.0   50.0
150.0   0.0   33.333333333333336
100.0   0.0   50.0
150.0   30.0   50.0
150.0   0.0   33.333333333333336
100.0   30.0   33.333333333333336
100.0   30.0   0.0
150.0   30.0   0.0
100.0   60.0   0.0
100.0   30.0   16.666666666666668
150.0   30.0   0.0
150.0   60.0   0.0
100.0   60.0   0.0
150.0   60.0   16.666666666666668
100.0   30.0   16.666666666666668
100.0   60.0   16.666666666666668
150.0   60.0   16.666666666666668
100.0   60.0   0.0
100.0   30.0   16.666666666666668
150.0   60.0   16.666666666666668
150.0   30.0   16.666666666666668
150.0   30.0   0.0
100.0   30.0   16.666666666666668
150.0   60.0   16.666666666666668
150.0   30.0   0.0
100.0   60.0   0.0
100.0   30.0   16.666666666666668
150.0   30.0   16.666666666666668
100.0   60.0   16.666666666666668
100.0   30.0   33.333333333333336
150.0   30.0   16.666666666666668
150.0   60.0   16.666666666666668
100.0   60.0   16.666666666666668
150.0   60.0   33.333333333333336
100.0   30.0   33.333333333333336
100.0   60.0   33.333333333333336
150.0   60.0   33.333333333333336
100.0   60.0   16.666666666666668
100.0   30.0   33.333333333333336
150.0   60.0   33.333333333333336
150.0   30.0   33.333333333333336
150.0   30.0   16.666666666666668
100.0   30.0   33.333333333333336
150.0   60.0   33.333333333333336
150.0   30.0   16.666666666666668
100.0   60.0   16.666666666666668
100.0   30.0   33.333333333333336
150.0   30.0   33.333333333333336
100.0   60.0   33.333333333333336
100.0   30.0   50.0
150.0   30.0   33.333333333333336
150.0   60.0   33.333333333333336
100.0   60.0   33.333333333333336
150.0   60.0   50.0
100.0   30.0   50.0
100.0   60.0   50.0
150.0   60.0   50.0
100.0   60.0   33.333333333333336
100.0   30.0   50.0
150.0   60.0   50.0
150.0   30.0   50.0
150.0   30.0   33.333333333333336
100.0   30.0   50.0
150.0   60.0   50.0
150.0   30.0   33.333333333333336
100.0   60.0   33.333333333333336
100.0   60.0   0.0
150.0   60.0   0.0
100.0   90.0   0.0
100.0   60.0   16.666666666666668
150.0   60.0   0.0
150.0   90.0   0.0
100.0   90.0   0.0
150.0   90.0   16.666666666666668
100.0   60.0   16.666666666666668
100.0   90.0   16.666666666666668
150.0   90.0   16.666666666666668
100.0   90.0   0.0
100.0   60.0   16.666666666666668
150.0   90.0   16.666666666666668
150.0   60.0   16.666666666666668
150.0   60.0   0.0
100.0   60.0   16.666666666666668
150.0   90.0   16.666666666666668
150.0   60.0   0.0
100.0   90.0   0.0
100.0   60.0   16.666666666666668
150.0   60.0   16.666666666666668
100.0   90.0   16.666666666666668
100.0   60.0   33.333333333333336
150.0   60.0   16.666666666666668
150.0   90.0   16.666666666666668
100.0   90.0   16.666666666666668
150.0   90.0   33.333333333333336
100.0   60.0   33.333333333333336
100.0   90.0   33.333333333333336
150.0   90.0   33.333333333333336
100.0   90.0   16.666666666666668
100.0   60.0   33.333333333333336
150.0   90.0   33.333333333333336
150.0   60.0   33.333333333333336
150.0   60.0   16.666666666666668
100.0   60.0   33.333333333333336
150.0   90.0   33.333333333333336
150.0   60.0   16.666666666666668
100.0   90.0   16.666666666666668
100.0   60.0   33.333333333333336
150.0   60.0   33.333333333333336
100.0   90.0   33.333333333333336
100.0   60.0   50.0
150.0   60.0   33.333333333333336
150.0   90.0   33.333333333333336
100.0   90.0   33.333333333333336
150.0   90.0   50.0
100.0   60.0   50.0
100.0   90.0   50.0
150.0   90.0   50.0
100.0   90.0   33.333333333333336
100.0   60.0   50.0
150.0   90.0   50.0
150.0   60.0   50.0
150.0   60.0   33.333333333333336
100.0   60.0   50.0
150.0   90.0   50.0
150.0   60.0   33.333333333333336
100.0   90.0   33.333333333333336
100.0   90.0   0.0
150.0   90.0   0.0
100.0   120.0   0.0
100.0   90.0   16.666666666666668
150.0   90.0   0.0
150.0   120.0   0.0
100.0   120.0   0.0
150.0   120.0   16.666666666666668
100.0   90.0   16.666666666666668
100.0   120.0   16.666666666666668
150.0   120.0   16.666666666666668
100.0   120.0   0.0
100.0   90.0   16.666666666666668
150.0   120.0   16.666666666666668
150.0   90.0   16.666666666666668
150.0   90.0   0.0
100.0   90.0   16.666666666666668
150.0   120.0   16.666666666666668
150.0   90.0   0.0
100.0   120.0   0.0
100.0   90.0   16.666666666666668
150.0   90.0   16.666666666666668
100.0   120.0   16.666666666666668
100.0   90.0   33.333333333333336
150.0   90.0   16.666666666666668
150.0   120.0   16.666666666666668
100.0   120.0   16.666666666666668
150.0   120.0   33.333333333333336
100.0   90.0   33.333333333333336
100.0   120.0   33.333333333333336
150.0   120.0   33.333333333333336
100.0   120.0   16.666666666666668
100.0   90.0   33.333333333333336
150.0   120.0   33.333333333333336
150.0   90.0   33.333333333333336
150.0   90.0   16.666666666666668
100.0   90.0   33.333333333333336
150.0   120.0   33.333333333333336
150.0   90.0   16.666666666666668
100.0   120.0   16.666666666666668
100.0   90.0   33.333333333333336
150.0   90.0   33.333333333333336
100.0   120.0   33.333333333333336
100.0   90.0   50.0
150.0   90.0   33.333333333333336
150.0   120.0   33.333333333333336
100.0   120.0   33.333333333333336
150.0   120.0   50.0
100.0   90.0   50.0
100.0   120.0   50.0
150.0   120.0   50.0
100.0   120.0   33.333333333333336
100.0   90.0   50.0
150.0   120.0   50.0
150.0   90.0   50.0
150.0   90.0   33.333333333333336
100.0   90.0   50.0
150.0   120.0   50.0
150.0   90.0   33.333333333333336
100.0   120.0   33.333333333333336
100.0   120.0   0.0
150.0   120.0   0.0
100.0   150.0   0.0
100.0   120.0   16.666666666666668
150.0   120.0   0.0
150.0   150.0   0.0
100.0   150.0   0.0
150.0   150.0   16.666666666666668
100.0   120.0   16.666666666666668
100.0   150.0   16.666666666666668
150.0   150.0   16.666666666666668
100.0   150.0   0.0
100.0   120.0   16.666666666666668
150.0   150.0   16.666666666666668
150.0   120.0   16.666666666666668
150.0   120.0   0.0
100.0   120.0   16.666666666666668
150.0   150.0   16.666666666666668
150.0   120.0   0.0
100.0   150.0   0.0
100.0   120.0   16.666666666666668
150.0   120.0   16.666666666666668
100.0   150.0   16.666666666666668
100.0   120.0   33.333333333333336
150.0   120.0   16.666666666666668
150.0   150.0   16.666666666666668
100.0   150.0   16.666666666666668
150.0   150.0   33.333333333333336
100.0   120.0   33.333333333333336
100.0   150.0   33.333333333333336
150.0   150.0   33.333333333333336
100.0   150.0   16.666666666666668
100.0   120.0   33.333333333333336
150.0   150.0   33.333333333333336
150.0   120.0   33.333333333333336
150.0   120.0   16.666666666666668
100.0   120.0   33.333333333333336
150.0   150.0   33.333333333333336
150.0   120.0   16.666666666666668
100.0   150.0   16.666666666666668
100.0   120.0   33.333333333333336
150.0   120.0   33.333333333333336
100.0   150.0   33.333333333333336
100.0   120.0   50.0
150.0   120.0   33.333333333333336
150.0   150.0   33.333333333333336
100.0   150.0   33.333333333333336
150.0   150.0   50.0
100.0   120.0   50.0
100.0   150.0   50.0
150.0   150.0   50.0
100.0   150.0   33.333333333333336
100.0   120.0   50.0
150.0   150.0   50.0
150.0   120.0   50.0
150.0   120.0   33.333333333333336
100.0   120.0   50.0
150.0   150.0   50.0
150.0   120.0   33.333333333333336
100.0   150.0   33.333333333333336
150.0   0.0   0.0
200.0   0.0   0.0
150.0   30.0   0.0
150.0   0.0   16.666666666666668
200.0   0.0   0.0
200.0   30.0   0.0
150.0   30.0   0.0
200.0   30.0   16.666666666666668
150.0   0.0   16.666666666666668
150.0   30.0   16.666666666666668
200.0   30.0   16.666666666666668
150.0   30.0   0.0
150.0   0.0   16.666666666666668
200.0   30.0   16.666666666666668
200.0   0.0   16.666666666666668
200.0   0.0   0.0
150.0   0.0   16.666666666666668
200.0   30.0   16.666666666666668
200.0   0.0   0.0
150.0   30.0   0.0
150.0   0.0   16.666666666666668
200.0   0.0   16.666666666666668
150.0   30.0   16.666666666666668
150.0   0.0   33.333333333333336
200.0   0.0   16.666666666666668
200.0   30.0   16.666666666666668
150.0   30.0   16.666666666666668
200.0   30.0   33.333333333333336
150.0   0.0   33.333333333333336
150.0   30.0   33.333333333333336
200.0   30.0   33.333333333333336
150.0   30.0   16.666666666666668
150.0   0.0   33.333333333333336
200.0   30.0   33.333333333333336
200.0   0.0   33.333333333333336
200.0   0.0   16.666666666666668
150.0   0.0   33.333333333333336
200.0   30.0   33.333333333333336
200.0   0.0   16.666666666666668
150.0   30.0   16.666666666666668
150.0   0.0   33.333333333333336
200.0   0.0   33.333333333333336
150.0   30.0   33.333333333333336
150.0   0.0   50.0
200.0   0.0   33.333333333333336
200.0   30.0   33.333333333333336
150.0   30.0   33.333333333333336
200.0   30.0   50.0
150.0   0.0   50.0
150.0   30.0   50.0
200.0   30.0   50.0
150.0   30.0   33.333333333333336
150.0   0.0   50.0
200.0   30.0   50.0
200.0   0.0   50.0
200.0   0.0   33.333333333333336
150.0   0.0   50.0
200.0   30.0   50.0
200.0   0.0   33.333333333333336
150.0   30.0   33.333333333333336
150.0   30.0   0.0
200.0   30.0   0.0
150.0   60.0   0.0
150.0   30.0   16.666666666666668
200.0   30.0   0.0
200.0   60.0   0.0
150.0   60.0   0.0
200.0   60.0   16.666666666666668
150.0   30.0   16.666666666666668
150.0   60.0   16.666666666666668
200.0   60.0   16.666666666666668
150.0   60.0   0.0
150.0   30.0   16.666666666666668
200.0   60.0   16.666666666666668
200.0   30.0   16.666666666666668
200.0   30.0   0.0
150.0   30.0   16.666666666666668
200.0   60.0   16.666666666666668
200.0   30.0   0.0
150.0   60.0   0.0
150.0   30.0   16.666666666666668
200.0   30.0   16.666666666666668
150.0   60.0   16.666666666666668
150.0   30.0   33.333333333333336
200.0   30.0   16.666666666666668
200.0   60.0   16.666666666666668
150.0   60.0   16.666666666666668
200.0   60.0   33.333333333333336
150.0   30.0   33.333333333333336
150.0   60.0   33.333333333333336
200.0   60.0   33.333333333333336
150.0   60.0   16.666666666666668
150.0   30.0   33.333333333333336
200.0   60.0   33.333333333333336
200.0   30.0   33.333333333333336
200.0   30.0   16.666666666666668
150.0   30.0   33.333333333333336
200.0   60.0   33.333333333333336
200.0   30.0   16.666666666666668
150.0   60.0   16.666666666666668
150.0   30.0   33.333333333333336
200.0   30.0   33.333333333333336
150.0   60.0   33.333333333333336
150.0   30.0   50.0
200.0   30.0   33.333333333333336
200.0   60.0   33.333333333333336
150.0   60.0   33.333333333333336
200.0   60.0   50.0
150.0   30.0   50.0
150.0   60.0   50.0
200.0   60.0   50.0
150.0   60.0   33.333333333333336
150.0   30.0   50.0
200.0   60.0   50.0
200.0   30.0   50.0
200.0   30.0   33.333333333333336
150.0   30.0   50.0
200.0   60.0   50.0
200.0   30.0   33.333333333333336
150.0   60.0   33.333333333333336
150.0   60.0   0.0
200.0   60.0   0.0
150.0   90.0   0.0
150.0   60.0   16.666666666666668
200.0   60.0   0.0
200.0   90.0   0.0
150.0   90.0   0.0
200.0   90.0   16.666666666666668
150.0   60.0   16.666666666666668
150.0   90.0   16.666666666666668
200.0   90.0   16.666666666666668
150.0   90.0   0.0
150.0   60.0   16.666666666666668
200.0   90.0   16.666666666666668
200.0   60.0   16.666666666666668
200.0   60.0   0.0
150.0   60.0   16.666666666666668
200.0   90.0   16.666666666666668
200.0   60.0   0.0
150.0   90.0   0.0
150.0   60.0   16.666666666666668
200.0   60.0   16.666666666666668
150.0   90.0   16.666666666666668
150.0   60.0   33.333333333333336
200.0   60.0   16.666666666666668
200.0   90.0   16.666666666666668
150.0   90.0   16.666666666666668
200.0   90.0   33.333333333333336
150.0   60.0   33.333333333333336
150.0   90.0   33.333333333333336
200.0   90.0   33.333333333333336
150.0   90.0   16.666666666666668
150.0   60.0   33.333333333333336
200.0   90.0   33.333333333333336
200.0   60.0   33.333333333333336
200.0   60.0   16.666666666666668
150.0   60.0   33.333333333333336
200.0   90.0   33.333333333333336
200.0   60.0   16.666666666666668
150.0   90.0   16.666666666666668
150.0   60.0   33.333333333333336
200.0   60.0   33.333333333333336
150.0   90.0   33.333333333333336
150.0   60.0   50.0
200.0   60.0   33.333333333333336
200.0   90.0   33.333333333333336
150.0   90.0   33.333333333333336
200.0   90.0   50.0
150.0   60.0   50.0
150.0   90.0   50.0
200.0   90.0   50.0
150.0   90.0   33.333333333333336
150.0   60.0   50.0
200.0   90.0   50.0
200.0   60.0   50.0
200.0   60.0   33.333333333333336
150.0   60.0   50.0
200.0   90.0   50.0
200.0   60.0   33.333333333333336
150.0   90.0   33.333333333333336
150.0   90.0   0.0
200.0   90.0   0.0
150.0   120.0   0.0
150.0   90.0   16.666666666666668
200.0   90.0   0.0
200.0   120.0   0.0
150.0   120.0   0.0
200.0   120.0   16.666666666666668
150.0   90.0   16.666666666666668
150.0   120.0   16.666666666666668
200.0   120.0   16.666666666666668
150.0   120.0   0.0
150.0   90.0   16.666666666666668
200.0   120.0   16.666666666666668
200.0   90.0   16.666666666666668
200.0   90.0   0.0
150.0   90.0   16.666666666666668
200.0   120.0   16.666666666666668
200.0   90.0   0.0
150.0   120.0   0.0
150.0   90.0   16.666666666666668
200.0   90.0   16.666666666666668
150.0   120.0   16.666666666666668
150.0   90.0   33.333333333333336
200.0   90.0   16.666666666666668
200.0   120.0   16.666666666666668
150.0   120.0   16.666666666666668
200.0   120.0   33.333333333333336
150.0   90.0   33.333333333333336
150.0   120.0   33.333333333333336
200.0   120.0   33.333333333333336
150.0   120.0   16.666666666666668
150.0   90.0   33.333333333333336
200.0   120.0   33.333333333333336
200.0   90.0   33.333333333333336
200.0   90.0   16.666666666666668
150.0   90.0   33.333333333333336
200.0   120.0   33.333333333333336
200.0   90.0   16.666666666666668
150.0   120.0   16.666666666666668
150.0   90.0   33.333333333333336
200.0   90.0   33.333333333333336
150.0   120.0   33.333333333333336
150.0   90.0   50.0
200.0   90.0   33.333333333333336
200.0   120.0   33.333333333333336
150.0   120.0   33.333333333333336
200.0   120.0   50.0
150.0   90.0   50.0
150.0   120.0   50.0
200.0   120.0   50.0
150.0   120.0   33.333333333333336
150.0   90.0   50.0
200.0   120.0   50.0
200.0   90.0   50.0
200.0   90.0   33.333333333333336
150.0   90.0   50.0
200.0   120.0   50.0
200.0   90.0   33.333333333333336
150.0   120.0   33.333333333333336
150.0   120.0   0.0
200.0   120.0   0.0
150.0   150.0   0.0
150.0   120.0   16.666666666666668
200.0   120.0   0.0
200.0   150.0   0.0
150.0   150.0   0.0
200.0   150.0   16.666666666666668
150.0   120.0   16.666666666666668
150.0   150.0   16.666666666666668
200.0   150.0   16.666666666666668
150.0   150.0   0.0
150.0   120.0   16.666666666666668
200.0   150.0   16.666666666666668
200.0   120.0   16.666666666666668
200.0   120.0   0.0
150.0   120.0   16.666666666666668
200.0   150.0   16.666666666666668
200.0   120.0   0.0
150.0   150.0   0.0
150.0   120.0   16.666666666666668
200.0   120.0   16.666666666666668
150.0   150.0   16.666666666666668
150.0   120.0   33.333333333333336
200.0   120.0   16.666666666666668
200.0   150.0   16.666666666666668
150.0   150.0   16.666666666666668
200.0   150.0   33.333333333333336
150.0   120.0   33.333333333333336
150.0   150.0   33.333333333333336
200.0   150.0   33.333333333333336
150.0   150.0   16.666666666666668
150.0   120.0   33.333333333333336
200.0   150.0   33.333333333333336
200.0   120.0   33.333333333333336
200.0   120.0   16.666666666666668
150.0   120.0   33.333333333333336
200.0   150.0   33.333333333333336
200.0   120.0   16.666666666666668
150.0   150.0   16.666666666666668
150.0   120.0   33.333333333333336
200.0   120.0   33.333333333333336
150.0   150.0   33.333333333333336
150.0   120.0   50.0
200.0   120.0   33.333333333333336
200.0   150.0   33.333333333333336
150.0   150.0   33.333333333333336
200.0   150.0   50.0
150.0   120.0   50.0
150.0   150.0   50.0
200.0   150.0   50.0
150.0   150.0   33.333333333333336
150.0   120.0   50.0
200.0   150.0   50.0
200.0   120.0   50.0
200.0   120.0   33.333333333333336
150.0   120.0   50.0
200.0   150.0   50.0
200.0   120.0   33.333333333333336
150.0   150.0   33.333333333333336
200.0   0.0   0.0
250.0   0.0   0.0
200.0   30.0   0.0
200.0   0.0   16.666666666666668
250.0   0.0   0.0
250.0   30.0   0.0
200.0   30.0   0.0
250.0   30.0   16.666666666666668
200.0   0.0   16.666666666666668
200.0   30.0   16.666666666666668
250.0   30.0   16.666666666666668
200.0   30.0   0.0
200.0   0.0   16.666666666666668
250.0   30.0   16.666666666666668
250.0   0.0   16.666666666666668
250.0   0.0   0.0
200.0   0.0   16.666666666666668
250.0   30.0   16.666666666666668
250.0   0.0   0.0
200.0   30.0   0.0
200.0   0.0   16.666666666666668
250.0   0.0   16.666666666666668
200.0   30.0   16.666666666666668
200.0   0.0   33.333333333333336
250.0   0.0   16.666666666666668
250.0   30.0   16.666666666666668
200.0   30.0   16.666666666666668
250.0   30.0   33.333333333333336
200.0   0.0   33.333333333333336
200.0   30.0   33.333333333333336
250.0   30.0   33.333333333333336
200.0   30.0   16.666666666666668
200.0   0.0   33.333333333333336
250.0   30.0   33.333333333333336
250.0   0.0   33.333333333333336
250.0   0.0   16.666666666666668
200.0   0.0   33.333333333333336
250.0   30.0   33.333333333333336
250.0   0.0   16.666666666666668
200.0   30.0   16.666666666666668
200.0   0.0   33.333333333333336
250.0   0.0   33.333333333333336
200.0   30.0   33.333333333333336
200.0   0.0   50.0
250.0   0.0   33.333333333333336
250.0   30.0   33.333333333333336
200.0   30.0   33.333333333333336
250.0   30.0   50.0
200.0   0.0   50.0
200.0   30.0   50.0
250.0   30.0   50.0
200.0   30.0   33.333333333333336
200.0   0.0   50.0
250.0   30.0   50.0
250.0   0.0   50.0
250.0   0.0   33.333333333333336
200.0   0.0   50.0
250.0   30.0   50.0
250.0   0.0   33.333333333333336
200.0   30.0   33.333333333333336
200.0   30.0   0.0
250.0   30.0   0.0
200.0   60.0   0.0
200.0   30.0   16.666666666666668
250.0   30.0   0.0
250.0   60.0   0.0
200.0   60.0   0.0
250.0   60.0   16.666666666666668
200.0   30.0   16.666666666666668
200.0   60.0   16.666666666666668
250.0   60.0   16.666666666666668
200.0   60.0   0.0
200.0   30.0   16.666666666666668
250.0   60.0   16.666666666666668
250.0   30.0   16.666666666666668
250.0   30.0   0.0
200.0   30.0   16.666666666666668
250.0   60.0   16.666666666666668
250.0   30.0   0.0
200.0   60.0   0.0
200.0   30.0   16.666666666666668
250.0   30.0   16.666666666666668
200.0   60.0   16.666666666666668
200.0   30.0   33.333333333333336
250.0   30.0   16.666666666666668
250.0   60.0   16.666666666666668
200.0   60.0   16.666666666666668
250.0   60.0   33.333333333333336
200.0   30.0   33.333333333333336
200.0   60.0   33.333333333333336
250.0   60.0   33.333333333333336
200.0   60.0   16.666666666666668
200.0   30.0   33.333333333333336
250.0   60.0   33.333333333333336
250.0   30.0   33.333333333333336
250.0   30.0   16.666666666666668
200.0   30.0   33.333333333333336
250.0   60.0   33.333333333333336
250.0   30.0   16.666666666666668
200.0   60.0   16.666666666666668
200.0   30.0   33.333333333333336
250.0   30.0   33.333333333333336
200.0   60.0   33.333333333333336
200.0   30.0   50.0
250.0   30.0   33.333333333333336
250.0   60.0   33.333333333333336
200.0   60.0   33.333333333333336
250.0   60.0   50.0
200.0   30.0   50.0
200.0   60.0   50.0
250.0   60.0   50.0
200.0   60.0   33.333333333333336
200.0   30.0   50.0
250.0   60.0   50.0
250.0   30.0   50.0
250.0   30.0   33.333333333333336
200.0   30.0   50.0
250.0   60.0   50.0
250.0   30.0   33.333333333333336
200.0   60.0   33.333333333333336
200.0   60.0   0.0
250.0   60.0   0.0
200.0   90.0   0.0
200.0   60.0   16.666666666666668
250.0   60.0   0.0
250.0   90.0   0.0
200.0   90.0   0.0
250.0   90.0   16.666666666666668
200.0   60.0   16.666666666666668
200.0   90.0   16.666666666666668
250.0   90.0   16.666666666666668
200.0   90.0   0.0
200.0   60.0   16.666666666666668
250.0   90.0   16.666666666666668
250.0   60.0   16.666666666666668
250.0   60.0   0.0
200.0   60.0   16.666666666666668
250.0   90.0   16.666666666666668
250.0   60.0   0.0
200.0   90.0   0.0
200.0   60.0   16.666666666666668
250.0   60.0   16.666666666666668
200.0   90.0   16.666666666666668
200.0   60.0   33.333333333333336
250.0   60.0   16.666666666666668
250.0   90.0   16.666666666666668
200.0   90.0   16.666666666666668
250.0   90.0   33.333333333333336
200.0   60.0   33.333333333333336
200.0   90.0   33.333333333333336
250.0   90.0   33.333333333333336
200.0   90.0   16.666666666666668
200.0   60.0   33.333333333333336
250.0   90.0   33.333333333333336
250.0   60.0   33.333333333333336
250.0   60.0   16.666666666666668
200.0   60.0   33.333333333333336
250.0   90.0   33.333333333333336
250.0   60.0   16.666666666666668
200.0   90.0   16.666666666666668
200.0   60.0   33.333333333333336
250.0   60.0   33.333333333333336
200.0   90.0   33.333333333333336
200.0   60.0   50.0
250.0   60.0   33.333333333333336
250.0   90.0   33.333333333333336
200.0   90.0   33.333333333333336
250.0   90.0   50.0
200.0   60.0   50.0
200.0   90.0   50.0
250.0   90.0   50.0
200.0   90.0   33.333333333333336
200.0   60.0   50.0
250.0   90.0   50.0
250.0   60.0   50.0
250.0   60.0   33.333333333333336
200.0   60.0   50.0
250.0   90.0   50.0
250.0   60.0   33.333333333333336
200.0   90.0   33.333333333333336
200.0   90.0   0.0
250.0   90.0   0.0
200.0   120.0   0.0
200.0   90.0   16.666666666666668
250.0   90.0   0.0
250.0   120.0   0.0
200.0   120.0   0.0
250.0   120.0   16.666666666666668
200.0   90.0   16.666666666666668
200.0   120.0   16.666666666666668
250.0   120.0   16.666666666666668
200.0   120.0   0.0
200.0   90.0   16.666666666666668
250.0   120.0   16.666666666666668
250.0   90.0   16.666666666666668
250.0   90.0   0.0
200.0   90.0   16.666666666666668
250.0   120.0   16.666666666666668
250.0   90.0   0.0
200.0   120.0   0.0
200.0   90.0   16.666666666666668
250.0   90.0   16.666666666666668
200.0   120.0   16.666666666666668
200.0   90.0   33.333333333333336
250.0   90.0   16.666666666666668
250.0   120.0   16.666666666666668
200.0   120.0   16.666666666666668
250.0   120.0   33.333333333333336
200.0   90.0   33.333333333333336
200.0   120.0   33.333333333333336
250.0   120.0   33.333333333333336
200.0   120.0   16.666666666666668
200.0   90.0   33.333333333333336
250.0   120.0   33.333333333333336
250.0   90.0   33.333333333333336
250.0   90.0   16.666666666666668
200.0   90.0   33.333333333333336
250.0   120.0   33.333333333333336
250.0   90.0   16.666666666666668
200.0   120.0   16.666666666666668
200.0   90.0   33.333333333333336
250.0   90.0   33.333333333333336
200.0   120.0   33.333333333333336
200.0   90.0   50.0
250.0   90.0   33.333333333333336
250.0   120.0   33.333333333333336
200.0   120.0   33.333333333333336
250.0   120.0   50.0
200.0   90.0   50.0
200.0   120.0   50.0
250.0   120.0   50.0
200.0   120.0   33.333333333333336
200.0   90.0   50.0
250.0   120.0   50.0
250.0   90.0   50.0
250.0   90.0   33.333333333333336
200.0   90.0   50.0
250.0   120.0   50.0
250.0   90.0   33.333333333333336
200.0   120.0   33.333333333333336
200.0   120.0   0.0
250.0   120.0   0.0
200.0   150.0   0.0
200.0   120.0   16.666666666666668
250.0   120.0   0.0
250.0   150.0   0.0
200.0   150.0   0.0
250.0   150.0   16.666666666666668
200.0   120.0   16.666666666666668
200.0   150.0   16.666666666666668
250.0   150.0   16.666666666666668
200.0   150.0   0.0
200.0   120.0   16.666666666666668
250.0   150.0   16.666666666666668
250.0   120.0   16.666666666666668
250.0   120.0   0.0
200.0   120.0   16.666666666666668
250.0   150.0   16.666666666666668
250.0   120.0   0.0
200.0   150.0   0.0
200.0   120.0   16.666666666666668
250.0   120.0   16.666666666666668
200.0   150.0   16.666666666666668
200.0   120.0   33.333333333333336
250.0   120.0   16.666666666666668
250.0   150.0   16.666666666666668
200.0   150.0   16.666666666666668
250.0   150.0   33.333333333333336
200.0   120.0   33.333333333333336
200.0   150.0   33.333333333333336
250.0   150.0   33.333333333333336
200.0   150.0   16.666666666666668
200.0   120.0   33.333333333333336
250.0   150.0   33.333333333333336
250.0   120.0   33.333333333333336
250.0   120.0   16.666666666666668
200.0   120.0   33.333333333333336
250.0   150.0   33.333333333333336
250.0   120.0   16.666666666666668
200.0   150.0   16.666666666666668
200.0   120.0   33.333333333333336
250.0   120.0   33.333333333333336
200.0   150.0   33.333333333333336
200.0   120.0   50.0
250.0   120.0   33.333333333333336
250.0   150.0   33.333333333333336
200.0   150.0   33.333333333333336
250.0   150.0   50.0
200.0   120.0   50.0
200.0   150.0   50.0
250.0   150.0   50.0
200.0   150.0   33.333333333333336
200.0   120.0   50.0
250.0   150.0   50.0
250.0   120.0   50.0
250.0   120.0   33.333333333333336
200.0   120.0   50.0
250.0   150.0   50.0
250.0   120.0   33.333333333333336
200.0   150.0   33.333333333333336
250.0   0.0   0.0
300.0   0.0   0.0
250.0   30.0   0.0
250.0   0.0   16.666666666666668
300.0   0.0   0.0
300.0   30.0   0.0
250.0   30.0   0.0
300.0   30.0   16.666666666666668
250.0   0.0   16.666666666666668
250.0   30.0   16.666666666666668
300.0   30.0   16.666666666666668
250.0   30.0   0.0
250.0   0.0   16.666666666666668
300.0   30.0   16.666666666666668
300.0   0.0   16.666666666666668
300.0   0.0   0.0
250.0   0.0   16.666666666666668
300.0   30.0   16.666666666666668
300.0   0.0   0.0
250.0   30.0   0.0
250.0   0.0   16.666666666666668
300.0   0.0   16.666666666666668
250.0   30.0   16.666666666666668
250.0   0.0   33.333333333333336
300.0   0.0   16.666666666666668
300.0   30.0   16.666666666666668
250.0   30.0   16.666666666666668
300.0   30.0   33.333333333333336
250.0   0.0   33.333333333333336
250.0   30.0   33.333333333333336
300.0   30.0   33.333333333333336
250.0   30.0   16.666666666666668
250.0   0.0   33.333333333333336
300.0   30.0   33.333333333333336
300.0   0.0   33.333333333333336
300.0   0.0   16.666666666666668
250.0   0.0   33.333333333333336
300.0   30.0   33.333333333333336
300.0   0.0   16.666666666666668
250.0   30.0   16.666666666666668
250.0   0.0   33.333333333333336
300.0   0.0   33.333333333333336
250.0   30.0   33.333333333333336
250.0   0.0   50.0
300.0   0.0   33.333333333333336
300.0   30.0   33.333333333333336
250.0   30.0   33.333333333333336
300.0   30.0   50.0
250.0   0.0   50.0
250.0   30.0   50.0
300.0   30.0   50.0
250.0   30.0   33.333333333333336
250.0   0.0   50.0
300.0   30.0   50.0
300.0   0.0   50.0
300.0   0.0   33.333333333333336
250.0   0.0   50.0
300.0   30.0   50.0
300.0   0.0   33.333333333333336
250.0   30.0   33.333333333333336
250.0   30.0   0.0
300.0   30.0   0.0
250.0   60.0   0.0
250.0   30.0   16.666666666666668
300.0   30.0   0.0
300.0   60.0   0.0
250.0   60.0   0.0
300.0   60.0   16.666666666666668
250.0   30.0   16.666666666666668
250.0   60.0   16.666666666666668
300.0   60.0   16.666666666666668
250.0   60.0   0.0
250.0   30.0   16.666666666666668
300.0   60.0   16.666666666666668
300.0   30.0   16.666666666666668
300.0   30.0   0.0
250.0   30.0   16.666666666666668
300.0   60.0   16.666666666666668
300.0   30.0   0.0
250.0   60.0   0.0
250.0   30.0   16.666666666666668
300.0   30.0   16.666666666666668
250.0   60.0   16.666666666666668
250.0   30.0   33.333333333333336
300.0   30.0   16.666666666666668
300.0   60.0   16.666666666666668
250.0   60.0   16.666666666666668
300.0   60.0   33.333333333333336
250.0   30.0   33.333333333333336
250.0   60.0   33.333333333333336
300.0   60.0   33.333333333333336
250.0   60.0   16.666666666666668
250.0   30.0   33.333333333333336
300.0   60.0   33.333333333333336
300.0   30.0   33.333333333333336
300.0   30.0   16.666666666666668
250.0   30.0   33.333333333333336
300.0   60.0   33.333333333333336
300.0   30.0   16.666666666666668
250.0   60.0   16.666666666666668
250.0   30.0   33.333333333333336
300.0   30.0   33.333333333333336
250.0   60.0   33.333333333333336
250.0   30.0   50.0
300.0   30.0   33.333333333333336
300.0   60.0   33.333333333333336
250.0   60.0   33.333333333333336
300.0   60.0   50.0
250.0   30.0   50.0
250.0   60.0   50.0
300.0   60.0   50.0
250.0   60.0   33.333333333333336
250.0   30.0   50.0
300.0   60.0   50.0
300.0   30.0   50.0
300.0   30.0   33.333333333333336
250.0   30.0   50.0
300.0   60.0   50.0
300.0   30.0   33.333333333333336
250.0   60.0   33.333333333333336
250.0   60.0   0.0
300.0   60.0   0.0
250.0   90.0   0.0
250.0   60.0   16.666666666666668
300.0   60.0   0.0
300.0   90.0   0.0
250.0   90.0   0.0
300.0   90.0   16.666666666666668
250.0   60.0   16.666666666666668
250.0   90.0   16.666666666666668
300.0   90.0   16.666666666666668
250.0   90.0   0.0
250.0   60.0   16.666666666666668
300.0   90.0   16.666666666666668
300.0   60.0   16.666666666666668
300.0   60.0   0.0
250.0   60.0   16.666666666666668
300.0   90.0   16.666666666666668
300.0   60.0   0.0
250.0   90.0   0.0
250.0   60.0   16.666666666666668
300.0   60.0   16.666666666666668
250.0   90.0   16.666666666666668
250.0   60.0   33.333333333333336
300.0   60.0   16.666666666666668
300.0   90.0   16.666666666666668
250.0   90.0   16.666666666666668
300.0   90.0   33.333333333333336
250.0   60.0   33.333333333333336
250.0   90.0   33.333333333333336
300.0   90.0   33.333333333333336
250.0   90.0   16.666666666666668
250.0   60.0   33.333333333333336
300.0   90.0   33.333333333333336
300.0   60.0   33.333333333333336
300.0   60.0   16.666666666666668
250.0   60.0   33.333333333333336
300.0   90.0   33.333333333333336
300.0   60.0   16.666666666666668
250.0   90.0   16.666666666666668
250.0   60.0   33.333333333333336
300.0   60.0   33.333333333333336
250.0   90.0   33.333333333333336
250.0   60.0   50.0
300.0   60.0   33.333333333333336
300.0   90.0   33.333333333333336
250.0   90.0   33.333333333333336
300.0   90.0   50.0
250.0   60.0   50.0
250.0   90.0   50.0
300.0   90.0   50.0
250.0   90.0   33.333333333333336
250.0   60.0   50.0
300.0   90.0   50.0
300.0   60.0   50.0
300.0   60.0   33.333333333333336
250.0   60.0   50.0
300.0   90.0   50.0
300.0   60.0   33.333333333333336
250.0   90.0   33.333333333333336
250.0   90.0   0.0
300.0   90.0   0.0
250.0   120.0   0.0
250.0   90.0   16.666666666666668
300.0   90.0   0.0
300.0   120.0   0.0
250.0   120.0   0.0
300.0   120.0   16.666666666666668
250.0   90.0   16.666666666666668
250.0   120.0   16.666666666666668
300.0   120.0   16.666666666666668
250.0   120.0   0.0
250.0   90.0   16.666666666666668
300.0   120.0   16.666666666666668
300.0   90.0   16.666666666666668
300.0   90.0   0.0
250.0   90.0   16.666666666666668
300.0   120.0   16.666666666666668
300.0   90.0   0.0
250.0   120.0   0.0
250.0   90.0   16.666666666666668
300.0   90.0   16.666666666666668
250.0   120.0   16.666666666666668
250.0   90.0   33.333333333333336
300.0   90.0   16.666666666666668
300.0   120.0   16.666666666666668
250.0   120.0   16.666666666666668
300.0   120.0   33.333333333333336
250.0   90.0   33.333333333333336
250.0   120.0   33.333333333333336
300.0   120.0   33.333333333333336
250.0   120.0   16.666666666666668
250.0   90.0   33.333333333333336
300.0   120.0   33.333333333333336
300.0   90.0   33.333333333333336
300.0   90.0   16.666666666666668
250.0   90.0   33.333333333333336
300.0   120.0   33.333333333333336
300.0   90.0   16.666666666666668
250.0   120.0   16.666666666666668
250.0   90.0   33.333333333333336
300.0   90.0   33.333333333333336
250.0   120.0   33.333333333333336
250.0   90.0   50.0
300.0   90.0   33.333333333333336
300.0   120.0   33.333333333333336
250.0   120.0   33.333333333333336
300.0   120.0   50.0
250.0   90.0   50.0
250.0   120.0   50.0
300.0   120.0   50.0
250.0   120.0   33.333333333333336
250.0   90.0   50.0
300.0   120.0   50.0
300.0   90.0   50.0
300.0   90.0   33.333333333333336
250.0   90.0   50.0
300.0   120.0   50.0
300.0   90.0   33.333333333333336
250.0   120.0   33.333333333333336
250.0   120.0   0.0
300.0   120.0   0.0
250.0   150.0   0.0
250.0   120.0   16.666666666666668
300.0   120.0   0.0
300.0   150.0   0.0
250.0   150.0   0.0
300.0   150.0   16.666666666666668
250.0   120.0   16.666666666666668
250.0   150.0   16.666666666666668
300.0   150.0   16.666666666666668
250.0   150.0   0.0
250.0   120.0   16.666666666666668
300.0   150.0   16.666666666666668
300.0   120.0   16.666666666666668
300.0   120.0   0.0
250.0   120.0   16.666666666666668
300.0   150.0   16.666666666666668
300.0   120.0   0.0
250.0   150.0   0.0
250.0   120.0   16.666666666666668
300.0   120.0   16.666666666666668
250.0   150.0   16.666666666666668
250.0   120.0   33.333333333333336
300.0   120.0   16.666666666666668
300.0   150.0   16.666666666666668
250.0   150.0   16.666666666666668
300.0   150.0   33.333333333333336
250.0   120.0   33.333333333333336
250.0   150.0   33.333333333333336
300.0   150.0   33.333333333333336
250.0   150.0   16.666666666666668
250.0   120.0   33.333333333333336
300.0   150.0   33.333333333333336
300.0   120.0   33.333333333333336
300.0   120.0   16.666666666666668
250.0   120.0   33.333333333333336
300.0   150.0   33.333333333333336
300.0   120.0   16.666666666666668
250.0   150.0   16.666666666666668
250.0   120.0   33.333333333333336
300.0   120.0   33.333333333333336
250.0   150.0   33.333333333333336
250.0   120.0   50.0
300.0   120.0   33.333333333333336
300.0   150.0   33.333333333333336
250.0   150.0   33.333333333333336
300.0   150.0   50.0
250.0   120.0   50.0
250.0   150.0   50.0
300.0   150.0   50.0
250.0   150.0   33.333333333333336
250.0   120.0   50.0
300.0   150.0   50.0
300.0   120.0   50.0
300.0   120.0   33.333333333333336
250.0   120.0   50.0
300.0   150.0   50.0
300.0   120.0   33.333333333333336
250.0   150.0   33.333333333333336
300.0   0.0   0.0
350.0   0.0   0.0
300.0   30.0   0.0
300.0   0.0   16.666666666666668
350.0   0.0   0.0
350.0   30.0   0.0
300.0   30.0   0.0
350.0   30.0   16.666666666666668
300.0   0.0   16.666666666666668
300.0   30.0   16.666666666666668
350.0   30.0   16.666666666666668
300.0   30.0   0.0
300.0   0.0   16.666666666666668
350.0   30.0   16.666666666666668
350.0   0.0   16.666666666666668
350.0   0.0   0.0
300.0   0.0   16.666666666666668
350.0   30.0   16.666666666666668
350.0   0.0   0.0
300.0   30.0   0.0
300.0   0.0   16.666666666666668
350.0   0.0   16.666666666666668
300.0   30.0   16.666666666666668
300.0   0.0   33.333333333333336
350.0   0.0   16.666666666666668
350.0   30.0   16.666666666666668
300.0   30.0   16.666666666666668
350.0   30.0   33.333333333333336
300.0   0.0   33.333333333333336
300.0   30.0   33.333333333333336
350.0   30.0   33.333333333333336
300.0   30.0   16.666666666666668
300.0   0.0   33.333333333333336
350.0   30.0   33.333333333333336
350.0   0.0   33.333333333333336
350.0   0.0   16.666666666666668
300.0   0.0   33.333333333333336
350.0   30.0   33.333333333333336
350.0   0.0   16.666666666666668
300.0   30.0   16.666666666666668
300.0   0.0   33.333333333333336
350.0   0.0   33.333333333333336
300.0   30.0   33.333333333333336
300.0   0.0   50.0
350.0   0.0   33.333333333333336
350.0   30.0   33.333333333333336
300.0   30.0   33.333333333333336
350.0   30.0   50.0
300.0   0.0   50.0
300.0   30.0   50.0
350.0   30.0   50.0
300.0   30.0   33.333333333333336
300.0   0.0   50.0
350.0   30.0   50.0
350.0   0.0   50.0
350.0   0.0   33.333333333333336
300.0   0.0   50.0
350.0   30.0   50.0
350.0   0.0   33.333333333333336
300.0   30.0   33.333333333333336
300.0   30.0   0.0
350.0   30.0   0.0
300.0   60.0   0.0
300.0   30.0   16.666666666666668
350.0   30.0   0.0
350.0   60.0   0.0
300.0   60.0   0.0
350.0   60.0   16.666666666666668
300.0   30.0   16.666666666666668
300.0   60.0   16.666666666666668
350.0   60.0   16.666666666666668
300.0   60.0   0.0
300.0   30.0   16.666666666666668
350.0   60.0   16.666666666666668
350.0   30.0   16.666666666666668
350.0   30.0   0.0
300.0   30.0   16.666666666666668
350.0   60.0   16.666666666666668
350.0   30.0   0.0
300.0   60.0   0.0
300.0   30.0   16.666666666666668
350.0   30.0   16.666666666666668
300.0   60.0   16.666666666666668
300.0   30.0   33.333333333333336
350.0   30.0   16.666666666666668
350.0   60.0   16.666666666666668
300.0   60.0   16.666666666666668
350.0   60.0   33.333333333333336
300.0   30.0   33.333333333333336
300.0   60.0   33.333333333333336
350.0   60.0   33.333333333333336
300.0   60.0   16.666666666666668
300.0   30.0   33.333333333333336
350.0   60.0   33.333333333333336
350.0   30.0   33.333333333333336
350.0   30.0   16.666666666666668
300.0   30.0   33.333333333333336
350.0   60.0   33.333333333333336
350.0   30.0   16.666666666666668
300.0   60.0   16.666666666666668
300.0   30.0   33.333333333333336
350.0   30.0   33.333333333333336
300.0   60.0   33.333333333333336
300.0   30.0   50.0
350.0   30.0   33.333333333333336
350.0   60.0   33.333333333333336
300.0   60.0   33.333333333333336
350.0   60.0   50.0
300.0   30.0   50.0
300.0   60.0   50.0
350.0   60.0   50.0
300.0   60.0   33.333333333333336
300.0   30.0   50.0
350.0   60.0   50.0
350.0   30.0   50.0
350.0   30.0   33.333333333333336
300.0   30.0   50.0
350.0   60.0   50.0
350.0   30.0   33.333333333333336
300.0   60.0   33.333333333333336
300.0   60.0   0.0
350.0   60.0   0.0
300.0   90.0   0.0
300.0   60.0   16.666666666666668
350.0   60.0   0.0
350.0   90.0   0.0
300.0   90.0   0.0
350.0   90.0   16.666666666666668
300.0   60.0   16.666666666666668
300.0   90.0   16.666666666666668
350.0   90.0   16.666666666666668
300.0   90.0   0.0
300.0   60.0   16.666666666666668
350.0   90.0   16.666666666666668
350.0   60.0   16.666666666666668
350.0   60.0   0.0
300.0   60.0   16.666666666666668
350.0   90.0   16.666666666666668
350.0   60.0   0.0
300.0   90.0   0.0
300.0   60.0   16.666666666666668
350.0   60.0   16.666666666666668
300.0   90.0   16.666666666666668
300.0   60.0   33.333333333333336
350.0   60.0   16.666666666666668
350.0   90.0   16.666666666666668
300.0   90.0   16.666666666666668
350.0   90.0   33.333333333333336
300.0   60.0   33.333333333333336
300.0   90.0   33.333333333333336
350.0   90.0   33.333333333333336
300.0   90.0   16.666666666666668
300.0   60.0   33.333333333333336
350.0   90.0   33.333333333333336
350.0   60.0   33.333333333333336
350.0   60.0   16.666666666666668
300.0   60.0   33.333333333333336
350.0   90.0   33.333333333333336
350.0   60.0   16.666666666666668
300.0   90.0   16.666666666666668
300.0   60.0   33.333333333333336
350.0   60.0   33.333333333333336
300.0   90.0   33.333333333333336
300.0   60.0   50.0
350.0   60.0   33.333333333333336
350.0   90.0   33.333333333333336
300.0   90.0   33.333333333333336
350.0   90.0   50.0
300.0   60.0   50.0
300.0   90.0   50.0
350.0   90.0   50.0
300.0   90.0   33.333333333333336
300.0   60.0   50.0
350.0   90.0   50.0
350.0   60.0   50.0
350.0   60.0   33.333333333333336
300.0   60.0   50.0
350.0   90.0   50.0
350.0   60.0   33.333333333333336
300.0   90.0   33.333333333333336
300.0   90.0   0.0
350.0   90.0   0.0
300.0   120.0   0.0
300.0   90.0   16.666666666666668
350.0   90.0   0.0
350.0   120.0   0.0
300.0   120.0   0.0
350.0   120.0   16.666666666666668
300.0   90.0   16.666666666666668
300.0   120.0   16.666666666666668
350.0   120.0   16.666666666666668
300.0   120.0   0.0
300.0   90.0   16.666666666666668
350.0   120.0   16.666666666666668
350.0   90.0   16.666666666666668
350.0   90.0   0.0
300.0   90.0   16.666666666666668
350.0   120.0   16.666666666666668
350.0   90.0   0.0
300.0   120.0   0.0
300.0   90.0   16.666666666666668
350.0   90.0   16.666666666666668
300.0   120.0   16.666666666666668
300.0   90.0   33.333333333333336
350.0   90.0   16.666666666666668
350.0   120.0   16.666666666666668
300.0   120.0   16.666666666666668
350.0   120.0   33.333333333333336
300.0   90.0   33.333333333333336
300.0   120.0   33.333333333333336
350.0   120.0   33.333333333333336
300.0   120.0   16.666666666666668
300.0   90.0   33.333333333333336
350.0   120.0   33.333333333333336
350.0   90.0   33.333333333333336
350.0   90.0   16.666666666666668
300.0   90.0   33.333333333333336
350.0   120.0   33.333333333333336
350.0   90.0   16.666666666666668
300.0   120.0   16.666666666666668
300.0   90.0   33.333333333333336
350.0   90.0   33.333333333333336
300.0   120.0   33.333333333333336
300.0   90.0   50.0
350.0   90.0   33.333333333333336
350.0   120.0   33.333333333333336
300.0   120.0   33.333333333333336
350.0   120.0   50.0
300.0   90.0   50.0
300.0   120.0   50.0
350.0   120.0   50.0
300.0   120.0   33.333333333333336
300.0   90.0   50.0
350.0   120.0   50.0
350.0   90.0   50.0
350.0   90.0   33.333333333333336
300.0   90.0   50.0
350.0   120.0   50.0
350.0   90.0   33.333333333333336
300.0   120.0   33.333333333333336
300.0   120.0   0.0
350.0   120.0   0.0
300.0   150.0   0.0
300.0   120.0   16.666666666666668
350.0   120.0   0.0
350.0   150.0   0.0
300.0   150.0   0.0
350.0   150.0   16.666666666666668
300.0   120.0   16.666666666666668
300.0   150.0   16.666666666666668
350.0   150.0   16.666666666666668
300.0   150.0   0.0
300.0   120.0   16.666666666666668
350.0   150.0   16.666666666666668
350.0   120.0   16.666666666666668
350.0   120.0   0.0
300.0   120.0   16.666666666666668
350.0   150.0   16.666666666666668
350.0   120.0   0.0
300.0   150.0   0.0
300.0   120.0   16.666666666666668
350.0   120.0   16.666666666666668
300.0   150.0   16.666666666666668
300.0   120.0   33.333333333333336
350.0   120.0   16.666666666666668
350.0   150.0   16.666666666666668
300.0   150.0   16.666666666666668
350.0   150.0   33.333333333333336
300.0   120.0   33.333333333333336
300.0   150.0   33.333333333333336
350.0   150.0   33.333333333333336
300.0   150.0   16.666666666666668
300.0   120.0   33.333333333333336
350.0   150.0   33.333333333333336
350.0   120.0   33.333333333333336
350.0   120.0   16.666666666666668
300.0   120.0   33.333333333333336
350.0   150.0   33.333333333333336
350.0   120.0   16.666666666666668
300.0   150.0   16.666666666666668
300.0   120.0   33.333333333333336
350.0   120.0   33.333333333333336
300.0   150.0   33.333333333333336
300.0   120.0   50.0
350.0   120.0   33.333333333333336
350.0   150.0   33.333333333333336
300.0   150.0   33.333333333333336
350.0   150.0   50.0
300.0   120.0   50.0
300.0   150.0   50.0
350.0   150.0   50.0
300.0   150.0   33.333333333333336
300.0   120.0   50.0
350.0   150.0   50.0
350.0   120.0   50.0
350.0   120.0   33.333333333333336
300.0   120.0   50.0
350.0   150.0   50.0
350.0   120.0   33.333333333333336
300.0   150.0   33.333333333333336
350.0   0.0   0.0
400.0   0.0   0.0
350.0   30.0   0.0
350.0   0.0   16.666666666666668
400.0   0.0   0.0
400.0   30.0   0.0
350.0   30.0   0.0
400.0   30.0   16.666666666666668
350.0   0.0   16.666666666666668
350.0   30.0   16.666666666666668
400.0   30.0   16.666666666666668
350.0   30.0   0.0
350.0   0.0   16.666666666666668
400.0   30.0   16.666666666666668
400.0   0.0   16.666666666666668
400.0   0.0   0.0
350.0   0.0   16.666666666666668
400.0   30.0   16.666666666666668
400.0   0.0   0.0
350.0   30.0   0.0
350.0   0.0   16.666666666666668
400.0   0.0   16.666666666666668
350.0   30.0   16.666666666666668
350.0   0.0   33.333333333333336
400.0   0.0   16.666666666666668
400.0   30.0   16.666666666666668
350.0   30.0   16.666666666666668
400.0   30.0   33.333333333333336
350.0   0.0   33.333333333333336
350.0   30.0   33.333333333333336
400.0   30.0   33.333333333333336
350.0   30.0   16.666666666666668
350.0   0.0   33.333333333333336
400.0   30.0   33.333333333333336
400.0   0.0   33.333333333333336
400.0   0.0   16.666666666666668
350.0   0.0   33.333333333333336
400.0   30.0   33.333333333333336
400.0   0.0   16.666666666666668
350.0   30.0   16.666666666666668
350.0   0.0   33.333333333333336
400.0   0.0   33.333333333333336
350.0   30.0   33.333333333333336
350.0   0.0   50.0
400.0   0.0   33.333333333333336
400.0   30.0   33.333333333333336
350.0   30.0   33.333333333333336
400.0   30.0   50.0
350.0   0.0   50.0
350.0   30.0   50.0
400.0   30.0   50.0
350.0   30.0   33.333333333333336
350.0   0.0   50.0
400.0   30.0   50.0
400.0   0.0   50.0
400.0   0.0   33.333333333333336
350.0   0.0   50.0
400.0   30.0   50.0
400.0   0.0   33.333333333333336
350.0   30.0   33.333333333333336
350.0   30.0   0.0
400.0   30.0   0.0
350.0   60.0   0.0
350.0   30.0   16.666666666666668
400.0   30.0   0.0
400.0   60.0   0.0
350.0   60.0   0.0
400.0   60.0   16.666666666666668
350.0   30.0   16.666666666666668
350.0   60.0   16.666666666666668
400.0   60.0   16.666666666666668
350.0   60.0   0.0
350.0   30.0   16.666666666666668
400.0   60.0   16.666666666666668
400.0   30.0   16.666666666666668
400.0   30.0   0.0
350.0   30.0   16.666666666666668
400.0   60.0   16.666666666666668
400.0   30.0   0.0
350.0   60.0   0.0
350.0   30.0   16.666666666666668
400.0   30.0   16.666666666666668
350.0   60.0   16.666666666666668
350.0   30.0   33.333333333333336
400.0   30.0   16.666666666666668
400.0   60.0   16.666666666666668
350.0   60.0   16.666666666666668
400.0   60.0   33.333333333333336
350.0   30.0   33.333333333333336
350.0   60.0   33.333333333333336
400.0   60.0   33.333333333333336
350.0   60.0   16.666666666666668
350.0   30.0   33.333333333333336
400.0   60.0   33.333333333333336
400.0   30.0   33.333333333333336
400.0   30.0   16.666666666666668
350.0   30.0   33.333333333333336
400.0   60.0   33.333333333333336
400.0   30.0   16.666666666666668
350.0   60.0   16.666666666666668
350.0   30.0   33.333333333333336
400.0   30.0   33.333333333333336
350.0   60.0   33.333333333333336
350.0   30.0   50.0
400.0   30.0   33.333333333333336
400.0   60.0   33.333333333333336
350.0   60.0   33.333333333333336
400.0   60.0   50.0
350.0   30.0   50.0
350.0   60.0   50.0
400.0   60.0   50.0
350.0   60.0   33.333333333333336
350.0   30.0   50.0
400.0   60.0   50.0
400.0   30.0   50.0
400.0   30.0   33.333333333333336
350.0   30.0   50.0
400.0   60.0   50.0
400.0   30.0   33.333333333333336
350.0   60.0   33.333333333333336
350.0   60.0   0.0
400.0   60.0   0.0
350.0   90.0   0.0
350.0   60.0   16.666666666666668
400.0   60.0   0.0
400.0   90.0   0.0
350.0   90.0   0.0
400.0   90.0   16.666666666666668
350.0   60.0   16.666666666666668
350.0   90.0   16.666666666666668
400.0   90.0   16.666666666666668
350.0   90.0   0.0
350.0   60.0   16.666666666666668
400.0   90.0   16.666666666666668
400.0   60.0   16.666666666666668
400.0   60.0   0.0
350.0   60.0   16.666666666666668
400.0   90.0   16.666666666666668
400.0   60.0   0.0
350.0   90.0   0.0
350.0   60.0   16.666666666666668
400.0   60.0   16.666666666666668
350.0   90.0   16.666666666666668
350.0   60.0   33.333333333333336
400.0   60.0   16.666666666666668
400.0   90.0   16.666666666666668
350.0   90.0   16.666666666666668
400.0   90.0   33.333333333333336
350.0   60.0   33.333333333333336
350.0   90.0   33.333333333333336
400.0   90.0   33.333333333333336
350.0   90.0   16.666666666666668
350.0   60.0   33.333333333333336
400.0   90.0   33.333333333333336
400.0   60.0   33.333333333333336
400.0   60.0   16.666666666666668
350.0   60.0   33.333333333333336
400.0   90.0   33.333333333333336
400.0   60.0   16.666666666666668
350.0   90.0   16.666666666666668
350.0   60.0   33.333333333333336
400.0   60.0   33.333333333333336
350.0   90.0   33.333333333333336
350.0   60.0   50.0
400.0   60.0   33.333333333333336
400.0   90.0   33.333333333333336
350.0   90.0   33.333333333333336
400.0   90.0   50.0
350.0   60.0   50.0
350.0   90.0   50.0
400.0   90.0   50.0
350.0   90.0   33.333333333333336
350.0   60.0   50.0
400.0   90.0   50.0
400.0   60.0   50.0
400.0   60.0   33.333333333333336
350.0   60.0   50.0
400.0   90.0   50.0
400.0   60.0   33.333333333333336
350.0   90.0   33.333333333333336
350.0   90.0   0.0
400.0   90.0   0.0
350.0   120.0   0.0
350.0   90.0   16.666666666666668
400.0   90.0   0.0
400.0   120.0   0.0
350.0   120.0   0.0
400.0   120.0   16.666666666666668
350.0   90.0   16.666666666666668
350.0   120.0   16.666666666666668
400.0   120.0   16.666666666666668
350.0   120.0   0.0
350.0   90.0   16.666666666666668
400.0   120.0   16.666666666666668
400.0   90.0   16.666666666666668
400.0   90.0   0.0
350.0   90.0   16.666666666666668
400.0   120.0   16.666666666666668
400.0   90.0   0.0
350.0   120.0   0.0
350.0   90.0   16.666666666666668
400.0   90.0   16.666666666666668
350.0   120.0   16.666666666666668
350.0   90.0   33.333333333333336
400.0   90.0   16.666666666666668
400.0   120.0   16.666666666666668
350.0   120.0   16.666666666666668
400.0   120.0   33.333333333333336
350.0   90.0   33.333333333333336
350.0   120.0   33.333333333333336
400.0   120.0   33.333333333333336
350.0   120.0   16.666666666666668
350.0   90.0   33.333333333333336
400.0   120.0   33.333333333333336
400.0   90.0   33.333333333333336
400.0   90.0   16.666666666666668
350.0   90.0   33.333333333333336
400.0   120.0   33.333333333333336
400.0   90.0   16.666666666666668
350.0   120.0   16.666666666666668
350.0   90.0   33.333333333333336
400.0   90.0   33.333333333333336
350.0   120.0   33.333333333333336
350.0   90.0   50.0
400.0   90.0   33.333333333333336
400.0   120.0   33.333333333333336
350.0   120.0   33.333333333333336
400.0   120.0   50.0
350.0   90.0   50.0
350.0   120.0   50.0
400.0   120.0   50.0
350.0   120.0   33.333333333333336
350.0   90.0   50.0
400.0   120.0   50.0
400.0   90.0   50.0
400.0   90.0   33.333333333333336
350.0   90.0   50.0
400.0   120.0   50.0
400.0   90.0   33.333333333333336
350.0   120.0   33.333333333333336
350.0   120.0   0.0
400.0   120.0   0.0
350.0   150.0   0.0
350.0   120.0   16.666666666666668
400.0   120.0   0.0
400.0   150.0   0.0
350.0   150.0   0.0
400.0   150.0   16.666666666666668
350.0   120.0   16.666666666666668
350.0   150.0   16.666666666666668
400.0   150.0   16.666666666666668
350.0   150.0   0.0
350.0   120.0   16.666666666666668
400.0   150.0   16.666666666666668
400.0   120.0   16.666666666666668
400.0   120.0   0.0
350.0   120.0   16.666666666666668
400.0   150.0   16.666666666666668
400.0   120.0   0.0
350.0   150.0   0.0
350.0   120.0   16.666666666666668
400.0   120.0   16.666666666666668
350.0   150.0   16.666666666666668
350.0   120.0   33.333333333333336
400.0   120.0   16.666666666666668
400.0   150.0   16.666666666666668
350.0   150.0   16.666666666666668
400.0   150.0   33.333333333333336
350.0   120.0   33.333333333333336
350.0   150.0   33.333333333333336
400.0   150.0   33.333333333333336
350.0   150.0   16.666666666666668
350.0   120.0   33.333333333333336
400.0   150.0   33.333333333333336
400.0   120.0   33.333333333333336
400.0   120.0   16.666666666666668
350.0   120.0   33.333333333333336
400.0   150.0   33.333333333333336
400.0   120.0   16.666666666666668
350.0   150.0   16.666666666666668
350.0   120.0   33.333333333333336
400.0   120.0   33.333333333333336
350.0   150.0   33.333333333333336
350.0   120.0   50.0
400.0   120.0   33.333333333333336
400.0   150.0   33.333333333333336
350.0   150.0   33.333333333333336
400.0   150.0   50.0
350.0   120.0   50.0
350.0   150.0   50.0
400.0   150.0   50.0
350.0   150.0   33.333333333333336
350.0   120.0   50.0
400.0   150.0   50.0
400.0   120.0   50.0
400.0   120.0   33.333333333333336
350.0   120.0   50.0
400.0   150.0   50.0
400.0   120.0   33.333333333333336
350.0   150.0   33.333333333333336
400.0   0.0   0.0
450.0   0.0   0.0
400.0   30.0   0.0
400.0   0.0   16.666666666666668
450.0   0.0   0.0
450.0   30.0   0.0
400.0   30.0   0.0
450.0   30.0   16.666666666666668
400.0   0.0   16.666666666666668
400.0   30.0   16.666666666666668
450.0   30.0   16.666666666666668
400.0   30.0   0.0
400.0   0.0   16.666666666666668
450.0   30.0   16.666666666666668
450.0   0.0   16.666666666666668
450.0   0.0   0.0
400.0   0.0   16.666666666666668
450.0   30.0   16.666666666666668
450.0   0.0   0.0
400.0   30.0   0.0
400.0   0.0   16.666666666666668
450.0   0.0   16.666666666666668
400.0   30.0   16.666666666666668
400.0   0.0   33.333333333333336
450.0   0.0   16.666666666666668
450.0   30.0   16.666666666666668
400.0   30.0   16.666666666666668
450.0   30.0   33.333333333333336
400.0   0.0   33.333333333333336
400.0   30.0   33.333333333333336
450.0   30.0   33.333333333333336
400.0   30.0   16.666666666666668
400.0   0.0   33.333333333333336
450.0   30.0   33.333333333333336
450.0   0.0   33.333333333333336
450.0   0.0   16.666666666666668
400.0   0.0   33.333333333333336
450.0   30.0   33.333333333333336
450.0   0.0   16.666666666666668
400.0   30.0   16.666666666666668
400.0   0.0   33.333333333333336
450.0   0.0   33.333333333333336
400.0   30.0   33.333333333333336
400.0   0.0   50.0
450.0   0.0   33.333333333333336
450.0   30.0   33.333333333333336
400.0   30.0   33.333333333333336
450.0   30.0   50.0
400.0   0.0   50.0
400.0   30.0   50.0
450.0   30.0   50.0
400.0   30.0   33.333333333333336
400.0   0.0   50.0
450.0   30.0   50.0
450.0   0.0   50.0
450.0   0.0   33.333333333333336
400.0   0.0   50.0
450.0   30.0   50.0
450.0   0.0   33.333333333333336
400.0   30.0   33.333333333333336
400.0   30.0   0.0
450.0   30.0   0.0
400.0   60.0   0.0
400.0   30.0   16.666666666666668
450.0   30.0   0.0
450.0   60.0   0.0
400.0   60.0   0.0
450.0   60.0   16.666666666666668
400.0   30.0   16.666666666666668
400.0   60.0   16.666666666666668
450.0   60.0   16.666666666666668
400.0   60.0   0.0
400.0   30.0   16.666666666666668
450.0   60.0   16.666666666666668
450.0   30.0   16.666666666666668
450.0   30.0   0.0
400.0   30.0   16.666666666666668
450.0   60.0   16.666666666666668
450.0   30.0   0.0
400.0   60.0   0.0
400.0   30.0   16.666666666666668
450.0   30.0   16.666666666666668
400.0   60.0   16.666666666666668
400.0   30.0   33.333333333333336
450.0   30.0   16.666666666666668
450.0   60.0   16.666666666666668
400.0   60.0   16.666666666666668
450.0   60.0   33.333333333333336
400.0   30.0   33.333333333333336
400.0   60.0   33.333333333333336
450.0   60.0   33.333333333333336
400.0   60.0   16.666666666666668
400.0   30.0   33.333333333333336
450.0   60.0   33.333333333333336
450.0   30.0   33.333333333333336
450.0   30.0   16.666666666666668
400.0   30.0   33.333333333333336
450.0   60.0   33.333333333333336
450.0   30.0   16.666666666666668
400.0   60.0   16.666666666666668
400.0   30.0   33.333333333333336
450.0   30.0   33.333333333333336
400.0   60.0   33.333333333333336
400.0   30.0   50.0
450.0   30.0   33.333333333333336
450.0   60.0   33.333333333333336
400.0   60.0   33.333333333333336
450.0   60.0   50.0
400.0   30.0   50.0
400.0   60.0   50.0
450.0   60.0   50.0
400.0   60.0   33.333333333333336
400.0   30.0   50.0
450.0   60.0   50.0
450.0   30.0   50.0
450.0   30.0   33.333333333333336
400.0   30.0   50.0
450.0   60.0   50.0
450.0   30.0   33.333333333333336
400.0   60.0   33.333333333333336
400.0   60.0   0.0
450.0   60.0   0.0
400.0   90.0   0.0
400.0   60.0   16.666666666666668
450.0   60.0   0.0
450.0   90.0   0.0
400.0   90.0   0.0
450.0   90.0   16.666666666666668
400.0   60.0   16.666666666666668
400.0   90.0   16.666666666666668
450.0   90.0   16.666666666666668
400.0   90.0   0.0
400.0   60.0   16.666666666666668
450.0   90.0   16.666666666666668
450.0   60.0   16.666666666666668
450.0   60.0   0.0
400.0   60.0   16.666666666666668
450.0   90.0   16.666666666666668
450.0   60.0   0.0
400.0   90.0   0.0
400.0   60.0   16.666666666666668
450.0   60.0   16.666666666666668
400.0   90.0   16.666666666666668
400.0   60.0   33.333333333333336
450.0   60.0   16.666666666666668
450.0   90.0   16.666666666666668
400.0   90.0   16.666666666666668
450.0   90.0   33.333333333333336
400.0   60.0   33.333333333333336
400.0   90.0   33.333333333333336
450.0   90.0   33.333333333333336
400.0   90.0   16.666666666666668
400.0   60.0   33.333333333333336
450.0   90.0   33.333333333333336
450.0   60.0   33.333333333333336
450.0   60.0   16.666666666666668
400.0   60.0   33.333333333333336
450.0   90.0   33.333333333333336
450.0   60.0   16.666666666666668
400.0   90.0   16.666666666666668
400.0   60.0   33.333333333333336
450.0   60.0   33.333333333333336
400.0   90.0   33.333333333333336
400.0   60.0   50.0
450.0   60.0   33.333333333333336
450.0   90.0   33.333333333333336
400.0   90.0   33.333333333333336
450.0   90.0   50.0
400.0   60.0   50.0
400.0   90.0   50.0
450.0   90.0   50.0
400.0   90.0   33.333333333333336
400.0   60.0   50.0
450.0   90.0   50.0
450.0   60.0   50.0
450.0   60.0   33.333333333333336
400.0   60.0   50.0
450.0   90.0   50.0
450.0   60.0   33.333333333333336
400.0   90.0   33.333333333333336
400.0   90.0   0.0
450.0   90.0   0.0
400.0   120.0   0.0
400.0   90.0   16.666666666666668
450.0   90.0   0.0
450.0   120.0   0.0
400.0   120.0   0.0
450.0   120.0   16.666666666666668
400.0   90.0   16.666666666666668
400.0   120.0   16.666666666666668
450.0   120.0   16.666666666666668
400.0   120.0   0.0
400.0   90.0   16.666666666666668
450.0   120.0   16.666666666666668
450.0   90.0   16.666666666666668
450.0   90.0   0.0
400.0   90.0   16.666666666666668
450.0   120.0   16.666666666666668
450.0   90.0   0.0
400.0   120.0   0.0
400.0   90.0   16.666666666666668
450.0   90.0   16.666666666666668
400.0   120.0   16.666666666666668
400.0   90.0   33.333333333333336
450.0   90.0   16.666666666666668
450.0   120.0   16.666666666666668
400.0   120.0   16.666666666666668
450.0   120.0   33.333333333333336
400.0   90.0   33.333333333333336
400.0   120.0   33.333333333333336
450.0   120.0   33.333333333333336
400.0   120.0   16.666666666666668
400.0   90.0   33.333333333333336
450.0   120.0   33.333333333333336
450.0   90.0   33.333333333333336
450.0   90.0   16.666666666666668
400.0   90.0   33.333333333333336
450.0   120.0   33.333333333333336
450.0   90.0   16.666666666666668
400.0   120.0   16.666666666666668
400.0   90.0   33.333333333333336
450.0   90.0   33.333333333333336
400.0   120.0   33.333333333333336
400.0   90.0   50.0
450.0   90.0   33.333333333333336
450.0   120.0   33.333333333333336
400.0   120.0   33.333333333333336
450.0   120.0   50.0
400.0   90.0   50.0
400.0   120.0   50.0
450.0   120.0   50.0
400.0   120.0   33.333333333333336
400.0   90.0   50.0
450.0   120.0   50.0
450.0   90.0   50.0
450.0   90.0   33.333333333333336
400.0   90.0   50.0
450.0   120.0   50.0
450.0   90.0   33.333333333333336
400.0   120.0   33.333333333333336
400.0   120.0   0.0
450.0   120.0   0.0
400.0   150.0   0.0
400.0   120.0   16.666666666666668
450.0   120.0   0.0
450.0   150.0   0.0
400.0   150.0   0.0
450.0   150.0   16.666666666666668
400.0   120.0   16.666666666666668
400.0   150.0   16.666666666666668
450.0   150.0   16.666666666666668
400.0   150.0   0.0
400.0   120.0   16.666666666666668
450.0   150.0   16.666666666666668
450.0   120.0   16.666666666666668
450.0   120.0   0.0
400.0   120.0   16.666666666666668
450.0   150.0   16.666666666666668
450.0   120.0   0.0
400.0   150.0   0.0
400.0   120.0   16.666666666666668
450.0   120.0   16.666666666666668
400.0   150.0   16.666666666666668
400.0   120.0   33.333333333333336
450.0   120.0   16.666666666666668
450.0   150.0   16.666666666666668
400.0   150.0   16.666666666666668
450.0   150.0   33.333333333333336
400.0   120.0   33.333333333333336
400.0   150.0   33.333333333333336
450.0   150.0   33.333333333333336
400.0   150.0   16.666666666666668
400.0   120.0   33.333333333333336
450.0   150.0   33.333333333333336
450.0   120.0   33.333333333333336
450.0   120.0   16.666666666666668
400.0   120.0   33.333333333333336
450.0   150.0   33.333333333333336
450.0   120.0   16.666666666666668
400.0   150.0   16.666666666666668
400.0   120.0   33.333333333333336
450.0   120.0   33.333333333333336
400.0   150.0   33.333333333333336
400.0   120.0   50.0
450.0   120.0   33.333333333333336
450.0   150.0   33.333333333333336
400.0   150.0   33.333333333333336
450.0   150.0   50.0
400.0   120.0   50.0
400.0   150.0   50.0
450.0   150.0   50.0
400.0   150.0   33.333333333333336
400.0   120.0   50.0
450.0   150.0   50.0
450.0   120.0   50.0
450.0   120.0   33.333333333333336
400.0   120.0   50.0
450.0   150.0   50.0
450.0   120.0   33.333333333333336
400.0   150.0   33.333333333333336
450.0   0.0   0.0
500.0   0.0   0.0
450.0   30.0   0.0
450.0   0.0   16.666666666666668
500.0   0.0   0.0
500.0   30.0   0.0
450.0   30.0   0.0
500.0   30.0   16.666666666666668
450.0   0.0   16.666666666666668
450.0   30.0   16.666666666666668
500.0   30.0   16.666666666666668
450.0   30.0   0.0
450.0   0.0   16.666666666666668
500.0   30.0   16.666666666666668
500.0   0.0   16.666666666666668
500.0   0.0   0.0
450.0   0.0   16.666666666666668
500.0   30.0   16.666666666666668
500.0   0.0   0.0
450.0   30.0   0.0
450.0   0.0   16.666666666666668
500.0   0.0   16.666666666666668
450.0   30.0   16.666666666666668
450.0   0.0   33.333333333333336
500.0   0.0   16.666666666666668
500.0   30.0   16.666666666666668
450.0   30.0   16.666666666666668
500.0   30.0   33.333333333333336
450.0   0.0   33.333333333333336
450.0   30.0   33.333333333333336
500.0   30.0   33.333333333333336
450.0   30.0   16.666666666666668
450.0   0.0   33.333333333333336
500.0   30.0   33.333333333333336
500.0   0.0   33.333333333333336
500.0   0.0   16.666666666666668
450.0   0.0   33.333333333333336
500.0   30.0   33.333333333333336
500.0   0.0   16.666666666666668
450.0   30.0   16.666666666666668
450.0   0.0   33.333333333333336
500.0   0.0   33.333333333333336
450.0   30.0   33.333333333333336
450.0   0.0   50.0
500.0   0.0   33.333333333333336
500.0   30.0   33.333333333333336
450.0   30.0   33.333333333333336
500.0   30.0   50.0
450.0   0.0   50.0
450.0   30.0   50.0
500.0   30.0   50.0
450.0   30.0   33.333333333333336
450.0   0.0   50.0
500.0   30.0   50.0
500.0   0.0   50.0
500.0   0.0   33.333333333333336
450.0   0.0   50.0
500.0   30.0   50.0
500.0   0.0   33.333333333333336
450.0   30.0   33.333333333333336
450.0   30.0   0.0
500.0   30.0   0.0
450.0   60.0   0.0
450.0   30.0   16.666666666666668
500.0   30.0   0.0
500.0   60.0   0.0
450.0   60.0   0.0
500.0   60.0   16.666666666666668
450.0   30.0   16.666666666666668
450.0   60.0   16.666666666666668
500.0   60.0   16.666666666666668
450.0   60.0   0.0
450.0   30.0   16.666666666666668
500.0   60.0   16.666666666666668
500.0   30.0   16.666666666666668
500.0   30.0   0.0
450.0   30.0   16.666666666666668
500.0   60.0   16.666666666666668
500.0   30.0   0.0
450.0   60.0   0.0
450.0   30.0   16.666666666666668
500.0   30.0   16.666666666666668
450.0   60.0   16.666666666666668
450.0   30.0   33.333333333333336
500.0   30.0   16.666666666666668
500.0   60.0   16.666666666666668
450.0   60.0   16.666666666666668
500.0   60.0   33.333333333333336
450.0   30.0   33.333333333333336
450.0   60.0   33.333333333333336
500.0   60.0   33.333333333333336
450.0   60.0   16.666666666666668
450.0   30.0   33.333333333333336
500.0   60.0   33.333333333333336
500.0   30.0   33.333333333333336
500.0   30.0   16.666666666666668
450.0   30.0   33.333333333333336
500.0   60.0   33.333333333333336
500.0   30.0   16.666666666666668
450.0   60.0   16.666666666666668
450.0   30.0   33.333333333333336
500.0   30.0   33.333333333333336
450.0   60.0   33.333333333333336
450.0   30.0   50.0
500.0   30.0   33.333333333333336
500.0   60.0   33.333333333333336
450.0   60.0   33.333333333333336
500.0   60.0   50.0
450.0   30.0   50.0
450.0   60.0   50.0
500.0   60.0   50.0
450.0   60.0   33.333333333333336
450.0   30.0   50.0
500.0   60.0   50.0
500.0   30.0   50.0
500.0   30.0   33.333333333333336
450.0   30.0   50.0
500.0   60.0   50.0
500.0   30.0   33.333333333333336
450.0   60.0   33.333333333333336
450.0   60.0   0.0
500.0   60.0   0.0
450.0   90.0   0.0
450.0   60.0   16.666666666666668
500.0   60.0   0.0
500.0   90.0   0.0
450.0   90.0   0.0
500.0   90.0   16.666666666666668
450.0   60.0   16.666666666666668
450.0   90.0   16.666666666666668
500.0   90.0   16.666666666666668
450.0   90.0   0.0
450.0   60.0   16.666666666666668
500.0   90.0   16.666666666666668
500.0   60.0   16.666666666666668
500.0   60.0   0.0
450.0   60.0   16.666666666666668
500.0   90.0   16.666666666666668
500.0   60.0   0.0
450.0   90.0   0.0
450.0   60.0   16.666666666666668
500.0   60.0   16.666666666666668
450.0   90.0   16.666666666666668
450.0   60.0   33.333333333333336
500.0   60.0   16.666666666666668
500.0   90.0   16.666666666666668
450.0   90.0   16.666666666666668
500.0   90.0   33.333333333333336
450.0   60.0   33.333333333333336
450.0   90.0   33.333333333333336
500.0   90.0   33.333333333333336
450.0   90.0   16.666666666666668
450.0   60.0   33.333333333333336
500.0   90.0   33.333333333333336
500.0   60.0   33.333333333333336
500.0   60.0   16.666666666666668
450.0   60.0   33.333333333333336
500.0   90.0   33.333333333333336
500.0   60.0   16.666666666666668
450.0   90.0   16.666666666666668
450.0   60.0   33.333333333333336
500.0   60.0   33.333333333333336
450.0   90.0   33.333333333333336
450.0   60.0   50.0
500.0   60.0   33.333333333333336
500.0   90.0   33.333333333333336
450.0   90.0   33.333333333333336
500.0   90.0   50.0
450.0   60.0   50.0
450.0   90.0   50.0
500.0   90.0   50.0
450.0   90.0   33.333333333333336
450.0   60.0   50.0
500.0   90.0   50.0
500.0   60.0   50.0
500.0   60.0   33.333333333333336
450.0   60.0   50.0
500.0   90.0   50.0
500.0   60.0   33.333333333333336
450.0   90.0   33.333333333333336
450.0   90.0   0.0
500.0   90.0   0.0
450.0   120.0   0.0
450.0   90.0   16.666666666666668
500.0   90.0   0.0
500.0   120.0   0.0
450.0   120.0   0.0
500.0   120.0   16.666666666666668
450.0   90.0   16.666666666666668
450.0   120.0   16.666666666666668
500.0   120.0   16.666666666666668
450.0   120.0   0.0
450.0   90.0   16.666666666666668
500.0   120.0   16.666666666666668
500.0   90.0   16.666666666666668
500.0   90.0   0.0
450.0   90.0   16.666666666666668
500.0   120.0   16.666666666666668
500.0   90.0   0.0
450.0   120.0   0.0
450.0   90.0   16.666666666666668
500.0   90.0   16.666666666666668
450.0   120.0   16.666666666666668
450.0   90.0   33.333333333333336
500.0   90.0   16.666666666666668
500.0   120.0   16.666666666666668
450.0   120.0   16.666666666666668
500.0   120.0   33.333333333333336
450.0   90.0   33.333333333333336
450.0   120.0   33.333333333333336
500.0   120.0   33.333333333333336
450.0   120.0   16.666666666666668
450.0   90.0   33.333333333333336
500.0   120.0   33.333333333333336
500.0   90.0   33.333333333333336
500.0   90.0   16.666666666666668
450.0   90.0   33.333333333333336
500.0   120.0   33.333333333333336
500.0   90.0   16.666666666666668
450.0   120.0   16.666666666666668
450.0   90.0   33.333333333333336
500.0   90.0   33.333333333333336
450.0   120.0   33.333333333333336
450.0   90.0   50.0
500.0   90.0   33.333333333333336
500.0   120.0   33.333333333333336
450.0   120.0   33.333333333333336
500.0   120.0   50.0
450.0   90.0   50.0
450.0   120.0   50.0
500.0   120.0   50.0
450.0   120.0   33.333333333333336
450.0   90.0   50.0
500.0   120.0   50.0
500.0   90.0   50.0
500.0   90.0   33.333333333333336
450.0   90.0   50.0
500.0   120.0   50.0
500.0   90.0   33.333333333333336
450.0   120.0   33.333333333333336
450.0   120.0   0.0
500.0   120.0   0.0
450.0   150.0   0.0
450.0   120.0   16.666666666666668
500.0   120.0   0.0
500.0   150.0   0.0
450.0   150.0   0.0
500.0   150.0   16.666666666666668
450.0   120.0   16.666666666666668
450.0   150.0   16.666666666666668
500.0   150.0   16.666666666666668
450.0   150.0   0.0
450.0   120.0   16.666666666666668
500.0   150.0   16.666666666666668
500.0   120.0   16.666666666666668
500.0   120.0   0.0
450.0   120.0   16.666666666666668
500.0   150.0   16.666666666666668
500.0   120.0   0.0
450.0   150.0   0.0
450.0   120.0   16.666666666666668
500.0   120.0   16.666666666666668
450.0   150.0   16.666666666666668
450.0   120.0   33.333333333333336
500.0   120.0   16.666666666666668
500.0   150.0   16.666666666666668
450.0   150.0   16.666666666666668
500.0   150.0   33.333333333333336
450.0   120.0   33.333333333333336
450.0   150.0   33.333333333333336
500.0   150.0   33.333333333333336
450.0   150.0   16.666666666666668
450.0   120.0   33.333333333333336
500.0   150.0   33.333333333333336
500.0   120.0   33.333333333333336
500.0   120.0   16.666666666666668
450.0   120.0   33.333333333333336
500.0   150.0   33.333333333333336
500.0   120.0   16.666666666666668
450.0   150.0   16.666666666666668
450.0   120.0   33.333333333333336
500.0   120.0   33.333333333333336
450.0   150.0   33.333333333333336
450.0   120.0   50.0
500.0   120.0   33.333333333333336
500.0   150.0   33.333333333333336
450.0   150.0   33.333333333333336
500.0   150.0   50.0
450.0   120.0   50.0
450.0   150.0   50.0
500.0   150.0   50.0
450.0   150.0   33.333333333333336
450.0   120.0   50.0
500.0   150.0   50.0
500.0   120.0   50.0
500.0   120.0   33.333333333333336
450.0   120.0   50.0
500.0   150.0   50.0
500.0   120.0   33.333333333333336
450.0   150.0   33.333333333333336
             </DataArray>   
          </Points>  
          <Cells>  
             <DataArray type="Int32" Name="connectivity" format="ascii">   
0   1   2   3
4   5   6   7
8   9   10   11
12   13   14   15
16   17   18   19
20   21   22   23
24   25   26   27
28   29   30   31
32   33   34   35
36   37   38   39
40   41   42   43
44   45   46   47
48   49   50   51
52   53   54   55
56   57   58   59
60   61   62   63
64   65   66   67
68   69   70   71
72   73   74   75
76   77   78   79
80   81   82   83
84   85   86   87
88   89   90   91
92   93   94   95
96   97   98   99
100   101   102   103
104   105   106   107
108   109   110   111
112   113   114   115
116   117   118   119
120   121   122   123
124   125   126   127
128   129   130   131
132   133   134   135
136   137   138   139
140   141   142   143
144   145   146   147
148   149   150   151
152   153   154   155
156   157   158   159
160   161   162   163
164   165   166   167
168   169   170   171
172   173   174   175
176   177   178   179
180   181   182   183
184   185   186   187
188   189   190   191
192   193   194   195
196   197   198   199
200   201   202   203
204   205   206   207
208   209   210   211
212   213   214   215
216   217   218   219
220   221   222   223
224   225   226   227
228   229   230   231
232   233   234   235
236   237   238   239
240   241   242   243
244   245   246   247
248   249   250   251
252   253   254   255
256   257   258   259
260   261   262   263
264   265   266   267
268   269   270   271
272   273   274   275
276   277   278   279
280   281   282   283
284   285   286   287
288   289   290   291
292   293   294   295
296   297   298   299
300   301   302   303
304   305   306   307
308   309   310   311
312   313   314   315
316   317   318   319
320   321   322   323
324   325   326   327
328   329   330   331
332   333   334   335
336   337   338   339
340   341   342   343
344   345   346   347
348   349   350   351
352   353   354   355
356   357   358   359
360   361   362   363
364   365   366   367
368   369   370   371
372   373   374   375
376   377   378   379
380   381   382   383
384   385   386   387
388   389   390   391
392   393   394   395
396   397   398   399
400   401   402   403
404   405   406   407
408   409   410   411
412   413   414   415
416   417   418   419
420   421   422   423
424   425   426   427
428   429   430   431
432   433   434   435
436   437   438   439
440   441   442   443
444   445   446   447
448   449   450   451
452   453   454   455
456   457   458   459
460   461   462   463
464   465   466   467
468   469   470   471
472   473   474   475
476   477   478   479
480   481   482   483
484   485   486   487
488   489   490   491
492   493   494   495
496   497   498   499
500   501   502   503
504   505   506   507
508   509   510   511
512   513   514   515
516   517   518   519
520   521   522   523
524   525   526   527
528   529   530   531
532   533   534   535
536   537   538   539
540   541   542   543
544   545   546   547
548   549   550   551
552   553   554   555
556   557   558   559
560   561   562   563
564   565   566   567
568   569   570   571
572   573   574   575
576   577   578   579
580   581   582   583
584   585   586   587
588   589   590   591
592   593   594   595
596   597   598   599
600   601   602   603
604   605   606   607
608   609   610   611
612   613   614   615
616   617   618   619
620   621   622   623
624   625   626   627
628   629   630   631
632   633   634   635
636   637   638   639
640   641   642   643
644   645   646   647
648   649   650   651
652   653   654   655
656   657   658   659
660   661   662   663
664   665   666   667
668   669   670   671
672   673   674   675
676   677   678   679
680   681   682   683
684   685   686   687
688   689   690   691
692   693   694   695
696   697   698   699
700   701   702   703
704   705   706   707
708   709   710   711
712   713   714   715
716   717   718   719
720   721   722   723
724   725   726   727
728   729   730   731
732   733   734   735
736   737   738   739
740   741   742   743
744   745   746   747
748   749   750   751
752   753   754   755
756   757   758   759
760   761   762   763
764   765   766   767
768   769   770   771
772   773   774   775
776   777   778   779
780   781   782   783
784   785   786   787
788   789   790   791
792   793   794   795
796   797   798   799
800   801   802   803
804   805   806   807
808   809   810   811
812   813   814   815
816   817   818   819
820   821   822   823
824   825   826   827
828   829   830   831
832   833   834   835
836   837   838   839
840   841   842   843
844   845   846   847
848   849   850   851
852   853   854   855
856   857   858   859
860   861   862   863
864   865   866   867
868   869   870   871
872   873   874   875
876   877   878   879
880   881   882   883
884   885   886   887
888   889   890   891
892   893   894   895
896   897   898   899
900   901   902   903
904   905   906   907
908   909   910   911
912   913   914   915
916   917   918   919
920   921   922   923
924   925   926   927
928   929   930   931
932   933   934   935
936   937   938   939
940   941   942   943
944   945   946   947
948   949   950   951
952   953   954   955
956   957   958   959
960   961   962   963
964   965   966   967
968   969   970   971
972   973   974   975
976   977   978   979
980   981   982   983
984   985   986   987
988   989   990   991
992   993   994   995
996   997   998   999
1000   1001   1002   1003
1004   1005   1006   1007
1008   1009   1010   1011
1012   1013   1014   1015
1016   1017   1018   1019
1020   1021   1022   1023
1024   1025   1026   1027
1028   1029   1030   1031
1032   1033   1034   1035
1036   1037   1038   1039
1040   1041   1042   1043
1044   1045   1046   1047
1048   1049   1050   1051
1052   1053   1054   1055
1056   1057   1058   1059
1060   1061   1062   1063
1064   1065   1066   1067
1068   1069   1070   1071
1072   1073   1074   1075
1076   1077   1078   1079
1080   1081   1082   1083
1084   1085   1086   1087
1088   1089   1090   1091
1092   1093   1094   1095
1096   1097   1098   1099
1100   1101   1102   1103
1104   1105   1106   1107
1108   1109   1110   1111
1112   1113   1114   1115
1116   1117   1118   1119
1120   1121   1122   1123
1124   1125   1126   1127
1128   1129   1130   1131
1132   1133   1134   1135
1136   1137   1138   1139
1140   1141   1142   1143
1144   1145   1146   1147
1148   1149   1150   1151
1152   1153   1154   1155
1156   1157   1158   1159
1160   1161   1162   1163
1164   1165   1166   1167
1168   1169   1170   1171
1172   1173   1174   1175
1176   1177   1178   1179
1180   1181   1182   1183
1184   1185   1186   1187
1188   1189   1190   1191
1192   1193   1194   1195
1196   1197   1198   1199
1200   1201   1202   1203
1204   1205   1206   1207
1208   1209   1210   1211
1212   1213   1214   1215
1216   1217   1218   1219
1220   1221   1222   1223
1224   1225   1226   1227
1228   1229   1230   1231
1232   1233   1234   1235
1236   1237   1238   1239
1240   1241   1242   1243
1244   1245   1246   1247
1248   1249   1250   1251
1252   1253   1254   1255
1256   1257   1258   1259
1260   1261   1262   1263
1264   1265   1266   1267
1268   1269   1270   1271
1272   1273   1274   1275
1276   1277   1278   1279
1280   1281   1282   1283
1284   1285   1286   1287
1288   1289   1290   1291
1292   1293   1294   1295
1296   1297   1298   1299
1300   1301   1302   1303
1304   1305   1306   1307
1308   1309   1310   1311
1312   1313   1314   1315
1316   1317   1318   1319
1320   1321   1322   1323
1324   1325   1326   1327
1328   1329   1330   1331
1332   1333   1334   1335
1336   1337   1338   1339
1340   1341   1342   1343
1344   1345   1346   1347
1348   1349   1350   1351
1352   1353   1354   1355
1356   1357   1358   1359
1360   1361   1362   1363
1364   1365   1366   1367
1368   1369   1370   1371
1372   1373   1374   1375
1376   1377   1378   1379
1380   1381   1382   1383
1384   1385   1386   1387
1388   1389   1390   1391
1392   1393   1394   1395
1396   1397   1398   1399
1400   1401   1402   1403
1404   1405   1406   1407
1408   1409   1410   1411
1412   1413   1414   1415
1416   1417   1418   1419
1420   1421   1422   1423
1424   1425   1426   1427
1428   1429   1430   1431
1432   1433   1434   1435
1436   1437   1438   1439
1440   1441   1442   1443
1444   1445   1446   1447
1448   1449   1450   1451
1452   1453   1454   1455
1456   1457   1458   1459
1460   1461   1462   1463
1464   1465   1466   1467
1468   1469   1470   1471
1472   1473   1474   1475
1476   1477   1478   1479
1480   1481   1482   1483
1484   1485   1486   1487
1488   1489   1490   1491
1492   1493   1494   1495
1496   1497   1498   1499
1500   1501   1502   1503
1504   1505   1506   1507
1508   1509   1510   1511
1512   1513   1514   1515
1516   1517   1518   1519
1520   1521   1522   1523
1524   1525   1526   1527
1528   1529   1530   1531
1532   1533   1534   1535
1536   1537   1538   1539
1540   1541   1542   1543
1544   1545   1546   1547
1548   1549   1550   1551
1552   1553   1554   1555
1556   1557   1558   1559
1560   1561   1562   1563
1564   1565   1566   1567
1568   1569   1570   1571
1572   1573   1574   1575
1576   1577   1578   1579
1580   1581   1582   1583
1584   1585   1586   1587
1588   1589   1590   1591
1592   1593   1594   1595
1596   1597   1598   1599
1600   1601   1602   1603
1604   1605   1606   1607
1608   1609   1610   1611
1612   1613   1614   1615
1616   1617   1618   1619
1620   1621   1622   1623
1624   1625   1626   1627
1628   1629   1630   1631
1632   1633   1634   1635
1636   1637   1638   1639
1640   1641   1642   1643
1644   1645   1646   1647
1648   1649   1650   1651
1652   1653   1654   1655
1656   1657   1658   1659
1660   1661   1662   1663
1664   1665   1666   1667
1668   1669   1670   1671
1672   1673   1674   1675
1676   1677   1678   1679
1680   1681   1682   1683
1684   1685   1686   1687
1688   1689   1690   1691
1692   1693   1694   1695
1696   1697   1698   1699
1700   1701   1702   1703
1704   1705   1706   1707
1708   1709   1710   1711
1712   1713   1714   1715
1716   1717   1718   1719
1720   1721   1722   1723
1724   1725   1726   1727
1728   1729   1730   1731
1732   1733   1734   1735
1736   1737   1738   1739
1740   1741   1742   1743
1744   1745   1746   1747
1748   1749   1750   1751
1752   1753   1754   1755
1756   1757   1758   1759
1760   1761   1762   1763
1764   1765   1766   1767
1768   1769   1770   1771
1772   1773   1774   1775
1776   1777   1778   1779
1780   1781   1782   1783
1784   1785   1786   1787
1788   1789   1790   1791
1792   1793   1794   1795
1796   1797   1798   1799
1800   1801   1802   1803
1804   1805   1806   1807
1808   1809   1810   1811
1812   1813   1814   1815
1816   1817   1818   1819
1820   1821   1822   1823
1824   1825   1826   1827
1828   1829   1830   1831
1832   1833   1834   1835
1836   1837   1838   1839
1840   1841   1842   1843
1844   1845   1846   1847
1848   1849   1850   1851
1852   1853   1854   1855
1856   1857   1858   1859
1860   1861   1862   1863
1864   1865   1866   1867
1868   1869   1870   1871
1872   1873   1874   1875
1876   1877   1878   1879
1880   1881   1882   1883
1884   1885   1886   1887
1888   1889   1890   1891
1892   1893   1894   1895
1896   1897   1898   1899
1900   1901   1902   1903
1904   1905   1906   1907
1908   1909   1910   1911
1912   1913   1914   1915
1916   1917   1918   1919
1920   1921   1922   1923
1924   1925   1926   1927
1928   1929   1930   1931
1932   1933   1934   1935
1936   1937   1938   1939
1940   1941   1942   1943
1944   1945   1946   1947
1948   1949   1950   1951
1952   1953   1954   1955
1956   1957   1958   1959
1960   1961   1962   1963
1964   1965   1966   1967
1968   1969   1970   1971
1972   1973   1974   1975
1976   1977   1978   1979
1980   1981   1982   1983
1984   1985   1986   1987
1988   1989   1990   1991
1992   1993   1994   1995
1996   1997   1998   1999
2000   2001   2002   2003
2004   2005   2006   2007
2008   2009   2010   2011
2012   2013   2014   2015
2016   2017   2018   2019
2020   2021   2022   2023
2024   2025   2026   2027
2028   2029   2030   2031
2032   2033   2034   2035
2036   2037   2038   2039
2040   2041   2042   2043
2044   2045   2046   2047
2048   2049   2050   2051
2052   2053   2054   2055
2056   2057   2058   2059
2060   2061   2062   2063
2064   2065   2066   2067
2068   2069   2070   2071
2072   2073   2074   2075
2076   2077   2078   2079
2080   2081   2082   2083
2084   2085   2086   2087
2088   2089   2090   2091
2092   2093   2094   2095
2096   2097   2098   2099
2100   2101   2102   2103
2104   2105   2106   2107
2108   2109   2110   2111
2112   2113   2114   2115
2116   2117   2118   2119
2120   2121   2122   2123
2124   2125   2126   2127
2128   2129   2130   2131
2132   2133   2134   2135
2136   2137   2138   2139
2140   2141   2142   2143
2144   2145   2146   2147
2148   2149   2150   2151
2152   2153   2154   2155
2156   2157   2158   2159
2160   2161   2162   2163
2164   2165   2166   2167
2168   2169   2170   2171
2172   2173   2174   2175
2176   2177   2178   2179
2180   2181   2182   2183
2184   2185   2186   2187
2188   2189   2190   2191
2192   2193   2194   2195
2196   2197   2198   2199
2200   2201   2202   2203
2204   2205   2206   2207
2208   2209   2210   2211
2212   2213   2214   2215
2216   2217   2218   2219
2220   2221   2222   2223
2224   2225   2226   2227
2228   2229   2230   2231
2232   2233   2234   2235
2236   2237   2238   2239
2240   2241   2242   2243
2244   2245   2246   2247
2248   2249   2250   2251
2252   2253   2254   2255
2256   2257   2258   2259
2260   2261   2262   2263
2264   2265   2266   2267
2268   2269   2270   2271
2272   2273   2274   2275
2276   2277   2278   2279
2280   2281   2282   2283
2284   2285   2286   2287
2288   2289   2290   2291
2292   2293   2294   2295
2296   2297   2298   2299
2300   2301   2302   2303
2304   2305   2306   2307
2308   2309   2310   2311
2312   2313   2314   2315
2316   2317   2318   2319
2320   2321   2322   2323
2324   2325   2326   2327
2328   2329   2330   2331
2332   2333   2334   2335
2336   2337   2338   2339
2340   2341   2342   2343
2344   2345   2346   2347
2348   2349   2350   2351
2352   2353   2354   2355
2356   2357   2358   2359
2360   2361   2362   2363
2364   2365   2366   2367
2368   2369   2370   2371
2372   2373   2374   2375
2376   2377   2378   2379
2380   2381   2382   2383
2384   2385   2386   2387
2388   2389   2390   2391
2392   2393   2394   2395
2396   2397   2398   2399
2400   2401   2402   2403
2404   2405   2406   2407
2408   2409   2410   2411
2412   2413   2414   2415
2416   2417   2418   2419
2420   2421   2422   2423
2424   2425   2426   2427
2428   2429   2430   2431
2432   2433   2434   2435
2436   2437   2438   2439
2440   2441   2442   2443
2444   2445   2446   2447
2448   2449   2450   2451
2452   2453   2454   2455
2456   2457   2458   2459
2460   2461   2462   2463
2464   2465   2466   2467
2468   2469   2470   2471
2472   2473   2474   2475
2476   2477   2478   2479
2480   2481   2482   2483
2484   2485   2486   2487
2488   2489   2490   2491
2492   2493   2494   2495
2496   2497   2498   2499
2500   2501   2502   2503
2504   2505   2506   2507
2508   2509   2510   2511
2512   2513   2514   2515
2516   2517   2518   2519
2520   2521   2522   2523
2524   2525   2526   2527
2528   2529   2530   2531
2532   2533   2534   2535
2536   2537   2538   2539
2540   2541   2542   2543
2544   2545   2546   2547
2548   2549   2550   2551
2552   2553   2554   2555
2556   2557   2558   2559
2560   2561   2562   2563
2564   2565   2566   2567
2568   2569   2570   2571
2572   2573   2574   2575
2576   2577   2578   2579
2580   2581   2582   2583
2584   2585   2586   2587
2588   2589   2590   2591
2592   2593   2594   2595
2596   2597   2598   2599
2600   2601   2602   2603
2604   2605   2606   2607
2608   2609   2610   2611
2612   2613   2614   2615
2616   2617   2618   2619
2620   2621   2622   2623
2624   2625   2626   2627
2628   2629   2630   2631
2632   2633   2634   2635
2636   2637   2638   2639
2640   2641   2642   2643
2644   2645   2646   2647
2648   2649   2650   2651
2652   2653   2654   2655
2656   2657   2658   2659
2660   2661   2662   2663
2664   2665   2666   2667
2668   2669   2670   2671
2672   2673   2674   2675
2676   2677   2678   2679
2680   2681   2682   2683
2684   2685   2686   2687
2688   2689   2690   2691
2692   2693   2694   2695
2696   2697   2698   2699
2700   2701   2702   2703
2704   2705   2706   2707
2708   2709   2710   2711
2712   2713   2714   2715
2716   2717   2718   2719
2720   2721   2722   2723
2724   2725   2726   2727
2728   2729   2730   2731
2732   2733   2734   2735
2736   2737   2738   2739
2740   2741   2742   2743
2744   2745   2746   2747
2748   2749   2750   2751
2752   2753   2754   2755
2756   2757   2758   2759
2760   2761   2762   2763
2764   2765   2766   2767
2768   2769   2770   2771
2772   2773   2774   2775
2776   2777   2778   2779
2780   2781   2782   2783
2784   2785   2786   2787
2788   2789   2790   2791
2792   2793   2794   2795
2796   2797   2798   2799
2800   2801   2802   2803
2804   2805   2806   2807
2808   2809   2810   2811
2812   2813   2814   2815
2816   2817   2818   2819
2820   2821   2822   2823
2824   2825   2826   2827
2828   2829   2830   2831
2832   2833   2834   2835
2836   2837   2838   2839
2840   2841   2842   2843
2844   2845   2846   2847
2848   2849   2850   2851
2852   2853   2854   2855
2856   2857   2858   2859
2860   2861   2862   2863
2864   2865   2866   2867
2868   2869   2870   2871
2872   2873   2874   2875
2876   2877   2878   2879
2880   2881   2882   2883
2884   2885   2886   2887
2888   2889   2890   2891
2892   2893   2894   2895
2896   2897   2898   2899
2900   2901   2902   2903
2904   2905   2906   2907
2908   2909   2910   2911
2912   2913   2914   2915
2916   2917   2918   2919
2920   2921   2922   2923
2924   2925   2926   2927
2928   2929   2930   2931
2932   2933   2934   2935
2936   2937   2938   2939
2940   2941   2942   2943
2944   2945   2946   2947
2948   2949   2950   2951
2952   2953   2954   2955
2956   2957   2958   2959
2960   2961   2962   2963
2964   2965   2966   2967
2968   2969   2970   2971
2972   2973   2974   2975
2976   2977   2978   2979
2980   2981   2982   2983
2984   2985   2986   2987
2988   2989   2990   2991
2992   2993   2994   2995
2996   2997   2998   2999
3000   3001   3002   3003
3004   3005   3006   3007
3008   3009   3010   3011
3012   3013   3014   3015
3016   3017   3018   3019
3020   3021   3022   3023
3024   3025   3026   3027
3028   3029   3030   3031
3032   3033   3034   3035
3036   3037   3038   3039
3040   3041   3042   3043
3044   3045   3046   3047
3048   3049   3050   3051
3052   3053   3054   3055
3056   3057   3058   3059
3060   3061   3062   3063
3064   3065   3066   3067
3068   3069   3070   3071
3072   3073   3074   3075
3076   3077   3078   3079
3080   3081   3082   3083
3084   3085   3086   3087
3088   3089   3090   3091
3092   3093   3094   3095
3096   3097   3098   3099
3100   3101   3102   3103
3104   3105   3106   3107
3108   3109   3110   3111
3112   3113   3114   3115
3116   3117   3118   3119
3120   3121   3122   3123
3124   3125   3126   3127
3128   3129   3130   3131
3132   3133   3134   3135
3136   3137   3138   3139
3140   3141   3142   3143
3144   3145   3146   3147
3148   3149   3150   3151
3152   3153   3154   3155
3156   3157   3158   3159
3160   3161   3162   3163
3164   3165   3166   3167
3168   3169   3170   3171
3172   3173   3174   3175
3176   3177   3178   3179
3180   3181   3182   3183
3184   3185   3186   3187
3188   3189   3190   3191
3192   3193   3194   3195
3196   3197   3198   3199
3200   3201   3202   3203
3204   3205   3206   3207
3208   3209   3210   3211
3212   3213   3214   3215
3216   3217   3218   3219
3220   3221   3222   3223
3224   3225   3226   3227
3228   3229   3230   3231
3232   3233   3234   3235
3236   3237   3238   3239
3240   3241   3242   3243
3244   3245   3246   3247
3248   3249   3250   3251
3252   3253   3254   3255
3256   3257   3258   3259
3260   3261   3262   3263
3264   3265   3266   3267
3268   3269   3270   3271
3272   3273   3274   3275
3276   3277   3278   3279
3280   3281   3282   3283
3284   3285   3286   3287
3288   3289   3290   3291
3292   3293   3294   3295
3296   3297   3298   3299
3300   3301   3302   3303
3304   3305   3306   3307
3308   3309   3310   3311
3312   3313   3314   3315
3316   3317   3318   3319
3320   3321   3322   3323
3324   3325   3326   3327
3328   3329   3330   3331
3332   3333   3334   3335
3336   3337   3338   3339
3340   3341   3342   3343
3344   3345   3346   3347
3348   3349   3350   3351
3352   3353   3354   3355
3356   3357   3358   3359
3360   3361   3362   3363
3364   3365   3366   3367
3368   3369   3370   3371
3372   3373   3374   3375
3376   3377   3378   3379
3380   3381   3382   3383
3384   3385   3386   3387
3388   3389   3390   3391
3392   3393   3394   3395
3396   3397   3398   3399
3400   3401   3402   3403
3404   3405   3406   3407
3408   3409   3410   3411
3412   3413   3414   3415
3416   3417   3418   3419
3420   3421   3422   3423
3424   3425   3426   3427
3428   3429   3430   3431
3432   3433   3434   3435
3436   3437   3438   3439
3440   3441   3442   3443
3444   3445   3446   3447
3448   3449   3450   3451
3452   3453   3454   3455
3456   3457   3458   3459
3460   3461   3462   3463
3464   3465   3466   3467
3468   3469   3470   3471
3472   3473   3474   3475
3476   3477   3478   3479
3480   3481   3482   3483
3484   3485   3486   3487
3488   3489   3490   3491
3492   3493   3494   3495
3496   3497   3498   3499
3500   3501   3502   3503
3504   3505   3506   3507
3508   3509   3510   3511
3512   3513   3514   3515
3516   3517   3518   3519
3520   3521   3522   3523
3524   3525   3526   3527
3528   3529   3530   3531
3532   3533   3534   3535
3536   3537   3538   3539
3540   3541   3542   3543
3544   3545   3546   3547
3548   3549   3550   3551
3552   3553   3554   3555
3556   3557   3558   3559
3560   3561   3562   3563
3564   3565   3566   3567
3568   3569   3570   3571
3572   3573   3574   3575
3576   3577   3578   3579
3580   3581   3582   3583
3584   3585   3586   3587
3588   3589   3590   3591
3592   3593   3594   3595
3596   3597   3598   3599
3600   3601   3602   3603
3604   3605   3606   3607
3608   3609   3610   3611
3612   3613   3614   3615
3616   3617   3618   3619
3620   3621   3622   3623
3624   3625   3626   3627
3628   3629   3630   3631
3632   3633   3634   3635
3636   3637   3638   3639
3640   3641   3642   3643
3644   3645   3646   3647
3648   3649   3650   3651
3652   3653   3654   3655
3656   3657   3658   3659
3660   3661   3662   3663
3664   3665   3666   3667
3668   3669   3670   3671
3672   3673   3674   3675
3676   3677   3678   3679
3680   3681   3682   3683
3684   3685   3686   3687
3688   3689   3690   3691
3692   3693   3694   3695
3696   3697   3698   3699
3700   3701   3702   3703
3704   3705   3706   3707
3708   3709   3710   3711
3712   3713   3714   3715
3716   3717   3718   3719
3720   3721   3722   3723
3724   3725   3726   3727
3728   3729   3730   3731
3732   3733   3734   3735
3736   3737   3738   3739
3740   3741   3742   3743
3744   3745   3746   3747
3748   3749   3750   3751
3752   3753   3754   3755
3756   3757   3758   3759
3760   3761   3762   3763
3764   3765   3766   3767
3768   3769   3770   3771
3772   3773   3774   3775
3776   3777   3778   3779
3780   3781   3782   3783
3784   3785   3786   3787
3788   3789   3790   3791
3792   3793   3794   3795
3796   3797   3798   3799
3800   3801   3802   3803
3804   3805   3806   3807
3808   3809   3810   3811
3812   3813   3814   3815
3816   3817   3818   3819
3820   3821   3822   3823
3824   3825   3826   3827
3828   3829   3830   3831
3832   3833   3834   3835
3836   3837   3838   3839
3840   3841   3842   3843
3844   3845   3846   3847
3848   3849   3850   3851
3852   3853   3854   3855
3856   3857   3858   3859
3860   3861   3862   3863
3864   3865   3866   3867
3868   3869   3870   3871
3872   3873   3874   3875
3876   3877   3878   3879
3880   3881   3882   3883
3884   3885   3886   3887
3888   3889   3890   3891
3892   3893   3894   3895
3896   3897   3898   3899
3900   3901   3902   3903
3904   3905   3906   3907
3908   3909   3910   3911
3912   3913   3914   3915
3916   3917   3918   3919
3920   3921   3922   3923
3924   3925   3926   3927
3928   3929   3930   3931
3932   3933   3934   3935
3936   3937   3938   3939
3940   3941   3942   3943
3944   3945   3946   3947
3948   3949   3950   3951
3952   3953   3954   3955
3956   3957   3958   3959
3960   3961   3962   3963
3964   3965   3966   3967
3968   3969   3970   3971
3972   3973   3974   3975
3976   3977   3978   3979
3980   3981   3982   3983
3984   3985   3986   3987
3988   3989   3990   3991
3992   3993   3994   3995
3996   3997   3998   3999
4000   4001   4002   4003
4004   4005   4006   4007
4008   4009   4010   4011
4012   4013   4014   4015
4016   4017   4018   4019
4020   4021   4022   4023
4024   4025   4026   4027
4028   4029   4030   4031
4032   4033   4034   4035
4036   4037   4038   4039
4040   4041   4042   4043
4044   4045   4046   4047
4048   4049   4050   4051
4052   4053   4054   4055
4056   4057   4058   4059
4060   4061   4062   4063
4064   4065   4066   4067
4068   4069   4070   4071
4072   4073   4074   4075
4076   4077   4078   4079
4080   4081   4082   4083
4084   4085   4086   4087
4088   4089   4090   4091
4092   4093   4094   4095
4096   4097   4098   4099
4100   4101   4102   4103
4104   4105   4106   4107
4108   4109   4110   4111
4112   4113   4114   4115
4116   4117   4118   4119
4120   4121   4122   4123
4124   4125   4126   4127
4128   4129   4130   4131
4132   4133   4134   4135
4136   4137   4138   4139
4140   4141   4142   4143
4144   4145   4146   4147
4148   4149   4150   4151
4152   4153   4154   4155
4156   4157   4158   4159
4160   4161   4162   4163
4164   4165   4166   4167
4168   4169   4170   4171
4172   4173   4174   4175
4176   4177   4178   4179
4180   4181   4182   4183
4184   4185   4186   4187
4188   4189   4190   4191
4192   4193   4194   4195
4196   4197   4198   4199
4200   4201   4202   4203
4204   4205   4206   4207
4208   4209   4210   4211
4212   4213   4214   4215
4216   4217   4218   4219
4220   4221   4222   4223
4224   4225   4226   4227
4228   4229   4230   4231
4232   4233   4234   4235
4236   4237   4238   4239
4240   4241   4242   4243
4244   4245   4246   4247
4248   4249   4250   4251
4252   4253   4254   4255
4256   4257   4258   4259
4260   4261   4262   4263
4264   4265   4266   4267
4268   4269   4270   4271
4272   4273   4274   4275
4276   4277   4278   4279
4280   4281   4282   4283
4284   4285   4286   4287
4288   4289   4290   4291
4292   4293   4294   4295
4296   4297   4298   4299
4300   4301   4302   4303
4304   4305   4306   4307
4308   4309   4310   4311
4312   4313   4314   4315
4316   4317   4318   4319
4320   4321   4322   4323
4324   4325   4326   4327
4328   4329   4330   4331
4332   4333   4334   4335
4336   4337   4338   4339
4340   4341   4342   4343
4344   4345   4346   4347
4348   4349   4350   4351
4352   4353   4354   4355
4356   4357   4358   4359
4360   4361   4362   4363
4364   4365   4366   4367
4368   4369   4370   4371
4372   4373   4374   4375
4376   4377   4378   4379
4380   4381   4382   4383
4384   4385   4386   4387
4388   4389   4390   4391
4392   4393   4394   4395
4396   4397   4398   4399
4400   4401   4402   4403
4404   4405   4406   4407
4408   4409   4410   4411
4412   4413   4414   4415
4416   4417   4418   4419
4420   4421   4422   4423
4424   4425   4426   4427
4428   4429   4430   4431
4432   4433   4434   4435
4436   4437   4438   4439
4440   4441   4442   4443
4444   4445   4446   4447
4448   4449   4450   4451
4452   4453   4454   4455
4456   4457   4458   4459
4460   4461   4462   4463
4464   4465   4466   4467
4468   4469   4470   4471
4472   4473   4474   4475
4476   4477   4478   4479
4480   4481   4482   4483
4484   4485   4486   4487
4488   4489   4490   4491
4492   4493   4494   4495
4496   4497   4498   4499
4500   4501   4502   4503
4504   4505   4506   4507
4508   4509   4510   4511
4512   4513   4514   4515
4516   4517   4518   4519
4520   4521   4522   4523
4524   4525   4526   4527
4528   4529   4530   4531
4532   4533   4534   4535
4536   4537   4538   4539
4540   4541   4542   4543
4544   4545   4546   4547
4548   4549   4550   4551
4552   4553   4554   4555
4556   4557   4558   4559
4560   4561   4562   4563
4564   4565   4566   4567
4568   4569   4570   4571
4572   4573   4574   4575
4576   4577   4578   4579
4580   4581   4582   4583
4584   4585   4586   4587
4588   4589   4590   4591
4592   4593   4594   4595
4596   4597   4598   4599
4600   4601   4602   4603
4604   4605   4606   4607
4608   4609   4610   4611
4612   4613   4614   4615
4616   4617   4618   4619
4620   4621   4622   4623
4624   4625   4626   4627
4628   4629   4630   4631
4632   4633   4634   4635
4636   4637   4638   4639
4640   4641   4642   4643
4644   4645   4646   4647
4648   4649   4650   4651
4652   4653   4654   4655
4656   4657   4658   4659
4660   4661   4662   4663
4664   4665   4666   4667
4668   4669   4670   4671
4672   4673   4674   4675
4676   4677   4678   4679
4680   4681   4682   4683
4684   4685   4686   4687
4688   4689   4690   4691
4692   4693   4694   4695
4696   4697   4698   4699
4700   4701   4702   4703
4704   4705   4706   4707
4708   4709   4710   4711
4712   4713   4714   4715
4716   4717   4718   4719
4720   4721   4722   4723
4724   4725   4726   4727
4728   4729   4730   4731
4732   4733   4734   4735
4736   4737   4738   4739
4740   4741   4742   4743
4744   4745   4746   4747
4748   4749   4750   4751
4752   4753   4754   4755
4756   4757   4758   4759
4760   4761   4762   4763
4764   4765   4766   4767
4768   4769   4770   4771
4772   4773   4774   4775
4776   4777   4778   4779
4780   4781   4782   4783
4784   4785   4786   4787
4788   4789   4790   4791
4792   4793   4794   4795
4796   4797   4798   4799
4800   4801   4802   4803
4804   4805   4806   4807
4808   4809   4810   4811
4812   4813   4814   4815
4816   4817   4818   4819
4820   4821   4822   4823
4824   4825   4826   4827
4828   4829   4830   4831
4832   4833   4834   4835
4836   4837   4838   4839
4840   4841   4842   4843
4844   4845   4846   4847
4848   4849   4850   4851
4852   4853   4854   4855
4856   4857   4858   4859
4860   4861   4862   4863
4864   4865   4866   4867
4868   4869   4870   4871
4872   4873   4874   4875
4876   4877   4878   4879
4880   4881   4882   4883
4884   4885   4886   4887
4888   4889   4890   4891
4892   4893   4894   4895
4896   4897   4898   4899
4900   4901   4902   4903
4904   4905   4906   4907
4908   4909   4910   4911
4912   4913   4914   4915
4916   4917   4918   4919
4920   4921   4922   4923
4924   4925   4926   4927
4928   4929   4930   4931
4932   4933   4934   4935
4936   4937   4938   4939
4940   4941   4942   4943
4944   4945   4946   4947
4948   4949   4950   4951
4952   4953   4954   4955
4956   4957   4958   4959
4960   4961   4962   4963
4964   4965   4966   4967
4968   4969   4970   4971
4972   4973   4974   4975
4976   4977   4978   4979
4980   4981   4982   4983
4984   4985   4986   4987
4988   4989   4990   4991
4992   4993   4994   4995
4996   4997   4998   4999
5000   5001   5002   5003
5004   5005   5006   5007
5008   5009   5010   5011
5012   5013   5014   5015
5016   5017   5018   5019
5020   5021   5022   5023
5024   5025   5026   5027
5028   5029   5030   5031
5032   5033   5034   5035
5036   5037   5038   5039
5040   5041   5042   5043
5044   5045   5046   5047
5048   5049   5050   5051
5052   5053   5054   5055
5056   5057   5058   5059
5060   5061   5062   5063
5064   5065   5066   5067
5068   5069   5070   5071
5072   5073   5074   5075
5076   5077   5078   5079
5080   5081   5082   5083
5084   5085   5086   5087
5088   5089   5090   5091
5092   5093   5094   5095
5096   5097   5098   5099
5100   5101   5102   5103
5104   5105   5106   5107
5108   5109   5110   5111
5112   5113   5114   5115
5116   5117   5118   5119
5120   5121   5122   5123
5124   5125   5126   5127
5128   5129   5130   5131
5132   5133   5134   5135
5136   5137   5138   5139
5140   5141   5142   5143
5144   5145   5146   5147
5148   5149   5150   5151
5152   5153   5154   5155
5156   5157   5158   5159
5160   5161   5162   5163
5164   5165   5166   5167
5168   5169   5170   5171
5172   5173   5174   5175
5176   5177   5178   5179
5180   5181   5182   5183
5184   5185   5186   5187
5188   5189   5190   5191
5192   5193   5194   5195
5196   5197   5198   5199
5200   5201   5202   5203
5204   5205   5206   5207
5208   5209   5210   5211
5212   5213   5214   5215
5216   5217   5218   5219
5220   5221   5222   5223
5224   5225   5226   5227
5228   5229   5230   5231
5232   5233   5234   5235
5236   5237   5238   5239
5240   5241   5242   5243
5244   5245   5246   5247
5248   5249   5250   5251
5252   5253   5254   5255
5256   5257   5258   5259
5260   5261   5262   5263
5264   5265   5266   5267
5268   5269   5270   5271
5272   5273   5274   5275
5276   5277   5278   5279
5280   5281   5282   5283
5284   5285   5286   5287
5288   5289   5290   5291
5292   5293   5294   5295
5296   5297   5298   5299
5300   5301   5302   5303
5304   5305   5306   5307
5308   5309   5310   5311
5312   5313   5314   5315
5316   5317   5318   5319
5320   5321   5322   5323
5324   5325   5326   5327
5328   5329   5330   5331
5332   5333   5334   5335
5336   5337   5338   5339
5340   5341   5342   5343
5344   5345   5346   5347
5348   5349   5350   5351
5352   5353   5354   5355
5356   5357   5358   5359
5360   5361   5362   5363
5364   5365   5366   5367
5368   5369   5370   5371
5372   5373   5374   5375
5376   5377   5378   5379
5380   5381   5382   5383
5384   5385   5386   5387
5388   5389   5390   5391
5392   5393   5394   5395
5396   5397   5398   5399
5400   5401   5402   5403
5404   5405   5406   5407
5408   5409   5410   5411
5412   5413   5414   5415
5416   5417   5418   5419
5420   5421   5422   5423
5424   5425   5426   5427
5428   5429   5430   5431
5432   5433   5434   5435
5436   5437   5438   5439
5440   5441   5442   5443
5444   5445   5446   5447
5448   5449   5450   5451
5452   5453   5454   5455
5456   5457   5458   5459
5460   5461   5462   5463
5464   5465   5466   5467
5468   5469   5470   5471
5472   5473   5474   5475
5476   5477   5478   5479
5480   5481   5482   5483
5484   5485   5486   5487
5488   5489   5490   5491
5492   5493   5494   5495
5496   5497   5498   5499
5500   5501   5502   5503
5504   5505   5506   5507
5508   5509   5510   5511
5512   5513   5514   5515
5516   5517   5518   5519
5520   5521   5522   5523
5524   5525   5526   5527
5528   5529   5530   5531
5532   5533   5534   5535
5536   5537   5538   5539
5540   5541   5542   5543
5544   5545   5546   5547
5548   5549   5550   5551
5552   5553   5554   5555
5556   5557   5558   5559
5560   5561   5562   5563
5564   5565   5566   5567
5568   5569   5570   5571
5572   5573   5574   5575
5576   5577   5578   5579
5580   5581   5582   5583
5584   5585   5586   5587
5588   5589   5590   5591
5592   5593   5594   5595
5596   5597   5598   5599
5600   5601   5602   5603
5604   5605   5606   5607
5608   5609   5610   5611
5612   5613   5614   5615
5616   5617   5618   5619
5620   5621   5622   5623
5624   5625   5626   5627
5628   5629   5630   5631
5632   5633   5634   5635
5636   5637   5638   5639
5640   5641   5642   5643
5644   5645   5646   5647
5648   5649   5650   5651
5652   5653   5654   5655
5656   5657   5658   5659
5660   5661   5662   5663
5664   5665   5666   5667
5668   5669   5670   5671
5672   5673   5674   5675
5676   5677   5678   5679
5680   5681   5682   5683
5684   5685   5686   5687
5688   5689   5690   5691
5692   5693   5694   5695
5696   5697   5698   5699
5700   5701   5702   5703
5704   5705   5706   5707
5708   5709   5710   5711
5712   5713   5714   5715
5716   5717   5718   5719
5720   5721   5722   5723
5724   5725   5726   5727
5728   5729   5730   5731
5732   5733   5734   5735
5736   5737   5738   5739
5740   5741   5742   5743
5744   5745   5746   5747
5748   5749   5750   5751
5752   5753   5754   5755
5756   5757   5758   5759
5760   5761   5762   5763
5764   5765   5766   5767
5768   5769   5770   5771
5772   5773   5774   5775
5776   5777   5778   5779
5780   5781   5782   5783
5784   5785   5786   5787
5788   5789   5790   5791
5792   5793   5794   5795
5796   5797   5798   5799
5800   5801   5802   5803
5804   5805   5806   5807
5808   5809   5810   5811
5812   5813   5814   5815
5816   5817   5818   5819
5820   5821   5822   5823
5824   5825   5826   5827
5828   5829   5830   5831
5832   5833   5834   5835
5836   5837   5838   5839
5840   5841   5842   5843
5844   5845   5846   5847
5848   5849   5850   5851
5852   5853   5854   5855
5856   5857   5858   5859
5860   5861   5862   5863
5864   5865   5866   5867
5868   5869   5870   5871
5872   5873   5874   5875
5876   5877   5878   5879
5880   5881   5882   5883
5884   5885   5886   5887
5888   5889   5890   5891
5892   5893   5894   5895
5896   5897   5898   5899
5900   5901   5902   5903
5904   5905   5906   5907
5908   5909   5910   5911
5912   5913   5914   5915
5916   5917   5918   5919
5920   5921   5922   5923
5924   5925   5926   5927
5928   5929   5930   5931
5932   5933   5934   5935
5936   5937   5938   5939
5940   5941   5942   5943
5944   5945   5946   5947
5948   5949   5950   5951
5952   5953   5954   5955
5956   5957   5958   5959
5960   5961   5962   5963
5964   5965   5966   5967
5968   5969   5970   5971
5972   5973   5974   5975
5976   5977   5978   5979
5980   5981   5982   5983
5984   5985   5986   5987
5988   5989   5990   5991
5992   5993   5994   5995
5996   5997   5998   5999
              </DataArray>   
              <DataArray type="Int32" Name="offsets" format="ascii">   
4
8
12
16
20
24
28
32
36
40
44
48
52
56
60
64
68
72
76
80
84
88
92
96
100
104
108
112
116
120
124
128
132
136
140
144
148
152
156
160
164
168
172
176
180
184
188
192
196
200
204
208
212
216
220
224
228
232
236
240
244
248
252
256
260
264
268
272
276
280
284
288
292
296
300
304
308
312
316
320
324
328
332
336
340
344
348
352
356
360
364
368
372
376
380
384
388
392
396
400
404
408
412
416
420
424
428
432
436
440
444
448
452
456
460
464
468
472
476
480
484
488
492
496
500
504
508
512
516
520
524
528
532
536
540
544
548
552
556
560
564
568
572
576
580
584
588
592
596
600
604
608
612
616
620
624
628
632
636
640
644
648
652
656
660
664
668
672
676
680
684
688
692
696
700
704
708
712
716
720
724
728
732
736
740
744
748
752
756
760
764
768
772
776
780
784
788
792
796
800
804
808
812
816
820
824
828
832
836
840
844
848
852
856
860
864
868
872
876
880
884
888
892
896
900
904
908
912
916
920
924
928
932
936
940
944
948
952
956
960
964
968
972
976
980
984
988
992
996
1000
1004
1008
1012
1016
1020
1024
1028
1032
1036
1040
1044
1048
1052
1056
1060
1064
1068
1072
1076
1080
1084
1088
1092
1096
1100
1104
1108
1112
1116
1120
1124
1128
1132
1136
1140
1144
1148
1152
1156
1160
1164
1168
1172
1176
1180
1184
1188
1192
1196
1200
1204
1208
1212
1216
1220
1224
1228
1232
1236
1240
1244
1248
1252
1256
1260
1264
1268
1272
1276
1280
1284
1288
1292
1296
1300
1304
1308
1312
1316
1320
1324
1328
1332
1336
1340
1344
1348
1352
1356
1360
1364
1368
1372
1376
1380
1384
1388
1392
1396
1400
1404
1408
1412
1416
1420
1424
1428
1432
1436
1440
1444
1448
1452
1456
1460
1464
1468
1472
1476
1480
1484
1488
1492
1496
1500
1504
1508
1512
1516
1520
1524
1528
1532
1536
1540
1544
1548
1552
1556
1560
1564
1568
1572
1576
1580
1584
1588
1592
1596
1600
1604
1608
1612
1616
1620
1624
1628
1632
1636
1640
1644
1648
1652
1656
1660
1664
1668
1672
1676
1680
1684
1688
1692
1696
1700
1704
1708
1712
1716
1720
1724
1728
1732
1736
1740
1744
1748
1752
1756
1760
1764
1768
1772
1776
1780
1784
1788
1792
1796
1800
1804
1808
1812
1816
1820
1824
1828
1832
1836
1840
1844
1848
1852
1856
1860
1864
1868
1872
1876
1880
1884
1888
1892
1896
1900
1904
1908
1912
1916
1920
1924
1928
1932
1936
1940
1944
1948
1952
1956
1960
1964
1968
1972
1976
1980
1984
1988
1992
1996
2000
2004
2008
2012
2016
2020
2024
2028
2032
2036
2040
2044
2048
2052
2056
2060
2064
2068
2072
2076
2080
2084
2088
2092
2096
2100
2104
2108
2112
2116
2120
2124
2128
2132
2136
2140
2144
2148
2152
2156
2160
2164
2168
2172
2176
2180
2184
2188
2192
2196
2200
2204
2208
2212
2216
2220
2224
2228
2232
2236
2240
2244
2248
2252
2256
2260
2264
2268
2272
2276
2280
2284
2288
2292
2296
2300
2304
2308
2312
2316
2320
2324
2328
2332
2336
2340
2344
2348
2352
2356
2360
2364
2368
2372
2376
2380
2384
2388
2392
2396
2400
2404
2408
2412
2416
2420
2424
2428
2432
2436
2440
2444
2448
2452
2456
2460
2464
2468
2472
2476
2480
2484
2488
2492
2496
2500
2504
2508
2512
2516
2520
2524
2528
2532
2536
2540
2544
2548
2552
2556
2560
2564
2568
2572
2576
2580
2584
2588
2592
2596
2600
2604
2608
2612
2616
2620
2624
2628
2632
2636
2640
2644
2648
2652
2656
2660
2664
2668
2672
2676
2680
2684
2688
2692
2696
2700
2704
2708
2712
2716
2720
2724
2728
2732
2736
2740
2744
2748
2752
2756
2760
2764
2768
2772
2776
2780
2784
2788
2792
2796
2800
2804
2808
2812
2816
2820
2824
2828
2832
2836
2840
2844
2848
2852
2856
2860
2864
2868
2872
2876
2880
2884
2888
2892
2896
2900
2904
2908
2912
2916
2920
2924
2928
2932
2936
2940
2944
2948
2952
2956
2960
2964
2968
2972
2976
2980
2984
2988
2992
2996
3000
3004
3008
3012
3016
3020
3024
3028
3032
3036
3040
3044
3048
3052
3056
3060
3064
3068
3072
3076
3080
3084
3088
3092
3096
3100
3104
3108
3112
3116
3120
3124
3128
3132
3136
3140
3144
3148
3152
3156
3160
3164
3168
3172
3176
3180
3184
3188
3192
3196
3200
3204
3208
3212
3216
3220
3224
3228
3232
3236
3240
3244
3248
3252
3256
3260
3264
3268
3272
3276
3280
3284
3288
3292
3296
3300
3304
3308
3312
3316
3320
3324
3328
3332
3336
3340
3344
3348
3352
3356
3360
3364
3368
3372
3376
3380
3384
3388
3392
3396
3400
3404
3408
3412
3416
3420
3424
3428
3432
3436
3440
3444
3448
3452
3456
3460
3464
3468
3472
3476
3480
3484
3488
3492
3496
3500
3504
3508
3512
3516
3520
3524
3528
3532
3536
3540
3544
3548
3552
3556
3560
3564
3568
3572
3576
3580
3584
3588
3592
3596
3600
3604
3608
3612
3616
3620
3624
3628
3632
3636
3640
3644
3648
3652
3656
3660
3664
3668
3672
3676
3680
3684
3688
3692
3696
3700
3704
3708
3712
3716
3720
3724
3728
3732
3736
3740
3744
3748
3752
3756
3760
3764
3768
3772
3776
3780
3784
3788
3792
3796
3800
3804
3808
3812
3816
3820
3824
3828
3832
3836
3840
3844
3848
3852
3856
3860
3864
3868
3872
3876
3880
3884
3888
3892
3896
3900
3904
3908
3912
3916
3920
3924
3928
3932
3936
3940
3944
3948
3952
3956
3960
3964
3968
3972
3976
3980
3984
3988
3992
3996
4000
4004
4008
4012
4016
4020
4024
4028
4032
4036
4040
4044
4048
4052
4056
4060
4064
4068
4072
4076
4080
4084
4088
4092
4096
4100
4104
4108
4112
4116
4120
4124
4128
4132
4136
4140
4144
4148
4152
4156
4160
4164
4168
4172
4176
4180
4184
4188
4192
4196
4200
4204
4208
4212
4216
4220
4224
4228
4232
4236
4240
4244
4248
4252
4256
4260
4264
4268
4272
4276
4280
4284
4288
4292
4296
4300
4304
4308
4312
4316
4320
4324
4328
4332
4336
4340
4344
4348
4352
4356
4360
4364
4368
4372
4376
4380
4384
4388
4392
4396
4400
4404
4408
4412
4416
4420
4424
4428
4432
4436
4440
4444
4448
4452
4456
4460
4464
4468
4472
4476
4480
4484
4488
4492
4496
4500
4504
4508
4512
4516
4520
4524
4528
4532
4536
4540
4544
4548
4552
4556
4560
4564
4568
4572
4576
4580
4584
4588
4592
4596
4600
4604
4608
4612
4616
4620
4624
4628
4632
4636
4640
4644
4648
4652
4656
4660
4664
4668
4672
4676
4680
4684
4688
4692
4696
4700
4704
4708
4712
4716
4720
4724
4728
4732
4736
4740
4744
4748
4752
4756
4760
4764
4768
4772
4776
4780
4784
4788
4792
4796
4800
4804
4808
4812
4816
4820
4824
4828
4832
4836
4840
4844
4848
4852
4856
4860
4864
4868
4872
4876
4880
4884
4888
4892
4896
4900
4904
4908
4912
4916
4920
4924
4928
4932
4936
4940
4944
4948
4952
4956
4960
4964
4968
4972
4976
4980
4984
4988
4992
4996
5000
5004
5008
5012
5016
5020
5024
5028
5032
5036
5040
5044
5048
5052
5056
5060
5064
5068
5072
5076
5080
5084
5088
5092
5096
5100
5104
5108
5112
5116
5120
5124
5128
5132
5136
5140
5144
5148
5152
5156
5160
5164
5168
5172
5176
5180
5184
5188
5192
5196
5200
5204
5208
5212
5216
5220
5224
5228
5232
5236
5240
5244
5248
5252
5256
5260
5264
5268
5272
5276
5280
5284
5288
5292
5296
5300
5304
5308
5312
5316
5320
5324
5328
5332
5336
5340
5344
5348
5352
5356
5360
5364
5368
5372
5376
5380
5384
5388
5392
5396
5400
5404
5408
5412
5416
5420
5424
5428
5432
5436
5440
5444
5448
5452
5456
5460
5464
5468
5472
5476
5480
5484
5488
5492
5496
5500
5504
5508
5512
5516
5520
5524
5528
5532
5536
5540
5544
5548
5552
5556
5560
5564
5568
5572
5576
5580
5584
5588
5592
5596
5600
5604
5608
5612
5616
5620
5624
5628
5632
5636
5640
5644
5648
5652
5656
5660
5664
5668
5672
5676
5680
5684
5688
5692
5696
5700
5704
5708
5712
5716
5720
5724
5728
5732
5736
5740
5744
5748
5752
5756
5760
5764
5768
5772
5776
5780
5784
5788
5792
5796
5800
5804
5808
5812
5816
5820
5824
5828
5832
5836
5840
5844
5848
5852
5856
5860
5864
5868
5872
5876
5880
5884
5888
5892
5896
5900
5904
5908
5912
5916
5920
5924
5928
5932
5936
5940
5944
5948
5952
5956
5960
5964
5968
5972
5976
5980
5984
5988
5992
5996
6000
              </DataArray>   
              <DataArray type="UInt8" Name="types" format="ascii">   
10
10
10
10
10
10
10
10
10
10
10
10
10
10
10
10
10
10
10
10
10
10
10
10
10
10
10
10
10
10
10
10
10
10
10
10
10
10
10
10
10
10
10
10
10
10
10
10
10
10
10
10
10
10
10
10
10
10
10
10
10
10
10
10
10
10
10
10
10
10
10
10
10
10
10
10
10
10
10
10
10
10
10
10
10
10
10
10
10
10
10
10
10
10
10
10
10
10
10
10
10
10
10
10
10
10
10
10
10
10
10
10
10
10
10
10
10
10
10
10
10
10
10
10
10
10
10
10
10
10
10
10
10
10
10
10
10
10
10
10
10
10
10
10
10
10
10
10
10
10
10
10
10
10
10
10
10
10
10
10
10
10
10
10
10
10
10
10
10
10
10
10
10
10
10
10
10
10
10
10
10
10
10
10
10
10
10
10
10
10
10
10
10
10
10
10
10
10
10
10
10
10
10
10
10
10
10
10
10
10
10
10
10
10
10
10
10
10
10
10
10
10
10
10
10
10
10
10
10
10
10
10
10
10
10
10
10
10
10
10
10
10
10
10
10
10
10
10
10
10
10
10
10
10
10
10
10
10
10
10
10
10
10
10
10
10
10
10
10
10
10
10
10
10
10
10
10
10
10
10
10
10
10
10
10
10
10
10
10
10
10
10
10
10
10
10
10
10
10
10
10
10
10
10
10
10
10
10
10
10
10
10
10
10
10
10
10
10
10
10
10
10
10
10
10
10
10
10
10
10
10
10
10
10
10
10
10
10
10
10
10
10
10
10
10
10
10
10
10
10
10
10
10
10
10
10
10
10
10
10
10
10
10
10
10
10
10
10
10
10
10
10
10
10
10
10
10
10
10
10
10
10
10
10
10
10
10
10
10
10
10
10
10
10
10
10
10
10
10
10
10
10
10
10
10
10
10
10
10
10
10
10
10
10
10
10
10
10
10
10
10
10
10
10
10
10
10
10
10
10
10
10
10
10
10
10
10
10
10
10
10
10
10
10
10
10
10
10
10
10
10
10
10
10
10
10
10
10
10
10
10
10
10
10
10
10
10
10
10
10
10
10
10
10
10
10
10
10
10
10
10
10
10
10
10
10
10
10
10
10
10
10
10
10
10
10
10
10
10
10
10
10
10
10
10
10
10
10
10
10
10
10
10
10
10
10
10
10
10
10
10
10
10
10
10
10
10
10
10
10
10
10
10
10
10
10
10
10
10
10
10
10
10
10
10
10
10
10
10
10
10
10
10
10
10
10
10
10
10
10
10
10
10
10
10
10
10
10
10
10
10
10
10
10
10
10
10
10
10
10
10
10
10
10
10
10
10
10
10
10
10
10
10
10
10
10
10
10
10
10
10
10
10
10
10
10
10
10
10
10
10
10
10
10
10
10
10
10
10
10
10
10
10
10
10
10
10
10
10
10
10
10
10
10
10
10
10
10
10
10
10
10
10
10
10
10
10
10
10
10
10
10
10
10
10
10
10
10
10
10
10
10
10
10
10
10
10
10
10
10
10
10
10
10
10
10
10
10
10
10
10
10
10
10
10
10
10
10
10
10
10
10
10
10
10
10
10
10
10
10
10
10
10
10
10
10
10
10
10
10
10
10
10
10
10
10
10
10
10
10
10
10
10
10
10
10
10
10
10
10
10
10
10
10
10
10
10
10
10
10
10
10
10
10
10
10
10
10
10
10
10
10
10
10
10
10
10
10
10
10
10
10
10
10
10
10
10
10
10
10
10
10
10
10
10
10
10
10
10
10
10
10
10
10
10
10
10
10
10
10
10
10
10
10
10
10
10
10
10
10
10
10
10
10
10
10
10
10
10
10
10
10
10
10
10
10
10
10
10
10
10
10
10
10
10
10
10
10
10
10
10
10
10
10
10
10
10
10
10
10
10
10
10
10
10
10
10
10
10
10
10
10
10
10
10
10
10
10
10
10
10
10
10
10
10
10
10
10
10
10
10
10
10
10
10
10
10
10
10
10
10
10
10
10
10
10
10
10
10
10
10
10
10
10
10
10
10
10
10
10
10
10
10
10
10
10
10
10
10
10
10
10
10
10
10
10
10
10
10
10
10
10
10
10
10
10
10
10
10
10
10
10
10
10
10
10
10
10
10
10
10
10
10
10
10
10
10
10
10
10
10
10
10
10
10
10
10
10
10
10
10
10
10
10
10
10
10
10
10
10
10
10
10
10
10
10
10
10
10
10
10
10
10
10
10
10
10
10
10
10
10
10
10
10
10
10
10
10
10
10
10
10
10
10
10
10
10
10
10
10
10
10
10
10
10
10
10
10
10
10
10
10
10
10
10
10
10
10
10
10
10
10
10
10
10
10
10
10
10
10
10
10
10
10
10
10
10
10
10
10
10
10
10
10
10
10
10
10
10
10
10
10
10
10
10
10
10
10
10
10
10
10
10
10
10
10
10
10
10
10
10
10
10
10
10
10
10
10
10
10
10
10
10
10
10
10
10
10
10
10
10
10
10
10
10
10
10
10
10
10
10
10
10
10
10
10
10
10
10
10
10
10
10
10
10
10
10
10
10
10
10
10
10
10
10
10
10
10
10
10
10
10
10
10
10
10
10
10
10
10
10
10
10
10
10
10
10
10
10
10
10
10
10
10
10
10
10
10
10
10
10
10
10
10
10
10
10
10
10
10
10
10
10
10
10
10
10
10
10
10
10
10
10
10
10
10
10
10
10
10
10
10
10
10
10
10
10
10
10
10
10
10
10
10
10
10
10
10
10
10
10
10
10
10
10
10
10
10
10
10
10
10
10
10
10
10
10
10
10
10
10
10
10
10
10
10
10
10
10
10
10
10
10
10
10
10
10
10
10
10
10
10
10
10
10
10
10
10
10
10
10
10
10
10
10
10
10
10
10
10
10
10
10
10
10
10
10
10
10
10
10
10
10
10
10
10
10
10
10
10
10
10
10
10
10
10
10
10
10
10
10
10
10
10
10
10
10
10
10
10
10
10
10
10
10
10
10
10
10
10
10
10
10
10
10
10
10
10
10
10
10
10
10
10
10
10
10
10
10
10
10
10
10
10
10
10
10
10
10
10
10
10
10
10
10
10
10
10
10
10
10
10
10
10
10
10
10
10
10
10
10
10
10
10
10
10
10
10
10
10
10
10
10
10
10
10
10
10
10
10
10
10
10
10
10
10
10
10
10
10
10
10
10
10
10
10
10
10
10
10
10
10
10
10
10
10
10
10
10
10
10
10
10
10
10
10
10
10
10
10
10
10
10
10
10
10
10
10
10
10
10
10
10
10
10
10
10
10
10
10
10
10
10
10
10
10
10
10
10
10
10
10
10
10
10
10
10
10
10
10
10
10
10
10
10
10
10
10
10
10
10
10
10
10
10
10
10
10
10
10
              </DataArray>   
          </Cells>  
          <PointData>  
             <DataArray type="Float64" NumberOfComponents="3" Name="Strains" format="ascii">   
-2.5528758638571665e-05   0.0   -1.6945770546445004e-05
-2.5528758638571665e-05   0.0   -1.6945770546445004e-05
-2.5528758638571665e-05   0.0   -1.6945770546445004e-05
-2.5528758638571665e-05   0.0   -1.6945770546445004e-05
-1.622553027496672e-05   2.802726497520113e-06   2.412459580752703e-07
-1.622553027496672e-05   2.802726497520113e-06   2.412459580752703e-07
-1.622553027496672e-05   2.802726497520113e-06   2.412459580752703e-07
-1.622553027496672e-05   2.802726497520113e-06   2.412459580752703e-07
-1.589160342922186e-05   0.0   -1.6018646170483587e-05
-1.589160342922186e-05   0.0   -1.6018646170483587e-05
-1.589160342922186e-05   0.0   -1.6018646170483587e-05
-1.589160342922186e-05   0.0   -1.6018646170483587e-05
-2.6700930800830867e-05   3.3755191901124695e-06   -2.8412065202652263e-08
-2.6700930800830867e-05   3.3755191901124695e-06   -2.8412065202652263e-08
-2.6700930800830867e-05   3.3755191901124695e-06   -2.8412065202652263e-08
-2.6700930800830867e-05   3.3755191901124695e-06   -2.8412065202652263e-08
-2.0710181033896725e-05   7.726036466345131e-07   -8.451245684006108e-06
-2.0710181033896725e-05   7.726036466345131e-07   -8.451245684006108e-06
-2.0710181033896725e-05   7.726036466345131e-07   -8.451245684006108e-06
-2.0710181033896725e-05   7.726036466345131e-07   -8.451245684006108e-06
-2.670093080083091e-05   0.0   -1.804395768455107e-05
-2.670093080083091e-05   0.0   -1.804395768455107e-05
-2.670093080083091e-05   0.0   -1.804395768455107e-05
-2.670093080083091e-05   0.0   -1.804395768455107e-05
-1.589160342922186e-05   3.375519190112473e-06   1.9968994488648274e-06
-1.589160342922186e-05   3.375519190112473e-06   1.9968994488648274e-06
-1.589160342922186e-05   3.375519190112473e-06   1.9968994488648274e-06
-1.589160342922186e-05   3.375519190112473e-06   1.9968994488648274e-06
-1.5922321811396332e-05   0.0   -1.6406931503018192e-05
-1.5922321811396332e-05   0.0   -1.6406931503018192e-05
-1.5922321811396332e-05   0.0   -1.6406931503018192e-05
-1.5922321811396332e-05   0.0   -1.6406931503018192e-05
-2.7517663368397513e-05   3.619657017501548e-06   7.468435481495879e-07
-2.7517663368397513e-05   3.619657017501548e-06   7.468435481495879e-07
-2.7517663368397513e-05   3.619657017501548e-06   7.468435481495879e-07
-2.7517663368397513e-05   3.619657017501548e-06   7.468435481495879e-07
-2.1311626306113586e-05   1.3641884846107325e-06   -8.24327043592246e-06
-2.1311626306113586e-05   1.3641884846107325e-06   -8.24327043592246e-06
-2.1311626306113586e-05   1.3641884846107325e-06   -8.24327043592246e-06
-2.1311626306113586e-05   1.3641884846107325e-06   -8.24327043592246e-06
-2.751766336839756e-05   0.0   -1.8578725713519122e-05
-2.751766336839756e-05   0.0   -1.8578725713519122e-05
-2.751766336839756e-05   0.0   -1.8578725713519122e-05
-2.751766336839756e-05   0.0   -1.8578725713519122e-05
-1.5922321811396332e-05   3.6196570175015516e-06   2.9186377586505216e-06
-1.5922321811396332e-05   3.6196570175015516e-06   2.9186377586505216e-06
-1.5922321811396332e-05   3.6196570175015516e-06   2.9186377586505216e-06
-1.5922321811396332e-05   3.6196570175015516e-06   2.9186377586505216e-06
-1.5898059456590505e-05   0.0   -1.650892857290224e-05
-1.5898059456590505e-05   0.0   -1.650892857290224e-05
-1.5898059456590505e-05   0.0   -1.650892857290224e-05
-1.5898059456590505e-05   0.0   -1.650892857290224e-05
-2.929112179344265e-05   4.133826614414846e-06   3.332546019869165e-06
-2.929112179344265e-05   4.133826614414846e-06   3.332546019869165e-06
-2.929112179344265e-05   4.133826614414846e-06   3.332546019869165e-06
-2.929112179344265e-05   4.133826614414846e-06   3.332546019869165e-06
-2.1707861412493996e-05   1.7248309505140658e-06   -7.860823883371444e-06
-2.1707861412493996e-05   1.7248309505140658e-06   -7.860823883371444e-06
-2.1707861412493996e-05   1.7248309505140658e-06   -7.860823883371444e-06
-2.1707861412493996e-05   1.7248309505140658e-06   -7.860823883371444e-06
-1.622553027496675e-05   0.0   -1.5264134647932935e-05
-1.622553027496675e-05   0.0   -1.5264134647932935e-05
-1.622553027496675e-05   0.0   -1.5264134647932935e-05
-1.622553027496675e-05   0.0   -1.5264134647932935e-05
-7.405498406541517e-06   1.023034825108614e-06   4.973936117427669e-08
-7.405498406541517e-06   1.023034825108614e-06   4.973936117427669e-08
-7.405498406541517e-06   1.023034825108614e-06   4.973936117427669e-08
-7.405498406541517e-06   1.023034825108614e-06   4.973936117427669e-08
-7.1087624160889e-06   0.0   -1.5139740745716974e-05
-7.1087624160889e-06   0.0   -1.5139740745716974e-05
-7.1087624160889e-06   0.0   -1.5139740745716974e-05
-7.1087624160889e-06   0.0   -1.5139740745716974e-05
-1.589160342922186e-05   1.4648423746110188e-06   -1.3805778152619835e-06
-1.589160342922186e-05   1.4648423746110188e-06   -1.3805778152619835e-06
-1.589160342922186e-05   1.4648423746110188e-06   -1.3805778152619835e-06
-1.589160342922186e-05   1.4648423746110188e-06   -1.3805778152619835e-06
-1.1667146345527804e-05   1.0366158517996596e-07   -7.604631147760062e-06
-1.1667146345527804e-05   1.0366158517996596e-07   -7.604631147760062e-06
-1.1667146345527804e-05   1.0366158517996596e-07   -7.604631147760062e-06
-1.1667146345527804e-05   1.0366158517996596e-07   -7.604631147760062e-06
-1.5891603429221847e-05   0.0   -1.6018646170483573e-05
-1.5891603429221847e-05   0.0   -1.6018646170483573e-05
-1.5891603429221847e-05   0.0   -1.6018646170483573e-05
-1.5891603429221847e-05   0.0   -1.6018646170483573e-05
-7.1087624160889e-06   1.4648423746110188e-06   -5.016723904953709e-07
-7.1087624160889e-06   1.4648423746110188e-06   -5.016723904953709e-07
-7.1087624160889e-06   1.4648423746110188e-06   -5.016723904953709e-07
-7.1087624160889e-06   1.4648423746110188e-06   -5.016723904953709e-07
-6.936343132387654e-06   0.0   -1.532686969317102e-05
-6.936343132387654e-06   0.0   -1.532686969317102e-05
-6.936343132387654e-06   0.0   -1.532686969317102e-05
-6.936343132387654e-06   0.0   -1.532686969317102e-05
-1.5922321811396332e-05   1.8001030164119492e-06   -1.4303003713370576e-06
-1.5922321811396332e-05   1.8001030164119492e-06   -1.4303003713370576e-06
-1.5922321811396332e-05   1.8001030164119492e-06   -1.4303003713370576e-06
-1.5922321811396332e-05   1.8001030164119492e-06   -1.4303003713370576e-06
-1.1413973280804735e-05   5.764803977604724e-07   -8.210041017798771e-06
-1.1413973280804735e-05   5.764803977604724e-07   -8.210041017798771e-06
-1.1413973280804735e-05   5.764803977604724e-07   -8.210041017798771e-06
-1.1413973280804735e-05   5.764803977604724e-07   -8.210041017798771e-06
-1.5922321811396332e-05   0.0   -1.6406931503018192e-05
-1.5922321811396332e-05   0.0   -1.6406931503018192e-05
-1.5922321811396332e-05   0.0   -1.6406931503018192e-05
-1.5922321811396332e-05   0.0   -1.6406931503018192e-05
-6.936343132387654e-06   1.8001030164119492e-06   -3.5023856148988665e-07
-6.936343132387654e-06   1.8001030164119492e-06   -3.5023856148988665e-07
-6.936343132387654e-06   1.8001030164119492e-06   -3.5023856148988665e-07
-6.936343132387654e-06   1.8001030164119492e-06   -3.5023856148988665e-07
-6.777012834806456e-06   0.0   -1.5250144078619737e-05
-6.777012834806456e-06   0.0   -1.5250144078619737e-05
-6.777012834806456e-06   0.0   -1.5250144078619737e-05
-6.777012834806456e-06   0.0   -1.5250144078619737e-05
-1.5898059456590465e-05   2.097974157137478e-06   -1.3071842032621503e-06
-1.5898059456590465e-05   2.097974157137478e-06   -1.3071842032621503e-06
-1.5898059456590465e-05   2.097974157137478e-06   -1.3071842032621503e-06
-1.5898059456590465e-05   2.097974157137478e-06   -1.3071842032621503e-06
-1.134966732310139e-05   9.63989520332034e-07   -8.207446976994066e-06
-1.134966732310139e-05   9.63989520332034e-07   -8.207446976994066e-06
-1.134966732310139e-05   9.63989520332034e-07   -8.207446976994066e-06
-1.134966732310139e-05   9.63989520332034e-07   -8.207446976994066e-06
-7.40549840654153e-06   0.0   -1.4650313752867764e-05
-7.40549840654153e-06   0.0   -1.4650313752867764e-05
-7.40549840654153e-06   0.0   -1.4650313752867764e-05
-7.40549840654153e-06   0.0   -1.4650313752867764e-05
9.157255546270226e-07   -1.347500497905184e-07   -8.624571807944721e-07
9.157255546270226e-07   -1.347500497905184e-07   -8.624571807944721e-07
9.157255546270226e-07   -1.347500497905184e-07   -8.624571807944721e-07
9.157255546270226e-07   -1.347500497905184e-07   -8.624571807944721e-07
1.1116672078370054e-06   0.0   -1.498295303787675e-05
1.1116672078370054e-06   0.0   -1.498295303787675e-05
1.1116672078370054e-06   0.0   -1.498295303787675e-05
1.1116672078370054e-06   0.0   -1.498295303787675e-05
-7.1087624160889e-06   2.6131284640028803e-07   -1.4390247058404628e-06
-7.1087624160889e-06   2.6131284640028803e-07   -1.4390247058404628e-06
-7.1087624160889e-06   2.6131284640028803e-07   -1.4390247058404628e-06
-7.1087624160889e-06   2.6131284640028803e-07   -1.4390247058404628e-06
-3.1469155993522546e-06   -2.771994041741987e-07   -7.71899538339015e-06
-3.1469155993522546e-06   -2.771994041741987e-07   -7.71899538339015e-06
-3.1469155993522546e-06   -2.771994041741987e-07   -7.71899538339015e-06
-3.1469155993522546e-06   -2.771994041741987e-07   -7.71899538339015e-06
-7.1087624160889e-06   0.0   -1.5139740745716974e-05
-7.1087624160889e-06   0.0   -1.5139740745716974e-05
-7.1087624160889e-06   0.0   -1.5139740745716974e-05
-7.1087624160889e-06   0.0   -1.5139740745716974e-05
1.1116672078370073e-06   2.6131284640028464e-07   -1.2822369980002864e-06
1.1116672078370073e-06   2.6131284640028464e-07   -1.2822369980002864e-06
1.1116672078370073e-06   2.6131284640028464e-07   -1.2822369980002864e-06
1.1116672078370073e-06   2.6131284640028464e-07   -1.2822369980002864e-06
1.2681802743199074e-06   0.0   -1.4960434973859524e-05
1.2681802743199074e-06   0.0   -1.4960434973859524e-05
1.2681802743199074e-06   0.0   -1.4960434973859524e-05
1.2681802743199074e-06   0.0   -1.4960434973859524e-05
-6.936343132387641e-06   6.107245321857827e-07   -1.6526640153250793e-06
-6.936343132387641e-06   6.107245321857827e-07   -1.6526640153250793e-06
-6.936343132387641e-06   6.107245321857827e-07   -1.6526640153250793e-06
-6.936343132387641e-06   6.107245321857827e-07   -1.6526640153250793e-06
-2.9202910708844953e-06   1.4942147654785602e-07   -8.069302284447583e-06
-2.9202910708844953e-06   1.4942147654785602e-07   -8.069302284447583e-06
-2.9202910708844953e-06   1.4942147654785602e-07   -8.069302284447583e-06
-2.9202910708844953e-06   1.4942147654785602e-07   -8.069302284447583e-06
-6.936343132387654e-06   0.0   -1.532686969317102e-05
-6.936343132387654e-06   0.0   -1.532686969317102e-05
-6.936343132387654e-06   0.0   -1.532686969317102e-05
-6.936343132387654e-06   0.0   -1.532686969317102e-05
1.2681802743199097e-06   6.107245321857861e-07   -1.2862292960136131e-06
1.2681802743199097e-06   6.107245321857861e-07   -1.2862292960136131e-06
1.2681802743199097e-06   6.107245321857861e-07   -1.2862292960136131e-06
1.2681802743199097e-06   6.107245321857861e-07   -1.2862292960136131e-06
1.4740891863783886e-06   0.0   -1.464138764605289e-05
1.4740891863783886e-06   0.0   -1.464138764605289e-05
1.4740891863783886e-06   0.0   -1.464138764605289e-05
1.4740891863783886e-06   0.0   -1.464138764605289e-05
-6.77701283480645e-06   1.0145940542780566e-06   -1.4983073766449938e-06
-6.77701283480645e-06   1.0145940542780566e-06   -1.4983073766449938e-06
-6.77701283480645e-06   1.0145940542780566e-06   -1.4983073766449938e-06
-6.77701283480645e-06   1.0145940542780566e-06   -1.4983073766449938e-06
-2.7311269730046264e-06   5.71235039265086e-07   -7.975435070640245e-06
-2.7311269730046264e-06   5.71235039265086e-07   -7.975435070640245e-06
-2.7311269730046264e-06   5.71235039265086e-07   -7.975435070640245e-06
-2.7311269730046264e-06   5.71235039265086e-07   -7.975435070640245e-06
9.157255546270242e-07   0.0   -1.4731163782742075e-05
9.157255546270242e-07   0.0   -1.4731163782742075e-05
9.157255546270242e-07   0.0   -1.4731163782742075e-05
9.157255546270242e-07   0.0   -1.4731163782742075e-05
9.960283126514627e-06   -1.168313761833043e-06   -3.578894200292173e-07
9.960283126514627e-06   -1.168313761833043e-06   -3.578894200292173e-07
9.960283126514627e-06   -1.168313761833043e-06   -3.578894200292173e-07
9.960283126514627e-06   -1.168313761833043e-06   -3.578894200292173e-07
9.995552690657641e-06   0.0   -1.5509021003000497e-05
9.995552690657641e-06   0.0   -1.5509021003000497e-05
9.995552690657641e-06   0.0   -1.5509021003000497e-05
9.995552690657641e-06   0.0   -1.5509021003000497e-05
1.1116672078370092e-06   -8.767799418728215e-07   -1.7647723317575047e-07
1.1116672078370092e-06   -8.767799418728215e-07   -1.7647723317575047e-07
1.1116672078370092e-06   -8.767799418728215e-07   -1.7647723317575047e-07
1.1116672078370092e-06   -8.767799418728215e-07   -1.7647723317575047e-07
5.455639122642332e-06   -6.482143502153502e-07   -7.553569779512433e-06
5.455639122642332e-06   -6.482143502153502e-07   -7.553569779512433e-06
5.455639122642332e-06   -6.482143502153502e-07   -7.553569779512433e-06
5.455639122642332e-06   -6.482143502153502e-07   -7.553569779512433e-06
1.1116672078370092e-06   0.0   -1.4982953037876803e-05
1.1116672078370092e-06   0.0   -1.4982953037876803e-05
1.1116672078370092e-06   0.0   -1.4982953037876803e-05
1.1116672078370092e-06   0.0   -1.4982953037876803e-05
9.995552690657641e-06   -8.767799418728215e-07   -7.025451982994443e-07
9.995552690657641e-06   -8.767799418728215e-07   -7.025451982994443e-07
9.995552690657641e-06   -8.767799418728215e-07   -7.025451982994443e-07
9.995552690657641e-06   -8.767799418728215e-07   -7.025451982994443e-07
9.967874774132916e-06   0.0   -1.528768383031435e-05
9.967874774132916e-06   0.0   -1.528768383031435e-05
9.967874774132916e-06   0.0   -1.528768383031435e-05
9.967874774132916e-06   0.0   -1.528768383031435e-05
1.2681802743199097e-06   -5.454147607580014e-07   -4.6094414083787666e-07
1.2681802743199097e-06   -5.454147607580014e-07   -4.6094414083787666e-07
1.2681802743199097e-06   -5.454147607580014e-07   -4.6094414083787666e-07
1.2681802743199097e-06   -5.454147607580014e-07   -4.6094414083787666e-07
5.539770990984963e-06   -2.539423270312887e-07   -7.755145462182314e-06
5.539770990984963e-06   -2.539423270312887e-07   -7.755145462182314e-06
5.539770990984963e-06   -2.539423270312887e-07   -7.755145462182314e-06
5.539770990984963e-06   -2.539423270312887e-07   -7.755145462182314e-06
1.2681802743199087e-06   0.0   -1.4960434973859536e-05
1.2681802743199087e-06   0.0   -1.4960434973859536e-05
1.2681802743199087e-06   0.0   -1.4960434973859536e-05
1.2681802743199087e-06   0.0   -1.4960434973859536e-05
9.967874774132916e-06   -5.454147607580014e-07   -7.881929972926772e-07
9.967874774132916e-06   -5.454147607580014e-07   -7.881929972926772e-07
9.967874774132916e-06   -5.454147607580014e-07   -7.881929972926772e-07
9.967874774132916e-06   -5.454147607580014e-07   -7.881929972926772e-07
1.01754619596697e-05   0.0   -1.4702021269994627e-05
1.01754619596697e-05   0.0   -1.4702021269994627e-05
1.01754619596697e-05   0.0   -1.4702021269994627e-05
1.01754619596697e-05   0.0   -1.4702021269994627e-05
1.4740891863783912e-06   -1.0105603990285248e-07   -1.390996905674045e-07
1.4740891863783912e-06   -1.0105603990285248e-07   -1.390996905674045e-07
1.4740891863783912e-06   -1.0105603990285248e-07   -1.390996905674045e-07
1.4740891863783912e-06   -1.0105603990285248e-07   -1.390996905674045e-07
5.721821116994801e-06   2.1534475322076845e-07   -7.408493384135584e-06
5.721821116994801e-06   2.1534475322076845e-07   -7.408493384135584e-06
5.721821116994801e-06   2.1534475322076845e-07   -7.408493384135584e-06
5.721821116994801e-06   2.1534475322076845e-07   -7.408493384135584e-06
9.960283126514627e-06   0.0   -1.5432152039841902e-05
9.960283126514627e-06   0.0   -1.5432152039841902e-05
9.960283126514627e-06   0.0   -1.5432152039841902e-05
9.960283126514627e-06   0.0   -1.5432152039841902e-05
2.2579600095542748e-05   -2.9734822732021173e-06   3.815953544617157e-06
2.2579600095542748e-05   -2.9734822732021173e-06   3.815953544617157e-06
2.2579600095542748e-05   -2.9734822732021173e-06   3.815953544617157e-06
2.2579600095542748e-05   -2.9734822732021173e-06   3.815953544617157e-06
2.1228695575568014e-05   0.0   -1.7021432787980612e-05
2.1228695575568014e-05   0.0   -1.7021432787980612e-05
2.1228695575568014e-05   0.0   -1.7021432787980612e-05
2.1228695575568014e-05   0.0   -1.7021432787980612e-05
9.995552690657641e-06   -2.5206863083001954e-06   3.212883805183456e-06
9.995552690657641e-06   -2.5206863083001954e-06   3.212883805183456e-06
9.995552690657641e-06   -2.5206863083001954e-06   3.212883805183456e-06
9.995552690657641e-06   -2.5206863083001954e-06   3.212883805183456e-06
1.559448935104132e-05   -1.3244006234489281e-06   -6.836448706366764e-06
1.559448935104132e-05   -1.3244006234489281e-06   -6.836448706366764e-06
1.559448935104132e-05   -1.3244006234489281e-06   -6.836448706366764e-06
1.559448935104132e-05   -1.3244006234489281e-06   -6.836448706366764e-06
9.995552690657633e-06   0.0   -1.5509021003000483e-05
9.995552690657633e-06   0.0   -1.5509021003000483e-05
9.995552690657633e-06   0.0   -1.5509021003000483e-05
9.995552690657633e-06   0.0   -1.5509021003000483e-05
2.122869557556794e-05   -2.5206863083001886e-06   1.7004720202033267e-06
2.122869557556794e-05   -2.5206863083001886e-06   1.7004720202033267e-06
2.122869557556794e-05   -2.5206863083001886e-06   1.7004720202033267e-06
2.122869557556794e-05   -2.5206863083001886e-06   1.7004720202033267e-06
2.061257427058535e-05   0.0   -1.6667713757683353e-05
2.061257427058535e-05   0.0   -1.6667713757683353e-05
2.061257427058535e-05   0.0   -1.6667713757683353e-05
2.061257427058535e-05   0.0   -1.6667713757683353e-05
9.967874774132916e-06   -2.3000498789483414e-06   2.453481997106373e-06
9.967874774132916e-06   -2.3000498789483414e-06   2.453481997106373e-06
9.967874774132916e-06   -2.3000498789483414e-06   2.453481997106373e-06
9.967874774132916e-06   -2.3000498789483414e-06   2.453481997106373e-06
1.5304063480621487e-05   -9.655772955690503e-07   -7.240849397068823e-06
1.5304063480621487e-05   -9.655772955690503e-07   -7.240849397068823e-06
1.5304063480621487e-05   -9.655772955690503e-07   -7.240849397068823e-06
1.5304063480621487e-05   -9.655772955690503e-07   -7.240849397068823e-06
9.967874774132916e-06   0.0   -1.528768383031435e-05
9.967874774132916e-06   0.0   -1.528768383031435e-05
9.967874774132916e-06   0.0   -1.528768383031435e-05
9.967874774132916e-06   0.0   -1.528768383031435e-05
2.061257427058528e-05   -2.3000498789483346e-06   1.0734520697373588e-06
2.061257427058528e-05   -2.3000498789483346e-06   1.0734520697373588e-06
2.061257427058528e-05   -2.3000498789483346e-06   1.0734520697373588e-06
2.061257427058528e-05   -2.3000498789483346e-06   1.0734520697373588e-06
1.9684766826099187e-05   0.0   -1.576807343409366e-05
1.9684766826099187e-05   0.0   -1.576807343409366e-05
1.9684766826099187e-05   0.0   -1.576807343409366e-05
1.9684766826099187e-05   0.0   -1.576807343409366e-05
1.01754619596697e-05   -1.7767536068317653e-06   1.146820174054573e-06
1.01754619596697e-05   -1.7767536068317653e-06   1.146820174054573e-06
1.01754619596697e-05   -1.7767536068317653e-06   1.146820174054573e-06
1.01754619596697e-05   -1.7767536068317653e-06   1.146820174054573e-06
1.4826320800116069e-05   -4.003246698161152e-07   -7.430468588898759e-06
1.4826320800116069e-05   -4.003246698161152e-07   -7.430468588898759e-06
1.4826320800116069e-05   -4.003246698161152e-07   -7.430468588898759e-06
1.4826320800116069e-05   -4.003246698161152e-07   -7.430468588898759e-06
-2.2008279084304918e-05   2.8027264975201097e-06   -1.456743112888661e-05
-2.2008279084304918e-05   2.8027264975201097e-06   -1.456743112888661e-05
-2.2008279084304918e-05   2.8027264975201097e-06   -1.456743112888661e-05
-2.2008279084304918e-05   2.8027264975201097e-06   -1.456743112888661e-05
-1.410885090794267e-05   2.5118739622347525e-06   -1.5762290227874085e-06
-1.410885090794267e-05   2.5118739622347525e-06   -1.5762290227874085e-06
-1.410885090794267e-05   2.5118739622347525e-06   -1.5762290227874085e-06
-1.410885090794267e-05   2.5118739622347525e-06   -1.5762290227874085e-06
-1.4456268758818015e-05   3.375519190112466e-06   -1.2246370620177984e-05
-1.4456268758818015e-05   3.375519190112466e-06   -1.2246370620177984e-05
-1.4456268758818015e-05   3.375519190112466e-06   -1.2246370620177984e-05
-1.4456268758818015e-05   3.375519190112466e-06   -1.2246370620177984e-05
-2.2230673912571962e-05   3.0226178234867056e-06   9.22712122720766e-07
-2.2230673912571962e-05   3.0226178234867056e-06   9.22712122720766e-07
-2.2230673912571962e-05   3.0226178234867056e-06   9.22712122720766e-07
-2.2230673912571962e-05   3.0226178234867056e-06   9.22712122720766e-07
-1.7479224417559432e-05   2.931535756623286e-06   -6.941721128848855e-06
-1.7479224417559432e-05   2.931535756623286e-06   -6.941721128848855e-06
-1.7479224417559432e-05   2.931535756623286e-06   -6.941721128848855e-06
-1.7479224417559432e-05   2.931535756623286e-06   -6.941721128848855e-06
-2.2230673912571962e-05   3.375519190112466e-06   -1.203462980020252e-05
-2.2230673912571962e-05   3.375519190112466e-06   -1.203462980020252e-05
-2.2230673912571962e-05   3.375519190112466e-06   -1.203462980020252e-05
-2.2230673912571962e-05   3.375519190112466e-06   -1.203462980020252e-05
-1.4456268758818066e-05   3.022617823486719e-06   7.10971302745311e-07
-1.4456268758818066e-05   3.022617823486719e-06   7.10971302745311e-07
-1.4456268758818066e-05   3.022617823486719e-06   7.10971302745311e-07
-1.4456268758818066e-05   3.022617823486719e-06   7.10971302745311e-07
-1.4521056770718303e-05   3.619657017501545e-06   -1.1018966079220035e-05
-1.4521056770718303e-05   3.619657017501545e-06   -1.1018966079220035e-05
-1.4521056770718303e-05   3.619657017501545e-06   -1.1018966079220035e-05
-1.4521056770718303e-05   3.619657017501545e-06   -1.1018966079220035e-05
-2.2373446075058006e-05   3.2534322077780757e-06   2.2880843138468003e-06
-2.2373446075058006e-05   3.2534322077780757e-06   2.2880843138468003e-06
-2.2373446075058006e-05   3.2534322077780757e-06   2.2880843138468003e-06
-2.2373446075058006e-05   3.2534322077780757e-06   2.2880843138468003e-06
-1.798285824894908e-05   3.2522881693588607e-06   -5.028875639949804e-06
-1.798285824894908e-05   3.2522881693588607e-06   -5.028875639949804e-06
-1.798285824894908e-05   3.2522881693588607e-06   -5.028875639949804e-06
-1.798285824894908e-05   3.2522881693588607e-06   -5.028875639949804e-06
-2.2373446075057965e-05   3.619657017501545e-06   -1.0799231193385961e-05
-2.2373446075057965e-05   3.619657017501545e-06   -1.0799231193385961e-05
-2.2373446075057965e-05   3.619657017501545e-06   -1.0799231193385961e-05
-2.2373446075057965e-05   3.619657017501545e-06   -1.0799231193385961e-05
-1.452105677071833e-05   3.2534322077780757e-06   2.0683494280127304e-06
-1.452105677071833e-05   3.2534322077780757e-06   2.0683494280127304e-06
-1.452105677071833e-05   3.2534322077780757e-06   2.0683494280127304e-06
-1.452105677071833e-05   3.2534322077780757e-06   2.0683494280127304e-06
-1.442970754956363e-05   4.133826614414839e-06   -8.16854527121122e-06
-1.442970754956363e-05   4.133826614414839e-06   -8.16854527121122e-06
-1.442970754956363e-05   4.133826614414839e-06   -8.16854527121122e-06
-1.442970754956363e-05   4.133826614414839e-06   -8.16854527121122e-06
-2.1733060120678133e-05   3.441153983108297e-06   4.419312592763468e-06
-2.1733060120678133e-05   3.441153983108297e-06   4.419312592763468e-06
-2.1733060120678133e-05   3.441153983108297e-06   4.419312592763468e-06
-2.1733060120678133e-05   3.441153983108297e-06   4.419312592763468e-06
-1.7502716422385347e-05   3.572145667977469e-06   -2.709855248645996e-06
-1.7502716422385347e-05   3.572145667977469e-06   -2.709855248645996e-06
-1.7502716422385347e-05   3.572145667977469e-06   -2.709855248645996e-06
-1.7502716422385347e-05   3.572145667977469e-06   -2.709855248645996e-06
-1.410885090794267e-05   1.0230348251086106e-06   -1.554727014202399e-05
-1.410885090794267e-05   1.0230348251086106e-06   -1.554727014202399e-05
-1.410885090794267e-05   1.0230348251086106e-06   -1.554727014202399e-05
-1.410885090794267e-05   1.0230348251086106e-06   -1.554727014202399e-05
-6.70828715859184e-06   1.1690825842926642e-06   -3.1253685709288215e-06
-6.70828715859184e-06   1.1690825842926642e-06   -3.1253685709288215e-06
-6.70828715859184e-06   1.1690825842926642e-06   -3.1253685709288215e-06
-6.70828715859184e-06   1.1690825842926642e-06   -3.1253685709288215e-06
-6.8605006702459e-06   1.4648423746110154e-06   -1.55196165346708e-05
-6.8605006702459e-06   1.4648423746110154e-06   -1.55196165346708e-05
-6.8605006702459e-06   1.4648423746110154e-06   -1.55196165346708e-05
-6.8605006702459e-06   1.4648423746110154e-06   -1.55196165346708e-05
-1.4456268758818015e-05   1.6385612906676448e-06   -2.964234403351222e-06
-1.4456268758818015e-05   1.6385612906676448e-06   -2.964234403351222e-06
-1.4456268758818015e-05   1.6385612906676448e-06   -2.964234403351222e-06
-1.4456268758818015e-05   1.6385612906676448e-06   -2.964234403351222e-06
-1.0503271216740431e-05   1.3186372383378248e-06   -9.360609208749377e-06
-1.0503271216740431e-05   1.3186372383378248e-06   -9.360609208749377e-06
-1.0503271216740431e-05   1.3186372383378248e-06   -9.360609208749377e-06
-1.0503271216740431e-05   1.3186372383378248e-06   -9.360609208749377e-06
-1.4456268758818005e-05   1.4648423746110154e-06   -1.562384788430476e-05
-1.4456268758818005e-05   1.4648423746110154e-06   -1.562384788430476e-05
-1.4456268758818005e-05   1.4648423746110154e-06   -1.562384788430476e-05
-1.4456268758818005e-05   1.4648423746110154e-06   -1.562384788430476e-05
-6.860500670245912e-06   1.6385612906676583e-06   -2.8600030537172477e-06
-6.860500670245912e-06   1.6385612906676583e-06   -2.8600030537172477e-06
-6.860500670245912e-06   1.6385612906676583e-06   -2.8600030537172477e-06
-6.860500670245912e-06   1.6385612906676583e-06   -2.8600030537172477e-06
-6.902286237261183e-06   1.8001030164119459e-06   -1.5231096829331015e-05
-6.902286237261183e-06   1.8001030164119459e-06   -1.5231096829331015e-05
-6.902286237261183e-06   1.8001030164119459e-06   -1.5231096829331015e-05
-6.902286237261183e-06   1.8001030164119459e-06   -1.5231096829331015e-05
-1.4521056770718303e-05   2.0281153162062654e-06   -2.669953320112431e-06
-1.4521056770718303e-05   2.0281153162062654e-06   -2.669953320112431e-06
-1.4521056770718303e-05   2.0281153162062654e-06   -2.669953320112431e-06
-1.4521056770718303e-05   2.0281153162062654e-06   -2.669953320112431e-06
-1.0577708665101753e-05   1.6776295942733674e-06   -9.031908729646906e-06
-1.0577708665101753e-05   1.6776295942733674e-06   -9.031908729646906e-06
-1.0577708665101753e-05   1.6776295942733674e-06   -9.031908729646906e-06
-1.0577708665101753e-05   1.6776295942733674e-06   -9.031908729646906e-06
-1.4521056770718303e-05   1.8001030164119459e-06   -1.5367904209207604e-05
-1.4521056770718303e-05   1.8001030164119459e-06   -1.5367904209207604e-05
-1.4521056770718303e-05   1.8001030164119459e-06   -1.5367904209207604e-05
-1.4521056770718303e-05   1.8001030164119459e-06   -1.5367904209207604e-05
-6.902286237261208e-06   2.0281153162062654e-06   -2.533145940235839e-06
-6.902286237261208e-06   2.0281153162062654e-06   -2.533145940235839e-06
-6.902286237261208e-06   2.0281153162062654e-06   -2.533145940235839e-06
-6.902286237261208e-06   2.0281153162062654e-06   -2.533145940235839e-06
-6.8772890086988675e-06   2.097974157137478e-06   -1.5078518296588889e-05
-6.8772890086988675e-06   2.097974157137478e-06   -1.5078518296588889e-05
-6.8772890086988675e-06   2.097974157137478e-06   -1.5078518296588889e-05
-6.8772890086988675e-06   2.097974157137478e-06   -1.5078518296588889e-05
-1.4429707549563617e-05   2.4480627678083672e-06   -2.7012072282168523e-06
-1.4429707549563617e-05   2.4480627678083672e-06   -2.7012072282168523e-06
-1.4429707549563617e-05   2.4480627678083672e-06   -2.7012072282168523e-06
-1.4429707549563617e-05   2.4480627678083672e-06   -2.7012072282168523e-06
-1.0631638918320916e-05   2.0025991489911683e-06   -8.764043442331078e-06
-1.0631638918320916e-05   2.0025991489911683e-06   -8.764043442331078e-06
-1.0631638918320916e-05   2.0025991489911683e-06   -8.764043442331078e-06
-1.0631638918320916e-05   2.0025991489911683e-06   -8.764043442331078e-06
-6.708287158591829e-06   -1.3475004979051502e-07   -1.6290987998608004e-05
-6.708287158591829e-06   -1.3475004979051502e-07   -1.6290987998608004e-05
-6.708287158591829e-06   -1.3475004979051502e-07   -1.6290987998608004e-05
-6.708287158591829e-06   -1.3475004979051502e-07   -1.6290987998608004e-05
5.975427821229312e-07   -3.708348124605856e-08   -4.056004822956724e-06
5.975427821229312e-07   -3.708348124605856e-08   -4.056004822956724e-06
5.975427821229312e-07   -3.708348124605856e-08   -4.056004822956724e-06
5.975427821229312e-07   -3.708348124605856e-08   -4.056004822956724e-06
5.752816430085466e-07   2.6131284640028464e-07   -1.637621106430963e-05
5.752816430085466e-07   2.6131284640028464e-07   -1.637621106430963e-05
5.752816430085466e-07   2.6131284640028464e-07   -1.637621106430963e-05
5.752816430085466e-07   2.6131284640028464e-07   -1.637621106430963e-05
-6.8605006702459e-06   3.959091559107647e-07   -4.0639983279251175e-06
-6.8605006702459e-06   3.959091559107647e-07   -4.0639983279251175e-06
-6.8605006702459e-06   3.959091559107647e-07   -4.0639983279251175e-06
-6.8605006702459e-06   3.959091559107647e-07   -4.0639983279251175e-06
-3.116899926412964e-06   1.3225431194609975e-07   -1.0145139994601246e-05
-3.116899926412964e-06   1.3225431194609975e-07   -1.0145139994601246e-05
-3.116899926412964e-06   1.3225431194609975e-07   -1.0145139994601246e-05
-3.116899926412964e-06   1.3225431194609975e-07   -1.0145139994601246e-05
-6.8605006702459e-06   2.6131284640028464e-07   -1.6456968850015893e-05
-6.8605006702459e-06   2.6131284640028464e-07   -1.6456968850015893e-05
-6.8605006702459e-06   2.6131284640028464e-07   -1.6456968850015893e-05
-6.8605006702459e-06   2.6131284640028464e-07   -1.6456968850015893e-05
5.752816430085466e-07   3.959091559107647e-07   -3.983240542218833e-06
5.752816430085466e-07   3.959091559107647e-07   -3.983240542218833e-06
5.752816430085466e-07   3.959091559107647e-07   -3.983240542218833e-06
5.752816430085466e-07   3.959091559107647e-07   -3.983240542218833e-06
5.428561913532705e-07   6.107245321857827e-07   -1.6408403034665953e-05
5.428561913532705e-07   6.107245321857827e-07   -1.6408403034665953e-05
5.428561913532705e-07   6.107245321857827e-07   -1.6408403034665953e-05
5.428561913532705e-07   6.107245321857827e-07   -1.6408403034665953e-05
-6.902286237261183e-06   8.192566130195368e-07   -4.124951568808799e-06
-6.902286237261183e-06   8.192566130195368e-07   -4.124951568808799e-06
-6.902286237261183e-06   8.192566130195368e-07   -4.124951568808799e-06
-6.902286237261183e-06   8.192566130195368e-07   -4.124951568808799e-06
-3.166775348055488e-06   4.985821704434862e-07   -1.015839838527262e-05
-3.166775348055488e-06   4.985821704434862e-07   -1.015839838527262e-05
-3.166775348055488e-06   4.985821704434862e-07   -1.015839838527262e-05
-3.166775348055488e-06   4.985821704434862e-07   -1.015839838527262e-05
-6.902286237261183e-06   6.107245321857827e-07   -1.6533522283166208e-05
-6.902286237261183e-06   6.107245321857827e-07   -1.6533522283166208e-05
-6.902286237261183e-06   6.107245321857827e-07   -1.6533522283166208e-05
-6.902286237261183e-06   6.107245321857827e-07   -1.6533522283166208e-05
5.428561913532715e-07   8.192566130195368e-07   -3.999832320308541e-06
5.428561913532715e-07   8.192566130195368e-07   -3.999832320308541e-06
5.428561913532715e-07   8.192566130195368e-07   -3.999832320308541e-06
5.428561913532715e-07   8.192566130195368e-07   -3.999832320308541e-06
4.6837887467942107e-07   1.0145940542780532e-06   -1.63811760614314e-05
4.6837887467942107e-07   1.0145940542780532e-06   -1.63811760614314e-05
4.6837887467942107e-07   1.0145940542780532e-06   -1.63811760614314e-05
4.6837887467942107e-07   1.0145940542780532e-06   -1.63811760614314e-05
-6.8772890086988735e-06   1.2600105589827634e-06   -4.285646158623749e-06
-6.8772890086988735e-06   1.2600105589827634e-06   -4.285646158623749e-06
-6.8772890086988735e-06   1.2600105589827634e-06   -4.285646158623749e-06
-6.8772890086988735e-06   1.2600105589827634e-06   -4.285646158623749e-06
-3.193664374052236e-06   8.749219579035747e-07   -1.0193967389053951e-05
-3.193664374052236e-06   8.749219579035747e-07   -1.0193967389053951e-05
-3.193664374052236e-06   8.749219579035747e-07   -1.0193967389053951e-05
-3.193664374052236e-06   8.749219579035747e-07   -1.0193967389053951e-05
5.975427821229312e-07   -1.1683137618330397e-06   -1.5026832039616253e-05
5.975427821229312e-07   -1.1683137618330397e-06   -1.5026832039616253e-05
5.975427821229312e-07   -1.1683137618330397e-06   -1.5026832039616253e-05
5.975427821229312e-07   -1.1683137618330397e-06   -1.5026832039616253e-05
8.125926848634636e-06   -1.2004528000125476e-06   -2.498808685004434e-06
8.125926848634636e-06   -1.2004528000125476e-06   -2.498808685004434e-06
8.125926848634636e-06   -1.2004528000125476e-06   -2.498808685004434e-06
8.125926848634636e-06   -1.2004528000125476e-06   -2.498808685004434e-06
8.201957655680494e-06   -8.767799418728181e-07   -1.5227658279428868e-05
8.201957655680494e-06   -8.767799418728181e-07   -1.5227658279428868e-05
8.201957655680494e-06   -8.767799418728181e-07   -1.5227658279428868e-05
8.201957655680494e-06   -8.767799418728181e-07   -1.5227658279428868e-05
5.752816430085466e-07   -8.054582417792015e-07   -2.5593246116984352e-06
5.752816430085466e-07   -8.054582417792015e-07   -2.5593246116984352e-06
5.752816430085466e-07   -8.054582417792015e-07   -2.5593246116984352e-06
5.752816430085466e-07   -8.054582417792015e-07   -2.5593246116984352e-06
4.3194141743682345e-06   -9.66746372437139e-07   -8.70277261890318e-06
4.3194141743682345e-06   -9.66746372437139e-07   -8.70277261890318e-06
4.3194141743682345e-06   -9.66746372437139e-07   -8.70277261890318e-06
4.3194141743682345e-06   -9.66746372437139e-07   -8.70277261890318e-06
5.752816430085455e-07   -8.767799418728181e-07   -1.527045129948506e-05
5.752816430085455e-07   -8.767799418728181e-07   -1.527045129948506e-05
5.752816430085455e-07   -8.767799418728181e-07   -1.527045129948506e-05
5.752816430085455e-07   -8.767799418728181e-07   -1.527045129948506e-05
8.201957655680508e-06   -8.054582417792015e-07   -2.5165315916422614e-06
8.201957655680508e-06   -8.054582417792015e-07   -2.5165315916422614e-06
8.201957655680508e-06   -8.054582417792015e-07   -2.5165315916422614e-06
8.201957655680508e-06   -8.054582417792015e-07   -2.5165315916422614e-06
8.17130614639314e-06   -5.45414760757998e-07   -1.550758586481004e-05
8.17130614639314e-06   -5.45414760757998e-07   -1.550758586481004e-05
8.17130614639314e-06   -5.45414760757998e-07   -1.550758586481004e-05
8.17130614639314e-06   -5.45414760757998e-07   -1.550758586481004e-05
5.428561913532705e-07   -4.1952806962442934e-07   -2.869034621090423e-06
5.428561913532705e-07   -4.1952806962442934e-07   -2.869034621090423e-06
5.428561913532705e-07   -4.1952806962442934e-07   -2.869034621090423e-06
5.428561913532705e-07   -4.1952806962442934e-07   -2.869034621090423e-06
4.281198403197037e-06   -6.528886793534129e-07   -8.959588608325953e-06
4.281198403197037e-06   -6.528886793534129e-07   -8.959588608325953e-06
4.281198403197037e-06   -6.528886793534129e-07   -8.959588608325953e-06
4.281198403197037e-06   -6.528886793534129e-07   -8.959588608325953e-06
5.428561913532698e-07   -5.454147607580014e-07   -1.5583117879490186e-05
5.428561913532698e-07   -5.454147607580014e-07   -1.5583117879490186e-05
5.428561913532698e-07   -5.454147607580014e-07   -1.5583117879490186e-05
5.428561913532698e-07   -5.454147607580014e-07   -1.5583117879490186e-05
8.17130614639317e-06   -4.195280696244158e-07   -2.793502606410279e-06
8.17130614639317e-06   -4.195280696244158e-07   -2.793502606410279e-06
8.17130614639317e-06   -4.195280696244158e-07   -2.793502606410279e-06
8.17130614639317e-06   -4.195280696244158e-07   -2.793502606410279e-06
7.939636491570078e-06   -1.010560399028491e-07   -1.553613826097404e-05
7.939636491570078e-06   -1.010560399028491e-07   -1.553613826097404e-05
7.939636491570078e-06   -1.010560399028491e-07   -1.553613826097404e-05
7.939636491570078e-06   -1.010560399028491e-07   -1.553613826097404e-05
4.6837887467942107e-07   5.6588205008111935e-08   -3.1786287797695373e-06
4.6837887467942107e-07   5.6588205008111935e-08   -3.1786287797695373e-06
4.6837887467942107e-07   5.6588205008111935e-08   -3.1786287797695373e-06
4.6837887467942107e-07   5.6588205008111935e-08   -3.1786287797695373e-06
4.242085478200833e-06   -2.8641665362017177e-07   -9.262336870461577e-06
4.242085478200833e-06   -2.8641665362017177e-07   -9.262336870461577e-06
4.242085478200833e-06   -2.8641665362017177e-07   -9.262336870461577e-06
4.242085478200833e-06   -2.8641665362017177e-07   -9.262336870461577e-06
8.125926848634636e-06   -2.9734822732021173e-06   -9.088183133956308e-06
8.125926848634636e-06   -2.9734822732021173e-06   -9.088183133956308e-06
8.125926848634636e-06   -2.9734822732021173e-06   -9.088183133956308e-06
8.125926848634636e-06   -2.9734822732021173e-06   -9.088183133956308e-06
1.5538850324348e-05   -2.2237473078025766e-06   3.716530304805673e-06
1.5538850324348e-05   -2.2237473078025766e-06   3.716530304805673e-06
1.5538850324348e-05   -2.2237473078025766e-06   3.716530304805673e-06
1.5538850324348e-05   -2.2237473078025766e-06   3.716530304805673e-06
1.6152339969942386e-05   -2.520686308300192e-06   -1.10057796300699e-05
1.6152339969942386e-05   -2.520686308300192e-06   -1.10057796300699e-05
1.6152339969942386e-05   -2.520686308300192e-06   -1.10057796300699e-05
1.6152339969942386e-05   -2.520686308300192e-06   -1.10057796300699e-05
8.201957655680521e-06   -2.0099368985066526e-06   1.9384079144904487e-06
8.201957655680521e-06   -2.0099368985066526e-06   1.9384079144904487e-06
8.201957655680521e-06   -2.0099368985066526e-06   1.9384079144904487e-06
8.201957655680521e-06   -2.0099368985066526e-06   1.9384079144904487e-06
1.1446046367229604e-05   -2.4198395873488342e-06   -3.2224649914527355e-06
1.1446046367229604e-05   -2.4198395873488342e-06   -3.2224649914527355e-06
1.1446046367229604e-05   -2.4198395873488342e-06   -3.2224649914527355e-06
1.1446046367229604e-05   -2.4198395873488342e-06   -3.2224649914527355e-06
8.2019576556805e-06   -2.520686308300192e-06   -1.1312229275945983e-05
8.2019576556805e-06   -2.520686308300192e-06   -1.1312229275945983e-05
8.2019576556805e-06   -2.520686308300192e-06   -1.1312229275945983e-05
8.2019576556805e-06   -2.520686308300192e-06   -1.1312229275945983e-05
1.6152339969942386e-05   -2.0099368985066526e-06   2.2448575603665777e-06
1.6152339969942386e-05   -2.0099368985066526e-06   2.2448575603665777e-06
1.6152339969942386e-05   -2.0099368985066526e-06   2.2448575603665777e-06
1.6152339969942386e-05   -2.0099368985066526e-06   2.2448575603665777e-06
1.610619594824754e-05   -2.3000498789483414e-06   -1.1958709776815579e-05
1.610619594824754e-05   -2.3000498789483414e-06   -1.1958709776815579e-05
1.610619594824754e-05   -2.3000498789483414e-06   -1.1958709776815579e-05
1.610619594824754e-05   -2.3000498789483414e-06   -1.1958709776815579e-05
8.17130614639317e-06   -1.7880480562892307e-06   9.58905466012888e-07
8.17130614639317e-06   -1.7880480562892307e-06   9.58905466012888e-07
8.17130614639317e-06   -1.7880480562892307e-06   9.58905466012888e-07
8.17130614639317e-06   -1.7880480562892307e-06   9.58905466012888e-07
1.185985510773505e-05   -2.1318193603795093e-06   -4.982413353769399e-06
1.185985510773505e-05   -2.1318193603795093e-06   -4.982413353769399e-06
1.185985510773505e-05   -2.1318193603795093e-06   -4.982413353769399e-06
1.185985510773505e-05   -2.1318193603795093e-06   -4.982413353769399e-06
8.171306146393154e-06   -2.3000498789483346e-06   -1.2265910870411034e-05
8.171306146393154e-06   -2.3000498789483346e-06   -1.2265910870411034e-05
8.171306146393154e-06   -2.3000498789483346e-06   -1.2265910870411034e-05
8.171306146393154e-06   -2.3000498789483346e-06   -1.2265910870411034e-05
1.610619594824754e-05   -1.7880480562892307e-06   1.266106559608357e-06
1.610619594824754e-05   -1.7880480562892307e-06   1.266106559608357e-06
1.610619594824754e-05   -1.7880480562892307e-06   1.266106559608357e-06
1.610619594824754e-05   -1.7880480562892307e-06   1.266106559608357e-06
1.602541776253477e-05   -1.7767536068317653e-06   -1.3910270221673214e-05
1.602541776253477e-05   -1.7767536068317653e-06   -1.3910270221673214e-05
1.602541776253477e-05   -1.7767536068317653e-06   -1.3910270221673214e-05
1.602541776253477e-05   -1.7767536068317653e-06   -1.3910270221673214e-05
7.939636491570105e-06   -1.3112293556031147e-06   -7.132826541359822e-07
7.939636491570105e-06   -1.3112293556031147e-06   -7.132826541359822e-07
7.939636491570105e-06   -1.3112293556031147e-06   -7.132826541359822e-07
7.939636491570105e-06   -1.3112293556031147e-06   -7.132826541359822e-07
1.1530664639452515e-05   -1.831764216132247e-06   -6.3860086509558294e-06
1.1530664639452515e-05   -1.831764216132247e-06   -6.3860086509558294e-06
1.1530664639452515e-05   -1.831764216132247e-06   -6.3860086509558294e-06
1.1530664639452515e-05   -1.831764216132247e-06   -6.3860086509558294e-06
-1.741515404727304e-05   2.5118739622347525e-06   -1.2107725339459066e-05
-1.741515404727304e-05   2.5118739622347525e-06   -1.2107725339459066e-05
-1.741515404727304e-05   2.5118739622347525e-06   -1.2107725339459066e-05
-1.741515404727304e-05   2.5118739622347525e-06   -1.2107725339459066e-05
-1.1445343789293775e-05   1.9092231879087992e-06   -2.519632040755864e-06
-1.1445343789293775e-05   1.9092231879087992e-06   -2.519632040755864e-06
-1.1445343789293775e-05   1.9092231879087992e-06   -2.519632040755864e-06
-1.1445343789293775e-05   1.9092231879087992e-06   -2.519632040755864e-06
-1.1496175304805658e-05   3.0226178234867056e-06   -1.005829601363818e-05
-1.1496175304805658e-05   3.0226178234867056e-06   -1.005829601363818e-05
-1.1496175304805658e-05   3.0226178234867056e-06   -1.005829601363818e-05
-1.1496175304805658e-05   3.0226178234867056e-06   -1.005829601363818e-05
-1.7138098462467574e-05   2.315083990708615e-06   -2.3057045120144267e-07
-1.7138098462467574e-05   2.315083990708615e-06   -2.3057045120144267e-07
-1.7138098462467574e-05   2.315083990708615e-06   -2.3057045120144267e-07
-1.7138098462467574e-05   2.315083990708615e-06   -2.3057045120144267e-07
-1.3765126683341454e-05   2.5569425735505903e-06   -5.997305232783551e-06
-1.3765126683341454e-05   2.5569425735505903e-06   -5.997305232783551e-06
-1.3765126683341454e-05   2.5569425735505903e-06   -5.997305232783551e-06
-1.3765126683341454e-05   2.5569425735505903e-06   -5.997305232783551e-06
-1.7138098462467574e-05   3.0226178234867056e-06   -9.633775713971323e-06
-1.7138098462467574e-05   3.0226178234867056e-06   -9.633775713971323e-06
-1.7138098462467574e-05   3.0226178234867056e-06   -9.633775713971323e-06
-1.7138098462467574e-05   3.0226178234867056e-06   -9.633775713971323e-06
-1.1496175304805658e-05   2.315083990708615e-06   -6.550907508682761e-07
-1.1496175304805658e-05   2.315083990708615e-06   -6.550907508682761e-07
-1.1496175304805658e-05   2.315083990708615e-06   -6.550907508682761e-07
-1.1496175304805658e-05   2.315083990708615e-06   -6.550907508682761e-07
-1.1479741113125099e-05   3.2534322077780757e-06   -8.608841977227776e-06
-1.1479741113125099e-05   3.2534322077780757e-06   -8.608841977227776e-06
-1.1479741113125099e-05   3.2534322077780757e-06   -8.608841977227776e-06
-1.1479741113125099e-05   3.2534322077780757e-06   -8.608841977227776e-06
-1.687056888181651e-05   2.4943560166715674e-06   8.313166852551063e-07
-1.687056888181651e-05   2.4943560166715674e-06   8.313166852551063e-07
-1.687056888181651e-05   2.4943560166715674e-06   8.313166852551063e-07
-1.687056888181651e-05   2.4943560166715674e-06   8.313166852551063e-07
-1.3876920619807391e-05   2.792138774060585e-06   -4.336766739193343e-06
-1.3876920619807391e-05   2.792138774060585e-06   -4.336766739193343e-06
-1.3876920619807391e-05   2.792138774060585e-06   -4.336766739193343e-06
-1.3876920619807391e-05   2.792138774060585e-06   -4.336766739193343e-06
-1.687056888181651e-05   3.2534322077780757e-06   -8.153396262563854e-06
-1.687056888181651e-05   3.2534322077780757e-06   -8.153396262563854e-06
-1.687056888181651e-05   3.2534322077780757e-06   -8.153396262563854e-06
-1.687056888181651e-05   3.2534322077780757e-06   -8.153396262563854e-06
-1.1479741113125123e-05   2.4943560166715945e-06   3.758709705912921e-07
-1.1479741113125123e-05   2.4943560166715945e-06   3.758709705912921e-07
-1.1479741113125123e-05   2.4943560166715945e-06   3.758709705912921e-07
-1.1479741113125123e-05   2.4943560166715945e-06   3.758709705912921e-07
-1.1487907642340312e-05   3.441153983108297e-06   -6.586933012811563e-06
-1.1487907642340312e-05   3.441153983108297e-06   -6.586933012811563e-06
-1.1487907642340312e-05   3.441153983108297e-06   -6.586933012811563e-06
-1.1487907642340312e-05   3.441153983108297e-06   -6.586933012811563e-06
-1.6524802180427844e-05   2.6739491406892408e-06   2.268214122785677e-06
-1.6524802180427844e-05   2.6739491406892408e-06   2.268214122785677e-06
-1.6524802180427844e-05   2.6739491406892408e-06   2.268214122785677e-06
-1.6524802180427844e-05   2.6739491406892408e-06   2.268214122785677e-06
-1.3554896238765529e-05   2.918395738812178e-06   -2.828297072191737e-06
-1.3554896238765529e-05   2.918395738812178e-06   -2.828297072191737e-06
-1.3554896238765529e-05   2.918395738812178e-06   -2.828297072191737e-06
-1.3554896238765529e-05   2.918395738812178e-06   -2.828297072191737e-06
-1.1445343789293775e-05   1.1690825842926506e-06   -1.4106084007706462e-05
-1.1445343789293775e-05   1.1690825842926506e-06   -1.4106084007706462e-05
-1.1445343789293775e-05   1.1690825842926506e-06   -1.4106084007706462e-05
-1.1445343789293775e-05   1.1690825842926506e-06   -1.4106084007706462e-05
-5.855831491907837e-06   9.558168994840588e-07   -4.918189589615074e-06
-5.855831491907837e-06   9.558168994840588e-07   -4.918189589615074e-06
-5.855831491907837e-06   9.558168994840588e-07   -4.918189589615074e-06
-5.855831491907837e-06   9.558168994840588e-07   -4.918189589615074e-06
-5.923255507459704e-06   1.6385612906676448e-06   -1.3903163554409008e-05
-5.923255507459704e-06   1.6385612906676448e-06   -1.3903163554409008e-05
-5.923255507459704e-06   1.6385612906676448e-06   -1.3903163554409008e-05
-5.923255507459704e-06   1.6385612906676448e-06   -1.3903163554409008e-05
-1.1496175304805638e-05   1.3557915662105037e-06   -4.445302057491448e-06
-1.1496175304805638e-05   1.3557915662105037e-06   -4.445302057491448e-06
-1.1496175304805638e-05   1.3557915662105037e-06   -4.445302057491448e-06
-1.1496175304805638e-05   1.3557915662105037e-06   -4.445302057491448e-06
-8.605292906412229e-06   1.3534591431043947e-06   -9.262039934283521e-06
-8.605292906412229e-06   1.3534591431043947e-06   -9.262039934283521e-06
-8.605292906412229e-06   1.3534591431043947e-06   -9.262039934283521e-06
-8.605292906412229e-06   1.3534591431043947e-06   -9.262039934283521e-06
-1.1496175304805645e-05   1.6385612906676448e-06   -1.3733501719734672e-05
-1.1496175304805645e-05   1.6385612906676448e-06   -1.3733501719734672e-05
-1.1496175304805645e-05   1.6385612906676448e-06   -1.3733501719734672e-05
-1.1496175304805645e-05   1.6385612906676448e-06   -1.3733501719734672e-05
-5.923255507459712e-06   1.3557915662104766e-06   -4.614963892165739e-06
-5.923255507459712e-06   1.3557915662104766e-06   -4.614963892165739e-06
-5.923255507459712e-06   1.3557915662104766e-06   -4.614963892165739e-06
-5.923255507459712e-06   1.3557915662104766e-06   -4.614963892165739e-06
-5.965702794974775e-06   2.0281153162062654e-06   -1.3536607162455797e-05
-5.965702794974775e-06   2.0281153162062654e-06   -1.3536607162455797e-05
-5.965702794974775e-06   2.0281153162062654e-06   -1.3536607162455797e-05
-5.965702794974775e-06   2.0281153162062654e-06   -1.3536607162455797e-05
-1.1479741113125099e-05   1.7123445877014311e-06   -4.157080861769098e-06
-1.1479741113125099e-05   1.7123445877014311e-06   -4.157080861769098e-06
-1.1479741113125099e-05   1.7123445877014311e-06   -4.157080861769098e-06
-1.1479741113125099e-05   1.7123445877014311e-06   -4.157080861769098e-06
-8.617868994509852e-06   1.6833336140017845e-06   -8.909461141907882e-06
-8.617868994509852e-06   1.6833336140017845e-06   -8.909461141907882e-06
-8.617868994509852e-06   1.6833336140017845e-06   -8.909461141907882e-06
-8.617868994509852e-06   1.6833336140017845e-06   -8.909461141907882e-06
-1.1479741113125099e-05   2.0281153162062654e-06   -1.334714472535291e-05
-1.1479741113125099e-05   2.0281153162062654e-06   -1.334714472535291e-05
-1.1479741113125099e-05   2.0281153162062654e-06   -1.334714472535291e-05
-1.1479741113125099e-05   2.0281153162062654e-06   -1.334714472535291e-05
-5.965702794974797e-06   1.7123445877014311e-06   -4.3465432988719255e-06
-5.965702794974797e-06   1.7123445877014311e-06   -4.3465432988719255e-06
-5.965702794974797e-06   1.7123445877014311e-06   -4.3465432988719255e-06
-5.965702794974797e-06   1.7123445877014311e-06   -4.3465432988719255e-06
-6.022001540328501e-06   2.4480627678083808e-06   -1.3504942548101876e-05
-6.022001540328501e-06   2.4480627678083808e-06   -1.3504942548101876e-05
-6.022001540328501e-06   2.4480627678083808e-06   -1.3504942548101876e-05
-6.022001540328501e-06   2.4480627678083808e-06   -1.3504942548101876e-05
-1.1487907642340305e-05   2.0929072793184663e-06   -4.182005751654939e-06
-1.1487907642340305e-05   2.0929072793184663e-06   -4.182005751654939e-06
-1.1487907642340305e-05   2.0929072793184663e-06   -4.182005751654939e-06
-1.1487907642340305e-05   2.0929072793184663e-06   -4.182005751654939e-06
-8.716513351635288e-06   2.011152036684625e-06   -8.751943090582887e-06
-8.716513351635288e-06   2.011152036684625e-06   -8.751943090582887e-06
-8.716513351635288e-06   2.011152036684625e-06   -8.751943090582887e-06
-8.716513351635288e-06   2.011152036684625e-06   -8.751943090582887e-06
-5.855831491907827e-06   -3.708348124605856e-08   -1.5223279611746212e-05
-5.855831491907827e-06   -3.708348124605856e-08   -1.5223279611746212e-05
-5.855831491907827e-06   -3.708348124605856e-08   -1.5223279611746212e-05
-5.855831491907827e-06   -3.708348124605856e-08   -1.5223279611746212e-05
-3.248827958659222e-07   5.1636960797220516e-08   -5.95179951978373e-06
-3.248827958659222e-07   5.1636960797220516e-08   -5.95179951978373e-06
-3.248827958659222e-07   5.1636960797220516e-08   -5.95179951978373e-06
-3.248827958659222e-07   5.1636960797220516e-08   -5.95179951978373e-06
-3.785140746586965e-07   3.959091559107647e-07   -1.5076827070625734e-05
-3.785140746586965e-07   3.959091559107647e-07   -1.5076827070625734e-05
-3.785140746586965e-07   3.959091559107647e-07   -1.5076827070625734e-05
-3.785140746586965e-07   3.959091559107647e-07   -1.5076827070625734e-05
-5.923255507459704e-06   4.464620858959706e-07   -5.8659231072818766e-06
-5.923255507459704e-06   4.464620858959706e-07   -5.8659231072818766e-06
-5.923255507459704e-06   4.464620858959706e-07   -5.8659231072818766e-06
-5.923255507459704e-06   4.464620858959706e-07   -5.8659231072818766e-06
-3.102593765634741e-06   2.6095935035351243e-07   -1.0455724368997992e-05
-3.102593765634741e-06   2.6095935035351243e-07   -1.0455724368997992e-05
-3.102593765634741e-06   2.6095935035351243e-07   -1.0455724368997992e-05
-3.102593765634741e-06   2.6095935035351243e-07   -1.0455724368997992e-05
-5.923255507459704e-06   3.959091559107647e-07   -1.510715882861688e-05
-5.923255507459704e-06   3.959091559107647e-07   -1.510715882861688e-05
-5.923255507459704e-06   3.959091559107647e-07   -1.510715882861688e-05
-5.923255507459704e-06   3.959091559107647e-07   -1.510715882861688e-05
-3.7851407465869716e-07   4.464620858959706e-07   -5.83559134929071e-06
-3.7851407465869716e-07   4.464620858959706e-07   -5.83559134929071e-06
-3.7851407465869716e-07   4.464620858959706e-07   -5.83559134929071e-06
-3.7851407465869716e-07   4.464620858959706e-07   -5.83559134929071e-06
-4.15979963004996e-07   8.192566130195368e-07   -1.5115832261264984e-05
-4.15979963004996e-07   8.192566130195368e-07   -1.5115832261264984e-05
-4.15979963004996e-07   8.192566130195368e-07   -1.5115832261264984e-05
-4.15979963004996e-07   8.192566130195368e-07   -1.5115832261264984e-05
-5.965702794974785e-06   8.402241626257975e-07   -5.878874737745827e-06
-5.965702794974785e-06   8.402241626257975e-07   -5.878874737745827e-06
-5.965702794974785e-06   8.402241626257975e-07   -5.878874737745827e-06
-5.965702794974785e-06   8.402241626257975e-07   -5.878874737745827e-06
-3.172890786161519e-06   6.094468320616878e-07   -1.0395095020762727e-05
-3.172890786161519e-06   6.094468320616878e-07   -1.0395095020762727e-05
-3.172890786161519e-06   6.094468320616878e-07   -1.0395095020762727e-05
-3.172890786161519e-06   6.094468320616878e-07   -1.0395095020762727e-05
-5.965702794974785e-06   8.192566130195368e-07   -1.512841279102877e-05
-5.965702794974785e-06   8.192566130195368e-07   -1.512841279102877e-05
-5.965702794974785e-06   8.192566130195368e-07   -1.512841279102877e-05
-5.965702794974785e-06   8.192566130195368e-07   -1.512841279102877e-05
-4.1597996300499683e-07   8.402241626257975e-07   -5.8662942079820135e-06
-4.1597996300499683e-07   8.402241626257975e-07   -5.8662942079820135e-06
-4.1597996300499683e-07   8.402241626257975e-07   -5.8662942079820135e-06
-4.1597996300499683e-07   8.402241626257975e-07   -5.8662942079820135e-06
-4.769547920124579e-07   1.2600105589827634e-06   -1.530963065036602e-05
-4.769547920124579e-07   1.2600105589827634e-06   -1.530963065036602e-05
-4.769547920124579e-07   1.2600105589827634e-06   -1.530963065036602e-05
-4.769547920124579e-07   1.2600105589827634e-06   -1.530963065036602e-05
-6.022001540328496e-06   1.2430172165582044e-06   -6.057690064384608e-06
-6.022001540328496e-06   1.2430172165582044e-06   -6.057690064384608e-06
-6.022001540328496e-06   1.2430172165582044e-06   -6.057690064384608e-06
-6.022001540328496e-06   1.2430172165582044e-06   -6.057690064384608e-06
-3.247776758873056e-06   9.620852737185964e-07   -1.0512838867773158e-05
-3.247776758873056e-06   9.620852737185964e-07   -1.0512838867773158e-05
-3.247776758873056e-06   9.620852737185964e-07   -1.0512838867773158e-05
-3.247776758873056e-06   9.620852737185964e-07   -1.0512838867773158e-05
-3.2488279586592264e-07   -1.200452800012534e-06   -1.3593567785660241e-05
-3.2488279586592264e-07   -1.200452800012534e-06   -1.3593567785660241e-05
-3.2488279586592264e-07   -1.200452800012534e-06   -1.3593567785660241e-05
-3.2488279586592264e-07   -1.200452800012534e-06   -1.3593567785660241e-05
5.1708791400659585e-06   -7.983902087855459e-07   -4.1927270043709325e-06
5.1708791400659585e-06   -7.983902087855459e-07   -4.1927270043709325e-06
5.1708791400659585e-06   -7.983902087855459e-07   -4.1927270043709325e-06
5.1708791400659585e-06   -7.983902087855459e-07   -4.1927270043709325e-06
5.1705905646697745e-06   -8.054582417792015e-07   -1.3430580948332807e-05
5.1705905646697745e-06   -8.054582417792015e-07   -1.3430580948332807e-05
5.1705905646697745e-06   -8.054582417792015e-07   -1.3430580948332807e-05
5.1705905646697745e-06   -8.054582417792015e-07   -1.3430580948332807e-05
-3.7851407465869716e-07   -4.349079221582482e-07   -4.404403407891246e-06
-3.7851407465869716e-07   -4.349079221582482e-07   -4.404403407891246e-06
-3.7851407465869716e-07   -4.349079221582482e-07   -4.404403407891246e-06
-3.7851407465869716e-07   -4.349079221582482e-07   -4.404403407891246e-06
2.391663812948566e-06   -7.804940690858849e-07   -8.814014865746774e-06
2.391663812948566e-06   -7.804940690858849e-07   -8.814014865746774e-06
2.391663812948566e-06   -7.804940690858849e-07   -8.814014865746774e-06
2.391663812948566e-06   -7.804940690858849e-07   -8.814014865746774e-06
-3.7851407465869716e-07   -8.054582417792015e-07   -1.3652911140105358e-05
-3.7851407465869716e-07   -8.054582417792015e-07   -1.3652911140105358e-05
-3.7851407465869716e-07   -8.054582417792015e-07   -1.3652911140105358e-05
-3.7851407465869716e-07   -8.054582417792015e-07   -1.3652911140105358e-05
5.1705905646697745e-06   -4.349079221582753e-07   -4.182073216118655e-06
5.1705905646697745e-06   -4.349079221582753e-07   -4.182073216118655e-06
5.1705905646697745e-06   -4.349079221582753e-07   -4.182073216118655e-06
5.1705905646697745e-06   -4.349079221582753e-07   -4.182073216118655e-06
5.200535846765889e-06   -4.1952806962442934e-07   -1.378076962195235e-05
5.200535846765889e-06   -4.1952806962442934e-07   -1.378076962195235e-05
5.200535846765889e-06   -4.1952806962442934e-07   -1.378076962195235e-05
5.200535846765889e-06   -4.1952806962442934e-07   -1.378076962195235e-05
-4.1597996300499746e-07   -7.908650280014562e-08   -4.624174879095487e-06
-4.1597996300499746e-07   -7.908650280014562e-08   -4.624174879095487e-06
-4.1597996300499746e-07   -7.908650280014562e-08   -4.624174879095487e-06
-4.1597996300499746e-07   -7.908650280014562e-08   -4.624174879095487e-06
2.31980236573374e-06   -4.656848896857394e-07   -8.951853061528615e-06
2.31980236573374e-06   -4.656848896857394e-07   -8.951853061528615e-06
2.31980236573374e-06   -4.656848896857394e-07   -8.951853061528615e-06
2.31980236573374e-06   -4.656848896857394e-07   -8.951853061528615e-06
-4.159799630049964e-07   -4.195280696244158e-07   -1.3985034562046864e-05
-4.159799630049964e-07   -4.195280696244158e-07   -1.3985034562046864e-05
-4.159799630049964e-07   -4.195280696244158e-07   -1.3985034562046864e-05
-4.159799630049964e-07   -4.195280696244158e-07   -1.3985034562046864e-05
5.200535846765889e-06   -7.908650280014562e-08   -4.419909939000857e-06
5.200535846765889e-06   -7.908650280014562e-08   -4.419909939000857e-06
5.200535846765889e-06   -7.908650280014562e-08   -4.419909939000857e-06
5.200535846765889e-06   -7.908650280014562e-08   -4.419909939000857e-06
5.164818844873268e-06   5.658820500809838e-08   -1.418249300486809e-05
5.164818844873268e-06   5.658820500809838e-08   -1.418249300486809e-05
5.164818844873268e-06   5.658820500809838e-08   -1.418249300486809e-05
5.164818844873268e-06   5.658820500809838e-08   -1.418249300486809e-05
-4.769547920124588e-07   3.355384874524528e-07   -4.946907112858506e-06
-4.769547920124588e-07   3.355384874524528e-07   -4.946907112858506e-06
-4.769547920124588e-07   3.355384874524528e-07   -4.946907112858506e-06
-4.769547920124588e-07   3.355384874524528e-07   -4.946907112858506e-06
2.2966624085986706e-06   -1.300268781716994e-07   -9.290263227835837e-06
2.2966624085986706e-06   -1.300268781716994e-07   -9.290263227835837e-06
2.2966624085986706e-06   -1.300268781716994e-07   -9.290263227835837e-06
2.2966624085986706e-06   -1.300268781716994e-07   -9.290263227835837e-06
5.170879140065952e-06   -2.2237473078025766e-06   -7.5868322203536705e-06
5.170879140065952e-06   -2.2237473078025766e-06   -7.5868322203536705e-06
5.170879140065952e-06   -2.2237473078025766e-06   -7.5868322203536705e-06
5.170879140065952e-06   -2.2237473078025766e-06   -7.5868322203536705e-06
1.0287566734951833e-05   -1.437966957567124e-06   1.4124486479307429e-06
1.0287566734951833e-05   -1.437966957567124e-06   1.4124486479307429e-06
1.0287566734951833e-05   -1.437966957567124e-06   1.4124486479307429e-06
1.0287566734951833e-05   -1.437966957567124e-06   1.4124486479307429e-06
1.0648962627263509e-05   -2.0099368985066526e-06   -8.505294330322986e-06
1.0648962627263509e-05   -2.0099368985066526e-06   -8.505294330322986e-06
1.0648962627263509e-05   -2.0099368985066526e-06   -8.505294330322986e-06
1.0648962627263509e-05   -2.0099368985066526e-06   -8.505294330322986e-06
5.170590564669768e-06   -1.226025045378157e-06   1.549786621228436e-07
5.170590564669768e-06   -1.226025045378157e-06   1.549786621228436e-07
5.170590564669768e-06   -1.226025045378157e-06   1.549786621228436e-07
5.170590564669768e-06   -1.226025045378157e-06   1.549786621228436e-07
7.48556326088007e-06   -1.7034560203938712e-06   -3.4168505798849028e-06
7.48556326088007e-06   -1.7034560203938712e-06   -3.4168505798849028e-06
7.48556326088007e-06   -1.7034560203938712e-06   -3.4168505798849028e-06
7.48556326088007e-06   -1.7034560203938712e-06   -3.4168505798849028e-06
5.170590564669761e-06   -2.009936898506639e-06   -8.975641442200043e-06
5.170590564669761e-06   -2.009936898506639e-06   -8.975641442200043e-06
5.170590564669761e-06   -2.009936898506639e-06   -8.975641442200043e-06
5.170590564669761e-06   -2.009936898506639e-06   -8.975641442200043e-06
1.0648962627263509e-05   -1.226025045378157e-06   6.253257739999817e-07
1.0648962627263509e-05   -1.226025045378157e-06   6.253257739999817e-07
1.0648962627263509e-05   -1.226025045378157e-06   6.253257739999817e-07
1.0648962627263509e-05   -1.226025045378157e-06   6.253257739999817e-07
1.0929545252254964e-05   -1.7880480562892307e-06   -9.58379723622379e-06
1.0929545252254964e-05   -1.7880480562892307e-06   -9.58379723622379e-06
1.0929545252254964e-05   -1.7880480562892307e-06   -9.58379723622379e-06
1.0929545252254964e-05   -1.7880480562892307e-06   -9.58379723622379e-06
5.200535846765872e-06   -1.0471075341136177e-06   -4.800125403807233e-07
5.200535846765872e-06   -1.0471075341136177e-06   -4.800125403807233e-07
5.200535846765872e-06   -1.0471075341136177e-06   -4.800125403807233e-07
5.200535846765872e-06   -1.0471075341136177e-06   -4.800125403807233e-07
7.74809995802963e-06   -1.5669891101045223e-06   -4.414023780225729e-06
7.74809995802963e-06   -1.5669891101045223e-06   -4.414023780225729e-06
7.74809995802963e-06   -1.5669891101045223e-06   -4.414023780225729e-06
7.74809995802963e-06   -1.5669891101045223e-06   -4.414023780225729e-06
5.200535846765879e-06   -1.7880480562892307e-06   -1.0028361549529159e-05
5.200535846765879e-06   -1.7880480562892307e-06   -1.0028361549529159e-05
5.200535846765879e-06   -1.7880480562892307e-06   -1.0028361549529159e-05
5.200535846765879e-06   -1.7880480562892307e-06   -1.0028361549529159e-05
1.0929545252254944e-05   -1.0471075341136177e-06   -3.54482270753108e-08
1.0929545252254944e-05   -1.0471075341136177e-06   -3.54482270753108e-08
1.0929545252254944e-05   -1.0471075341136177e-06   -3.54482270753108e-08
1.0929545252254944e-05   -1.0471075341136177e-06   -3.54482270753108e-08
1.1230937223291623e-05   -1.3112293556031147e-06   -1.1425325754901752e-05
1.1230937223291623e-05   -1.3112293556031147e-06   -1.1425325754901752e-05
1.1230937223291623e-05   -1.3112293556031147e-06   -1.1425325754901752e-05
1.1230937223291623e-05   -1.3112293556031147e-06   -1.1425325754901752e-05
5.164818844873251e-06   -6.672165701375411e-07   -1.7015361288171864e-06
5.164818844873251e-06   -6.672165701375411e-07   -1.7015361288171864e-06
5.164818844873251e-06   -6.672165701375411e-07   -1.7015361288171864e-06
5.164818844873251e-06   -6.672165701375411e-07   -1.7015361288171864e-06
7.723484954572443e-06   -1.3464100424890685e-06   -5.5584635615715445e-06
7.723484954572443e-06   -1.3464100424890685e-06   -5.5584635615715445e-06
7.723484954572443e-06   -1.3464100424890685e-06   -5.5584635615715445e-06
7.723484954572443e-06   -1.3464100424890685e-06   -5.5584635615715445e-06
-1.2415305506089673e-05   1.9092231879087992e-06   -9.510105207633386e-06
-1.2415305506089673e-05   1.9092231879087992e-06   -9.510105207633386e-06
-1.2415305506089673e-05   1.9092231879087992e-06   -9.510105207633386e-06
-1.2415305506089673e-05   1.9092231879087992e-06   -9.510105207633386e-06
-8.492295479210455e-06   1.2050138331629132e-06   -3.394280775682222e-06
-8.492295479210455e-06   1.2050138331629132e-06   -3.394280775682222e-06
-8.492295479210455e-06   1.2050138331629132e-06   -3.394280775682222e-06
-8.492295479210455e-06   1.2050138331629132e-06   -3.394280775682222e-06
-8.460620176551414e-06   2.315083990708615e-06   -8.081097147365896e-06
-8.460620176551414e-06   2.315083990708615e-06   -8.081097147365896e-06
-8.460620176551414e-06   2.315083990708615e-06   -8.081097147365896e-06
-8.460620176551414e-06   2.315083990708615e-06   -8.081097147365896e-06
-1.2034715898768652e-05   1.5388013881194773e-06   -1.6585013821170341e-06
-1.2034715898768652e-05   1.5388013881194773e-06   -1.6585013821170341e-06
-1.2034715898768652e-05   1.5388013881194773e-06   -1.6585013821170341e-06
-1.2034715898768652e-05   1.5388013881194773e-06   -1.6585013821170341e-06
-9.911368398781303e-06   1.840231299144845e-06   -5.378271828711153e-06
-9.911368398781303e-06   1.840231299144845e-06   -5.378271828711153e-06
-9.911368398781303e-06   1.840231299144845e-06   -5.378271828711153e-06
-9.911368398781303e-06   1.840231299144845e-06   -5.378271828711153e-06
-1.2034715898768652e-05   2.315083990708615e-06   -7.6153275858124e-06
-1.2034715898768652e-05   2.315083990708615e-06   -7.6153275858124e-06
-1.2034715898768652e-05   2.315083990708615e-06   -7.6153275858124e-06
-1.2034715898768652e-05   2.315083990708615e-06   -7.6153275858124e-06
-8.460620176551434e-06   1.5388013881194773e-06   -2.124270943670549e-06
-8.460620176551434e-06   1.5388013881194773e-06   -2.124270943670549e-06
-8.460620176551434e-06   1.5388013881194773e-06   -2.124270943670549e-06
-8.460620176551434e-06   1.5388013881194773e-06   -2.124270943670549e-06
-8.395941479796342e-06   2.4943560166715674e-06   -7.047376139488685e-06
-8.395941479796342e-06   2.4943560166715674e-06   -7.047376139488685e-06
-8.395941479796342e-06   2.4943560166715674e-06   -7.047376139488685e-06
-8.395941479796342e-06   2.4943560166715674e-06   -7.047376139488685e-06
-1.1751846113339755e-05   1.695660725721358e-06   -9.74984575679525e-07
-1.1751846113339755e-05   1.695660725721358e-06   -9.74984575679525e-07
-1.1751846113339755e-05   1.695660725721358e-06   -9.74984575679525e-07
-1.1751846113339755e-05   1.695660725721358e-06   -9.74984575679525e-07
-9.90887721577882e-06   2.0267587825607337e-06   -4.245258239051437e-06
-9.90887721577882e-06   2.0267587825607337e-06   -4.245258239051437e-06
-9.90887721577882e-06   2.0267587825607337e-06   -4.245258239051437e-06
-9.90887721577882e-06   2.0267587825607337e-06   -4.245258239051437e-06
-1.1751846113339755e-05   2.4943560166715674e-06   -6.568158964918562e-06
-1.1751846113339755e-05   2.4943560166715674e-06   -6.568158964918562e-06
-1.1751846113339755e-05   2.4943560166715674e-06   -6.568158964918562e-06
-1.1751846113339755e-05   2.4943560166715674e-06   -6.568158964918562e-06
-8.395941479796356e-06   1.695660725721358e-06   -1.454201750249637e-06
-8.395941479796356e-06   1.695660725721358e-06   -1.454201750249637e-06
-8.395941479796356e-06   1.695660725721358e-06   -1.454201750249637e-06
-8.395941479796356e-06   1.695660725721358e-06   -1.454201750249637e-06
-8.37111560865853e-06   2.6739491406892408e-06   -5.621433520669537e-06
-8.37111560865853e-06   2.6739491406892408e-06   -5.621433520669537e-06
-8.37111560865853e-06   2.6739491406892408e-06   -5.621433520669537e-06
-8.37111560865853e-06   2.6739491406892408e-06   -5.621433520669537e-06
-1.1383630518831722e-05   1.8949665383910768e-06   -1.331857756686186e-07
-1.1383630518831722e-05   1.8949665383910768e-06   -1.331857756686186e-07
-1.1383630518831722e-05   1.8949665383910768e-06   -1.331857756686186e-07
-1.1383630518831722e-05   1.8949665383910768e-06   -1.331857756686186e-07
-9.614105452988216e-06   2.130380982190926e-06   -3.2236428850210356e-06
-9.614105452988216e-06   2.130380982190926e-06   -3.2236428850210356e-06
-9.614105452988216e-06   2.130380982190926e-06   -3.2236428850210356e-06
-9.614105452988216e-06   2.130380982190926e-06   -3.2236428850210356e-06
-8.492295479210441e-06   9.558168994840588e-07   -1.2203228958454956e-05
-8.492295479210441e-06   9.558168994840588e-07   -1.2203228958454956e-05
-8.492295479210441e-06   9.558168994840588e-07   -1.2203228958454956e-05
-8.492295479210441e-06   9.558168994840588e-07   -1.2203228958454956e-05
-4.924394346008934e-06   6.29359130148075e-07   -6.452601731387352e-06
-4.924394346008934e-06   6.29359130148075e-07   -6.452601731387352e-06
-4.924394346008934e-06   6.29359130148075e-07   -6.452601731387352e-06
-4.924394346008934e-06   6.29359130148075e-07   -6.452601731387352e-06
-4.927160481582669e-06   1.3557915662105037e-06   -1.2095182744954286e-05
-4.927160481582669e-06   1.3557915662105037e-06   -1.2095182744954286e-05
-4.927160481582669e-06   1.3557915662105037e-06   -1.2095182744954286e-05
-4.927160481582669e-06   1.3557915662105037e-06   -1.2095182744954286e-05
-8.460620176551414e-06   9.826677479351641e-07   -5.982208962374461e-06
-8.460620176551414e-06   9.826677479351641e-07   -5.982208962374461e-06
-8.460620176551414e-06   9.826677479351641e-07   -5.982208962374461e-06
-8.460620176551414e-06   9.826677479351641e-07   -5.982208962374461e-06
-6.639017488452049e-06   1.049424710918679e-06   -9.0582676203302e-06
-6.639017488452049e-06   1.049424710918679e-06   -9.0582676203302e-06
-6.639017488452049e-06   1.049424710918679e-06   -9.0582676203302e-06
-6.639017488452049e-06   1.049424710918679e-06   -9.0582676203302e-06
-8.460620176551414e-06   1.3557915662105037e-06   -1.1871308453989004e-05
-8.460620176551414e-06   1.3557915662105037e-06   -1.1871308453989004e-05
-8.460620176551414e-06   1.3557915662105037e-06   -1.1871308453989004e-05
-8.460620176551414e-06   1.3557915662105037e-06   -1.1871308453989004e-05
-4.927160481582669e-06   9.826677479351641e-07   -6.206083253339655e-06
-4.927160481582669e-06   9.826677479351641e-07   -6.206083253339655e-06
-4.927160481582669e-06   9.826677479351641e-07   -6.206083253339655e-06
-4.927160481582669e-06   9.826677479351641e-07   -6.206083253339655e-06
-4.924067674419073e-06   1.7123445877014311e-06   -1.1824438873801654e-05
-4.924067674419073e-06   1.7123445877014311e-06   -1.1824438873801654e-05
-4.924067674419073e-06   1.7123445877014311e-06   -1.1824438873801654e-05
-4.924067674419073e-06   1.7123445877014311e-06   -1.1824438873801654e-05
-8.395941479796342e-06   1.3054930844470542e-06   -5.7938716295535445e-06
-8.395941479796342e-06   1.3054930844470542e-06   -5.7938716295535445e-06
-8.395941479796342e-06   1.3054930844470542e-06   -5.7938716295535445e-06
-8.395941479796342e-06   1.3054930844470542e-06   -5.7938716295535445e-06
-6.608714609702691e-06   1.3408224054939767e-06   -8.79378067233771e-06
-6.608714609702691e-06   1.3408224054939767e-06   -8.79378067233771e-06
-6.608714609702691e-06   1.3408224054939767e-06   -8.79378067233771e-06
-6.608714609702691e-06   1.3408224054939767e-06   -8.79378067233771e-06
-8.395941479796342e-06   1.7123445877014311e-06   -1.1580327971849e-05
-8.395941479796342e-06   1.7123445877014311e-06   -1.1580327971849e-05
-8.395941479796342e-06   1.7123445877014311e-06   -1.1580327971849e-05
-8.395941479796342e-06   1.7123445877014311e-06   -1.1580327971849e-05
-4.924067674419077e-06   1.3054930844470542e-06   -6.037982531506171e-06
-4.924067674419077e-06   1.3054930844470542e-06   -6.037982531506171e-06
-4.924067674419077e-06   1.3054930844470542e-06   -6.037982531506171e-06
-4.924067674419077e-06   1.3054930844470542e-06   -6.037982531506171e-06
-4.928821690597563e-06   2.0929072793184934e-06   -1.187256475708326e-05
-4.928821690597563e-06   2.0929072793184934e-06   -1.187256475708326e-05
-4.928821690597563e-06   2.0929072793184934e-06   -1.187256475708326e-05
-4.928821690597563e-06   2.0929072793184934e-06   -1.187256475708326e-05
-8.37111560865853e-06   1.6575168336110252e-06   -5.8741739595570916e-06
-8.37111560865853e-06   1.6575168336110252e-06   -5.8741739595570916e-06
-8.37111560865853e-06   1.6575168336110252e-06   -5.8741739595570916e-06
-8.37111560865853e-06   1.6575168336110252e-06   -5.8741739595570916e-06
-6.652089718174689e-06   1.6305067596418684e-06   -8.723011065981997e-06
-6.652089718174689e-06   1.6305067596418684e-06   -8.723011065981997e-06
-6.652089718174689e-06   1.6305067596418684e-06   -8.723011065981997e-06
-6.652089718174689e-06   1.6305067596418684e-06   -8.723011065981997e-06
-4.924394346008924e-06   5.1636960797220516e-08   -1.348594581545117e-05
-4.924394346008924e-06   5.1636960797220516e-08   -1.348594581545117e-05
-4.924394346008924e-06   5.1636960797220516e-08   -1.348594581545117e-05
-4.924394346008924e-06   5.1636960797220516e-08   -1.348594581545117e-05
-1.400216624780654e-06   1.123190459753501e-07   -7.575907028963867e-06
-1.400216624780654e-06   1.123190459753501e-07   -7.575907028963867e-06
-1.400216624780654e-06   1.123190459753501e-07   -7.575907028963867e-06
-1.400216624780654e-06   1.123190459753501e-07   -7.575907028963867e-06
-1.403506407557149e-06   4.464620858959706e-07   -1.3332652878388627e-05
-1.403506407557149e-06   4.464620858959706e-07   -1.3332652878388627e-05
-1.403506407557149e-06   4.464620858959706e-07   -1.3332652878388627e-05
-1.403506407557149e-06   4.464620858959706e-07   -1.3332652878388627e-05
-4.927160481582659e-06   4.689438886988596e-07   -7.473385170027845e-06
-4.927160481582659e-06   4.689438886988596e-07   -7.473385170027845e-06
-4.927160481582659e-06   4.689438886988596e-07   -7.473385170027845e-06
-4.927160481582659e-06   4.689438886988596e-07   -7.473385170027845e-06
-3.1424749907549644e-06   3.171397874874161e-07   -1.0356778527347136e-05
-3.1424749907549644e-06   3.171397874874161e-07   -1.0356778527347136e-05
-3.1424749907549644e-06   3.171397874874161e-07   -1.0356778527347136e-05
-3.1424749907549644e-06   3.171397874874161e-07   -1.0356778527347136e-05
-4.927160481582659e-06   4.464620858959706e-07   -1.3346141960070358e-05
-4.927160481582659e-06   4.464620858959706e-07   -1.3346141960070358e-05
-4.927160481582659e-06   4.464620858959706e-07   -1.3346141960070358e-05
-4.927160481582659e-06   4.464620858959706e-07   -1.3346141960070358e-05
-1.403506407557149e-06   4.689438886988596e-07   -7.459896088346114e-06
-1.403506407557149e-06   4.689438886988596e-07   -7.459896088346114e-06
-1.403506407557149e-06   4.689438886988596e-07   -7.459896088346114e-06
-1.403506407557149e-06   4.689438886988596e-07   -7.459896088346114e-06
-1.3992689515108685e-06   8.402241626257975e-07   -1.3364866305989661e-05
-1.3992689515108685e-06   8.402241626257975e-07   -1.3364866305989661e-05
-1.3992689515108685e-06   8.402241626257975e-07   -1.3364866305989661e-05
-1.3992689515108685e-06   8.402241626257975e-07   -1.3364866305989661e-05
-4.924067674419073e-06   8.267308404354742e-07   -7.482105774495161e-06
-4.924067674419073e-06   8.267308404354742e-07   -7.482105774495161e-06
-4.924067674419073e-06   8.267308404354742e-07   -7.482105774495161e-06
-4.924067674419073e-06   8.267308404354742e-07   -7.482105774495161e-06
-3.163997067891543e-06   6.299127008414015e-07   -1.029746590161791e-05
-3.163997067891543e-06   6.299127008414015e-07   -1.029746590161791e-05
-3.163997067891543e-06   6.299127008414015e-07   -1.029746590161791e-05
-3.163997067891543e-06   6.299127008414015e-07   -1.029746590161791e-05
-4.924067674419073e-06   8.402241626257975e-07   -1.3356770312675489e-05
-4.924067674419073e-06   8.402241626257975e-07   -1.3356770312675489e-05
-4.924067674419073e-06   8.402241626257975e-07   -1.3356770312675489e-05
-4.924067674419073e-06   8.402241626257975e-07   -1.3356770312675489e-05
-1.3992689515108708e-06   8.267308404354742e-07   -7.490201767809313e-06
-1.3992689515108708e-06   8.267308404354742e-07   -7.490201767809313e-06
-1.3992689515108708e-06   8.267308404354742e-07   -7.490201767809313e-06
-1.3992689515108708e-06   8.267308404354742e-07   -7.490201767809313e-06
-1.401682229311953e-06   1.2430172165582044e-06   -1.3566502579406327e-05
-1.401682229311953e-06   1.2430172165582044e-06   -1.3566502579406327e-05
-1.401682229311953e-06   1.2430172165582044e-06   -1.3566502579406327e-05
-1.401682229311953e-06   1.2430172165582044e-06   -1.3566502579406327e-05
-4.9288216905975596e-06   1.1907725454126316e-06   -7.656590007909604e-06
-4.9288216905975596e-06   1.1907725454126316e-06   -7.656590007909604e-06
-4.9288216905975596e-06   1.1907725454126316e-06   -7.656590007909604e-06
-4.9288216905975596e-06   1.1907725454126316e-06   -7.656590007909604e-06
-3.191660959071822e-06   9.46804931778282e-07   -1.0405477325605229e-05
-3.191660959071822e-06   9.46804931778282e-07   -1.0405477325605229e-05
-3.191660959071822e-06   9.46804931778282e-07   -1.0405477325605229e-05
-3.191660959071822e-06   9.46804931778282e-07   -1.0405477325605229e-05
-1.4002166247806515e-06   -7.983902087855459e-07   -1.1931701603667706e-05
-1.4002166247806515e-06   -7.983902087855459e-07   -1.1931701603667706e-05
-1.4002166247806515e-06   -7.983902087855459e-07   -1.1931701603667706e-05
-1.4002166247806515e-06   -7.983902087855459e-07   -1.1931701603667706e-05
2.0636145607452707e-06   -3.5942478804221276e-07   -5.895270375345197e-06
2.0636145607452707e-06   -3.5942478804221276e-07   -5.895270375345197e-06
2.0636145607452707e-06   -3.5942478804221276e-07   -5.895270375345197e-06
2.0636145607452707e-06   -3.5942478804221276e-07   -5.895270375345197e-06
2.0915713284292015e-06   -4.349079221582482e-07   -1.1653783793126775e-05
2.0915713284292015e-06   -4.349079221582482e-07   -1.1653783793126775e-05
2.0915713284292015e-06   -4.349079221582482e-07   -1.1653783793126775e-05
2.0915713284292015e-06   -4.349079221582482e-07   -1.1653783793126775e-05
-1.403506407557149e-06   -2.210601572101697e-08   -6.076335377011885e-06
-1.403506407557149e-06   -2.210601572101697e-08   -6.076335377011885e-06
-1.403506407557149e-06   -2.210601572101697e-08   -6.076335377011885e-06
-1.403506407557149e-06   -2.210601572101697e-08   -6.076335377011885e-06
3.411586320692153e-07   -3.724988907015392e-07   -8.773874718067522e-06
3.411586320692153e-07   -3.724988907015392e-07   -8.773874718067522e-06
3.411586320692153e-07   -3.724988907015392e-07   -8.773874718067522e-06
3.411586320692153e-07   -3.724988907015392e-07   -8.773874718067522e-06
-1.403506407557149e-06   -4.349079221582482e-07   -1.1901464936989143e-05
-1.403506407557149e-06   -4.349079221582482e-07   -1.1901464936989143e-05
-1.403506407557149e-06   -4.349079221582482e-07   -1.1901464936989143e-05
-1.403506407557149e-06   -4.349079221582482e-07   -1.1901464936989143e-05
2.0915713284292083e-06   -2.210601572101697e-08   -5.828654233149547e-06
2.0915713284292083e-06   -2.210601572101697e-08   -5.828654233149547e-06
2.0915713284292083e-06   -2.210601572101697e-08   -5.828654233149547e-06
2.0915713284292083e-06   -2.210601572101697e-08   -5.828654233149547e-06
2.1597401878875457e-06   -7.908650280011851e-08   -1.1894636182299242e-05
2.1597401878875457e-06   -7.908650280011851e-08   -1.1894636182299242e-05
2.1597401878875457e-06   -7.908650280011851e-08   -1.1894636182299242e-05
2.1597401878875457e-06   -7.908650280011851e-08   -1.1894636182299242e-05
-1.3992689515108708e-06   3.010981552062082e-07   -6.191065078105703e-06
-1.3992689515108708e-06   3.010981552062082e-07   -6.191065078105703e-06
-1.3992689515108708e-06   3.010981552062082e-07   -6.191065078105703e-06
-1.3992689515108708e-06   3.010981552062082e-07   -6.191065078105703e-06
3.206139550665544e-07   -9.157620829694708e-08   -8.821931970966196e-06
3.206139550665544e-07   -9.157620829694708e-08   -8.821931970966196e-06
3.206139550665544e-07   -9.157620829694708e-08   -8.821931970966196e-06
3.206139550665544e-07   -9.157620829694708e-08   -8.821931970966196e-06
-1.3992689515108695e-06   -7.908650280011851e-08   -1.212274697710302e-05
-1.3992689515108695e-06   -7.908650280011851e-08   -1.212274697710302e-05
-1.3992689515108695e-06   -7.908650280011851e-08   -1.212274697710302e-05
-1.3992689515108695e-06   -7.908650280011851e-08   -1.212274697710302e-05
2.1597401878875525e-06   3.010981552061811e-07   -5.962954283301856e-06
2.1597401878875525e-06   3.010981552061811e-07   -5.962954283301856e-06
2.1597401878875525e-06   3.010981552061811e-07   -5.962954283301856e-06
2.1597401878875525e-06   3.010981552061811e-07   -5.962954283301856e-06
2.1936831286058145e-06   3.3553848745242567e-07   -1.224480381104107e-05
2.1936831286058145e-06   3.3553848745242567e-07   -1.224480381104107e-05
2.1936831286058145e-06   3.3553848745242567e-07   -1.224480381104107e-05
2.1936831286058145e-06   3.3553848745242567e-07   -1.224480381104107e-05
-1.4016822293119507e-06   6.700715064264094e-07   -6.4532480258958055e-06
-1.4016822293119507e-06   6.700715064264094e-07   -6.4532480258958055e-06
-1.4016822293119507e-06   6.700715064264094e-07   -6.4532480258958055e-06
-1.4016822293119507e-06   6.700715064264094e-07   -6.4532480258958055e-06
3.320789697694276e-07   2.0742340509457462e-07   -9.06526116356565e-06
3.320789697694276e-07   2.0742340509457462e-07   -9.06526116356565e-06
3.320789697694276e-07   2.0742340509457462e-07   -9.06526116356565e-06
3.320789697694276e-07   2.0742340509457462e-07   -9.06526116356565e-06
2.0636145607452674e-06   -1.437966957567124e-06   -6.534614909061307e-06
2.0636145607452674e-06   -1.437966957567124e-06   -6.534614909061307e-06
2.0636145607452674e-06   -1.437966957567124e-06   -6.534614909061307e-06
2.0636145607452674e-06   -1.437966957567124e-06   -6.534614909061307e-06
5.1060119971260725e-06   -6.523783747506597e-07   -9.925993654033712e-07
5.1060119971260725e-06   -6.523783747506597e-07   -9.925993654033712e-07
5.1060119971260725e-06   -6.523783747506597e-07   -9.925993654033712e-07
5.1060119971260725e-06   -6.523783747506597e-07   -9.925993654033712e-07
5.479480572562884e-06   -1.226025045378157e-06   -6.834362757568656e-06
5.479480572562884e-06   -1.226025045378157e-06   -6.834362757568656e-06
5.479480572562884e-06   -1.226025045378157e-06   -6.834362757568656e-06
5.479480572562884e-06   -1.226025045378157e-06   -6.834362757568656e-06
2.091571328429205e-06   -4.220764498504687e-07   -1.670216507995813e-06
2.091571328429205e-06   -4.220764498504687e-07   -1.670216507995813e-06
2.091571328429205e-06   -4.220764498504687e-07   -1.670216507995813e-06
2.091571328429205e-06   -4.220764498504687e-07   -1.670216507995813e-06
3.5280321777233433e-06   -9.053542393101051e-07   -3.7743512498102653e-06
3.5280321777233433e-06   -9.053542393101051e-07   -3.7743512498102653e-06
3.5280321777233433e-06   -9.053542393101051e-07   -3.7743512498102653e-06
3.5280321777233433e-06   -9.053542393101051e-07   -3.7743512498102653e-06
2.0915713284292015e-06   -1.226025045378157e-06   -7.3167319148852215e-06
2.0915713284292015e-06   -1.226025045378157e-06   -7.3167319148852215e-06
2.0915713284292015e-06   -1.226025045378157e-06   -7.3167319148852215e-06
2.0915713284292015e-06   -1.226025045378157e-06   -7.3167319148852215e-06
5.47948057256287e-06   -4.220764498504416e-07   -1.1878473506791933e-06
5.47948057256287e-06   -4.220764498504416e-07   -1.1878473506791933e-06
5.47948057256287e-06   -4.220764498504416e-07   -1.1878473506791933e-06
5.47948057256287e-06   -4.220764498504416e-07   -1.1878473506791933e-06
5.7684206091457754e-06   -1.0471075341136177e-06   -7.485302091785872e-06
5.7684206091457754e-06   -1.0471075341136177e-06   -7.485302091785872e-06
5.7684206091457754e-06   -1.0471075341136177e-06   -7.485302091785872e-06
5.7684206091457754e-06   -1.0471075341136177e-06   -7.485302091785872e-06
2.1597401878875525e-06   -2.6471304762491527e-07   -1.9402714149154094e-06
2.1597401878875525e-06   -2.6471304762491527e-07   -1.9402714149154094e-06
2.1597401878875525e-06   -2.6471304762491527e-07   -1.9402714149154094e-06
2.1597401878875525e-06   -2.6471304762491527e-07   -1.9402714149154094e-06
3.75334668980241e-06   -7.863489955378883e-07   -4.28330068269234e-06
3.75334668980241e-06   -7.863489955378883e-07   -4.28330068269234e-06
3.75334668980241e-06   -7.863489955378883e-07   -4.28330068269234e-06
3.75334668980241e-06   -7.863489955378883e-07   -4.28330068269234e-06
2.159740187887549e-06   -1.0471075341136177e-06   -7.954738783679088e-06
2.159740187887549e-06   -1.0471075341136177e-06   -7.954738783679088e-06
2.159740187887549e-06   -1.0471075341136177e-06   -7.954738783679088e-06
2.159740187887549e-06   -1.0471075341136177e-06   -7.954738783679088e-06
5.768420609145748e-06   -2.6471304762488816e-07   -1.470834723022146e-06
5.768420609145748e-06   -2.6471304762488816e-07   -1.470834723022146e-06
5.768420609145748e-06   -2.6471304762488816e-07   -1.470834723022146e-06
5.768420609145748e-06   -2.6471304762488816e-07   -1.470834723022146e-06
6.154496806854928e-06   -6.672165701375411e-07   -8.741541982789604e-06
6.154496806854928e-06   -6.672165701375411e-07   -8.741541982789604e-06
6.154496806854928e-06   -6.672165701375411e-07   -8.741541982789604e-06
6.154496806854928e-06   -6.672165701375411e-07   -8.741541982789604e-06
2.193683128605818e-06   4.1551785990402235e-08   -2.5654468660511544e-06
2.193683128605818e-06   4.1551785990402235e-08   -2.5654468660511544e-06
2.193683128605818e-06   4.1551785990402235e-08   -2.5654468660511544e-06
2.193683128605818e-06   4.1551785990402235e-08   -2.5654468660511544e-06
3.83342140337957e-06   -6.136727902963772e-07   -4.905209244902039e-06
3.83342140337957e-06   -6.136727902963772e-07   -4.905209244902039e-06
3.83342140337957e-06   -6.136727902963772e-07   -4.905209244902039e-06
3.83342140337957e-06   -6.136727902963772e-07   -4.905209244902039e-06
-7.427146676044149e-06   1.2050138331628861e-06   -7.019298936624378e-06
-7.427146676044149e-06   1.2050138331628861e-06   -7.019298936624378e-06
-7.427146676044149e-06   1.2050138331628861e-06   -7.019298936624378e-06
-7.427146676044149e-06   1.2050138331628861e-06   -7.019298936624378e-06
-5.536007438152629e-06   4.822809664571312e-07   -4.301039926828633e-06
-5.536007438152629e-06   4.822809664571312e-07   -4.301039926828633e-06
-5.536007438152629e-06   4.822809664571312e-07   -4.301039926828633e-06
-5.536007438152629e-06   4.822809664571312e-07   -4.301039926828633e-06
-5.4574671242995875e-06   1.5388013881194502e-06   -6.192625580305844e-06
-5.4574671242995875e-06   1.5388013881194502e-06   -6.192625580305844e-06
-5.4574671242995875e-06   1.5388013881194502e-06   -6.192625580305844e-06
-5.4574671242995875e-06   1.5388013881194502e-06   -6.192625580305844e-06
-7.017166827985146e-06   7.581680204098227e-07   -3.124746053537327e-06
-7.017166827985146e-06   7.581680204098227e-07   -3.124746053537327e-06
-7.017166827985146e-06   7.581680204098227e-07   -3.124746053537327e-06
-7.017166827985146e-06   7.581680204098227e-07   -3.124746053537327e-06
-6.0901696099636346e-06   1.0826429347724387e-06   -4.864426365524415e-06
-6.0901696099636346e-06   1.0826429347724387e-06   -4.864426365524415e-06
-6.0901696099636346e-06   1.0826429347724387e-06   -4.864426365524415e-06
-6.0901696099636346e-06   1.0826429347724387e-06   -4.864426365524415e-06
-7.017166827985146e-06   1.5388013881194502e-06   -5.72424555968004e-06
-7.017166827985146e-06   1.5388013881194502e-06   -5.72424555968004e-06
-7.017166827985146e-06   1.5388013881194502e-06   -5.72424555968004e-06
-7.017166827985146e-06   1.5388013881194502e-06   -5.72424555968004e-06
-5.457467124299594e-06   7.581680204097685e-07   -3.593126074163185e-06
-5.457467124299594e-06   7.581680204097685e-07   -3.593126074163185e-06
-5.457467124299594e-06   7.581680204097685e-07   -3.593126074163185e-06
-5.457467124299594e-06   7.581680204097685e-07   -3.593126074163185e-06
-5.3444859219304414e-06   1.695660725721331e-06   -5.528462829568323e-06
-5.3444859219304414e-06   1.695660725721331e-06   -5.528462829568323e-06
-5.3444859219304414e-06   1.695660725721331e-06   -5.528462829568323e-06
-5.3444859219304414e-06   1.695660725721331e-06   -5.528462829568323e-06
-6.692725575247071e-06   8.991837696945091e-07   -2.803510567091162e-06
-6.692725575247071e-06   8.991837696945091e-07   -2.803510567091162e-06
-6.692725575247071e-06   8.991837696945091e-07   -2.803510567091162e-06
-6.692725575247071e-06   8.991837696945091e-07   -2.803510567091162e-06
-5.983470445791027e-06   1.2321724176613024e-06   -4.18539563829799e-06
-5.983470445791027e-06   1.2321724176613024e-06   -4.18539563829799e-06
-5.983470445791027e-06   1.2321724176613024e-06   -4.18539563829799e-06
-5.983470445791027e-06   1.2321724176613024e-06   -4.18539563829799e-06
-6.692725575247057e-06   1.695660725721331e-06   -5.050576655952224e-06
-6.692725575247057e-06   1.695660725721331e-06   -5.050576655952224e-06
-6.692725575247057e-06   1.695660725721331e-06   -5.050576655952224e-06
-6.692725575247057e-06   1.695660725721331e-06   -5.050576655952224e-06
-5.344485921930455e-06   8.991837696945091e-07   -3.2813967407072404e-06
-5.344485921930455e-06   8.991837696945091e-07   -3.2813967407072404e-06
-5.344485921930455e-06   8.991837696945091e-07   -3.2813967407072404e-06
-5.344485921930455e-06   8.991837696945091e-07   -3.2813967407072404e-06
-5.2698358861734765e-06   1.8949665383910768e-06   -4.679938827944531e-06
-5.2698358861734765e-06   1.8949665383910768e-06   -4.679938827944531e-06
-5.2698358861734765e-06   1.8949665383910768e-06   -4.679938827944531e-06
-5.2698358861734765e-06   1.8949665383910768e-06   -4.679938827944531e-06
-6.280227011306713e-06   1.1233577073241656e-06   -2.532988320748966e-06
-6.280227011306713e-06   1.1233577073241656e-06   -2.532988320748966e-06
-6.280227011306713e-06   1.1233577073241656e-06   -2.532988320748966e-06
-6.280227011306713e-06   1.1233577073241656e-06   -2.532988320748966e-06
-5.705600184384465e-06   1.338399193379612e-06   -3.619724590586188e-06
-5.705600184384465e-06   1.338399193379612e-06   -3.619724590586188e-06
-5.705600184384465e-06   1.338399193379612e-06   -3.619724590586188e-06
-5.705600184384465e-06   1.338399193379612e-06   -3.619724590586188e-06
-5.536007438152629e-06   6.293591301481021e-07   -1.0315384950751368e-05
-5.536007438152629e-06   6.293591301481021e-07   -1.0315384950751368e-05
-5.536007438152629e-06   6.293591301481021e-07   -1.0315384950751368e-05
-5.536007438152629e-06   6.293591301481021e-07   -1.0315384950751368e-05
-3.99305855095735e-06   2.85646600688182e-07   -7.950030989768562e-06
-3.99305855095735e-06   2.85646600688182e-07   -7.950030989768562e-06
-3.99305855095735e-06   2.85646600688182e-07   -7.950030989768562e-06
-3.99305855095735e-06   2.85646600688182e-07   -7.950030989768562e-06
-3.943620045177707e-06   9.826677479351641e-07   -1.027843553859652e-05
-3.943620045177707e-06   9.826677479351641e-07   -1.027843553859652e-05
-3.943620045177707e-06   9.826677479351641e-07   -1.027843553859652e-05
-3.943620045177707e-06   9.826677479351641e-07   -1.027843553859652e-05
-5.457467124299601e-06   6.028811819572006e-07   -7.527485133806524e-06
-5.457467124299601e-06   6.028811819572006e-07   -7.527485133806524e-06
-5.457467124299601e-06   6.028811819572006e-07   -7.527485133806524e-06
-5.457467124299601e-06   6.028811819572006e-07   -7.527485133806524e-06
-4.68632396883704e-06   6.882219135367993e-07   -8.863928165192097e-06
-4.68632396883704e-06   6.882219135367993e-07   -8.863928165192097e-06
-4.68632396883704e-06   6.882219135367993e-07   -8.863928165192097e-06
-4.68632396883704e-06   6.882219135367993e-07   -8.863928165192097e-06
-5.457467124299581e-06   9.826677479351641e-07   -1.0050563599009693e-05
-5.457467124299581e-06   9.826677479351641e-07   -1.0050563599009693e-05
-5.457467124299581e-06   9.826677479351641e-07   -1.0050563599009693e-05
-5.457467124299581e-06   9.826677479351641e-07   -1.0050563599009693e-05
-3.943620045177707e-06   6.028811819572548e-07   -7.755357073393337e-06
-3.943620045177707e-06   6.028811819572548e-07   -7.755357073393337e-06
-3.943620045177707e-06   6.028811819572548e-07   -7.755357073393337e-06
-3.943620045177707e-06   6.028811819572548e-07   -7.755357073393337e-06
-3.888748100661257e-06   1.3054930844470542e-06   -1.0111894633256757e-05
-3.888748100661257e-06   1.3054930844470542e-06   -1.0111894633256757e-05
-3.888748100661257e-06   1.3054930844470542e-06   -1.0111894633256757e-05
-3.888748100661257e-06   1.3054930844470542e-06   -1.0111894633256757e-05
-5.344485921930462e-06   8.992232104728434e-07   -7.441903006756811e-06
-5.344485921930462e-06   8.992232104728434e-07   -7.441903006756811e-06
-5.344485921930462e-06   8.992232104728434e-07   -7.441903006756811e-06
-5.344485921930462e-06   8.992232104728434e-07   -7.441903006756811e-06
-4.620271241493616e-06   9.462035237997428e-07   -8.677115662147623e-06
-4.620271241493616e-06   9.462035237997428e-07   -8.677115662147623e-06
-4.620271241493616e-06   9.462035237997428e-07   -8.677115662147623e-06
-4.620271241493616e-06   9.462035237997428e-07   -8.677115662147623e-06
-5.3444859219304414e-06   1.3054930844470542e-06   -9.868132708872192e-06
-5.3444859219304414e-06   1.3054930844470542e-06   -9.868132708872192e-06
-5.3444859219304414e-06   1.3054930844470542e-06   -9.868132708872192e-06
-5.3444859219304414e-06   1.3054930844470542e-06   -9.868132708872192e-06
-3.8887481006612466e-06   8.992232104727891e-07   -7.685664931141349e-06
-3.8887481006612466e-06   8.992232104727891e-07   -7.685664931141349e-06
-3.8887481006612466e-06   8.992232104727891e-07   -7.685664931141349e-06
-3.8887481006612466e-06   8.992232104727891e-07   -7.685664931141349e-06
-3.8407236720502534e-06   1.6575168336110252e-06   -1.0210140563525282e-05
-3.8407236720502534e-06   1.6575168336110252e-06   -1.0210140563525282e-05
-3.8407236720502534e-06   1.6575168336110252e-06   -1.0210140563525282e-05
-3.8407236720502534e-06   1.6575168336110252e-06   -1.0210140563525282e-05
-5.269835886173497e-06   1.2298449784924471e-06   -7.57168376024867e-06
-5.269835886173497e-06   1.2298449784924471e-06   -7.57168376024867e-06
-5.269835886173497e-06   1.2298449784924471e-06   -7.57168376024867e-06
-5.269835886173497e-06   1.2298449784924471e-06   -7.57168376024867e-06
-4.597102873626237e-06   1.208993070806678e-06   -8.680394303216032e-06
-4.597102873626237e-06   1.208993070806678e-06   -8.680394303216032e-06
-4.597102873626237e-06   1.208993070806678e-06   -8.680394303216032e-06
-4.597102873626237e-06   1.208993070806678e-06   -8.680394303216032e-06
-3.99305855095734e-06   1.1231904597532299e-07   -1.168132701711075e-05
-3.99305855095734e-06   1.1231904597532299e-07   -1.168132701711075e-05
-3.99305855095734e-06   1.1231904597532299e-07   -1.168132701711075e-05
-3.99305855095734e-06   1.1231904597532299e-07   -1.168132701711075e-05
-2.4841069164199074e-06   1.6951859841627661e-07   -9.132087894750499e-06
-2.4841069164199074e-06   1.6951859841627661e-07   -9.132087894750499e-06
-2.4841069164199074e-06   1.6951859841627661e-07   -9.132087894750499e-06
-2.4841069164199074e-06   1.6951859841627661e-07   -9.132087894750499e-06
-2.4364009471683777e-06   4.689438886988325e-07   -1.1530608699365427e-05
-2.4364009471683777e-06   4.689438886988325e-07   -1.1530608699365427e-05
-2.4364009471683777e-06   4.689438886988325e-07   -1.1530608699365427e-05
-2.4364009471683777e-06   4.689438886988325e-07   -1.1530608699365427e-05
-3.943620045177707e-06   4.941584818977159e-07   -9.033705625269085e-06
-3.943620045177707e-06   4.941584818977159e-07   -9.033705625269085e-06
-3.943620045177707e-06   4.941584818977159e-07   -9.033705625269085e-06
-3.943620045177707e-06   4.941584818977159e-07   -9.033705625269085e-06
-3.1935161866361726e-06   3.5730350316165926e-07   -1.0201765735596898e-05
-3.1935161866361726e-06   3.5730350316165926e-07   -1.0201765735596898e-05
-3.1935161866361726e-06   3.5730350316165926e-07   -1.0201765735596898e-05
-3.1935161866361726e-06   3.5730350316165926e-07   -1.0201765735596898e-05
-3.9436200451777e-06   4.689438886988596e-07   -1.1545737455284703e-05
-3.9436200451777e-06   4.689438886988596e-07   -1.1545737455284703e-05
-3.9436200451777e-06   4.689438886988596e-07   -1.1545737455284703e-05
-3.9436200451777e-06   4.689438886988596e-07   -1.1545737455284703e-05
-2.4364009471683777e-06   4.941584818977159e-07   -9.018576869349829e-06
-2.4364009471683777e-06   4.941584818977159e-07   -9.018576869349829e-06
-2.4364009471683777e-06   4.941584818977159e-07   -9.018576869349829e-06
-2.4364009471683777e-06   4.941584818977159e-07   -9.018576869349829e-06
-2.381864534820918e-06   8.267308404354742e-07   -1.1559112998853671e-05
-2.381864534820918e-06   8.267308404354742e-07   -1.1559112998853671e-05
-2.381864534820918e-06   8.267308404354742e-07   -1.1559112998853671e-05
-2.381864534820918e-06   8.267308404354742e-07   -1.1559112998853671e-05
-3.8887481006612466e-06   8.21572302755558e-07   -9.044545266511762e-06
-3.8887481006612466e-06   8.21572302755558e-07   -9.044545266511762e-06
-3.8887481006612466e-06   8.21572302755558e-07   -9.044545266511762e-06
-3.8887481006612466e-06   8.21572302755558e-07   -9.044545266511762e-06
-3.1629523169027443e-06   6.372744863248378e-07   -1.0143626216250852e-05
-3.1629523169027443e-06   6.372744863248378e-07   -1.0143626216250852e-05
-3.1629523169027443e-06   6.372744863248378e-07   -1.0143626216250852e-05
-3.1629523169027443e-06   6.372744863248378e-07   -1.0143626216250852e-05
-3.88874810066124e-06   8.267308404355013e-07   -1.1556017876245673e-05
-3.88874810066124e-06   8.267308404355013e-07   -1.1556017876245673e-05
-3.88874810066124e-06   8.267308404355013e-07   -1.1556017876245673e-05
-3.88874810066124e-06   8.267308404355013e-07   -1.1556017876245673e-05
-2.381864534820922e-06   8.215723027555038e-07   -9.047640389119781e-06
-2.381864534820922e-06   8.215723027555038e-07   -9.047640389119781e-06
-2.381864534820922e-06   8.215723027555038e-07   -9.047640389119781e-06
-2.381864534820922e-06   8.215723027555038e-07   -9.047640389119781e-06
-2.333116650102963e-06   1.1907725454126316e-06   -1.1753380727589816e-05
-2.333116650102963e-06   1.1907725454126316e-06   -1.1753380727589816e-05
-2.333116650102963e-06   1.1907725454126316e-06   -1.1753380727589816e-05
-2.333116650102963e-06   1.1907725454126316e-06   -1.1753380727589816e-05
-3.840723672050257e-06   1.1540085735184781e-06   -9.218643974541097e-06
-3.840723672050257e-06   1.1540085735184781e-06   -9.218643974541097e-06
-3.840723672050257e-06   1.1540085735184781e-06   -9.218643974541097e-06
-3.840723672050257e-06   1.1540085735184781e-06   -9.218643974541097e-06
-3.13854801339971e-06   9.209927557417199e-07   -1.0249127248292662e-05
-3.13854801339971e-06   9.209927557417199e-07   -1.0249127248292662e-05
-3.13854801339971e-06   9.209927557417199e-07   -1.0249127248292662e-05
-3.13854801339971e-06   9.209927557417199e-07   -1.0249127248292662e-05
-2.484106916419899e-06   -3.5942478804221276e-07   -1.02297498844735e-05
-2.484106916419899e-06   -3.5942478804221276e-07   -1.02297498844735e-05
-2.484106916419899e-06   -3.5942478804221276e-07   -1.02297498844735e-05
-2.484106916419899e-06   -3.5942478804221276e-07   -1.02297498844735e-05
-1.0312955533690142e-06   8.290475783775866e-08   -7.542999885194041e-06
-1.0312955533690142e-06   8.290475783775866e-08   -7.542999885194041e-06
-1.0312955533690142e-06   8.290475783775866e-08   -7.542999885194041e-06
-1.0312955533690142e-06   8.290475783775866e-08   -7.542999885194041e-06
-9.579449875254133e-07   -2.210601572101697e-08   -9.894651314819905e-06
-9.579449875254133e-07   -2.210601572101697e-08   -9.894651314819905e-06
-9.579449875254133e-07   -2.210601572101697e-08   -9.894651314819905e-06
-9.579449875254133e-07   -2.210601572101697e-08   -9.894651314819905e-06
-2.436400947168374e-06   3.9855510629776625e-07   -7.682954721959488e-06
-2.436400947168374e-06   3.9855510629776625e-07   -7.682954721959488e-06
-2.436400947168374e-06   3.9855510629776625e-07   -7.682954721959488e-06
-2.436400947168374e-06   3.9855510629776625e-07   -7.682954721959488e-06
-1.7099213964975023e-06   5.7637418731867895e-08   -8.689203360538232e-06
-1.7099213964975023e-06   5.7637418731867895e-08   -8.689203360538232e-06
-1.7099213964975023e-06   5.7637418731867895e-08   -8.689203360538232e-06
-1.7099213964975023e-06   5.7637418731867895e-08   -8.689203360538232e-06
-2.4364009471683696e-06   -2.210601572101697e-08   -1.0147047988031148e-05
-2.4364009471683696e-06   -2.210601572101697e-08   -1.0147047988031148e-05
-2.4364009471683696e-06   -2.210601572101697e-08   -1.0147047988031148e-05
-2.4364009471683696e-06   -2.210601572101697e-08   -1.0147047988031148e-05
-9.579449875254133e-07   3.9855510629776625e-07   -7.430558048748245e-06
-9.579449875254133e-07   3.9855510629776625e-07   -7.430558048748245e-06
-9.579449875254133e-07   3.9855510629776625e-07   -7.430558048748245e-06
-9.579449875254133e-07   3.9855510629776625e-07   -7.430558048748245e-06
-8.456770754003232e-07   3.010981552061811e-07   -1.0023733864263448e-05
-8.456770754003232e-07   3.010981552061811e-07   -1.0023733864263448e-05
-8.456770754003232e-07   3.010981552061811e-07   -1.0023733864263448e-05
-8.456770754003232e-07   3.010981552061811e-07   -1.0023733864263448e-05
-2.381864534820918e-06   6.948355633504743e-07   -7.69966387678237e-06
-2.381864534820918e-06   6.948355633504743e-07   -7.69966387678237e-06
-2.381864534820918e-06   6.948355633504743e-07   -7.69966387678237e-06
-2.381864534820918e-06   6.948355633504743e-07   -7.69966387678237e-06
-1.666576244676961e-06   3.131945989729443e-07   -8.662826448395768e-06
-1.666576244676961e-06   3.131945989729443e-07   -8.662826448395768e-06
-1.666576244676961e-06   3.131945989729443e-07   -8.662826448395768e-06
-1.666576244676961e-06   3.131945989729443e-07   -8.662826448395768e-06
-2.381864534820912e-06   3.010981552061811e-07   -1.0259976309150018e-05
-2.381864534820912e-06   3.010981552061811e-07   -1.0259976309150018e-05
-2.381864534820912e-06   3.010981552061811e-07   -1.0259976309150018e-05
-2.381864534820912e-06   3.010981552061811e-07   -1.0259976309150018e-05
-8.456770754003232e-07   6.948355633504743e-07   -7.463421431895789e-06
-8.456770754003232e-07   6.948355633504743e-07   -7.463421431895789e-06
-8.456770754003232e-07   6.948355633504743e-07   -7.463421431895789e-06
-8.456770754003232e-07   6.948355633504743e-07   -7.463421431895789e-06
-7.678626617673795e-07   6.700715064263823e-07   -1.0303721297357535e-05
-7.678626617673795e-07   6.700715064263823e-07   -1.0303721297357535e-05
-7.678626617673795e-07   6.700715064263823e-07   -1.0303721297357535e-05
-7.678626617673795e-07   6.700715064263823e-07   -1.0303721297357535e-05
-2.333116650102963e-06   1.0283559156449153e-06   -7.90993529566264e-06
-2.333116650102963e-06   1.0283559156449153e-06   -7.90993529566264e-06
-2.333116650102963e-06   1.0283559156449153e-06   -7.90993529566264e-06
-2.333116650102963e-06   1.0283559156449153e-06   -7.90993529566264e-06
-1.6218136078125204e-06   5.795473670832003e-07   -8.826155237009675e-06
-1.6218136078125204e-06   5.795473670832003e-07   -8.826155237009675e-06
-1.6218136078125204e-06   5.795473670832003e-07   -8.826155237009675e-06
-1.6218136078125204e-06   5.795473670832003e-07   -8.826155237009675e-06
-1.0312955533690074e-06   -6.523783747506597e-07   -5.5330342966936074e-06
-1.0312955533690074e-06   -6.523783747506597e-07   -5.5330342966936074e-06
-1.0312955533690074e-06   -6.523783747506597e-07   -5.5330342966936074e-06
-1.0312955533690074e-06   -6.523783747506597e-07   -5.5330342966936074e-06
2.5685800392156533e-10   1.266331605285424e-07   -3.3463733565712367e-06
2.5685800392156533e-10   1.266331605285424e-07   -3.3463733565712367e-06
2.5685800392156533e-10   1.266331605285424e-07   -3.3463733565712367e-06
2.5685800392156533e-10   1.266331605285424e-07   -3.3463733565712367e-06
4.091039789557647e-07   -4.220764498504416e-07   -5.256410843672957e-06
4.091039789557647e-07   -4.220764498504416e-07   -5.256410843672957e-06
4.091039789557647e-07   -4.220764498504416e-07   -5.256410843672957e-06
4.091039789557647e-07   -4.220764498504416e-07   -5.256410843672957e-06
-9.579449875254133e-07   3.775947934715556e-07   -3.457798645530789e-06
-9.579449875254133e-07   3.775947934715556e-07   -3.457798645530789e-06
-9.579449875254133e-07   3.775947934715556e-07   -3.457798645530789e-06
-9.579449875254133e-07   3.775947934715556e-07   -3.457798645530789e-06
-3.818552722609184e-07   -1.101537429661092e-07   -4.125299049109185e-06
-3.818552722609184e-07   -1.101537429661092e-07   -4.125299049109185e-06
-3.818552722609184e-07   -1.101537429661092e-07   -4.125299049109185e-06
-3.818552722609184e-07   -1.101537429661092e-07   -4.125299049109185e-06
-9.579449875254065e-07   -4.220764498504416e-07   -5.736213589666137e-06
-9.579449875254065e-07   -4.220764498504416e-07   -5.736213589666137e-06
-9.579449875254065e-07   -4.220764498504416e-07   -5.736213589666137e-06
-9.579449875254065e-07   -4.220764498504416e-07   -5.736213589666137e-06
4.091039789557647e-07   3.775947934715556e-07   -2.9779958995376234e-06
4.091039789557647e-07   3.775947934715556e-07   -2.9779958995376234e-06
4.091039789557647e-07   3.775947934715556e-07   -2.9779958995376234e-06
4.091039789557647e-07   3.775947934715556e-07   -2.9779958995376234e-06
7.324329386927347e-07   -2.6471304762488816e-07   -5.531439959188613e-06
7.324329386927347e-07   -2.6471304762488816e-07   -5.531439959188613e-06
7.324329386927347e-07   -2.6471304762488816e-07   -5.531439959188613e-06
7.324329386927347e-07   -2.6471304762488816e-07   -5.531439959188613e-06
-8.456770754003232e-07   5.179720135223059e-07   -3.3708676390551556e-06
-8.456770754003232e-07   5.179720135223059e-07   -3.3708676390551556e-06
-8.456770754003232e-07   5.179720135223059e-07   -3.3708676390551556e-06
-8.456770754003232e-07   5.179720135223059e-07   -3.3708676390551556e-06
-1.7901971483914246e-07   1.1315750056916339e-08   -4.177969481911157e-06
-1.7901971483914246e-07   1.1315750056916339e-08   -4.177969481911157e-06
-1.7901971483914246e-07   1.1315750056916339e-08   -4.177969481911157e-06
-1.7901971483914246e-07   1.1315750056916339e-08   -4.177969481911157e-06
-8.456770754003232e-07   -2.6471304762488816e-07   -6.001050995876954e-06
-8.456770754003232e-07   -2.6471304762488816e-07   -6.001050995876954e-06
-8.456770754003232e-07   -2.6471304762488816e-07   -6.001050995876954e-06
-8.456770754003232e-07   -2.6471304762488816e-07   -6.001050995876954e-06
7.324329386927347e-07   5.179720135223059e-07   -2.9012566023668284e-06
7.324329386927347e-07   5.179720135223059e-07   -2.9012566023668284e-06
7.324329386927347e-07   5.179720135223059e-07   -2.9012566023668284e-06
7.324329386927347e-07   5.179720135223059e-07   -2.9012566023668284e-06
1.1434910197016498e-06   4.1551785990402235e-08   -6.183560755324504e-06
1.1434910197016498e-06   4.1551785990402235e-08   -6.183560755324504e-06
1.1434910197016498e-06   4.1551785990402235e-08   -6.183560755324504e-06
1.1434910197016498e-06   4.1551785990402235e-08   -6.183560755324504e-06
-7.678626617673795e-07   7.633504419449731e-07   -3.4310504797821465e-06
-7.678626617673795e-07   7.633504419449731e-07   -3.4310504797821465e-06
-7.678626617673795e-07   7.633504419449731e-07   -3.4310504797821465e-06
-7.678626617673795e-07   7.633504419449731e-07   -3.4310504797821465e-06
1.2765066544384075e-09   1.4641252935471962e-07   -4.3427863462644636e-06
1.2765066544384075e-09   1.4641252935471962e-07   -4.3427863462644636e-06
1.2765066544384075e-09   1.4641252935471962e-07   -4.3427863462644636e-06
1.2765066544384075e-09   1.4641252935471962e-07   -4.3427863462644636e-06
-2.4933067521248453e-06   4.822809664571312e-07   -4.606714307384363e-06
-2.4933067521248453e-06   4.822809664571312e-07   -4.606714307384363e-06
-2.4933067521248453e-06   4.822809664571312e-07   -4.606714307384363e-06
-2.4933067521248453e-06   4.822809664571312e-07   -4.606714307384363e-06
-2.617523263660597e-06   -2.381100776060541e-07   -5.245976453048567e-06
-2.617523263660597e-06   -2.381100776060541e-07   -5.245976453048567e-06
-2.617523263660597e-06   -2.381100776060541e-07   -5.245976453048567e-06
-2.617523263660597e-06   -2.381100776060541e-07   -5.245976453048567e-06
-2.4916956875457454e-06   7.581680204097685e-07   -4.330573309022795e-06
-2.4916956875457454e-06   7.581680204097685e-07   -4.330573309022795e-06
-2.4916956875457454e-06   7.581680204097685e-07   -4.330573309022795e-06
-2.4916956875457454e-06   7.581680204097685e-07   -4.330573309022795e-06
-2.041767773466402e-06   -1.671166635988392e-08   -4.615525353759785e-06
-2.041767773466402e-06   -1.671166635988392e-08   -4.615525353759785e-06
-2.041767773466402e-06   -1.671166635988392e-08   -4.615525353759785e-06
-2.041767773466402e-06   -1.671166635988392e-08   -4.615525353759785e-06
-2.3060836967300356e-06   3.3251553899779976e-07   -4.384535138201876e-06
-2.3060836967300356e-06   3.3251553899779976e-07   -4.384535138201876e-06
-2.3060836967300356e-06   3.3251553899779976e-07   -4.384535138201876e-06
-2.3060836967300356e-06   3.3251553899779976e-07   -4.384535138201876e-06
-2.041767773466402e-06   7.581680204097685e-07   -3.865645496960927e-06
-2.041767773466402e-06   7.581680204097685e-07   -3.865645496960927e-06
-2.041767773466402e-06   7.581680204097685e-07   -3.865645496960927e-06
-2.041767773466402e-06   7.581680204097685e-07   -3.865645496960927e-06
-2.491695687545752e-06   -1.671166635988392e-08   -5.080453165821666e-06
-2.491695687545752e-06   -1.671166635988392e-08   -5.080453165821666e-06
-2.491695687545752e-06   -1.671166635988392e-08   -5.080453165821666e-06
-2.491695687545752e-06   -1.671166635988392e-08   -5.080453165821666e-06
-2.3318757142697506e-06   8.991837696945091e-07   -4.017972991315975e-06
-2.3318757142697506e-06   8.991837696945091e-07   -4.017972991315975e-06
-2.3318757142697506e-06   8.991837696945091e-07   -4.017972991315975e-06
-2.3318757142697506e-06   8.991837696945091e-07   -4.017972991315975e-06
-1.6714389019337498e-06   1.1040217577239133e-07   -4.6454320555226595e-06
-1.6714389019337498e-06   1.1040217577239133e-07   -4.6454320555226595e-06
-1.6714389019337498e-06   1.1040217577239133e-07   -4.6454320555226595e-06
-1.6714389019337498e-06   1.1040217577239133e-07   -4.6454320555226595e-06
-2.095195839885771e-06   4.472199164718511e-07   -4.141261136689204e-06
-2.095195839885771e-06   4.472199164718511e-07   -4.141261136689204e-06
-2.095195839885771e-06   4.472199164718511e-07   -4.141261136689204e-06
-2.095195839885771e-06   4.472199164718511e-07   -4.141261136689204e-06
-1.6714389019337498e-06   8.991837696945091e-07   -3.544704034962726e-06
-1.6714389019337498e-06   8.991837696945091e-07   -3.544704034962726e-06
-1.6714389019337498e-06   8.991837696945091e-07   -3.544704034962726e-06
-1.6714389019337498e-06   8.991837696945091e-07   -3.544704034962726e-06
-2.3318757142697506e-06   1.1040217577244554e-07   -5.118701011875922e-06
-2.3318757142697506e-06   1.1040217577244554e-07   -5.118701011875922e-06
-2.3318757142697506e-06   1.1040217577244554e-07   -5.118701011875922e-06
-2.3318757142697506e-06   1.1040217577244554e-07   -5.118701011875922e-06
-2.209765806860612e-06   1.1233577073241656e-06   -3.730966574850994e-06
-2.209765806860612e-06   1.1233577073241656e-06   -3.730966574850994e-06
-2.209765806860612e-06   1.1233577073241656e-06   -3.730966574850994e-06
-2.209765806860612e-06   1.1233577073241656e-06   -3.730966574850994e-06
-1.2141975536347115e-06   3.632733050190477e-07   -4.934196355511092e-06
-1.2141975536347115e-06   3.632733050190477e-07   -4.934196355511092e-06
-1.2141975536347115e-06   3.632733050190477e-07   -4.934196355511092e-06
-1.2141975536347115e-06   3.632733050190477e-07   -4.934196355511092e-06
-1.8338460721630619e-06   5.595067268410084e-07   -4.019188877723659e-06
-1.8338460721630619e-06   5.595067268410084e-07   -4.019188877723659e-06
-1.8338460721630619e-06   5.595067268410084e-07   -4.019188877723659e-06
-1.8338460721630619e-06   5.595067268410084e-07   -4.019188877723659e-06
-2.61752326366059e-06   2.856466006881278e-07   -8.481712479086243e-06
-2.61752326366059e-06   2.856466006881278e-07   -8.481712479086243e-06
-2.61752326366059e-06   2.856466006881278e-07   -8.481712479086243e-06
-2.61752326366059e-06   2.856466006881278e-07   -8.481712479086243e-06
-3.0861738421015524e-06   -4.5468179962412925e-08   -9.461465644878175e-06
-3.0861738421015524e-06   -4.5468179962412925e-08   -9.461465644878175e-06
-3.0861738421015524e-06   -4.5468179962412925e-08   -9.461465644878175e-06
-3.0861738421015524e-06   -4.5468179962412925e-08   -9.461465644878175e-06
-2.986533608159261e-06   6.028811819572006e-07   -8.485601713712138e-06
-2.986533608159261e-06   6.028811819572006e-07   -8.485601713712138e-06
-2.986533608159261e-06   6.028811819572006e-07   -8.485601713712138e-06
-2.986533608159261e-06   6.028811819572006e-07   -8.485601713712138e-06
-2.491695687545759e-06   2.3509894021394575e-07   -9.08966223635532e-06
-2.491695687545759e-06   2.3509894021394575e-07   -9.08966223635532e-06
-2.491695687545759e-06   2.3509894021394575e-07   -9.08966223635532e-06
-2.491695687545759e-06   2.3509894021394575e-07   -9.08966223635532e-06
-2.763089567118503e-06   3.328593380469793e-07   -8.695995342434054e-06
-2.763089567118503e-06   3.328593380469793e-07   -8.695995342434054e-06
-2.763089567118503e-06   3.328593380469793e-07   -8.695995342434054e-06
-2.763089567118503e-06   3.328593380469793e-07   -8.695995342434054e-06
-2.4916956875457386e-06   6.028811819572006e-07   -8.264932368666093e-06
-2.4916956875457386e-06   6.028811819572006e-07   -8.264932368666093e-06
-2.4916956875457386e-06   6.028811819572006e-07   -8.264932368666093e-06
-2.4916956875457386e-06   6.028811819572006e-07   -8.264932368666093e-06
-2.9865336081592575e-06   2.3509894021394575e-07   -9.310331581401283e-06
-2.9865336081592575e-06   2.3509894021394575e-07   -9.310331581401283e-06
-2.9865336081592575e-06   2.3509894021394575e-07   -9.310331581401283e-06
-2.9865336081592575e-06   2.3509894021394575e-07   -9.310331581401283e-06
-2.8827244844555113e-06   8.992232104728434e-07   -8.414139083983579e-06
-2.8827244844555113e-06   8.992232104728434e-07   -8.414139083983579e-06
-2.8827244844555113e-06   8.992232104728434e-07   -8.414139083983579e-06
-2.8827244844555113e-06   8.992232104728434e-07   -8.414139083983579e-06
-2.3318757142697574e-06   5.064568327761416e-07   -9.096560541008448e-06
-2.3318757142697574e-06   5.064568327761416e-07   -9.096560541008448e-06
-2.3318757142697574e-06   5.064568327761416e-07   -9.096560541008448e-06
-2.3318757142697574e-06   5.064568327761416e-07   -9.096560541008448e-06
-2.663428343940163e-06   5.606528721712909e-07   -8.576490448528246e-06
-2.663428343940163e-06   5.606528721712909e-07   -8.576490448528246e-06
-2.663428343940163e-06   5.606528721712909e-07   -8.576490448528246e-06
-2.663428343940163e-06   5.606528721712909e-07   -8.576490448528246e-06
-2.3318757142697506e-06   8.992232104728434e-07   -8.178479257365525e-06
-2.3318757142697506e-06   8.992232104728434e-07   -8.178479257365525e-06
-2.3318757142697506e-06   8.992232104728434e-07   -8.178479257365525e-06
-2.3318757142697506e-06   8.992232104728434e-07   -8.178479257365525e-06
-2.8827244844555045e-06   5.064568327760874e-07   -9.332220367626434e-06
-2.8827244844555045e-06   5.064568327760874e-07   -9.332220367626434e-06
-2.8827244844555045e-06   5.064568327760874e-07   -9.332220367626434e-06
-2.8827244844555045e-06   5.064568327760874e-07   -9.332220367626434e-06
-2.785662991348661e-06   1.2298449784925013e-06   -8.554051551982274e-06
-2.785662991348661e-06   1.2298449784925013e-06   -8.554051551982274e-06
-2.785662991348661e-06   1.2298449784925013e-06   -8.554051551982274e-06
-2.785662991348661e-06   1.2298449784925013e-06   -8.554051551982274e-06
-2.209765806860612e-06   8.175869180395757e-07   -9.266525356523898e-06
-2.209765806860612e-06   8.175869180395757e-07   -9.266525356523898e-06
-2.209765806860612e-06   8.175869180395757e-07   -9.266525356523898e-06
-2.209765806860612e-06   8.175869180395757e-07   -9.266525356523898e-06
-2.5765802330180797e-06   8.010318495489123e-07   -8.64523493850044e-06
-2.5765802330180797e-06   8.010318495489123e-07   -8.64523493850044e-06
-2.5765802330180797e-06   8.010318495489123e-07   -8.64523493850044e-06
-2.5765802330180797e-06   8.010318495489123e-07   -8.64523493850044e-06
-3.0861738421015423e-06   1.6951859841627661e-07   -9.896757983923038e-06
-3.0861738421015423e-06   1.6951859841627661e-07   -9.896757983923038e-06
-3.0861738421015423e-06   1.6951859841627661e-07   -9.896757983923038e-06
-3.0861738421015423e-06   1.6951859841627661e-07   -9.896757983923038e-06
-3.570092137064507e-06   2.4115942182632594e-07   -1.0660303981481977e-05
-3.570092137064507e-06   2.4115942182632594e-07   -1.0660303981481977e-05
-3.570092137064507e-06   2.4115942182632594e-07   -1.0660303981481977e-05
-3.570092137064507e-06   2.4115942182632594e-07   -1.0660303981481977e-05
-3.472648088161777e-06   4.941584818976617e-07   -9.7408003467661e-06
-3.472648088161777e-06   4.941584818976617e-07   -9.7408003467661e-06
-3.472648088161777e-06   4.941584818976617e-07   -9.7408003467661e-06
-3.472648088161777e-06   4.941584818976617e-07   -9.7408003467661e-06
-2.986533608159261e-06   5.327416799340225e-07   -1.057414106559208e-05
-2.986533608159261e-06   5.327416799340225e-07   -1.057414106559208e-05
-2.986533608159261e-06   5.327416799340225e-07   -1.057414106559208e-05
-2.986533608159261e-06   5.327416799340225e-07   -1.057414106559208e-05
-3.2590636709690256e-06   4.0528297622473503e-07   -1.0043449072017011e-05
-3.2590636709690256e-06   4.0528297622473503e-07   -1.0043449072017011e-05
-3.2590636709690256e-06   4.0528297622473503e-07   -1.0043449072017011e-05
-3.2590636709690256e-06   4.0528297622473503e-07   -1.0043449072017011e-05
-2.9865336081592507e-06   4.941584818977159e-07   -9.763950265587851e-06
-2.9865336081592507e-06   4.941584818977159e-07   -9.763950265587851e-06
-2.9865336081592507e-06   4.941584818977159e-07   -9.763950265587851e-06
-2.9865336081592507e-06   4.941584818977159e-07   -9.763950265587851e-06
-3.4726480881617837e-06   5.327416799340225e-07   -1.0550991146770328e-05
-3.4726480881617837e-06   5.327416799340225e-07   -1.0550991146770328e-05
-3.4726480881617837e-06   5.327416799340225e-07   -1.0550991146770328e-05
-3.4726480881617837e-06   5.327416799340225e-07   -1.0550991146770328e-05
-3.369436203321144e-06   8.215723027555038e-07   -9.767674039217199e-06
-3.369436203321144e-06   8.215723027555038e-07   -9.767674039217199e-06
-3.369436203321144e-06   8.215723027555038e-07   -9.767674039217199e-06
-3.369436203321144e-06   8.215723027555038e-07   -9.767674039217199e-06
-2.8827244844555113e-06   8.304812696501669e-07   -1.0584205617463362e-05
-2.8827244844555113e-06   8.304812696501669e-07   -1.0584205617463362e-05
-2.8827244844555113e-06   8.304812696501669e-07   -1.0584205617463362e-05
-2.8827244844555113e-06   8.304812696501669e-07   -1.0584205617463362e-05
-3.1783626987281366e-06   6.558116726018107e-07   -9.986673502113464e-06
-3.1783626987281366e-06   6.558116726018107e-07   -9.986673502113464e-06
-3.1783626987281366e-06   6.558116726018107e-07   -9.986673502113464e-06
-3.1783626987281366e-06   6.558116726018107e-07   -9.986673502113464e-06
-2.8827244844555045e-06   8.215723027555038e-07   -9.773019419353986e-06
-2.8827244844555045e-06   8.215723027555038e-07   -9.773019419353986e-06
-2.8827244844555045e-06   8.215723027555038e-07   -9.773019419353986e-06
-2.8827244844555045e-06   8.215723027555038e-07   -9.773019419353986e-06
-3.369436203321144e-06   8.304812696501669e-07   -1.0578860237326569e-05
-3.369436203321144e-06   8.304812696501669e-07   -1.0578860237326569e-05
-3.369436203321144e-06   8.304812696501669e-07   -1.0578860237326569e-05
-3.369436203321144e-06   8.304812696501669e-07   -1.0578860237326569e-05
-3.272282036647697e-06   1.1540085735184781e-06   -9.957335429295694e-06
-3.272282036647697e-06   1.1540085735184781e-06   -9.957335429295694e-06
-3.272282036647697e-06   1.1540085735184781e-06   -9.957335429295694e-06
-3.272282036647697e-06   1.1540085735184781e-06   -9.957335429295694e-06
-2.7856629913486646e-06   1.1324639466982677e-06   -1.0755440395368611e-05
-2.7856629913486646e-06   1.1324639466982677e-06   -1.0755440395368611e-05
-2.7856629913486646e-06   1.1324639466982677e-06   -1.0755440395368611e-05
-2.7856629913486646e-06   1.1324639466982677e-06   -1.0755440395368611e-05
-3.104757170515731e-06   9.098990686414767e-07   -1.0090077836589435e-05
-3.104757170515731e-06   9.098990686414767e-07   -1.0090077836589435e-05
-3.104757170515731e-06   9.098990686414767e-07   -1.0090077836589435e-05
-3.104757170515731e-06   9.098990686414767e-07   -1.0090077836589435e-05
-3.5700921370644944e-06   8.290475783775866e-08   -8.530083207848572e-06
-3.5700921370644944e-06   8.290475783775866e-08   -8.530083207848572e-06
-3.5700921370644944e-06   8.290475783775866e-08   -8.530083207848572e-06
-3.5700921370644944e-06   8.290475783775866e-08   -8.530083207848572e-06
-4.087838281387431e-06   5.32600858452702e-07   -9.123175788017864e-06
-4.087838281387431e-06   5.32600858452702e-07   -9.123175788017864e-06
-4.087838281387431e-06   5.32600858452702e-07   -9.123175788017864e-06
-4.087838281387431e-06   5.32600858452702e-07   -9.123175788017864e-06
-3.968517133100434e-06   3.9855510629776625e-07   -8.14870528419913e-06
-3.968517133100434e-06   3.9855510629776625e-07   -8.14870528419913e-06
-3.968517133100434e-06   3.9855510629776625e-07   -8.14870528419913e-06
-3.968517133100434e-06   3.9855510629776625e-07   -8.14870528419913e-06
-3.472648088161777e-06   8.260099649256354e-07   -9.231626607606861e-06
-3.472648088161777e-06   8.260099649256354e-07   -9.231626607606861e-06
-3.472648088161777e-06   8.260099649256354e-07   -9.231626607606861e-06
-3.472648088161777e-06   8.260099649256354e-07   -9.231626607606861e-06
-3.745377781311279e-06   4.920813857444382e-07   -8.576719971515763e-06
-3.745377781311279e-06   4.920813857444382e-07   -8.576719971515763e-06
-3.745377781311279e-06   4.920813857444382e-07   -8.576719971515763e-06
-3.745377781311279e-06   4.920813857444382e-07   -8.576719971515763e-06
-3.472648088161771e-06   3.9855510629782046e-07   -8.405178199375786e-06
-3.472648088161771e-06   3.9855510629782046e-07   -8.405178199375786e-06
-3.472648088161771e-06   3.9855510629782046e-07   -8.405178199375786e-06
-3.472648088161771e-06   3.9855510629782046e-07   -8.405178199375786e-06
-3.968517133100434e-06   8.260099649256354e-07   -8.97515369243019e-06
-3.968517133100434e-06   8.260099649256354e-07   -8.97515369243019e-06
-3.968517133100434e-06   8.260099649256354e-07   -8.97515369243019e-06
-3.968517133100434e-06   8.260099649256354e-07   -8.97515369243019e-06
-3.8110657076271763e-06   6.948355633504743e-07   -8.179200572697208e-06
-3.8110657076271763e-06   6.948355633504743e-07   -8.179200572697208e-06
-3.8110657076271763e-06   6.948355633504743e-07   -8.179200572697208e-06
-3.8110657076271763e-06   6.948355633504743e-07   -8.179200572697208e-06
-3.369436203321139e-06   1.0956638203215218e-06   -9.155746700723146e-06
-3.369436203321139e-06   1.0956638203215218e-06   -9.155746700723146e-06
-3.369436203321139e-06   1.0956638203215218e-06   -9.155746700723146e-06
-3.369436203321139e-06   1.0956638203215218e-06   -9.155746700723146e-06
-3.638528381398272e-06   7.257641445666645e-07   -8.485319931808514e-06
-3.638528381398272e-06   7.257641445666645e-07   -8.485319931808514e-06
-3.638528381398272e-06   7.257641445666645e-07   -8.485319931808514e-06
-3.638528381398272e-06   7.257641445666645e-07   -8.485319931808514e-06
-3.3694362033211297e-06   6.948355633505285e-07   -8.41969752687975e-06
-3.3694362033211297e-06   6.948355633505285e-07   -8.41969752687975e-06
-3.3694362033211297e-06   6.948355633505285e-07   -8.41969752687975e-06
-3.3694362033211297e-06   6.948355633505285e-07   -8.41969752687975e-06
-3.8110657076271864e-06   1.0956638203214676e-06   -8.915249746540579e-06
-3.8110657076271864e-06   1.0956638203214676e-06   -8.915249746540579e-06
-3.8110657076271864e-06   1.0956638203214676e-06   -8.915249746540579e-06
-3.8110657076271864e-06   1.0956638203214676e-06   -8.915249746540579e-06
-3.6881970623228426e-06   1.0283559156449153e-06   -8.405827189416205e-06
-3.6881970623228426e-06   1.0283559156449153e-06   -8.405827189416205e-06
-3.6881970623228426e-06   1.0283559156449153e-06   -8.405827189416205e-06
-3.6881970623228426e-06   1.0283559156449153e-06   -8.405827189416205e-06
-3.272282036647697e-06   1.3962578787525028e-06   -9.319760076739271e-06
-3.272282036647697e-06   1.3962578787525028e-06   -9.319760076739271e-06
-3.272282036647697e-06   1.3962578787525028e-06   -9.319760076739271e-06
-3.272282036647697e-06   1.3962578787525028e-06   -9.319760076739271e-06
-3.561233377882865e-06   9.63200868108697e-07   -8.578340301627628e-06
-3.561233377882865e-06   9.63200868108697e-07   -8.578340301627628e-06
-3.561233377882865e-06   9.63200868108697e-07   -8.578340301627628e-06
-3.561233377882865e-06   9.63200868108697e-07   -8.578340301627628e-06
-4.0878382813874205e-06   1.266331605285424e-07   -4.531045940024301e-06
-4.0878382813874205e-06   1.266331605285424e-07   -4.531045940024301e-06
-4.0878382813874205e-06   1.266331605285424e-07   -4.531045940024301e-06
-4.0878382813874205e-06   1.266331605285424e-07   -4.531045940024301e-06
-5.011442148460467e-06   9.012941650786725e-07   -5.605589115749345e-06
-5.011442148460467e-06   9.012941650786725e-07   -5.605589115749345e-06
-5.011442148460467e-06   9.012941650786725e-07   -5.605589115749345e-06
-5.011442148460467e-06   9.012941650786725e-07   -5.605589115749345e-06
-4.566750867050472e-06   3.775947934715556e-07   -3.701276669601343e-06
-4.566750867050472e-06   3.775947934715556e-07   -3.701276669601343e-06
-4.566750867050472e-06   3.775947934715556e-07   -3.701276669601343e-06
-4.566750867050472e-06   3.775947934715556e-07   -3.701276669601343e-06
-3.968517133100424e-06   1.1687101457721156e-06   -5.173002104231739e-06
-3.968517133100424e-06   1.1687101457721156e-06   -5.173002104231739e-06
-3.968517133100424e-06   1.1687101457721156e-06   -5.173002104231739e-06
-3.968517133100424e-06   1.1687101457721156e-06   -5.173002104231739e-06
-4.230305781719122e-06   6.74175056519506e-07   -4.439966636315767e-06
-4.230305781719122e-06   6.74175056519506e-07   -4.439966636315767e-06
-4.230305781719122e-06   6.74175056519506e-07   -4.439966636315767e-06
-4.230305781719122e-06   6.74175056519506e-07   -4.439966636315767e-06
-3.968517133100417e-06   3.775947934715556e-07   -4.175945880981619e-06
-3.968517133100417e-06   3.775947934715556e-07   -4.175945880981619e-06
-3.968517133100417e-06   3.775947934715556e-07   -4.175945880981619e-06
-3.968517133100417e-06   3.775947934715556e-07   -4.175945880981619e-06
-4.566750867050472e-06   1.1687101457721156e-06   -4.6983328928514425e-06
-4.566750867050472e-06   1.1687101457721156e-06   -4.6983328928514425e-06
-4.566750867050472e-06   1.1687101457721156e-06   -4.6983328928514425e-06
-4.566750867050472e-06   1.1687101457721156e-06   -4.6983328928514425e-06
-4.205058995324242e-06   5.179720135223059e-07   -3.6228159905398946e-06
-4.205058995324242e-06   5.179720135223059e-07   -3.6228159905398946e-06
-4.205058995324242e-06   5.179720135223059e-07   -3.6228159905398946e-06
-4.205058995324242e-06   5.179720135223059e-07   -3.6228159905398946e-06
-3.8110657076271763e-06   1.29102332905017e-06   -4.743302259351681e-06
-3.8110657076271763e-06   1.29102332905017e-06   -4.743302259351681e-06
-3.8110657076271763e-06   1.29102332905017e-06   -4.743302259351681e-06
-3.8110657076271763e-06   1.29102332905017e-06   -4.743302259351681e-06
-4.0475212308291994e-06   7.996504416894453e-07   -4.054385988265275e-06
-4.0475212308291994e-06   7.996504416894453e-07   -4.054385988265275e-06
-4.0475212308291994e-06   7.996504416894453e-07   -4.054385988265275e-06
-4.0475212308291994e-06   7.996504416894453e-07   -4.054385988265275e-06
-3.8110657076271695e-06   5.179720135223059e-07   -4.086646779856575e-06
-3.8110657076271695e-06   5.179720135223059e-07   -4.086646779856575e-06
-3.8110657076271695e-06   5.179720135223059e-07   -4.086646779856575e-06
-3.8110657076271695e-06   5.179720135223059e-07   -4.086646779856575e-06
-4.205058995324242e-06   1.29102332905017e-06   -4.279471470034987e-06
-4.205058995324242e-06   1.29102332905017e-06   -4.279471470034987e-06
-4.205058995324242e-06   1.29102332905017e-06   -4.279471470034987e-06
-4.205058995324242e-06   1.29102332905017e-06   -4.279471470034987e-06
-3.759166262708119e-06   7.633504419449731e-07   -3.713945608534695e-06
-3.759166262708119e-06   7.633504419449731e-07   -3.713945608534695e-06
-3.759166262708119e-06   7.633504419449731e-07   -3.713945608534695e-06
-3.759166262708119e-06   7.633504419449731e-07   -3.713945608534695e-06
-3.6881970623228392e-06   1.47662945949856e-06   -4.2601950197089015e-06
-3.6881970623228392e-06   1.47662945949856e-06   -4.2601950197089015e-06
-3.6881970623228392e-06   1.47662945949856e-06   -4.2601950197089015e-06
-3.6881970623228392e-06   1.47662945949856e-06   -4.2601950197089015e-06
-3.7661246169758834e-06   8.984917366359384e-07   -3.7834331282362806e-06
-3.7661246169758834e-06   8.984917366359384e-07   -3.7834331282362806e-06
-3.7661246169758834e-06   8.984917366359384e-07   -3.7834331282362806e-06
-3.7661246169758834e-06   8.984917366359384e-07   -3.7834331282362806e-06
2.4260204631560247e-06   -2.3811007760610832e-07   -2.2480328223124367e-06
2.4260204631560247e-06   -2.3811007760610832e-07   -2.2480328223124367e-06
2.4260204631560247e-06   -2.3811007760610832e-07   -2.2480328223124367e-06
2.4260204631560247e-06   -2.3811007760610832e-07   -2.2480328223124367e-06
2.6564143779273127e-07   -9.629642089870895e-07   -6.283577010079847e-06
2.6564143779273127e-07   -9.629642089870895e-07   -6.283577010079847e-06
2.6564143779273127e-07   -9.629642089870895e-07   -6.283577010079847e-06
2.6564143779273127e-07   -9.629642089870895e-07   -6.283577010079847e-06
4.3689013376741576e-07   -1.671166635988392e-08   -2.5034845979090008e-06
4.3689013376741576e-07   -1.671166635988392e-08   -2.5034845979090008e-06
4.3689013376741576e-07   -1.671166635988392e-08   -2.5034845979090008e-06
4.3689013376741576e-07   -1.671166635988392e-08   -2.5034845979090008e-06
2.9216871055793642e-06   -7.935846585278806e-07   -6.178689088961423e-06
2.9216871055793642e-06   -7.935846585278806e-07   -6.178689088961423e-06
2.9216871055793642e-06   -7.935846585278806e-07   -6.178689088961423e-06
2.9216871055793642e-06   -7.935846585278806e-07   -6.178689088961423e-06
1.4550171202951773e-06   -4.0573685673977577e-07   -3.966947794560699e-06
1.4550171202951773e-06   -4.0573685673977577e-07   -3.966947794560699e-06
1.4550171202951773e-06   -4.0573685673977577e-07   -3.966947794560699e-06
1.4550171202951773e-06   -4.0573685673977577e-07   -3.966947794560699e-06
2.9216871055793642e-06   -1.671166635988392e-08   -2.03736080260823e-06
2.9216871055793642e-06   -1.671166635988392e-08   -2.03736080260823e-06
2.9216871055793642e-06   -1.671166635988392e-08   -2.03736080260823e-06
2.9216871055793642e-06   -1.671166635988392e-08   -2.03736080260823e-06
4.3689013376741576e-07   -7.935846585278806e-07   -6.6448128842623024e-06
4.3689013376741576e-07   -7.935846585278806e-07   -6.6448128842623024e-06
4.3689013376741576e-07   -7.935846585278806e-07   -6.6448128842623024e-06
4.3689013376741576e-07   -7.935846585278806e-07   -6.6448128842623024e-06
6.397342401229101e-07   1.1040217577239133e-07   -2.529294314125238e-06
6.397342401229101e-07   1.1040217577239133e-07   -2.529294314125238e-06
6.397342401229101e-07   1.1040217577239133e-07   -2.529294314125238e-06
6.397342401229101e-07   1.1040217577239133e-07   -2.529294314125238e-06
3.3374187647517285e-06   -6.784901349072658e-07   -6.5520998020987965e-06
3.3374187647517285e-06   -6.784901349072658e-07   -6.5520998020987965e-06
3.3374187647517285e-06   -6.784901349072658e-07   -6.5520998020987965e-06
3.3374187647517285e-06   -6.784901349072658e-07   -6.5520998020987965e-06
1.7670821277051173e-06   -3.252422683747624e-07   -4.146820793607449e-06
1.7670821277051173e-06   -3.252422683747624e-07   -4.146820793607449e-06
1.7670821277051173e-06   -3.252422683747624e-07   -4.146820793607449e-06
1.7670821277051173e-06   -3.252422683747624e-07   -4.146820793607449e-06
3.337418764751742e-06   1.1040217577239133e-07   -2.0559589277174167e-06
3.337418764751742e-06   1.1040217577239133e-07   -2.0559589277174167e-06
3.337418764751742e-06   1.1040217577239133e-07   -2.0559589277174167e-06
3.337418764751742e-06   1.1040217577239133e-07   -2.0559589277174167e-06
6.397342401229033e-07   -6.784901349072658e-07   -7.025435188506645e-06
6.397342401229033e-07   -6.784901349072658e-07   -7.025435188506645e-06
6.397342401229033e-07   -6.784901349072658e-07   -7.025435188506645e-06
6.397342401229033e-07   -6.784901349072658e-07   -7.025435188506645e-06
8.042214087102892e-07   3.632733050190477e-07   -2.7890242134104683e-06
8.042214087102892e-07   3.632733050190477e-07   -2.7890242134104683e-06
8.042214087102892e-07   3.632733050190477e-07   -2.7890242134104683e-06
8.042214087102892e-07   3.632733050190477e-07   -2.7890242134104683e-06
3.8370966950648485e-06   -3.906008733902842e-07   -7.391491850289105e-06
3.8370966950648485e-06   -3.906008733902842e-07   -7.391491850289105e-06
3.8370966950648485e-06   -3.906008733902842e-07   -7.391491850289105e-06
3.8370966950648485e-06   -3.906008733902842e-07   -7.391491850289105e-06
2.0100106485201815e-06   -2.0513489154078352e-07   -4.457628028491206e-06
2.0100106485201815e-06   -2.0513489154078352e-07   -4.457628028491206e-06
2.0100106485201815e-06   -2.0513489154078352e-07   -4.457628028491206e-06
2.0100106485201815e-06   -2.0513489154078352e-07   -4.457628028491206e-06
2.6564143779273127e-07   -4.5468179962412925e-08   -6.699765624580348e-06
2.6564143779273127e-07   -4.5468179962412925e-08   -6.699765624580348e-06
2.6564143779273127e-07   -4.5468179962412925e-08   -6.699765624580348e-06
2.6564143779273127e-07   -4.5468179962412925e-08   -6.699765624580348e-06
-2.2152838466531978e-06   -3.7196787599510324e-07   -1.1030540916276432e-05
-2.2152838466531978e-06   -3.7196787599510324e-07   -1.1030540916276432e-05
-2.2152838466531978e-06   -3.7196787599510324e-07   -1.1030540916276432e-05
-2.2152838466531978e-06   -3.7196787599510324e-07   -1.1030540916276432e-05
-2.066942483967901e-06   2.3509894021394575e-07   -6.736177560165814e-06
-2.066942483967901e-06   2.3509894021394575e-07   -6.736177560165814e-06
-2.066942483967901e-06   2.3509894021394575e-07   -6.736177560165814e-06
-2.066942483967901e-06   2.3509894021394575e-07   -6.736177560165814e-06
4.3689013376741576e-07   -1.3737421265797413e-07   -1.0685748031334869e-05
4.3689013376741576e-07   -1.3737421265797413e-07   -1.0685748031334869e-05
4.3689013376741576e-07   -1.3737421265797413e-07   -1.0685748031334869e-05
4.3689013376741576e-07   -1.3737421265797413e-07   -1.0685748031334869e-05
-8.748053253824322e-07   -7.320115376482569e-09   -8.577621391120684e-06
-8.748053253824322e-07   -7.320115376482569e-09   -8.577621391120684e-06
-8.748053253824322e-07   -7.320115376482569e-09   -8.577621391120684e-06
-8.748053253824322e-07   -7.320115376482569e-09   -8.577621391120684e-06
4.36890133767409e-07   2.3509894021394575e-07   -6.512693668442641e-06
4.36890133767409e-07   2.3509894021394575e-07   -6.512693668442641e-06
4.36890133767409e-07   2.3509894021394575e-07   -6.512693668442641e-06
4.36890133767409e-07   2.3509894021394575e-07   -6.512693668442641e-06
-2.066942483967901e-06   -1.3737421265797413e-07   -1.0909231923058042e-05
-2.066942483967901e-06   -1.3737421265797413e-07   -1.0909231923058042e-05
-2.066942483967901e-06   -1.3737421265797413e-07   -1.0909231923058042e-05
-2.066942483967901e-06   -1.3737421265797413e-07   -1.0909231923058042e-05
-1.9176762877214776e-06   5.064568327760874e-07   -6.747449420370637e-06
-1.9176762877214776e-06   5.064568327760874e-07   -6.747449420370637e-06
-1.9176762877214776e-06   5.064568327760874e-07   -6.747449420370637e-06
-1.9176762877214776e-06   5.064568327760874e-07   -6.747449420370637e-06
6.397342401229101e-07   1.059642042545517e-07   -1.0769504722998359e-05
6.397342401229101e-07   1.059642042545517e-07   -1.0769504722998359e-05
6.397342401229101e-07   1.059642042545517e-07   -1.0769504722998359e-05
6.397342401229101e-07   1.059642042545517e-07   -1.0769504722998359e-05
-7.446167597026849e-07   1.8688054523725807e-07   -8.510802861212013e-06
-7.446167597026849e-07   1.8688054523725807e-07   -8.510802861212013e-06
-7.446167597026849e-07   1.8688054523725807e-07   -8.510802861212013e-06
-7.446167597026849e-07   1.8688054523725807e-07   -8.510802861212013e-06
6.397342401229101e-07   5.064568327761416e-07   -6.507153843257737e-06
6.397342401229101e-07   5.064568327761416e-07   -6.507153843257737e-06
6.397342401229101e-07   5.064568327761416e-07   -6.507153843257737e-06
6.397342401229101e-07   5.064568327761416e-07   -6.507153843257737e-06
-1.9176762877214776e-06   1.0596420425460591e-07   -1.1009800300111313e-05
-1.9176762877214776e-06   1.0596420425460591e-07   -1.1009800300111313e-05
-1.9176762877214776e-06   1.0596420425460591e-07   -1.1009800300111313e-05
-1.9176762877214776e-06   1.0596420425460591e-07   -1.1009800300111313e-05
-1.7757150066552446e-06   8.175869180395757e-07   -6.918667305089296e-06
-1.7757150066552446e-06   8.175869180395757e-07   -6.918667305089296e-06
-1.7757150066552446e-06   8.175869180395757e-07   -6.918667305089296e-06
-1.7757150066552446e-06   8.175869180395757e-07   -6.918667305089296e-06
8.04221408710296e-07   3.953123646244401e-07   -1.096519659864943e-05
8.04221408710296e-07   3.953123646244401e-07   -1.096519659864943e-05
8.04221408710296e-07   3.953123646244401e-07   -1.096519659864943e-05
8.04221408710296e-07   3.953123646244401e-07   -1.096519659864943e-05
-5.983254706261853e-07   4.033581221035351e-07   -8.632445920909648e-06
-5.983254706261853e-07   4.033581221035351e-07   -8.632445920909648e-06
-5.983254706261853e-07   4.033581221035351e-07   -8.632445920909648e-06
-5.983254706261853e-07   4.033581221035351e-07   -8.632445920909648e-06
-2.2152838466532045e-06   2.4115942182632594e-07   -8.137488272849745e-06
-2.2152838466532045e-06   2.4115942182632594e-07   -8.137488272849745e-06
-2.2152838466532045e-06   2.4115942182632594e-07   -8.137488272849745e-06
-2.2152838466532045e-06   2.4115942182632594e-07   -8.137488272849745e-06
-4.6712121955065305e-06   3.0345165640482214e-07   -1.2193326846858223e-05
-4.6712121955065305e-06   3.0345165640482214e-07   -1.2193326846858223e-05
-4.6712121955065305e-06   3.0345165640482214e-07   -1.2193326846858223e-05
-4.6712121955065305e-06   3.0345165640482214e-07   -1.2193326846858223e-05
-4.522237597147071e-06   5.327416799340767e-07   -7.98772210588365e-06
-4.522237597147071e-06   5.327416799340767e-07   -7.98772210588365e-06
-4.522237597147071e-06   5.327416799340767e-07   -7.98772210588365e-06
-4.522237597147071e-06   5.327416799340767e-07   -7.98772210588365e-06
-2.066942483967901e-06   5.531832440556507e-07   -1.2092145566321962e-05
-2.066942483967901e-06   5.531832440556507e-07   -1.2092145566321962e-05
-2.066942483967901e-06   5.531832440556507e-07   -1.2092145566321962e-05
-2.066942483967901e-06   5.531832440556507e-07   -1.2092145566321962e-05
-3.3495115202572877e-06   4.582856854550574e-07   -9.89759197067932e-06
-3.3495115202572877e-06   4.582856854550574e-07   -9.89759197067932e-06
-3.3495115202572877e-06   4.582856854550574e-07   -9.89759197067932e-06
-3.3495115202572877e-06   4.582856854550574e-07   -9.89759197067932e-06
-2.066942483967901e-06   5.327416799340225e-07   -7.999987044356665e-06
-2.066942483967901e-06   5.327416799340225e-07   -7.999987044356665e-06
-2.066942483967901e-06   5.327416799340225e-07   -7.999987044356665e-06
-2.066942483967901e-06   5.327416799340225e-07   -7.999987044356665e-06
-4.522237597147071e-06   5.531832440556507e-07   -1.207988062784898e-05
-4.522237597147071e-06   5.531832440556507e-07   -1.207988062784898e-05
-4.522237597147071e-06   5.531832440556507e-07   -1.207988062784898e-05
-4.522237597147071e-06   5.531832440556507e-07   -1.207988062784898e-05
-4.370271138579118e-06   8.304812696501669e-07   -8.007592820644224e-06
-4.370271138579118e-06   8.304812696501669e-07   -8.007592820644224e-06
-4.370271138579118e-06   8.304812696501669e-07   -8.007592820644224e-06
-4.370271138579118e-06   8.304812696501669e-07   -8.007592820644224e-06
-1.9176762877214844e-06   8.168843522556512e-07   -1.2087092754970237e-05
-1.9176762877214844e-06   8.168843522556512e-07   -1.2087092754970237e-05
-1.9176762877214844e-06   8.168843522556512e-07   -1.2087092754970237e-05
-1.9176762877214844e-06   8.168843522556512e-07   -1.2087092754970237e-05
-3.2192832236929984e-06   6.771522512729841e-07   -9.833908601094982e-06
-3.2192832236929984e-06   6.771522512729841e-07   -9.833908601094982e-06
-3.2192832236929984e-06   6.771522512729841e-07   -9.833908601094982e-06
-3.2192832236929984e-06   6.771522512729841e-07   -9.833908601094982e-06
-1.9176762877214844e-06   8.304812696501669e-07   -7.999434670207531e-06
-1.9176762877214844e-06   8.304812696501669e-07   -7.999434670207531e-06
-1.9176762877214844e-06   8.304812696501669e-07   -7.999434670207531e-06
-1.9176762877214844e-06   8.304812696501669e-07   -7.999434670207531e-06
-4.370271138579108e-06   8.16884352255597e-07   -1.2095250905406991e-05
-4.370271138579108e-06   8.16884352255597e-07   -1.2095250905406991e-05
-4.370271138579108e-06   8.16884352255597e-07   -1.2095250905406991e-05
-4.370271138579108e-06   8.16884352255597e-07   -1.2095250905406991e-05
-4.225476065889594e-06   1.1324639466982677e-06   -8.188573019402988e-06
-4.225476065889594e-06   1.1324639466982677e-06   -8.188573019402988e-06
-4.225476065889594e-06   1.1324639466982677e-06   -8.188573019402988e-06
-4.225476065889594e-06   1.1324639466982677e-06   -8.188573019402988e-06
-1.7757150066552446e-06   1.0852214271303822e-06   -1.2243162606386185e-05
-1.7757150066552446e-06   1.0852214271303822e-06   -1.2243162606386185e-05
-1.7757150066552446e-06   1.0852214271303822e-06   -1.2243162606386185e-05
-1.7757150066552446e-06   1.0852214271303822e-06   -1.2243162606386185e-05
-3.098783749986366e-06   8.994339093468273e-07   -9.926575523497646e-06
-3.098783749986366e-06   8.994339093468273e-07   -9.926575523497646e-06
-3.098783749986366e-06   8.994339093468273e-07   -9.926575523497646e-06
-3.098783749986366e-06   8.994339093468273e-07   -9.926575523497646e-06
-4.67121219550654e-06   5.32600858452702e-07   -6.832802399007527e-06
-4.67121219550654e-06   5.32600858452702e-07   -6.832802399007527e-06
-4.67121219550654e-06   5.32600858452702e-07   -6.832802399007527e-06
-4.67121219550654e-06   5.32600858452702e-07   -6.832802399007527e-06
-7.111289511372444e-06   9.628829093649444e-07   -1.0641428694903342e-05
-7.111289511372444e-06   9.628829093649444e-07   -1.0641428694903342e-05
-7.111289511372444e-06   9.628829093649444e-07   -1.0641428694903342e-05
-7.111289511372444e-06   9.628829093649444e-07   -1.0641428694903342e-05
-6.940019817213073e-06   8.260099649256354e-07   -6.426222121828982e-06
-6.940019817213073e-06   8.260099649256354e-07   -6.426222121828982e-06
-6.940019817213073e-06   8.260099649256354e-07   -6.426222121828982e-06
-6.940019817213073e-06   8.260099649256354e-07   -6.426222121828982e-06
-4.522237597147071e-06   1.2295690397444675e-06   -1.0697994600163594e-05
-4.522237597147071e-06   1.2295690397444675e-06   -1.0697994600163594e-05
-4.522237597147071e-06   1.2295690397444675e-06   -1.0697994600163594e-05
-4.522237597147071e-06   1.2295690397444675e-06   -1.0697994600163594e-05
-5.770750602896472e-06   9.21273966384274e-07   -8.432162546565133e-06
-5.770750602896472e-06   9.21273966384274e-07   -8.432162546565133e-06
-5.770750602896472e-06   9.21273966384274e-07   -8.432162546565133e-06
-5.770750602896472e-06   9.21273966384274e-07   -8.432162546565133e-06
-4.522237597147078e-06   8.260099649256896e-07   -6.668357566720249e-06
-4.522237597147078e-06   8.260099649256896e-07   -6.668357566720249e-06
-4.522237597147078e-06   8.260099649256896e-07   -6.668357566720249e-06
-4.522237597147078e-06   8.260099649256896e-07   -6.668357566720249e-06
-6.940019817213083e-06   1.2295690397445217e-06   -1.0455859155272351e-05
-6.940019817213083e-06   1.2295690397445217e-06   -1.0455859155272351e-05
-6.940019817213083e-06   1.2295690397445217e-06   -1.0455859155272351e-05
-6.940019817213083e-06   1.2295690397445217e-06   -1.0455859155272351e-05
-6.732011966774835e-06   1.0956638203214676e-06   -6.360497544948614e-06
-6.732011966774835e-06   1.0956638203214676e-06   -6.360497544948614e-06
-6.732011966774835e-06   1.0956638203214676e-06   -6.360497544948614e-06
-6.732011966774835e-06   1.0956638203214676e-06   -6.360497544948614e-06
-4.370271138579118e-06   1.46896671880854e-06   -1.0520713997700367e-05
-4.370271138579118e-06   1.46896671880854e-06   -1.0520713997700367e-05
-4.370271138579118e-06   1.46896671880854e-06   -1.0520713997700367e-05
-4.370271138579118e-06   1.46896671880854e-06   -1.0520713997700367e-05
-5.5966764951484486e-06   1.1328083362872172e-06   -8.275010040572186e-06
-5.5966764951484486e-06   1.1328083362872172e-06   -8.275010040572186e-06
-5.5966764951484486e-06   1.1328083362872172e-06   -8.275010040572186e-06
-5.5966764951484486e-06   1.1328083362872172e-06   -8.275010040572186e-06
-4.370271138579112e-06   1.0956638203214676e-06   -6.584479284040803e-06
-4.370271138579112e-06   1.0956638203214676e-06   -6.584479284040803e-06
-4.370271138579112e-06   1.0956638203214676e-06   -6.584479284040803e-06
-4.370271138579112e-06   1.0956638203214676e-06   -6.584479284040803e-06
-6.732011966774835e-06   1.46896671880854e-06   -1.0296732258608212e-05
-6.732011966774835e-06   1.46896671880854e-06   -1.0296732258608212e-05
-6.732011966774835e-06   1.46896671880854e-06   -1.0296732258608212e-05
-6.732011966774835e-06   1.46896671880854e-06   -1.0296732258608212e-05
-6.559473179583817e-06   1.3962578787525028e-06   -6.536704737483505e-06
-6.559473179583817e-06   1.3962578787525028e-06   -6.536704737483505e-06
-6.559473179583817e-06   1.3962578787525028e-06   -6.536704737483505e-06
-6.559473179583817e-06   1.3962578787525028e-06   -6.536704737483505e-06
-4.225476065889594e-06   1.7350265240826225e-06   -1.0629961114171928e-05
-4.225476065889594e-06   1.7350265240826225e-06   -1.0629961114171928e-05
-4.225476065889594e-06   1.7350265240826225e-06   -1.0629961114171928e-05
-4.225476065889594e-06   1.7350265240826225e-06   -1.0629961114171928e-05
-5.4844316648268855e-06   1.3401049320718858e-06   -8.294748827403323e-06
-5.4844316648268855e-06   1.3401049320718858e-06   -8.294748827403323e-06
-5.4844316648268855e-06   1.3401049320718858e-06   -8.294748827403323e-06
-5.4844316648268855e-06   1.3401049320718858e-06   -8.294748827403323e-06
-7.111289511372444e-06   9.012941650786725e-07   -3.5218430989217406e-06
-7.111289511372444e-06   9.012941650786725e-07   -3.5218430989217406e-06
-7.111289511372444e-06   9.012941650786725e-07   -3.5218430989217406e-06
-7.111289511372444e-06   9.012941650786725e-07   -3.5218430989217406e-06
-9.906826159892284e-06   1.6579820486961215e-06   -7.72705811628437e-06
-9.906826159892284e-06   1.6579820486961215e-06   -7.72705811628437e-06
-9.906826159892284e-06   1.6579820486961215e-06   -7.72705811628437e-06
-9.906826159892284e-06   1.6579820486961215e-06   -7.72705811628437e-06
-9.417757842434567e-06   1.1687101457720614e-06   -2.163505844740972e-06
-9.417757842434567e-06   1.1687101457720614e-06   -2.163505844740972e-06
-9.417757842434567e-06   1.1687101457720614e-06   -2.163505844740972e-06
-9.417757842434567e-06   1.1687101457720614e-06   -2.163505844740972e-06
-6.940019817213073e-06   1.9363179605881055e-06   -6.753633908999685e-06
-6.940019817213073e-06   1.9363179605881055e-06   -6.753633908999685e-06
-6.940019817213073e-06   1.9363179605881055e-06   -6.753633908999685e-06
-6.940019817213073e-06   1.9363179605881055e-06   -6.753633908999685e-06
-8.004849817842182e-06   1.4456335920722918e-06   -4.684506620175076e-06
-8.004849817842182e-06   1.4456335920722918e-06   -4.684506620175076e-06
-8.004849817842182e-06   1.4456335920722918e-06   -4.684506620175076e-06
-8.004849817842182e-06   1.4456335920722918e-06   -4.684506620175076e-06
-6.940019817213078e-06   1.1687101457720614e-06   -2.6240705336305387e-06
-6.940019817213078e-06   1.1687101457720614e-06   -2.6240705336305387e-06
-6.940019817213078e-06   1.1687101457720614e-06   -2.6240705336305387e-06
-6.940019817213078e-06   1.1687101457720614e-06   -2.6240705336305387e-06
-9.417757842434533e-06   1.9363179605881055e-06   -6.293069220110101e-06
-9.417757842434533e-06   1.9363179605881055e-06   -6.293069220110101e-06
-9.417757842434533e-06   1.9363179605881055e-06   -6.293069220110101e-06
-9.417757842434533e-06   1.9363179605881055e-06   -6.293069220110101e-06
-9.01366039506514e-06   1.29102332905017e-06   -1.7412469461623942e-06
-9.01366039506514e-06   1.29102332905017e-06   -1.7412469461623942e-06
-9.01366039506514e-06   1.29102332905017e-06   -1.7412469461623942e-06
-9.01366039506514e-06   1.29102332905017e-06   -1.7412469461623942e-06
-6.7320119667748264e-06   2.036528515045712e-06   -5.991297438243581e-06
-6.7320119667748264e-06   2.036528515045712e-06   -5.991297438243581e-06
-6.7320119667748264e-06   2.036528515045712e-06   -5.991297438243581e-06
-6.7320119667748264e-06   2.036528515045712e-06   -5.991297438243581e-06
-7.835453049629474e-06   1.5728112366631634e-06   -3.873998599789632e-06
-7.835453049629474e-06   1.5728112366631634e-06   -3.873998599789632e-06
-7.835453049629474e-06   1.5728112366631634e-06   -3.873998599789632e-06
-7.835453049629474e-06   1.5728112366631634e-06   -3.873998599789632e-06
-6.732011966774835e-06   1.29102332905017e-06   -2.18855005775973e-06
-6.732011966774835e-06   1.29102332905017e-06   -2.18855005775973e-06
-6.732011966774835e-06   1.29102332905017e-06   -2.18855005775973e-06
-6.732011966774835e-06   1.29102332905017e-06   -2.18855005775973e-06
-9.01366039506512e-06   2.036528515045712e-06   -5.5439943266462994e-06
-9.01366039506512e-06   2.036528515045712e-06   -5.5439943266462994e-06
-9.01366039506512e-06   2.036528515045712e-06   -5.5439943266462994e-06
-9.01366039506512e-06   2.036528515045712e-06   -5.5439943266462994e-06
-8.531951418781287e-06   1.47662945949856e-06   -1.2882354686287857e-06
-8.531951418781287e-06   1.47662945949856e-06   -1.2882354686287857e-06
-8.531951418781287e-06   1.47662945949856e-06   -1.2882354686287857e-06
-8.531951418781287e-06   1.47662945949856e-06   -1.2882354686287857e-06
-6.559473179583817e-06   2.1593717756466764e-06   -4.9853445903134205e-06
-6.559473179583817e-06   2.1593717756466764e-06   -4.9853445903134205e-06
-6.559473179583817e-06   2.1593717756466764e-06   -4.9853445903134205e-06
-6.559473179583817e-06   2.1593717756466764e-06   -4.9853445903134205e-06
-7.451478280930389e-06   1.6326901856397605e-06   -3.182660467398435e-06
-7.451478280930389e-06   1.6326901856397605e-06   -3.182660467398435e-06
-7.451478280930389e-06   1.6326901856397605e-06   -3.182660467398435e-06
-7.451478280930389e-06   1.6326901856397605e-06   -3.182660467398435e-06
7.386849578715511e-06   -9.629642089870895e-07   8.923611321328285e-08
7.386849578715511e-06   -9.629642089870895e-07   8.923611321328285e-08
7.386849578715511e-06   -9.629642089870895e-07   8.923611321328285e-08
7.386849578715511e-06   -9.629642089870895e-07   8.923611321328285e-08
3.122857117421317e-06   -1.7178114611638177e-06   -7.470326340249672e-06
3.122857117421317e-06   -1.7178114611638177e-06   -7.470326340249672e-06
3.122857117421317e-06   -1.7178114611638177e-06   -7.470326340249672e-06
3.122857117421317e-06   -1.7178114611638177e-06   -7.470326340249672e-06
3.330799687041545e-06   -7.935846585278806e-07   -6.849015010283776e-07
3.330799687041545e-06   -7.935846585278806e-07   -6.849015010283776e-07
3.330799687041545e-06   -7.935846585278806e-07   -6.849015010283776e-07
3.330799687041545e-06   -7.935846585278806e-07   -6.849015010283776e-07
7.922779604735948e-06   -1.5997832722438547e-06   -7.854482195622823e-06
7.922779604735948e-06   -1.5997832722438547e-06   -7.854482195622823e-06
7.922779604735948e-06   -1.5997832722438547e-06   -7.854482195622823e-06
7.922779604735948e-06   -1.5997832722438547e-06   -7.854482195622823e-06
5.220177481487654e-06   -1.1382581362065578e-06   -3.6270604051647545e-06
5.220177481487654e-06   -1.1382581362065578e-06   -3.6270604051647545e-06
5.220177481487654e-06   -1.1382581362065578e-06   -3.6270604051647545e-06
5.220177481487654e-06   -1.1382581362065578e-06   -3.6270604051647545e-06
7.922779604735961e-06   -7.935846585278806e-07   -2.011823327987823e-07
7.922779604735961e-06   -7.935846585278806e-07   -2.011823327987823e-07
7.922779604735961e-06   -7.935846585278806e-07   -2.011823327987823e-07
7.922779604735961e-06   -7.935846585278806e-07   -2.011823327987823e-07
3.3307996870415383e-06   -1.5997832722438547e-06   -8.338201363852391e-06
3.3307996870415383e-06   -1.5997832722438547e-06   -8.338201363852391e-06
3.3307996870415383e-06   -1.5997832722438547e-06   -8.338201363852391e-06
3.3307996870415383e-06   -1.5997832722438547e-06   -8.338201363852391e-06
3.561875411818768e-06   -6.784901349072658e-07   -1.028215818322934e-06
3.561875411818768e-06   -6.784901349072658e-07   -1.028215818322934e-06
3.561875411818768e-06   -6.784901349072658e-07   -1.028215818322934e-06
3.561875411818768e-06   -6.784901349072658e-07   -1.028215818322934e-06
8.370079822774858e-06   -1.4955880546680149e-06   -8.551631084726611e-06
8.370079822774858e-06   -1.4955880546680149e-06   -8.551631084726611e-06
8.370079822774858e-06   -1.4955880546680149e-06   -8.551631084726611e-06
8.370079822774858e-06   -1.4955880546680149e-06   -8.551631084726611e-06
5.6222551867229e-06   -1.091697741447458e-06   -4.21425754590562e-06
5.6222551867229e-06   -1.091697741447458e-06   -4.21425754590562e-06
5.6222551867229e-06   -1.091697741447458e-06   -4.21425754590562e-06
5.6222551867229e-06   -1.091697741447458e-06   -4.21425754590562e-06
8.370079822774871e-06   -6.784901349072658e-07   -5.379570664664954e-07
8.370079822774871e-06   -6.784901349072658e-07   -5.379570664664954e-07
8.370079822774871e-06   -6.784901349072658e-07   -5.379570664664954e-07
8.370079822774871e-06   -6.784901349072658e-07   -5.379570664664954e-07
3.561875411818761e-06   -1.4955880546680149e-06   -9.041889836583104e-06
3.561875411818761e-06   -1.4955880546680149e-06   -9.041889836583104e-06
3.561875411818761e-06   -1.4955880546680149e-06   -9.041889836583104e-06
3.561875411818761e-06   -1.4955880546680149e-06   -9.041889836583104e-06
3.750595380910253e-06   -3.906008733902842e-07   -1.811525121444375e-06
3.750595380910253e-06   -3.906008733902842e-07   -1.811525121444375e-06
3.750595380910253e-06   -3.906008733902842e-07   -1.811525121444375e-06
3.750595380910253e-06   -3.906008733902842e-07   -1.811525121444375e-06
8.889859236212917e-06   -1.1691823060505473e-06   -9.90981602068603e-06
8.889859236212917e-06   -1.1691823060505473e-06   -9.90981602068603e-06
8.889859236212917e-06   -1.1691823060505473e-06   -9.90981602068603e-06
8.889859236212917e-06   -1.1691823060505473e-06   -9.90981602068603e-06
5.831932782768854e-06   -9.613943858703764e-07   -4.937944683720908e-06
5.831932782768854e-06   -9.613943858703764e-07   -4.937944683720908e-06
5.831932782768854e-06   -9.613943858703764e-07   -4.937944683720908e-06
5.831932782768854e-06   -9.613943858703764e-07   -4.937944683720908e-06
3.122857117421324e-06   -3.7196787599510324e-07   -4.914736326669736e-06
3.122857117421324e-06   -3.7196787599510324e-07   -4.914736326669736e-06
3.122857117421324e-06   -3.7196787599510324e-07   -4.914736326669736e-06
3.122857117421324e-06   -3.7196787599510324e-07   -4.914736326669736e-06
-1.3637529216325187e-06   -7.901182429735426e-07   -1.2643309945279898e-05
-1.3637529216325187e-06   -7.901182429735426e-07   -1.2643309945279898e-05
-1.3637529216325187e-06   -7.901182429735426e-07   -1.2643309945279898e-05
-1.3637529216325187e-06   -7.901182429735426e-07   -1.2643309945279898e-05
-1.1719100452611738e-06   -1.3737421265797413e-07   -5.016460844993399e-06
-1.1719100452611738e-06   -1.3737421265797413e-07   -5.016460844993399e-06
-1.1719100452611738e-06   -1.3737421265797413e-07   -5.016460844993399e-06
-1.1719100452611738e-06   -1.3737421265797413e-07   -5.016460844993399e-06
3.3307996870415383e-06   -6.217478741453366e-07   -1.223035286860552e-05
3.3307996870415383e-06   -6.217478741453366e-07   -1.223035286860552e-05
3.3307996870415383e-06   -6.217478741453366e-07   -1.223035286860552e-05
3.3307996870415383e-06   -6.217478741453366e-07   -1.223035286860552e-05
9.898650671405338e-07   -3.7941795143084725e-07   -8.474193122399176e-06
9.898650671405338e-07   -3.7941795143084725e-07   -8.474193122399176e-06
9.898650671405338e-07   -3.7941795143084725e-07   -8.474193122399176e-06
9.898650671405338e-07   -3.7941795143084725e-07   -8.474193122399176e-06
3.330799687041545e-06   -1.3737421265797413e-07   -4.725836648100917e-06
3.330799687041545e-06   -1.3737421265797413e-07   -4.725836648100917e-06
3.330799687041545e-06   -1.3737421265797413e-07   -4.725836648100917e-06
3.330799687041545e-06   -1.3737421265797413e-07   -4.725836648100917e-06
-1.171910045261167e-06   -6.217478741453366e-07   -1.2520977065497922e-05
-1.171910045261167e-06   -6.217478741453366e-07   -1.2520977065497922e-05
-1.171910045261167e-06   -6.217478741453366e-07   -1.2520977065497922e-05
-1.171910045261167e-06   -6.217478741453366e-07   -1.2520977065497922e-05
-9.887988322433328e-07   1.059642042545517e-07   -5.085674728805593e-06
-9.887988322433328e-07   1.059642042545517e-07   -5.085674728805593e-06
-9.887988322433328e-07   1.059642042545517e-07   -5.085674728805593e-06
-9.887988322433328e-07   1.059642042545517e-07   -5.085674728805593e-06
3.561875411818761e-06   -4.163514223969782e-07   -1.2356742426251514e-05
3.561875411818761e-06   -4.163514223969782e-07   -1.2356742426251514e-05
3.561875411818761e-06   -4.163514223969782e-07   -1.2356742426251514e-05
3.561875411818761e-06   -4.163514223969782e-07   -1.2356742426251514e-05
1.1399877896189132e-06   -2.2942385539948245e-07   -8.432419596116766e-06
1.1399877896189132e-06   -2.2942385539948245e-07   -8.432419596116766e-06
1.1399877896189132e-06   -2.2942385539948245e-07   -8.432419596116766e-06
1.1399877896189132e-06   -2.2942385539948245e-07   -8.432419596116766e-06
3.561875411818768e-06   1.059642042545517e-07   -4.772285352814675e-06
3.561875411818768e-06   1.059642042545517e-07   -4.772285352814675e-06
3.561875411818768e-06   1.059642042545517e-07   -4.772285352814675e-06
3.561875411818768e-06   1.059642042545517e-07   -4.772285352814675e-06
-9.887988322433328e-07   -4.163514223968698e-07   -1.2670131802242432e-05
-9.887988322433328e-07   -4.163514223968698e-07   -1.2670131802242432e-05
-9.887988322433328e-07   -4.163514223968698e-07   -1.2670131802242432e-05
-9.887988322433328e-07   -4.163514223968698e-07   -1.2670131802242432e-05
-8.173935986014068e-07   3.953123646243317e-07   -5.264270484875704e-06
-8.173935986014068e-07   3.953123646243317e-07   -5.264270484875704e-06
-8.173935986014068e-07   3.953123646243317e-07   -5.264270484875704e-06
-8.173935986014068e-07   3.953123646243317e-07   -5.264270484875704e-06
3.750595380910246e-06   -1.5696283890318744e-07   -1.254622032861192e-05
3.750595380910246e-06   -1.5696283890318744e-07   -1.254622032861192e-05
3.750595380910246e-06   -1.5696283890318744e-07   -1.254622032861192e-05
3.750595380910246e-06   -1.5696283890318744e-07   -1.254622032861192e-05
1.3306428754880826e-06   -4.3799239165436335e-08   -8.580864312751092e-06
1.3306428754880826e-06   -4.3799239165436335e-08   -8.580864312751092e-06
1.3306428754880826e-06   -4.3799239165436335e-08   -8.580864312751092e-06
1.3306428754880826e-06   -4.3799239165436335e-08   -8.580864312751092e-06
-1.3637529216325187e-06   3.0345165640482214e-07   -6.365787818185672e-06
-1.3637529216325187e-06   3.0345165640482214e-07   -6.365787818185672e-06
-1.3637529216325187e-06   3.0345165640482214e-07   -6.365787818185672e-06
-1.3637529216325187e-06   3.0345165640482214e-07   -6.365787818185672e-06
-5.771226187494872e-06   1.7214804360894502e-07   -1.3790358762300428e-05
-5.771226187494872e-06   1.7214804360894502e-07   -1.3790358762300428e-05
-5.771226187494872e-06   1.7214804360894502e-07   -1.3790358762300428e-05
-5.771226187494872e-06   1.7214804360894502e-07   -1.3790358762300428e-05
-5.564948791244138e-06   5.531832440556507e-07   -6.313887053552715e-06
-5.564948791244138e-06   5.531832440556507e-07   -6.313887053552715e-06
-5.564948791244138e-06   5.531832440556507e-07   -6.313887053552715e-06
-5.564948791244138e-06   5.531832440556507e-07   -6.313887053552715e-06
-1.171910045261167e-06   3.623289685633895e-07   -1.352110573156228e-05
-1.171910045261167e-06   3.623289685633895e-07   -1.352110573156228e-05
-1.171910045261167e-06   3.623289685633895e-07   -1.352110573156228e-05
-1.171910045261167e-06   3.623289685633895e-07   -1.352110573156228e-05
-3.444785036958393e-06   4.172185888689627e-07   -9.765914517583581e-06
-3.444785036958393e-06   4.172185888689627e-07   -9.765914517583581e-06
-3.444785036958393e-06   4.172185888689627e-07   -9.765914517583581e-06
-3.444785036958393e-06   4.172185888689627e-07   -9.765914517583581e-06
-1.1719100452611738e-06   5.531832440556507e-07   -6.199374488257271e-06
-1.1719100452611738e-06   5.531832440556507e-07   -6.199374488257271e-06
-1.1719100452611738e-06   5.531832440556507e-07   -6.199374488257271e-06
-1.1719100452611738e-06   5.531832440556507e-07   -6.199374488257271e-06
-5.564948791244138e-06   3.623289685633895e-07   -1.3635618296857629e-05
-5.564948791244138e-06   3.623289685633895e-07   -1.3635618296857629e-05
-5.564948791244138e-06   3.623289685633895e-07   -1.3635618296857629e-05
-5.564948791244138e-06   3.623289685633895e-07   -1.3635618296857629e-05
-5.365614708511488e-06   8.168843522556512e-07   -6.304503475671743e-06
-5.365614708511488e-06   8.168843522556512e-07   -6.304503475671743e-06
-5.365614708511488e-06   8.168843522556512e-07   -6.304503475671743e-06
-5.365614708511488e-06   8.168843522556512e-07   -6.304503475671743e-06
-9.887988322433328e-07   5.809905322434923e-07   -1.3457660310778132e-05
-9.887988322433328e-07   5.809905322434923e-07   -1.3457660310778132e-05
-9.887988322433328e-07   5.809905322434923e-07   -1.3457660310778132e-05
-9.887988322433328e-07   5.809905322434923e-07   -1.3457660310778132e-05
-3.268088658145048e-06   5.955548676955628e-07   -9.66758253554648e-06
-3.268088658145048e-06   5.955548676955628e-07   -9.66758253554648e-06
-3.268088658145048e-06   5.955548676955628e-07   -9.66758253554648e-06
-3.268088658145048e-06   5.955548676955628e-07   -9.66758253554648e-06
-9.887988322433328e-07   8.168843522556512e-07   -6.162967183664524e-06
-9.887988322433328e-07   8.168843522556512e-07   -6.162967183664524e-06
-9.887988322433328e-07   8.168843522556512e-07   -6.162967183664524e-06
-9.887988322433328e-07   8.168843522556512e-07   -6.162967183664524e-06
-5.365614708511488e-06   5.809905322434923e-07   -1.359919660278542e-05
-5.365614708511488e-06   5.809905322434923e-07   -1.359919660278542e-05
-5.365614708511488e-06   5.809905322434923e-07   -1.359919660278542e-05
-5.365614708511488e-06   5.809905322434923e-07   -1.359919660278542e-05
-5.181483732606517e-06   1.0852214271304364e-06   -6.456001181961762e-06
-5.181483732606517e-06   1.0852214271304364e-06   -6.456001181961762e-06
-5.181483732606517e-06   1.0852214271304364e-06   -6.456001181961762e-06
-5.181483732606517e-06   1.0852214271304364e-06   -6.456001181961762e-06
-8.173935986014136e-07   8.066723914662956e-07   -1.3562355317238458e-05
-8.173935986014136e-07   8.066723914662956e-07   -1.3562355317238458e-05
-8.173935986014136e-07   8.066723914662956e-07   -1.3562355317238458e-05
-8.173935986014136e-07   8.066723914662956e-07   -1.3562355317238458e-05
-3.1109319597941075e-06   7.784986615817519e-07   -9.72288714398673e-06
-3.1109319597941075e-06   7.784986615817519e-07   -9.72288714398673e-06
-3.1109319597941075e-06   7.784986615817519e-07   -9.72288714398673e-06
-3.1109319597941075e-06   7.784986615817519e-07   -9.72288714398673e-06
-5.771226187494879e-06   9.628829093649444e-07   -5.1508410644555925e-06
-5.771226187494879e-06   9.628829093649444e-07   -5.1508410644555925e-06
-5.771226187494879e-06   9.628829093649444e-07   -5.1508410644555925e-06
-5.771226187494879e-06   9.628829093649444e-07   -5.1508410644555925e-06
-1.0113400211478843e-05   1.169413383541023e-06   -1.2263879486589934e-05
-1.0113400211478843e-05   1.169413383541023e-06   -1.2263879486589934e-05
-1.0113400211478843e-05   1.169413383541023e-06   -1.2263879486589934e-05
-1.0113400211478843e-05   1.169413383541023e-06   -1.2263879486589934e-05
-9.863738642914466e-06   1.2295690397444675e-06   -4.8243709497689555e-06
-9.863738642914466e-06   1.2295690397444675e-06   -4.8243709497689555e-06
-9.863738642914466e-06   1.2295690397444675e-06   -4.8243709497689555e-06
-9.863738642914466e-06   1.2295690397444675e-06   -4.8243709497689555e-06
-5.564948791244147e-06   1.4089524999085336e-06   -1.2096650778651244e-05
-5.564948791244147e-06   1.4089524999085336e-06   -1.2096650778651244e-05
-5.564948791244147e-06   1.4089524999085336e-06   -1.2096650778651244e-05
-5.564948791244147e-06   1.4089524999085336e-06   -1.2096650778651244e-05
-7.771469463841402e-06   1.2404706496733225e-06   -8.3180272141814e-06
-7.771469463841402e-06   1.2404706496733225e-06   -8.3180272141814e-06
-7.771469463841402e-06   1.2404706496733225e-06   -8.3180272141814e-06
-7.771469463841402e-06   1.2404706496733225e-06   -8.3180272141814e-06
-5.564948791244147e-06   1.2295690397444675e-06   -4.932001025867406e-06
-5.564948791244147e-06   1.2295690397444675e-06   -4.932001025867406e-06
-5.564948791244147e-06   1.2295690397444675e-06   -4.932001025867406e-06
-5.564948791244147e-06   1.2295690397444675e-06   -4.932001025867406e-06
-9.863738642914482e-06   1.4089524999085336e-06   -1.19890207025528e-05
-9.863738642914482e-06   1.4089524999085336e-06   -1.19890207025528e-05
-9.863738642914482e-06   1.4089524999085336e-06   -1.19890207025528e-05
-9.863738642914482e-06   1.4089524999085336e-06   -1.19890207025528e-05
-9.585198468976588e-06   1.46896671880854e-06   -4.642379953282176e-06
-9.585198468976588e-06   1.46896671880854e-06   -4.642379953282176e-06
-9.585198468976588e-06   1.46896671880854e-06   -4.642379953282176e-06
-9.585198468976588e-06   1.46896671880854e-06   -4.642379953282176e-06
-5.3656147085114964e-06   1.6149444099468812e-06   -1.1762606168740376e-05
-5.3656147085114964e-06   1.6149444099468812e-06   -1.1762606168740376e-05
-5.3656147085114964e-06   1.6149444099468812e-06   -1.1762606168740376e-05
-5.3656147085114964e-06   1.6149444099468812e-06   -1.1762606168740376e-05
-7.516604647362715e-06   1.4282049321318524e-06   -8.065579250632592e-06
-7.516604647362715e-06   1.4282049321318524e-06   -8.065579250632592e-06
-7.516604647362715e-06   1.4282049321318524e-06   -8.065579250632592e-06
-7.516604647362715e-06   1.4282049321318524e-06   -8.065579250632592e-06
-5.365614708511493e-06   1.46896671880854e-06   -4.7299665679651805e-06
-5.365614708511493e-06   1.46896671880854e-06   -4.7299665679651805e-06
-5.365614708511493e-06   1.46896671880854e-06   -4.7299665679651805e-06
-5.365614708511493e-06   1.46896671880854e-06   -4.7299665679651805e-06
-9.585198468976588e-06   1.6149444099468812e-06   -1.1675019554057374e-05
-9.585198468976588e-06   1.6149444099468812e-06   -1.1675019554057374e-05
-9.585198468976588e-06   1.6149444099468812e-06   -1.1675019554057374e-05
-9.585198468976588e-06   1.6149444099468812e-06   -1.1675019554057374e-05
-9.3504314334069e-06   1.7350265240826225e-06   -4.7507065090353915e-06
-9.3504314334069e-06   1.7350265240826225e-06   -4.7507065090353915e-06
-9.3504314334069e-06   1.7350265240826225e-06   -4.7507065090353915e-06
-9.3504314334069e-06   1.7350265240826225e-06   -4.7507065090353915e-06
-5.181483732606526e-06   1.8412726390349765e-06   -1.1762700346007414e-05
-5.181483732606526e-06   1.8412726390349765e-06   -1.1762700346007414e-05
-5.181483732606526e-06   1.8412726390349765e-06   -1.1762700346007414e-05
-5.181483732606526e-06   1.8412726390349765e-06   -1.1762700346007414e-05
-7.363710719453874e-06   1.6005123608164645e-06   -7.981199200997416e-06
-7.363710719453874e-06   1.6005123608164645e-06   -7.981199200997416e-06
-7.363710719453874e-06   1.6005123608164645e-06   -7.981199200997416e-06
-7.363710719453874e-06   1.6005123608164645e-06   -7.981199200997416e-06
-1.0113400211478843e-05   1.6579820486961215e-06   -2.566564931501497e-06
-1.0113400211478843e-05   1.6579820486961215e-06   -2.566564931501497e-06
-1.0113400211478843e-05   1.6579820486961215e-06   -2.566564931501497e-06
-1.0113400211478843e-05   1.6579820486961215e-06   -2.566564931501497e-06
-1.4709460291315003e-05   2.2754576872581435e-06   -9.85617968142456e-06
-1.4709460291315003e-05   2.2754576872581435e-06   -9.85617968142456e-06
-1.4709460291315003e-05   2.2754576872581435e-06   -9.85617968142456e-06
-1.4709460291315003e-05   2.2754576872581435e-06   -9.85617968142456e-06
-1.412010102793744e-05   1.9363179605881055e-06   -7.275235495103399e-07
-1.412010102793744e-05   1.9363179605881055e-06   -7.275235495103399e-07
-1.412010102793744e-05   1.9363179605881055e-06   -7.275235495103399e-07
-1.412010102793744e-05   1.9363179605881055e-06   -7.275235495103399e-07
-9.863738642914466e-06   2.5940215505645785e-06   -8.216083011867922e-06
-9.863738642914466e-06   2.5940215505645785e-06   -8.216083011867922e-06
-9.863738642914466e-06   2.5940215505645785e-06   -8.216083011867922e-06
-9.863738642914466e-06   2.5940215505645785e-06   -8.216083011867922e-06
-1.1698177448997613e-05   2.166981237661063e-06   -4.902460813987163e-06
-1.1698177448997613e-05   2.166981237661063e-06   -4.902460813987163e-06
-1.1698177448997613e-05   2.166981237661063e-06   -4.902460813987163e-06
-1.1698177448997613e-05   2.166981237661063e-06   -4.902460813987163e-06
-9.863738642914474e-06   1.9363179605881055e-06   -1.1221457034961912e-06
-9.863738642914474e-06   1.9363179605881055e-06   -1.1221457034961912e-06
-9.863738642914474e-06   1.9363179605881055e-06   -1.1221457034961912e-06
-9.863738642914474e-06   1.9363179605881055e-06   -1.1221457034961912e-06
-1.4120101027937417e-05   2.594021550564687e-06   -7.821460857882e-06
-1.4120101027937417e-05   2.594021550564687e-06   -7.821460857882e-06
-1.4120101027937417e-05   2.594021550564687e-06   -7.821460857882e-06
-1.4120101027937417e-05   2.594021550564687e-06   -7.821460857882e-06
-1.3635442003822704e-05   2.036528515045712e-06   4.836229241367675e-08
-1.3635442003822704e-05   2.036528515045712e-06   4.836229241367675e-08
-1.3635442003822704e-05   2.036528515045712e-06   4.836229241367675e-08
-1.3635442003822704e-05   2.036528515045712e-06   4.836229241367675e-08
-9.585198468976588e-06   2.6787075572646136e-06   -7.087351024327856e-06
-9.585198468976588e-06   2.6787075572646136e-06   -7.087351024327856e-06
-9.585198468976588e-06   2.6787075572646136e-06   -7.087351024327856e-06
-9.585198468976588e-06   2.6787075572646136e-06   -7.087351024327856e-06
-1.1510158468393374e-05   2.2967580816995667e-06   -3.6499146732940743e-06
-1.1510158468393374e-05   2.2967580816995667e-06   -3.6499146732940743e-06
-1.1510158468393374e-05   2.2967580816995667e-06   -3.6499146732940743e-06
-1.1510158468393374e-05   2.2967580816995667e-06   -3.6499146732940743e-06
-9.585198468976588e-06   2.036528515045712e-06   -3.369451329176534e-07
-9.585198468976588e-06   2.036528515045712e-06   -3.369451329176534e-07
-9.585198468976588e-06   2.036528515045712e-06   -3.369451329176534e-07
-9.585198468976588e-06   2.036528515045712e-06   -3.369451329176534e-07
-1.3635442003822663e-05   2.678707557264505e-06   -6.702043598996515e-06
-1.3635442003822663e-05   2.678707557264505e-06   -6.702043598996515e-06
-1.3635442003822663e-05   2.678707557264505e-06   -6.702043598996515e-06
-1.3635442003822663e-05   2.678707557264505e-06   -6.702043598996515e-06
-1.3108550505885676e-05   2.1593717756466764e-06   1.0431451079268646e-06
-1.3108550505885676e-05   2.1593717756466764e-06   1.0431451079268646e-06
-1.3108550505885676e-05   2.1593717756466764e-06   1.0431451079268646e-06
-1.3108550505885676e-05   2.1593717756466764e-06   1.0431451079268646e-06
-9.3504314334069e-06   2.7468655761497948e-06   -5.57288295983957e-06
-9.3504314334069e-06   2.7468655761497948e-06   -5.57288295983957e-06
-9.3504314334069e-06   2.7468655761497948e-06   -5.57288295983957e-06
-9.3504314334069e-06   2.7468655761497948e-06   -5.57288295983957e-06
-1.1011785981037028e-05   2.3172239393994118e-06   -2.5461737317393073e-06
-1.1011785981037028e-05   2.3172239393994118e-06   -2.5461737317393073e-06
-1.1011785981037028e-05   2.3172239393994118e-06   -2.5461737317393073e-06
-1.1011785981037028e-05   2.3172239393994118e-06   -2.5461737317393073e-06
1.2379138971398406e-05   -1.7178114611638177e-06   2.5976144672078174e-06
1.2379138971398406e-05   -1.7178114611638177e-06   2.5976144672078174e-06
1.2379138971398406e-05   -1.7178114611638177e-06   2.5976144672078174e-06
1.2379138971398406e-05   -1.7178114611638177e-06   2.5976144672078174e-06
5.933596811393835e-06   -2.521886132764075e-06   -8.627400602426595e-06
5.933596811393835e-06   -2.521886132764075e-06   -8.627400602426595e-06
5.933596811393835e-06   -2.521886132764075e-06   -8.627400602426595e-06
5.933596811393835e-06   -2.521886132764075e-06   -8.627400602426595e-06
6.163162214080562e-06   -1.5997832722438547e-06   1.3281425239608795e-06
6.163162214080562e-06   -1.5997832722438547e-06   1.3281425239608795e-06
6.163162214080562e-06   -1.5997832722438547e-06   1.3281425239608795e-06
6.163162214080562e-06   -1.5997832722438547e-06   1.3281425239608795e-06
1.2924799240967828e-05   -2.4655468636394394e-06   -9.42179436601393e-06
1.2924799240967828e-05   -2.4655468636394394e-06   -9.42179436601393e-06
1.2924799240967828e-05   -2.4655468636394394e-06   -9.42179436601393e-06
1.2924799240967828e-05   -2.4655468636394394e-06   -9.42179436601393e-06
8.968509713148485e-06   -1.8760215427679429e-06   -3.1816936788378906e-06
8.968509713148485e-06   -1.8760215427679429e-06   -3.1816936788378906e-06
8.968509713148485e-06   -1.8760215427679429e-06   -3.1816936788378906e-06
8.968509713148485e-06   -1.8760215427679429e-06   -3.1816936788378906e-06
1.2924799240967856e-05   -1.5997832722438547e-06   1.8476006787982303e-06
1.2924799240967856e-05   -1.5997832722438547e-06   1.8476006787982303e-06
1.2924799240967856e-05   -1.5997832722438547e-06   1.8476006787982303e-06
1.2924799240967856e-05   -1.5997832722438547e-06   1.8476006787982303e-06
6.163162214080549e-06   -2.4655468636394394e-06   -9.941252520851308e-06
6.163162214080549e-06   -2.4655468636394394e-06   -9.941252520851308e-06
6.163162214080549e-06   -2.4655468636394394e-06   -9.941252520851308e-06
6.163162214080549e-06   -2.4655468636394394e-06   -9.941252520851308e-06
6.391875538869771e-06   -1.4955880546680149e-06   7.010835403443798e-07
6.391875538869771e-06   -1.4955880546680149e-06   7.010835403443798e-07
6.391875538869771e-06   -1.4955880546680149e-06   7.010835403443798e-07
6.391875538869771e-06   -1.4955880546680149e-06   7.010835403443798e-07
1.3341687983112042e-05   -2.3790896026631243e-06   -1.0351836271262332e-05
1.3341687983112042e-05   -2.3790896026631243e-06   -1.0351836271262332e-05
1.3341687983112042e-05   -2.3790896026631243e-06   -1.0351836271262332e-05
1.3341687983112042e-05   -2.3790896026631243e-06   -1.0351836271262332e-05
9.430152821733515e-06   -1.8692705894304655e-06   -4.1385024102376735e-06
9.430152821733515e-06   -1.8692705894304655e-06   -4.1385024102376735e-06
9.430152821733515e-06   -1.8692705894304655e-06   -4.1385024102376735e-06
9.430152821733515e-06   -1.8692705894304655e-06   -4.1385024102376735e-06
1.3341687983112042e-05   -1.4955880546680149e-06   1.2311844691414889e-06
1.3341687983112042e-05   -1.4955880546680149e-06   1.2311844691414889e-06
1.3341687983112042e-05   -1.4955880546680149e-06   1.2311844691414889e-06
1.3341687983112042e-05   -1.4955880546680149e-06   1.2311844691414889e-06
6.391875538869771e-06   -2.3790896026631243e-06   -1.0881937200059387e-05
6.391875538869771e-06   -2.3790896026631243e-06   -1.0881937200059387e-05
6.391875538869771e-06   -2.3790896026631243e-06   -1.0881937200059387e-05
6.391875538869771e-06   -2.3790896026631243e-06   -1.0881937200059387e-05
6.545032387646492e-06   -1.1691823060505473e-06   -5.518222280604334e-07
6.545032387646492e-06   -1.1691823060505473e-06   -5.518222280604334e-07
6.545032387646492e-06   -1.1691823060505473e-06   -5.518222280604334e-07
6.545032387646492e-06   -1.1691823060505473e-06   -5.518222280604334e-07
1.3783240381336269e-05   -2.044987438305692e-06   -1.2090019138190315e-05
1.3783240381336269e-05   -2.044987438305692e-06   -1.2090019138190315e-05
1.3783240381336269e-05   -2.044987438305692e-06   -1.2090019138190315e-05
1.3783240381336269e-05   -2.044987438305692e-06   -1.2090019138190315e-05
9.549425644132292e-06   -1.7239614801195036e-06   -5.226276817762228e-06
9.549425644132292e-06   -1.7239614801195036e-06   -5.226276817762228e-06
9.549425644132292e-06   -1.7239614801195036e-06   -5.226276817762228e-06
9.549425644132292e-06   -1.7239614801195036e-06   -5.226276817762228e-06
5.933596811393842e-06   -7.90118242973651e-07   -2.8069237205954564e-06
5.933596811393842e-06   -7.90118242973651e-07   -2.8069237205954564e-06
5.933596811393842e-06   -7.90118242973651e-07   -2.8069237205954564e-06
5.933596811393842e-06   -7.90118242973651e-07   -2.8069237205954564e-06
-4.167341084049489e-07   -1.5996361053867035e-06   -1.3876519304374636e-05
-4.167341084049489e-07   -1.5996361053867035e-06   -1.3876519304374636e-05
-4.167341084049489e-07   -1.5996361053867035e-06   -1.3876519304374636e-05
-4.167341084049489e-07   -1.5996361053867035e-06   -1.3876519304374636e-05
-1.8234367447659893e-07   -6.217478741453366e-07   -3.1018977482123408e-06
-1.8234367447659893e-07   -6.217478741453366e-07   -3.1018977482123408e-06
-1.8234367447659893e-07   -6.217478741453366e-07   -3.1018977482123408e-06
-1.8234367447659893e-07   -6.217478741453366e-07   -3.1018977482123408e-06
6.163162214080562e-06   -1.518229153178903e-06   -1.3139852128387502e-05
6.163162214080562e-06   -1.518229153178903e-06   -1.3139852128387502e-05
6.163162214080562e-06   -1.518229153178903e-06   -1.3139852128387502e-05
6.163162214080562e-06   -1.518229153178903e-06   -1.3139852128387502e-05
2.8819682528946457e-06   -9.693605383403634e-07   -8.000516695314143e-06
2.8819682528946457e-06   -9.693605383403634e-07   -8.000516695314143e-06
2.8819682528946457e-06   -9.693605383403634e-07   -8.000516695314143e-06
2.8819682528946457e-06   -9.693605383403634e-07   -8.000516695314143e-06
6.1631622140805554e-06   -6.217478741453366e-07   -2.5640089807921684e-06
6.1631622140805554e-06   -6.217478741453366e-07   -2.5640089807921684e-06
6.1631622140805554e-06   -6.217478741453366e-07   -2.5640089807921684e-06
6.1631622140805554e-06   -6.217478741453366e-07   -2.5640089807921684e-06
-1.8234367447659893e-07   -1.518229153178903e-06   -1.367774089580762e-05
-1.8234367447659893e-07   -1.518229153178903e-06   -1.367774089580762e-05
-1.8234367447659893e-07   -1.518229153178903e-06   -1.367774089580762e-05
-1.8234367447659893e-07   -1.518229153178903e-06   -1.367774089580762e-05
2.3851721039016443e-08   -4.163514223968698e-07   -3.186083550648733e-06
2.3851721039016443e-08   -4.163514223968698e-07   -3.186083550648733e-06
2.3851721039016443e-08   -4.163514223968698e-07   -3.186083550648733e-06
2.3851721039016443e-08   -4.163514223968698e-07   -3.186083550648733e-06
6.391875538869771e-06   -1.3702089246048254e-06   -1.322714207904196e-05
6.391875538869771e-06   -1.3702089246048254e-06   -1.322714207904196e-05
6.391875538869771e-06   -1.3702089246048254e-06   -1.322714207904196e-05
6.391875538869771e-06   -1.3702089246048254e-06   -1.322714207904196e-05
3.0385120738999054e-06   -8.846815296518736e-07   -7.92951940773042e-06
3.0385120738999054e-06   -8.846815296518736e-07   -7.92951940773042e-06
3.0385120738999054e-06   -8.846815296518736e-07   -7.92951940773042e-06
3.0385120738999054e-06   -8.846815296518736e-07   -7.92951940773042e-06
6.391875538869771e-06   -4.163514223968698e-07   -2.613769049324003e-06
6.391875538869771e-06   -4.163514223968698e-07   -2.613769049324003e-06
6.391875538869771e-06   -4.163514223968698e-07   -2.613769049324003e-06
6.391875538869771e-06   -4.163514223968698e-07   -2.613769049324003e-06
2.3851721039016443e-08   -1.3702089246048254e-06   -1.3799456580366662e-05
2.3851721039016443e-08   -1.3702089246048254e-06   -1.3799456580366662e-05
2.3851721039016443e-08   -1.3702089246048254e-06   -1.3799456580366662e-05
2.3851721039016443e-08   -1.3702089246048254e-06   -1.3799456580366662e-05
1.6956278148998698e-07   -1.5696283890318744e-07   -3.3225006249918126e-06
1.6956278148998698e-07   -1.5696283890318744e-07   -3.3225006249918126e-06
1.6956278148998698e-07   -1.5696283890318744e-07   -3.3225006249918126e-06
1.6956278148998698e-07   -1.5696283890318744e-07   -3.3225006249918126e-06
6.545032387646505e-06   -1.1593344199058641e-06   -1.33468603533177e-05
6.545032387646505e-06   -1.1593344199058641e-06   -1.33468603533177e-05
6.545032387646505e-06   -1.1593344199058641e-06   -1.33468603533177e-05
6.545032387646505e-06   -1.1593344199058641e-06   -1.33468603533177e-05
3.2304637613345017e-06   -7.376684469140348e-07   -8.075578893259629e-06
3.2304637613345017e-06   -7.376684469140348e-07   -8.075578893259629e-06
3.2304637613345017e-06   -7.376684469140348e-07   -8.075578893259629e-06
3.2304637613345017e-06   -7.376684469140348e-07   -8.075578893259629e-06
-4.167341084049489e-07   1.7214804360905344e-07   -4.360901087386367e-06
-4.167341084049489e-07   1.7214804360905344e-07   -4.360901087386367e-06
-4.167341084049489e-07   1.7214804360905344e-07   -4.360901087386367e-06
-4.167341084049489e-07   1.7214804360905344e-07   -4.360901087386367e-06
-6.673423855666919e-06   -7.861951115943231e-07   -1.536372322594496e-05
-6.673423855666919e-06   -7.861951115943231e-07   -1.536372322594496e-05
-6.673423855666919e-06   -7.861951115943231e-07   -1.536372322594496e-05
-6.673423855666919e-06   -7.861951115943231e-07   -1.536372322594496e-05
-6.3917319244006215e-06   3.623289685633895e-07   -4.732683162717607e-06
-6.3917319244006215e-06   3.623289685633895e-07   -4.732683162717607e-06
-6.3917319244006215e-06   3.623289685633895e-07   -4.732683162717607e-06
-6.3917319244006215e-06   3.623289685633895e-07   -4.732683162717607e-06
-1.8234367447659893e-07   -6.887656121715244e-07   -1.4451006830816743e-05
-1.8234367447659893e-07   -6.887656121715244e-07   -1.4451006830816743e-05
-1.8234367447659893e-07   -6.887656121715244e-07   -1.4451006830816743e-05
-1.8234367447659893e-07   -6.887656121715244e-07   -1.4451006830816743e-05
-3.377449936983152e-06   -1.169773328554705e-07   -9.468902694228745e-06
-3.377449936983152e-06   -1.169773328554705e-07   -9.468902694228745e-06
-3.377449936983152e-06   -1.169773328554705e-07   -9.468902694228745e-06
-3.377449936983152e-06   -1.169773328554705e-07   -9.468902694228745e-06
-1.8234367447659893e-07   3.623289685632811e-07   -4.102026414276713e-06
-1.8234367447659893e-07   3.623289685632811e-07   -4.102026414276713e-06
-1.8234367447659893e-07   3.623289685632811e-07   -4.102026414276713e-06
-1.8234367447659893e-07   3.623289685632811e-07   -4.102026414276713e-06
-6.3917319244006215e-06   -6.887656121715244e-07   -1.5081663579257637e-05
-6.3917319244006215e-06   -6.887656121715244e-07   -1.5081663579257637e-05
-6.3917319244006215e-06   -6.887656121715244e-07   -1.5081663579257637e-05
-6.3917319244006215e-06   -6.887656121715244e-07   -1.5081663579257637e-05
-6.13335060966774e-06   5.809905322434923e-07   -4.647520653103623e-06
-6.13335060966774e-06   5.809905322434923e-07   -4.647520653103623e-06
-6.13335060966774e-06   5.809905322434923e-07   -4.647520653103623e-06
-6.13335060966774e-06   5.809905322434923e-07   -4.647520653103623e-06
2.3851721039016443e-08   -5.421904576217561e-07   -1.4235615943695708e-05
2.3851721039016443e-08   -5.421904576217561e-07   -1.4235615943695708e-05
2.3851721039016443e-08   -5.421904576217561e-07   -1.4235615943695708e-05
2.3851721039016443e-08   -5.421904576217561e-07   -1.4235615943695708e-05
-3.149061988473482e-06   -7.321986393170506e-09   -9.268347510578737e-06
-3.149061988473482e-06   -7.321986393170506e-09   -9.268347510578737e-06
-3.149061988473482e-06   -7.321986393170506e-09   -9.268347510578737e-06
-3.149061988473482e-06   -7.321986393170506e-09   -9.268347510578737e-06
2.3851721039016443e-08   5.809905322434923e-07   -3.973612059184474e-06
2.3851721039016443e-08   5.809905322434923e-07   -3.973612059184474e-06
2.3851721039016443e-08   5.809905322434923e-07   -3.973612059184474e-06
2.3851721039016443e-08   5.809905322434923e-07   -3.973612059184474e-06
-6.13335060966775e-06   -5.421904576217561e-07   -1.4909524537614911e-05
-6.13335060966775e-06   -5.421904576217561e-07   -1.4909524537614911e-05
-6.13335060966775e-06   -5.421904576217561e-07   -1.4909524537614911e-05
-6.13335060966775e-06   -5.421904576217561e-07   -1.4909524537614911e-05
-5.95956742600461e-06   8.066723914662956e-07   -4.732758657517743e-06
-5.95956742600461e-06   8.066723914662956e-07   -4.732758657517743e-06
-5.95956742600461e-06   8.066723914662956e-07   -4.732758657517743e-06
-5.95956742600461e-06   8.066723914662956e-07   -4.732758657517743e-06
1.6956278148999376e-07   -4.0247455189369903e-07   -1.4222487503992809e-05
1.6956278148999376e-07   -4.0247455189369903e-07   -1.4222487503992809e-05
1.6956278148999376e-07   -4.0247455189369903e-07   -1.4222487503992809e-05
1.6956278148999376e-07   -4.0247455189369903e-07   -1.4222487503992809e-05
-2.987285658720457e-06   1.1517542501486826e-07   -9.271663423120679e-06
-2.987285658720457e-06   1.1517542501486826e-07   -9.271663423120679e-06
-2.987285658720457e-06   1.1517542501486826e-07   -9.271663423120679e-06
-2.987285658720457e-06   1.1517542501486826e-07   -9.271663423120679e-06
-6.673423855666906e-06   1.169413383541023e-06   -3.5333459893034593e-06
-6.673423855666906e-06   1.169413383541023e-06   -3.5333459893034593e-06
-6.673423855666906e-06   1.169413383541023e-06   -3.5333459893034593e-06
-6.673423855666906e-06   1.169413383541023e-06   -3.5333459893034593e-06
-1.3024465369153878e-05   3.1488383408280907e-07   -1.4631132908123393e-05
-1.3024465369153878e-05   3.1488383408280907e-07   -1.4631132908123393e-05
-1.3024465369153878e-05   3.1488383408280907e-07   -1.4631132908123393e-05
-1.3024465369153878e-05   3.1488383408280907e-07   -1.4631132908123393e-05
-1.2622874137706798e-05   1.4089524999085336e-06   -3.7463557345713584e-06
-1.2622874137706798e-05   1.4089524999085336e-06   -3.7463557345713584e-06
-1.2622874137706798e-05   1.4089524999085336e-06   -3.7463557345713584e-06
-1.2622874137706798e-05   1.4089524999085336e-06   -3.7463557345713584e-06
-6.391731924400608e-06   4.878856831415975e-07   -1.3578952666688163e-05
-6.391731924400608e-06   4.878856831415975e-07   -1.3578952666688163e-05
-6.391731924400608e-06   4.878856831415975e-07   -1.3578952666688163e-05
-6.391731924400608e-06   4.878856831415975e-07   -1.3578952666688163e-05
-9.58044395916676e-06   9.236052720012523e-07   -8.525864362060392e-06
-9.58044395916676e-06   9.236052720012523e-07   -8.525864362060392e-06
-9.58044395916676e-06   9.236052720012523e-07   -8.525864362060392e-06
-9.58044395916676e-06   9.236052720012523e-07   -8.525864362060392e-06
-6.391731924400608e-06   1.4089524999085336e-06   -3.193715644511175e-06
-6.391731924400608e-06   1.4089524999085336e-06   -3.193715644511175e-06
-6.391731924400608e-06   1.4089524999085336e-06   -3.193715644511175e-06
-6.391731924400608e-06   1.4089524999085336e-06   -3.193715644511175e-06
-1.262287413770682e-05   4.878856831415975e-07   -1.4131592756748326e-05
-1.262287413770682e-05   4.878856831415975e-07   -1.4131592756748326e-05
-1.262287413770682e-05   4.878856831415975e-07   -1.4131592756748326e-05
-1.262287413770682e-05   4.878856831415975e-07   -1.4131592756748326e-05
-1.223225204007791e-05   1.6149444099468812e-06   -3.392058145632634e-06
-1.223225204007791e-05   1.6149444099468812e-06   -3.392058145632634e-06
-1.223225204007791e-05   1.6149444099468812e-06   -3.392058145632634e-06
-1.223225204007791e-05   1.6149444099468812e-06   -3.392058145632634e-06
-6.13335060966775e-06   6.4639786565685e-07   -1.2975765936408892e-05
-6.13335060966775e-06   6.4639786565685e-07   -1.2975765936408892e-05
-6.13335060966775e-06   6.4639786565685e-07   -1.2975765936408892e-05
-6.13335060966775e-06   6.4639786565685e-07   -1.2975765936408892e-05
-9.213919953888986e-06   1.0742407363535916e-06   -8.098189418458162e-06
-9.213919953888986e-06   1.0742407363535916e-06   -8.098189418458162e-06
-9.213919953888986e-06   1.0742407363535916e-06   -8.098189418458162e-06
-9.213919953888986e-06   1.0742407363535916e-06   -8.098189418458162e-06
-6.133350609667733e-06   1.6149444099468812e-06   -2.8109302190585826e-06
-6.133350609667733e-06   1.6149444099468812e-06   -2.8109302190585826e-06
-6.133350609667733e-06   1.6149444099468812e-06   -2.8109302190585826e-06
-6.133350609667733e-06   1.6149444099468812e-06   -2.8109302190585826e-06
-1.2232252040077932e-05   6.4639786565685e-07   -1.3556893862982998e-05
-1.2232252040077932e-05   6.4639786565685e-07   -1.3556893862982998e-05
-1.2232252040077932e-05   6.4639786565685e-07   -1.3556893862982998e-05
-1.2232252040077932e-05   6.4639786565685e-07   -1.3556893862982998e-05
-1.1939435794420741e-05   1.8412726390349765e-06   -3.403408610643606e-06
-1.1939435794420741e-05   1.8412726390349765e-06   -3.403408610643606e-06
-1.1939435794420741e-05   1.8412726390349765e-06   -3.403408610643606e-06
-1.1939435794420741e-05   1.8412726390349765e-06   -3.403408610643606e-06
-5.959567426004622e-06   7.788820627761166e-07   -1.2732421545581807e-05
-5.959567426004622e-06   7.788820627761166e-07   -1.2732421545581807e-05
-5.959567426004622e-06   7.788820627761166e-07   -1.2732421545581807e-05
-5.959567426004622e-06   7.788820627761166e-07   -1.2732421545581807e-05
-9.016762820706551e-06   1.1798476944539348e-06   -7.87767526675204e-06
-9.016762820706551e-06   1.1798476944539348e-06   -7.87767526675204e-06
-9.016762820706551e-06   1.1798476944539348e-06   -7.87767526675204e-06
-9.016762820706551e-06   1.1798476944539348e-06   -7.87767526675204e-06
-1.3024465369153878e-05   2.2754576872581435e-06   -2.0088492969503246e-06
-1.3024465369153878e-05   2.2754576872581435e-06   -2.0088492969503246e-06
-1.3024465369153878e-05   2.2754576872581435e-06   -2.0088492969503246e-06
-1.3024465369153878e-05   2.2754576872581435e-06   -2.0088492969503246e-06
-1.9680690795287876e-05   2.170590532490544e-06   -1.3165478633367681e-05
-1.9680690795287876e-05   2.170590532490544e-06   -1.3165478633367681e-05
-1.9680690795287876e-05   2.170590532490544e-06   -1.3165478633367681e-05
-1.9680690795287876e-05   2.170590532490544e-06   -1.3165478633367681e-05
-1.8869229462067496e-05   2.594021550564687e-06   1.004917505204061e-07
-1.8869229462067496e-05   2.594021550564687e-06   1.004917505204061e-07
-1.8869229462067496e-05   2.594021550564687e-06   1.004917505204061e-07
-1.8869229462067496e-05   2.594021550564687e-06   1.004917505204061e-07
-1.2622874137706777e-05   2.717204541242838e-06   -1.038401025115434e-05
-1.2622874137706777e-05   2.717204541242838e-06   -1.038401025115434e-05
-1.2622874137706777e-05   2.717204541242838e-06   -1.038401025115434e-05
-1.2622874137706777e-05   2.717204541242838e-06   -1.038401025115434e-05
-1.535842539749356e-05   2.5580182192562343e-06   -5.729246358317751e-06
-1.535842539749356e-05   2.5580182192562343e-06   -5.729246358317751e-06
-1.535842539749356e-05   2.5580182192562343e-06   -5.729246358317751e-06
-1.535842539749356e-05   2.5580182192562343e-06   -5.729246358317751e-06
-1.262287413770681e-05   2.594021550564687e-06   2.6581956113537215e-08
-1.262287413770681e-05   2.594021550564687e-06   2.6581956113537215e-08
-1.262287413770681e-05   2.594021550564687e-06   2.6581956113537215e-08
-1.262287413770681e-05   2.594021550564687e-06   2.6581956113537215e-08
-1.8869229462067496e-05   2.717204541242838e-06   -1.0310100456747441e-05
-1.8869229462067496e-05   2.717204541242838e-06   -1.0310100456747441e-05
-1.8869229462067496e-05   2.717204541242838e-06   -1.0310100456747441e-05
-1.8869229462067496e-05   2.717204541242838e-06   -1.0310100456747441e-05
-1.8199113625245355e-05   2.6787075572646136e-06   1.293248487761918e-06
-1.8199113625245355e-05   2.6787075572646136e-06   1.293248487761918e-06
-1.8199113625245355e-05   2.6787075572646136e-06   1.293248487761918e-06
-1.8199113625245355e-05   2.6787075572646136e-06   1.293248487761918e-06
-1.223225204007791e-05   2.84143773003967e-06   -8.749158924515548e-06
-1.223225204007791e-05   2.84143773003967e-06   -8.749158924515548e-06
-1.223225204007791e-05   2.84143773003967e-06   -8.749158924515548e-06
-1.223225204007791e-05   2.84143773003967e-06   -8.749158924515548e-06
-1.5068502601412416e-05   2.7405553301115305e-06   -3.961545215667642e-06
-1.5068502601412416e-05   2.7405553301115305e-06   -3.961545215667642e-06
-1.5068502601412416e-05   2.7405553301115305e-06   -3.961545215667642e-06
-1.5068502601412416e-05   2.7405553301115305e-06   -3.961545215667642e-06
-1.2232252040077932e-05   2.678707557264505e-06   1.195610384096895e-06
-1.2232252040077932e-05   2.678707557264505e-06   1.195610384096895e-06
-1.2232252040077932e-05   2.678707557264505e-06   1.195610384096895e-06
-1.2232252040077932e-05   2.678707557264505e-06   1.195610384096895e-06
-1.8199113625245324e-05   2.84143773003967e-06   -8.651520820850513e-06
-1.8199113625245324e-05   2.84143773003967e-06   -8.651520820850513e-06
-1.8199113625245324e-05   2.84143773003967e-06   -8.651520820850513e-06
-1.8199113625245324e-05   2.84143773003967e-06   -8.651520820850513e-06
-1.7495185371854047e-05   2.7468655761497948e-06   2.9019202244494075e-06
-1.7495185371854047e-05   2.7468655761497948e-06   2.9019202244494075e-06
-1.7495185371854047e-05   2.7468655761497948e-06   2.9019202244494075e-06
-1.7495185371854047e-05   2.7468655761497948e-06   2.9019202244494075e-06
-1.1939435794420741e-05   3.0456307726441003e-06   -6.536921522502745e-06
-1.1939435794420741e-05   3.0456307726441003e-06   -6.536921522502745e-06
-1.1939435794420741e-05   3.0456307726441003e-06   -6.536921522502745e-06
-1.1939435794420741e-05   3.0456307726441003e-06   -6.536921522502745e-06
-1.4382567968388238e-05   2.7981816070624327e-06   -2.3165650665414735e-06
-1.4382567968388238e-05   2.7981816070624327e-06   -2.3165650665414735e-06
-1.4382567968388238e-05   2.7981816070624327e-06   -2.3165650665414735e-06
-1.4382567968388238e-05   2.7981816070624327e-06   -2.3165650665414735e-06
1.6896223985680855e-05   -2.521886132764075e-06   5.8773860059155975e-06
1.6896223985680855e-05   -2.521886132764075e-06   5.8773860059155975e-06
1.6896223985680855e-05   -2.521886132764075e-06   5.8773860059155975e-06
1.6896223985680855e-05   -2.521886132764075e-06   5.8773860059155975e-06
8.458651386274495e-06   -3.172386742600797e-06   -8.575535358997075e-06
8.458651386274495e-06   -3.172386742600797e-06   -8.575535358997075e-06
8.458651386274495e-06   -3.172386742600797e-06   -8.575535358997075e-06
8.458651386274495e-06   -3.172386742600797e-06   -8.575535358997075e-06
8.653882224418987e-06   -2.4655468636394394e-06   4.243668145319853e-06
8.653882224418987e-06   -2.4655468636394394e-06   4.243668145319853e-06
8.653882224418987e-06   -2.4655468636394394e-06   4.243668145319853e-06
8.653882224418987e-06   -2.4655468636394394e-06   4.243668145319853e-06
1.730242561338822e-05   -3.2518643016612872e-06   -9.698780373482442e-06
1.730242561338822e-05   -3.2518643016612872e-06   -9.698780373482442e-06
1.730242561338822e-05   -3.2518643016612872e-06   -9.698780373482442e-06
1.730242561338822e-05   -3.2518643016612872e-06   -9.698780373482442e-06
1.2314364792017578e-05   -2.5754582902749734e-06   -1.7911892780297835e-06
1.2314364792017578e-05   -2.5754582902749734e-06   -1.7911892780297835e-06
1.2314364792017578e-05   -2.5754582902749734e-06   -1.7911892780297835e-06
1.2314364792017578e-05   -2.5754582902749734e-06   -1.7911892780297835e-06
1.730242561338822e-05   -2.4655468636394394e-06   4.715458608132994e-06
1.730242561338822e-05   -2.4655468636394394e-06   4.715458608132994e-06
1.730242561338822e-05   -2.4655468636394394e-06   4.715458608132994e-06
1.730242561338822e-05   -2.4655468636394394e-06   4.715458608132994e-06
8.653882224418987e-06   -3.2518643016612872e-06   -1.0170570836295543e-05
8.653882224418987e-06   -3.2518643016612872e-06   -1.0170570836295543e-05
8.653882224418987e-06   -3.2518643016612872e-06   -1.0170570836295543e-05
8.653882224418987e-06   -3.2518643016612872e-06   -1.0170570836295543e-05
8.818631866588568e-06   -2.3790896026631243e-06   3.363124569945059e-06
8.818631866588568e-06   -2.3790896026631243e-06   3.363124569945059e-06
8.818631866588568e-06   -2.3790896026631243e-06   3.363124569945059e-06
8.818631866588568e-06   -2.3790896026631243e-06   3.363124569945059e-06
1.755441019698902e-05   -3.2201721474733186e-06   -1.0691856453836246e-05
1.755441019698902e-05   -3.2201721474733186e-06   -1.0691856453836246e-05
1.755441019698902e-05   -3.2201721474733186e-06   -1.0691856453836246e-05
1.755441019698902e-05   -3.2201721474733186e-06   -1.0691856453836246e-05
1.2738256463125607e-05   -2.6540624959111615e-06   -3.0045993550011497e-06
1.2738256463125607e-05   -2.6540624959111615e-06   -3.0045993550011497e-06
1.2738256463125607e-05   -2.6540624959111615e-06   -3.0045993550011497e-06
1.2738256463125607e-05   -2.6540624959111615e-06   -3.0045993550011497e-06
1.755441019698902e-05   -2.3790896026631243e-06   3.867774096831132e-06
1.755441019698902e-05   -2.3790896026631243e-06   3.867774096831132e-06
1.755441019698902e-05   -2.3790896026631243e-06   3.867774096831132e-06
1.755441019698902e-05   -2.3790896026631243e-06   3.867774096831132e-06
8.818631866588568e-06   -3.2201721474733186e-06   -1.119650598072232e-05
8.818631866588568e-06   -3.2201721474733186e-06   -1.119650598072232e-05
8.818631866588568e-06   -3.2201721474733186e-06   -1.119650598072232e-05
8.818631866588568e-06   -3.2201721474733186e-06   -1.119650598072232e-05
8.98907589966648e-06   -2.0449874383055835e-06   1.6676470011066716e-06
8.98907589966648e-06   -2.0449874383055835e-06   1.6676470011066716e-06
8.98907589966648e-06   -2.0449874383055835e-06   1.6676470011066716e-06
8.98907589966648e-06   -2.0449874383055835e-06   1.6676470011066716e-06
1.780266542363151e-05   -3.034544109980445e-06   -1.2427934869163482e-05
1.780266542363151e-05   -3.034544109980445e-06   -1.2427934869163482e-05
1.780266542363151e-05   -3.034544109980445e-06   -1.2427934869163482e-05
1.780266542363151e-05   -3.034544109980445e-06   -1.2427934869163482e-05
1.2733610732357009e-05   -2.550665778113881e-06   -4.269837382825945e-06
1.2733610732357009e-05   -2.550665778113881e-06   -4.269837382825945e-06
1.2733610732357009e-05   -2.550665778113881e-06   -4.269837382825945e-06
1.2733610732357009e-05   -2.550665778113881e-06   -4.269837382825945e-06
8.458651386274495e-06   -1.599636105386595e-06   7.23677655513409e-07
8.458651386274495e-06   -1.599636105386595e-06   7.23677655513409e-07
8.458651386274495e-06   -1.599636105386595e-06   7.23677655513409e-07
8.458651386274495e-06   -1.599636105386595e-06   7.23677655513409e-07
9.11490696103852e-07   -3.09950290147958e-06   -1.2754843572426722e-05
9.11490696103852e-07   -3.09950290147958e-06   -1.2754843572426722e-05
9.11490696103852e-07   -3.09950290147958e-06   -1.2754843572426722e-05
9.11490696103852e-07   -3.09950290147958e-06   -1.2754843572426722e-05
1.1379392688163156e-06   -1.5182291531787946e-06   1.085114187086714e-07
1.1379392688163156e-06   -1.5182291531787946e-06   1.085114187086714e-07
1.1379392688163156e-06   -1.5182291531787946e-06   1.085114187086714e-07
1.1379392688163156e-06   -1.5182291531787946e-06   1.085114187086714e-07
8.653882224419e-06   -3.079157684970457e-06   -1.1481503054887522e-05
8.653882224419e-06   -3.079157684970457e-06   -1.1481503054887522e-05
8.653882224419e-06   -3.079157684970457e-06   -1.1481503054887522e-05
8.653882224419e-06   -3.079157684970457e-06   -1.1481503054887522e-05
4.807049527602241e-06   -2.0958883823334355e-06   -5.660076808441765e-06
4.807049527602241e-06   -2.0958883823334355e-06   -5.660076808441765e-06
4.807049527602241e-06   -2.0958883823334355e-06   -5.660076808441765e-06
4.807049527602241e-06   -2.0958883823334355e-06   -5.660076808441765e-06
8.65388222441898e-06   -1.518229153178903e-06   1.045068537783658e-06
8.65388222441898e-06   -1.518229153178903e-06   1.045068537783658e-06
8.65388222441898e-06   -1.518229153178903e-06   1.045068537783658e-06
8.65388222441898e-06   -1.518229153178903e-06   1.045068537783658e-06
1.1379392688163088e-06   -3.079157684970457e-06   -1.2418060173962427e-05
1.1379392688163088e-06   -3.079157684970457e-06   -1.2418060173962427e-05
1.1379392688163088e-06   -3.079157684970457e-06   -1.2418060173962427e-05
1.1379392688163088e-06   -3.079157684970457e-06   -1.2418060173962427e-05
1.3422090909572237e-06   -1.3702089246048254e-06   2.094256911562998e-08
1.3422090909572237e-06   -1.3702089246048254e-06   2.094256911562998e-08
1.3422090909572237e-06   -1.3702089246048254e-06   2.094256911562998e-08
1.3422090909572237e-06   -1.3702089246048254e-06   2.094256911562998e-08
8.818631866588568e-06   -3.0318374610162433e-06   -1.1442784935089748e-05
8.818631866588568e-06   -3.0318374610162433e-06   -1.1442784935089748e-05
8.818631866588568e-06   -3.0318374610162433e-06   -1.1442784935089748e-05
8.818631866588568e-06   -3.0318374610162433e-06   -1.1442784935089748e-05
4.931791799391431e-06   -2.1136188508464205e-06   -5.515649322529437e-06
4.931791799391431e-06   -2.1136188508464205e-06   -5.515649322529437e-06
4.931791799391431e-06   -2.1136188508464205e-06   -5.515649322529437e-06
4.931791799391431e-06   -2.1136188508464205e-06   -5.515649322529437e-06
8.818631866588568e-06   -1.3702089246048254e-06   1.0179196909625133e-06
8.818631866588568e-06   -1.3702089246048254e-06   1.0179196909625133e-06
8.818631866588568e-06   -1.3702089246048254e-06   1.0179196909625133e-06
8.818631866588568e-06   -1.3702089246048254e-06   1.0179196909625133e-06
1.3422090909572169e-06   -3.0318374610162433e-06   -1.2439762056936645e-05
1.3422090909572169e-06   -3.0318374610162433e-06   -1.2439762056936645e-05
1.3422090909572169e-06   -3.0318374610162433e-06   -1.2439762056936645e-05
1.3422090909572169e-06   -3.0318374610162433e-06   -1.2439762056936645e-05
1.6479992655633137e-06   -1.1593344199059726e-06   -1.328189100143081e-07
1.6479992655633137e-06   -1.1593344199059726e-06   -1.328189100143081e-07
1.6479992655633137e-06   -1.1593344199059726e-06   -1.328189100143081e-07
1.6479992655633137e-06   -1.1593344199059726e-06   -1.328189100143081e-07
8.989075899666473e-06   -2.9411807121504418e-06   -1.1298838858172892e-05
8.989075899666473e-06   -2.9411807121504418e-06   -1.1298838858172892e-05
8.989075899666473e-06   -2.9411807121504418e-06   -1.1298838858172892e-05
8.989075899666473e-06   -2.9411807121504418e-06   -1.1298838858172892e-05
5.179337273067692e-06   -2.0737808036020095e-06   -5.469714425637327e-06
5.179337273067692e-06   -2.0737808036020095e-06   -5.469714425637327e-06
5.179337273067692e-06   -2.0737808036020095e-06   -5.469714425637327e-06
5.179337273067692e-06   -2.0737808036020095e-06   -5.469714425637327e-06
9.11490696103852e-07   -7.861951115943231e-07   -1.0884404505906052e-06
9.11490696103852e-07   -7.861951115943231e-07   -1.0884404505906052e-06
9.11490696103852e-07   -7.861951115943231e-07   -1.0884404505906052e-06
9.11490696103852e-07   -7.861951115943231e-07   -1.0884404505906052e-06
-6.553791656347234e-06   -3.651028313247603e-06   -1.5249477625667697e-05
-6.553791656347234e-06   -3.651028313247603e-06   -1.5249477625667697e-05
-6.553791656347234e-06   -3.651028313247603e-06   -1.5249477625667697e-05
-6.553791656347234e-06   -3.651028313247603e-06   -1.5249477625667697e-05
-6.200052147325037e-06   -6.887656121715244e-07   -2.486477050946058e-06
-6.200052147325037e-06   -6.887656121715244e-07   -2.486477050946058e-06
-6.200052147325037e-06   -6.887656121715244e-07   -2.486477050946058e-06
-6.200052147325037e-06   -6.887656121715244e-07   -2.486477050946058e-06
1.1379392688163088e-06   -3.724969836580924e-06   -1.2894740209869346e-05
1.1379392688163088e-06   -3.724969836580924e-06   -1.2894740209869346e-05
1.1379392688163088e-06   -3.724969836580924e-06   -1.2894740209869346e-05
1.1379392688163088e-06   -3.724969836580924e-06   -1.2894740209869346e-05
-2.5938468975219923e-06   -2.0426048290918177e-06   -7.684515603798904e-06
-2.5938468975219923e-06   -2.0426048290918177e-06   -7.684515603798904e-06
-2.5938468975219923e-06   -2.0426048290918177e-06   -7.684515603798904e-06
-2.5938468975219923e-06   -2.0426048290918177e-06   -7.684515603798904e-06
1.1379392688163088e-06   -6.887656121715244e-07   -6.647545163004508e-07
1.1379392688163088e-06   -6.887656121715244e-07   -6.647545163004508e-07
1.1379392688163088e-06   -6.887656121715244e-07   -6.647545163004508e-07
1.1379392688163088e-06   -6.887656121715244e-07   -6.647545163004508e-07
-6.200052147325044e-06   -3.724969836580924e-06   -1.4716462744515028e-05
-6.200052147325044e-06   -3.724969836580924e-06   -1.4716462744515028e-05
-6.200052147325044e-06   -3.724969836580924e-06   -1.4716462744515028e-05
-6.200052147325044e-06   -3.724969836580924e-06   -1.4716462744515028e-05
-5.89407696264217e-06   -5.421904576218646e-07   -2.309505087414799e-06
-5.89407696264217e-06   -5.421904576218646e-07   -2.309505087414799e-06
-5.89407696264217e-06   -5.421904576218646e-07   -2.309505087414799e-06
-5.89407696264217e-06   -5.421904576218646e-07   -2.309505087414799e-06
1.3422090909572169e-06   -3.699337612957359e-06   -1.2475693550212457e-05
1.3422090909572169e-06   -3.699337612957359e-06   -1.2475693550212457e-05
1.3422090909572169e-06   -3.699337612957359e-06   -1.2475693550212457e-05
1.3422090909572169e-06   -3.699337612957359e-06   -1.2475693550212457e-05
-2.3431907337056217e-06   -2.0829871586233294e-06   -7.303170781708065e-06
-2.3431907337056217e-06   -2.0829871586233294e-06   -7.303170781708065e-06
-2.3431907337056217e-06   -2.0829871586233294e-06   -7.303170781708065e-06
-2.3431907337056217e-06   -2.0829871586233294e-06   -7.303170781708065e-06
1.3422090909572169e-06   -5.421904576217561e-07   -4.1521679421341546e-07
1.3422090909572169e-06   -5.421904576217561e-07   -4.1521679421341546e-07
1.3422090909572169e-06   -5.421904576217561e-07   -4.1521679421341546e-07
1.3422090909572169e-06   -5.421904576217561e-07   -4.1521679421341546e-07
-5.89407696264219e-06   -3.699337612957359e-06   -1.436998184341378e-05
-5.89407696264219e-06   -3.699337612957359e-06   -1.436998184341378e-05
-5.89407696264219e-06   -3.699337612957359e-06   -1.436998184341378e-05
-5.89407696264219e-06   -3.699337612957359e-06   -1.436998184341378e-05
-5.3654374462751875e-06   -4.0247455189369903e-07   -2.301542795596573e-06
-5.3654374462751875e-06   -4.0247455189369903e-07   -2.301542795596573e-06
-5.3654374462751875e-06   -4.0247455189369903e-07   -2.301542795596573e-06
-5.3654374462751875e-06   -4.0247455189369903e-07   -2.301542795596573e-06
1.6479992655633137e-06   -3.560007357741586e-06   -1.2096084298485348e-05
1.6479992655633137e-06   -3.560007357741586e-06   -1.2096084298485348e-05
1.6479992655633137e-06   -3.560007357741586e-06   -1.2096084298485348e-05
1.6479992655633137e-06   -3.560007357741586e-06   -1.2096084298485348e-05
-2.017005922290571e-06   -2.0292937708227352e-06   -6.906170470880242e-06
-2.017005922290571e-06   -2.0292937708227352e-06   -6.906170470880242e-06
-2.017005922290571e-06   -2.0292937708227352e-06   -6.906170470880242e-06
-2.017005922290571e-06   -2.0292937708227352e-06   -6.906170470880242e-06
-6.55379165634722e-06   3.1488383408270065e-07   -1.5620323240860445e-06
-6.55379165634722e-06   3.1488383408270065e-07   -1.5620323240860445e-06
-6.55379165634722e-06   3.1488383408270065e-07   -1.5620323240860445e-06
-6.55379165634722e-06   3.1488383408270065e-07   -1.5620323240860445e-06
-1.4847178688184438e-05   -4.466294107812602e-06   -1.825305080895191e-05
-1.4847178688184438e-05   -4.466294107812602e-06   -1.825305080895191e-05
-1.4847178688184438e-05   -4.466294107812602e-06   -1.825305080895191e-05
-1.4847178688184438e-05   -4.466294107812602e-06   -1.825305080895191e-05
-1.4417937703868635e-05   4.878856831414891e-07   -4.289798271599253e-06
-1.4417937703868635e-05   4.878856831414891e-07   -4.289798271599253e-06
-1.4417937703868635e-05   4.878856831414891e-07   -4.289798271599253e-06
-1.4417937703868635e-05   4.878856831414891e-07   -4.289798271599253e-06
-6.200052147325037e-06   -5.022167872229606e-06   -1.4680242065949237e-05
-6.200052147325037e-06   -5.022167872229606e-06   -1.4680242065949237e-05
-6.200052147325037e-06   -5.022167872229606e-06   -1.4680242065949237e-05
-6.200052147325037e-06   -5.022167872229606e-06   -1.4680242065949237e-05
-1.0358209992497444e-05   -2.226349885455707e-06   -9.427469782726151e-06
-1.0358209992497444e-05   -2.226349885455707e-06   -9.427469782726151e-06
-1.0358209992497444e-05   -2.226349885455707e-06   -9.427469782726151e-06
-1.0358209992497444e-05   -2.226349885455707e-06   -9.427469782726151e-06
-6.200052147325037e-06   4.878856831415975e-07   -9.837661383766175e-07
-6.200052147325037e-06   4.878856831415975e-07   -9.837661383766175e-07
-6.200052147325037e-06   4.878856831415975e-07   -9.837661383766175e-07
-6.200052147325037e-06   4.878856831415975e-07   -9.837661383766175e-07
-1.4417937703868635e-05   -5.022167872229606e-06   -1.798627419917194e-05
-1.4417937703868635e-05   -5.022167872229606e-06   -1.798627419917194e-05
-1.4417937703868635e-05   -5.022167872229606e-06   -1.798627419917194e-05
-1.4417937703868635e-05   -5.022167872229606e-06   -1.798627419917194e-05
-1.4007227457847055e-05   6.463978656567415e-07   -3.78871527417638e-06
-1.4007227457847055e-05   6.463978656567415e-07   -3.78871527417638e-06
-1.4007227457847055e-05   6.463978656567415e-07   -3.78871527417638e-06
-1.4007227457847055e-05   6.463978656567415e-07   -3.78871527417638e-06
-5.89407696264218e-06   -5.041883447622574e-06   -1.3897663978216863e-05
-5.89407696264218e-06   -5.041883447622574e-06   -1.3897663978216863e-05
-5.89407696264218e-06   -5.041883447622574e-06   -1.3897663978216863e-05
-5.89407696264218e-06   -5.041883447622574e-06   -1.3897663978216863e-05
-9.939447382787762e-06   -2.2264058937625317e-06   -8.844666476956914e-06
-9.939447382787762e-06   -2.2264058937625317e-06   -8.844666476956914e-06
-9.939447382787762e-06   -2.2264058937625317e-06   -8.844666476956914e-06
-9.939447382787762e-06   -2.2264058937625317e-06   -8.844666476956914e-06
-5.8940769626421764e-06   6.463978656567415e-07   -3.757464862087258e-07
-5.8940769626421764e-06   6.463978656567415e-07   -3.757464862087258e-07
-5.8940769626421764e-06   6.463978656567415e-07   -3.757464862087258e-07
-5.8940769626421764e-06   6.463978656567415e-07   -3.757464862087258e-07
-1.4007227457847079e-05   -5.041883447622574e-06   -1.7310632766184483e-05
-1.4007227457847079e-05   -5.041883447622574e-06   -1.7310632766184483e-05
-1.4007227457847079e-05   -5.041883447622574e-06   -1.7310632766184483e-05
-1.4007227457847079e-05   -5.041883447622574e-06   -1.7310632766184483e-05
-1.3328790562956809e-05   7.788820627761166e-07   -3.284378261966662e-06
-1.3328790562956809e-05   7.788820627761166e-07   -3.284378261966662e-06
-1.3328790562956809e-05   7.788820627761166e-07   -3.284378261966662e-06
-1.3328790562956809e-05   7.788820627761166e-07   -3.284378261966662e-06
-5.365437446275204e-06   -4.551767255219093e-06   -1.3358243865638976e-05
-5.365437446275204e-06   -4.551767255219093e-06   -1.3358243865638976e-05
-5.365437446275204e-06   -4.551767255219093e-06   -1.3358243865638976e-05
-5.365437446275204e-06   -4.551767255219093e-06   -1.3358243865638976e-05
-9.532286850464781e-06   -1.9310723831781652e-06   -7.985911781880668e-06
-9.532286850464781e-06   -1.9310723831781652e-06   -7.985911781880668e-06
-9.532286850464781e-06   -1.9310723831781652e-06   -7.985911781880668e-06
-9.532286850464781e-06   -1.9310723831781652e-06   -7.985911781880668e-06
-1.4847178688184438e-05   2.170590532490544e-06   -2.9021645216069977e-06
-1.4847178688184438e-05   2.170590532490544e-06   -2.9021645216069977e-06
-1.4847178688184438e-05   2.170590532490544e-06   -2.9021645216069977e-06
-1.4847178688184438e-05   2.170590532490544e-06   -2.9021645216069977e-06
-2.5371505157210768e-05   0.0   -2.174506295614533e-05
-2.5371505157210768e-05   0.0   -2.174506295614533e-05
-2.5371505157210768e-05   0.0   -2.174506295614533e-05
-2.5371505157210768e-05   0.0   -2.174506295614533e-05
-2.47496690321972e-05   2.717204541242838e-06   -2.1725384907510595e-06
-2.47496690321972e-05   2.717204541242838e-06   -2.1725384907510595e-06
-2.47496690321972e-05   2.717204541242838e-06   -2.1725384907510595e-06
-2.47496690321972e-05   2.717204541242838e-06   -2.1725384907510595e-06
-1.441793770386861e-05   0.0   -1.7761767979886338e-05
-1.441793770386861e-05   0.0   -1.7761767979886338e-05
-1.441793770386861e-05   0.0   -1.7761767979886338e-05
-1.441793770386861e-05   0.0   -1.7761767979886338e-05
-1.900506679118701e-05   8.481495931249045e-07   -1.0625442590230687e-05
-1.900506679118701e-05   8.481495931249045e-07   -1.0625442590230687e-05
-1.900506679118701e-05   8.481495931249045e-07   -1.0625442590230687e-05
-1.900506679118701e-05   8.481495931249045e-07   -1.0625442590230687e-05
-1.4417937703868622e-05   2.7172045412429463e-06   -5.422157660053459e-07
-1.4417937703868622e-05   2.7172045412429463e-06   -5.422157660053459e-07
-1.4417937703868622e-05   2.7172045412429463e-06   -5.422157660053459e-07
-1.4417937703868622e-05   2.7172045412429463e-06   -5.422157660053459e-07
-2.474966903219716e-05   0.0   -1.9392090704631977e-05
-2.474966903219716e-05   0.0   -1.9392090704631977e-05
-2.474966903219716e-05   0.0   -1.9392090704631977e-05
-2.474966903219716e-05   0.0   -1.9392090704631977e-05
-2.4219632614588826e-05   2.84143773003967e-06   -6.858429737328074e-07
-2.4219632614588826e-05   2.84143773003967e-06   -6.858429737328074e-07
-2.4219632614588826e-05   2.84143773003967e-06   -6.858429737328074e-07
-2.4219632614588826e-05   2.84143773003967e-06   -6.858429737328074e-07
-1.4007227457847079e-05   0.0   -1.6001655596945294e-05
-1.4007227457847079e-05   0.0   -1.6001655596945294e-05
-1.4007227457847079e-05   0.0   -1.6001655596945294e-05
-1.4007227457847079e-05   0.0   -1.6001655596945294e-05
-1.8836547009568406e-05   1.3200813801452112e-06   -8.744838505496654e-06
-1.8836547009568406e-05   1.3200813801452112e-06   -8.744838505496654e-06
-1.8836547009568406e-05   1.3200813801452112e-06   -8.744838505496654e-06
-1.8836547009568406e-05   1.3200813801452112e-06   -8.744838505496654e-06
-1.4007227457847079e-05   2.84143773003967e-06   1.019019664291027e-06
-1.4007227457847079e-05   2.84143773003967e-06   1.019019664291027e-06
-1.4007227457847079e-05   2.84143773003967e-06   1.019019664291027e-06
-1.4007227457847079e-05   2.84143773003967e-06   1.019019664291027e-06
-2.4219632614588782e-05   0.0   -1.7706518234969027e-05
-2.4219632614588782e-05   0.0   -1.7706518234969027e-05
-2.4219632614588782e-05   0.0   -1.7706518234969027e-05
-2.4219632614588782e-05   0.0   -1.7706518234969027e-05
-2.3158024852256765e-05   3.0456307726441003e-06   1.7211776432812082e-06
-2.3158024852256765e-05   3.0456307726441003e-06   1.7211776432812082e-06
-2.3158024852256765e-05   3.0456307726441003e-06   1.7211776432812082e-06
-2.3158024852256765e-05   3.0456307726441003e-06   1.7211776432812082e-06
-1.3328790562956831e-05   0.0   -1.2833501041965598e-05
-1.3328790562956831e-05   0.0   -1.2833501041965598e-05
-1.3328790562956831e-05   0.0   -1.2833501041965598e-05
-1.3328790562956831e-05   0.0   -1.2833501041965598e-05
-1.78959194136071e-05   1.62114717426479e-06   -6.19430792877398e-06
-1.78959194136071e-05   1.62114717426479e-06   -6.19430792877398e-06
-1.78959194136071e-05   1.62114717426479e-06   -6.19430792877398e-06
-1.78959194136071e-05   1.62114717426479e-06   -6.19430792877398e-06
1.8690063065903515e-05   -3.172386742600797e-06   1.1088654145128608e-05
1.8690063065903515e-05   -3.172386742600797e-06   1.1088654145128608e-05
1.8690063065903515e-05   -3.172386742600797e-06   1.1088654145128608e-05
1.8690063065903515e-05   -3.172386742600797e-06   1.1088654145128608e-05
9.653156517353166e-06   -2.478468292176723e-06   -3.5565056988674836e-06
9.653156517353166e-06   -2.478468292176723e-06   -3.5565056988674836e-06
9.653156517353166e-06   -2.478468292176723e-06   -3.5565056988674836e-06
9.653156517353166e-06   -2.478468292176723e-06   -3.5565056988674836e-06
9.419259596541426e-06   -3.2518643016612872e-06   9.753799061026805e-06
9.419259596541426e-06   -3.2518643016612872e-06   9.753799061026805e-06
9.419259596541426e-06   -3.2518643016612872e-06   9.753799061026805e-06
9.419259596541426e-06   -3.2518643016612872e-06   9.753799061026805e-06
1.85025711736975e-05   -2.7186476607564836e-06   -5.7049835521095265e-06
1.85025711736975e-05   -2.7186476607564836e-06   -5.7049835521095265e-06
1.85025711736975e-05   -2.7186476607564836e-06   -5.7049835521095265e-06
1.85025711736975e-05   -2.7186476607564836e-06   -5.7049835521095265e-06
1.3488487623408691e-05   -2.7518000149553794e-06   2.6717137775577997e-06
1.3488487623408691e-05   -2.7518000149553794e-06   2.6717137775577997e-06
1.3488487623408691e-05   -2.7518000149553794e-06   2.6717137775577997e-06
1.3488487623408691e-05   -2.7518000149553794e-06   2.6717137775577997e-06
1.85025711736975e-05   -3.2518643016612872e-06   9.43386907648389e-06
1.85025711736975e-05   -3.2518643016612872e-06   9.43386907648389e-06
1.85025711736975e-05   -3.2518643016612872e-06   9.43386907648389e-06
1.85025711736975e-05   -3.2518643016612872e-06   9.43386907648389e-06
9.419259596541426e-06   -2.7186476607564836e-06   -5.385053567566727e-06
9.419259596541426e-06   -2.7186476607564836e-06   -5.385053567566727e-06
9.419259596541426e-06   -2.7186476607564836e-06   -5.385053567566727e-06
9.419259596541426e-06   -2.7186476607564836e-06   -5.385053567566727e-06
9.206831472284168e-06   -3.2201721474733186e-06   8.737277703151308e-06
9.206831472284168e-06   -3.2201721474733186e-06   8.737277703151308e-06
9.206831472284168e-06   -3.2201721474733186e-06   8.737277703151308e-06
9.206831472284168e-06   -3.2201721474733186e-06   8.737277703151308e-06
1.8282505412448803e-05   -2.7381787980772145e-06   -6.678041540094084e-06
1.8282505412448803e-05   -2.7381787980772145e-06   -6.678041540094084e-06
1.8282505412448803e-05   -2.7381787980772145e-06   -6.678041540094084e-06
1.8282505412448803e-05   -2.7381787980772145e-06   -6.678041540094084e-06
1.3488811575412438e-05   -2.8001506257377537e-06   1.3486312848962122e-06
1.3488811575412438e-05   -2.8001506257377537e-06   1.3486312848962122e-06
1.3488811575412438e-05   -2.8001506257377537e-06   1.3486312848962122e-06
1.3488811575412438e-05   -2.8001506257377537e-06   1.3486312848962122e-06
1.8282505412448836e-05   -3.2201721474733186e-06   8.4480816935137e-06
1.8282505412448836e-05   -3.2201721474733186e-06   8.4480816935137e-06
1.8282505412448836e-05   -3.2201721474733186e-06   8.4480816935137e-06
1.8282505412448836e-05   -3.2201721474733186e-06   8.4480816935137e-06
9.206831472284168e-06   -2.7381787980772145e-06   -6.388845530456381e-06
9.206831472284168e-06   -2.7381787980772145e-06   -6.388845530456381e-06
9.206831472284168e-06   -2.7381787980772145e-06   -6.388845530456381e-06
9.206831472284168e-06   -2.7381787980772145e-06   -6.388845530456381e-06
8.94721008179254e-06   -3.034544109980445e-06   7.083384165566884e-06
8.94721008179254e-06   -3.034544109980445e-06   7.083384165566884e-06
8.94721008179254e-06   -3.034544109980445e-06   7.083384165566884e-06
8.94721008179254e-06   -3.034544109980445e-06   7.083384165566884e-06
1.793740485968586e-05   -2.6723061725704824e-06   -8.117616560034626e-06
1.793740485968586e-05   -2.6723061725704824e-06   -8.117616560034626e-06
1.793740485968586e-05   -2.6723061725704824e-06   -8.117616560034626e-06
1.793740485968586e-05   -2.6723061725704824e-06   -8.117616560034626e-06
1.303781983436765e-05   -2.6617229777019507e-06   4.200856524121913e-08
1.303781983436765e-05   -2.6617229777019507e-06   4.200856524121913e-08
1.303781983436765e-05   -2.6617229777019507e-06   4.200856524121913e-08
1.303781983436765e-05   -2.6617229777019507e-06   4.200856524121913e-08
9.653156517353166e-06   -3.09950290147958e-06   8.225617079609141e-06
9.653156517353166e-06   -3.09950290147958e-06   8.225617079609141e-06
9.653156517353166e-06   -3.09950290147958e-06   8.225617079609141e-06
9.653156517353166e-06   -3.09950290147958e-06   8.225617079609141e-06
1.9320488205843697e-06   -1.4936264719075335e-06   -3.679369890595668e-06
1.9320488205843697e-06   -1.4936264719075335e-06   -3.679369890595668e-06
1.9320488205843697e-06   -1.4936264719075335e-06   -3.679369890595668e-06
1.9320488205843697e-06   -1.4936264719075335e-06   -3.679369890595668e-06
1.5620744913862544e-06   -3.079157684970457e-06   9.341467257294872e-06
1.5620744913862544e-06   -3.079157684970457e-06   9.341467257294872e-06
1.5620744913862544e-06   -3.079157684970457e-06   9.341467257294872e-06
1.5620744913862544e-06   -3.079157684970457e-06   9.341467257294872e-06
9.419259596541426e-06   -1.5814903268704253e-06   -4.6524416661571135e-06
9.419259596541426e-06   -1.5814903268704253e-06   -4.6524416661571135e-06
9.419259596541426e-06   -1.5814903268704253e-06   -4.6524416661571135e-06
9.419259596541426e-06   -1.5814903268704253e-06   -4.6524416661571135e-06
5.631978571710532e-06   -2.2271303322113226e-06   2.0470773784322775e-06
5.631978571710532e-06   -2.2271303322113226e-06   2.0470773784322775e-06
5.631978571710532e-06   -2.2271303322113226e-06   2.0470773784322775e-06
5.631978571710532e-06   -2.2271303322113226e-06   2.0470773784322775e-06
9.419259596541433e-06   -3.079157684970457e-06   8.442866842434853e-06
9.419259596541433e-06   -3.079157684970457e-06   8.442866842434853e-06
9.419259596541433e-06   -3.079157684970457e-06   8.442866842434853e-06
9.419259596541433e-06   -3.079157684970457e-06   8.442866842434853e-06
1.5620744913862544e-06   -1.5814903268704253e-06   -3.7538412512970877e-06
1.5620744913862544e-06   -1.5814903268704253e-06   -3.7538412512970877e-06
1.5620744913862544e-06   -1.5814903268704253e-06   -3.7538412512970877e-06
1.5620744913862544e-06   -1.5814903268704253e-06   -3.7538412512970877e-06
1.2968740761110196e-06   -3.0318374610162433e-06   9.339822274299946e-06
1.2968740761110196e-06   -3.0318374610162433e-06   9.339822274299946e-06
1.2968740761110196e-06   -3.0318374610162433e-06   9.339822274299946e-06
1.2968740761110196e-06   -3.0318374610162433e-06   9.339822274299946e-06
9.206831472284168e-06   -1.6171315851562723e-06   -4.692263578171315e-06
9.206831472284168e-06   -1.6171315851562723e-06   -4.692263578171315e-06
9.206831472284168e-06   -1.6171315851562723e-06   -4.692263578171315e-06
9.206831472284168e-06   -1.6171315851562723e-06   -4.692263578171315e-06
5.311573068015205e-06   -2.1788853566862172e-06   2.136886025195156e-06
5.311573068015205e-06   -2.1788853566862172e-06   2.136886025195156e-06
5.311573068015205e-06   -2.1788853566862172e-06   2.136886025195156e-06
5.311573068015205e-06   -2.1788853566862172e-06   2.136886025195156e-06
9.206831472284185e-06   -3.0318374610162433e-06   8.49099874878392e-06
9.206831472284185e-06   -3.0318374610162433e-06   8.49099874878392e-06
9.206831472284185e-06   -3.0318374610162433e-06   8.49099874878392e-06
9.206831472284185e-06   -3.0318374610162433e-06   8.49099874878392e-06
1.2968740761110196e-06   -1.6171315851562723e-06   -3.8434400526552955e-06
1.2968740761110196e-06   -1.6171315851562723e-06   -3.8434400526552955e-06
1.2968740761110196e-06   -1.6171315851562723e-06   -3.8434400526552955e-06
1.2968740761110196e-06   -1.6171315851562723e-06   -3.8434400526552955e-06
1.002427693010146e-06   -2.9411807121504418e-06   9.62618471954781e-06
1.002427693010146e-06   -2.9411807121504418e-06   9.62618471954781e-06
1.002427693010146e-06   -2.9411807121504418e-06   9.62618471954781e-06
1.002427693010146e-06   -2.9411807121504418e-06   9.62618471954781e-06
8.947210081792529e-06   -1.574563145508045e-06   -4.4350898017416865e-06
8.947210081792529e-06   -1.574563145508045e-06   -4.4350898017416865e-06
8.947210081792529e-06   -1.574563145508045e-06   -4.4350898017416865e-06
8.947210081792529e-06   -1.574563145508045e-06   -4.4350898017416865e-06
5.118324360403002e-06   -2.0785618269353193e-06   2.2487856094305326e-06
5.118324360403002e-06   -2.0785618269353193e-06   2.2487856094305326e-06
5.118324360403002e-06   -2.0785618269353193e-06   2.2487856094305326e-06
5.118324360403002e-06   -2.0785618269353193e-06   2.2487856094305326e-06
1.9320488205843764e-06   -3.651028313247603e-06   8.413408805103351e-06
1.9320488205843764e-06   -3.651028313247603e-06   8.413408805103351e-06
1.9320488205843764e-06   -3.651028313247603e-06   8.413408805103351e-06
1.9320488205843764e-06   -3.651028313247603e-06   8.413408805103351e-06
-5.4939377864699895e-06   -5.680782865319324e-07   -2.1134655239579627e-06
-5.4939377864699895e-06   -5.680782865319324e-07   -2.1134655239579627e-06
-5.4939377864699895e-06   -5.680782865319324e-07   -2.1134655239579627e-06
-5.4939377864699895e-06   -5.680782865319324e-07   -2.1134655239579627e-06
-6.068448794458475e-06   -3.724969836580924e-06   1.0740996978560657e-05
-6.068448794458475e-06   -3.724969836580924e-06   1.0740996978560657e-05
-6.068448794458475e-06   -3.724969836580924e-06   1.0740996978560657e-05
-6.068448794458475e-06   -3.724969836580924e-06   1.0740996978560657e-05
1.5620744913862544e-06   -5.979535746265634e-07   -3.852751588353209e-06
1.5620744913862544e-06   -5.979535746265634e-07   -3.852751588353209e-06
1.5620744913862544e-06   -5.979535746265634e-07   -3.852751588353209e-06
1.5620744913862544e-06   -5.979535746265634e-07   -3.852751588353209e-06
-1.9541206906935827e-06   -2.065229197709302e-06   2.887939088962952e-06
-1.9541206906935827e-06   -2.065229197709302e-06   2.887939088962952e-06
-1.9541206906935827e-06   -2.065229197709302e-06   2.887939088962952e-06
-1.9541206906935827e-06   -2.065229197709302e-06   2.887939088962952e-06
1.5620744913862544e-06   -3.724969836580924e-06   8.86478722138804e-06
1.5620744913862544e-06   -3.724969836580924e-06   8.86478722138804e-06
1.5620744913862544e-06   -3.724969836580924e-06   8.86478722138804e-06
1.5620744913862544e-06   -3.724969836580924e-06   8.86478722138804e-06
-6.068448794458462e-06   -5.97953574626455e-07   -1.976541831180559e-06
-6.068448794458462e-06   -5.97953574626455e-07   -1.976541831180559e-06
-6.068448794458462e-06   -5.97953574626455e-07   -1.976541831180559e-06
-6.068448794458462e-06   -5.97953574626455e-07   -1.976541831180559e-06
-6.4218632098078e-06   -3.699337612957359e-06   1.1142210855027079e-05
-6.4218632098078e-06   -3.699337612957359e-06   1.1142210855027079e-05
-6.4218632098078e-06   -3.699337612957359e-06   1.1142210855027079e-05
-6.4218632098078e-06   -3.699337612957359e-06   1.1142210855027079e-05
1.2968740761110196e-06   -6.354708229524804e-07   -3.5606713621739362e-06
1.2968740761110196e-06   -6.354708229524804e-07   -3.5606713621739362e-06
1.2968740761110196e-06   -6.354708229524804e-07   -3.5606713621739362e-06
1.2968740761110196e-06   -6.354708229524804e-07   -3.5606713621739362e-06
-2.344163564732481e-06   -2.052441792509585e-06   3.357907287632883e-06
-2.344163564732481e-06   -2.052441792509585e-06   3.357907287632883e-06
-2.344163564732481e-06   -2.052441792509585e-06   3.357907287632883e-06
-2.344163564732481e-06   -2.052441792509585e-06   3.357907287632883e-06
1.2968740761110263e-06   -3.699337612957359e-06   9.303890781024087e-06
1.2968740761110263e-06   -3.699337612957359e-06   9.303890781024087e-06
1.2968740761110263e-06   -3.699337612957359e-06   9.303890781024087e-06
1.2968740761110263e-06   -3.699337612957359e-06   9.303890781024087e-06
-6.4218632098077934e-06   -6.354708229524804e-07   -1.722351288170978e-06
-6.4218632098077934e-06   -6.354708229524804e-07   -1.722351288170978e-06
-6.4218632098077934e-06   -6.354708229524804e-07   -1.722351288170978e-06
-6.4218632098077934e-06   -6.354708229524804e-07   -1.722351288170978e-06
-6.834830281315481e-06   -3.560007357741586e-06   1.1657967895892761e-05
-6.834830281315481e-06   -3.560007357741586e-06   1.1657967895892761e-05
-6.834830281315481e-06   -3.560007357741586e-06   1.1657967895892761e-05
-6.834830281315481e-06   -3.560007357741586e-06   1.1657967895892761e-05
1.002427693010146e-06   -6.268059555570573e-07   -3.1640495692940215e-06
1.002427693010146e-06   -6.268059555570573e-07   -3.1640495692940215e-06
1.002427693010146e-06   -6.268059555570573e-07   -3.1640495692940215e-06
1.002427693010146e-06   -6.268059555570573e-07   -3.1640495692940215e-06
-2.66294517635336e-06   -1.962477462539116e-06   3.746308117167713e-06
-2.66294517635336e-06   -1.962477462539116e-06   3.746308117167713e-06
-2.66294517635336e-06   -1.962477462539116e-06   3.746308117167713e-06
-2.66294517635336e-06   -1.962477462539116e-06   3.746308117167713e-06
-5.493937786469996e-06   -4.466294107812602e-06   1.0128312402985732e-05
-5.493937786469996e-06   -4.466294107812602e-06   1.0128312402985732e-05
-5.493937786469996e-06   -4.466294107812602e-06   1.0128312402985732e-05
-5.493937786469996e-06   -4.466294107812602e-06   1.0128312402985732e-05
-1.3882798435085151e-05   7.823318171029355e-07   -7.039464564235522e-07
-1.3882798435085151e-05   7.823318171029355e-07   -7.039464564235522e-07
-1.3882798435085151e-05   7.823318171029355e-07   -7.039464564235522e-07
-1.3882798435085151e-05   7.823318171029355e-07   -7.039464564235522e-07
-1.4581632412425618e-05   -5.022167872229606e-06   1.4241237147355208e-05
-1.4581632412425618e-05   -5.022167872229606e-06   1.4241237147355208e-05
-1.4581632412425618e-05   -5.022167872229606e-06   1.4241237147355208e-05
-1.4581632412425618e-05   -5.022167872229606e-06   1.4241237147355208e-05
-6.068448794458462e-06   7.511979448183125e-07   -3.411421706152181e-06
-6.068448794458462e-06   7.511979448183125e-07   -3.411421706152181e-06
-6.068448794458462e-06   7.511979448183125e-07   -3.411421706152181e-06
-6.068448794458462e-06   7.511979448183125e-07   -3.411421706152181e-06
-9.872379674190528e-06   -1.7762532176500727e-06   4.444933790882333e-06
-9.872379674190528e-06   -1.7762532176500727e-06   4.444933790882333e-06
-9.872379674190528e-06   -1.7762532176500727e-06   4.444933790882333e-06
-9.872379674190528e-06   -1.7762532176500727e-06   4.444933790882333e-06
-6.068448794458475e-06   -5.022167872229606e-06   1.077721765712638e-05
-6.068448794458475e-06   -5.022167872229606e-06   1.077721765712638e-05
-6.068448794458475e-06   -5.022167872229606e-06   1.077721765712638e-05
-6.068448794458475e-06   -5.022167872229606e-06   1.077721765712638e-05
-1.4581632412425618e-05   7.511979448184209e-07   5.2597784076585056e-08
-1.4581632412425618e-05   7.511979448184209e-07   5.2597784076585056e-08
-1.4581632412425618e-05   7.511979448184209e-07   5.2597784076585056e-08
-1.4581632412425618e-05   7.511979448184209e-07   5.2597784076585056e-08
-1.5005897050828736e-05   -5.041883447622574e-06   1.5049458690070299e-05
-1.5005897050828736e-05   -5.041883447622574e-06   1.5049458690070299e-05
-1.5005897050828736e-05   -5.041883447622574e-06   1.5049458690070299e-05
-1.5005897050828736e-05   -5.041883447622574e-06   1.5049458690070299e-05
-6.4218632098077934e-06   6.829998354546682e-07   -2.692194348144322e-06
-6.4218632098077934e-06   6.829998354546682e-07   -2.692194348144322e-06
-6.4218632098077934e-06   6.829998354546682e-07   -2.692194348144322e-06
-6.4218632098077934e-06   6.829998354546682e-07   -2.692194348144322e-06
-1.0320612972175955e-05   -2.0733802171052015e-06   5.4595499540052445e-06
-1.0320612972175955e-05   -2.0733802171052015e-06   5.4595499540052445e-06
-1.0320612972175955e-05   -2.0733802171052015e-06   5.4595499540052445e-06
-1.0320612972175955e-05   -2.0733802171052015e-06   5.4595499540052445e-06
-6.421863209807783e-06   -5.041883447622574e-06   1.1614528720223921e-05
-6.421863209807783e-06   -5.041883447622574e-06   1.1614528720223921e-05
-6.421863209807783e-06   -5.041883447622574e-06   1.1614528720223921e-05
-6.421863209807783e-06   -5.041883447622574e-06   1.1614528720223921e-05
-1.5005897050828712e-05   6.829998354546682e-07   7.427356217020896e-07
-1.5005897050828712e-05   6.829998354546682e-07   7.427356217020896e-07
-1.5005897050828712e-05   6.829998354546682e-07   7.427356217020896e-07
-1.5005897050828712e-05   6.829998354546682e-07   7.427356217020896e-07
-1.5464964596244134e-05   -4.551767255219093e-06   1.538401685021346e-05
-1.5464964596244134e-05   -4.551767255219093e-06   1.538401685021346e-05
-1.5464964596244134e-05   -4.551767255219093e-06   1.538401685021346e-05
-1.5464964596244134e-05   -4.551767255219093e-06   1.538401685021346e-05
-6.834830281315457e-06   6.04380808056932e-07   -2.0932291792998613e-06
-6.834830281315457e-06   6.04380808056932e-07   -2.0932291792998613e-06
-6.834830281315457e-06   6.04380808056932e-07   -2.0932291792998613e-06
-6.834830281315457e-06   6.04380808056932e-07   -2.0932291792998613e-06
-1.0789368301429596e-05   -2.08348969197485e-06   6.110389820909663e-06
-1.0789368301429596e-05   -2.08348969197485e-06   6.110389820909663e-06
-1.0789368301429596e-05   -2.08348969197485e-06   6.110389820909663e-06
-1.0789368301429596e-05   -2.08348969197485e-06   6.110389820909663e-06
-1.38827984350851e-05   0.0   1.1087830130235884e-05
-1.38827984350851e-05   0.0   1.1087830130235884e-05
-1.38827984350851e-05   0.0   1.1087830130235884e-05
-1.38827984350851e-05   0.0   1.1087830130235884e-05
-2.4250341158400653e-05   3.2027281334606446e-06   -4.269770861880292e-06
-2.4250341158400653e-05   3.2027281334606446e-06   -4.269770861880292e-06
-2.4250341158400653e-05   3.2027281334606446e-06   -4.269770861880292e-06
-2.4250341158400653e-05   3.2027281334606446e-06   -4.269770861880292e-06
-2.519815556975814e-05   0.0   1.633186709682654e-05
-2.519815556975814e-05   0.0   1.633186709682654e-05
-2.519815556975814e-05   0.0   1.633186709682654e-05
-2.519815556975814e-05   0.0   1.633186709682654e-05
-1.4581632412425597e-05   3.110206216976291e-06   -3.228461895580232e-06
-1.4581632412425597e-05   3.110206216976291e-06   -3.228461895580232e-06
-1.4581632412425597e-05   3.110206216976291e-06   -3.228461895580232e-06
-1.4581632412425597e-05   3.110206216976291e-06   -3.228461895580232e-06
-1.8650822363068955e-05   1.898767918401354e-06   4.280384334636985e-06
-1.8650822363068955e-05   1.898767918401354e-06   4.280384334636985e-06
-1.8650822363068955e-05   1.898767918401354e-06   4.280384334636985e-06
-1.8650822363068955e-05   1.898767918401354e-06   4.280384334636985e-06
-1.4581632412425584e-05   0.0   1.4465743366640776e-05
-1.4581632412425584e-05   0.0   1.4465743366640776e-05
-1.4581632412425584e-05   0.0   1.4465743366640776e-05
-1.4581632412425584e-05   0.0   1.4465743366640776e-05
-2.5198155569758185e-05   3.110206216976291e-06   -1.3623381653944276e-06
-2.5198155569758185e-05   3.110206216976291e-06   -1.3623381653944276e-06
-2.5198155569758185e-05   3.110206216976291e-06   -1.3623381653944276e-06
-2.5198155569758185e-05   3.110206216976291e-06   -1.3623381653944276e-06
-2.5673544568927695e-05   0.0   1.8180949830258844e-05
-2.5673544568927695e-05   0.0   1.8180949830258844e-05
-2.5673544568927695e-05   0.0   1.8180949830258844e-05
-2.5673544568927695e-05   0.0   1.8180949830258844e-05
-1.5005897050828712e-05   3.0375232849157293e-06   -1.42097667085561e-06
-1.5005897050828712e-05   3.0375232849157293e-06   -1.42097667085561e-06
-1.5005897050828712e-05   3.0375232849157293e-06   -1.42097667085561e-06
-1.5005897050828712e-05   3.0375232849157293e-06   -1.42097667085561e-06
-1.9585687255222935e-05   1.5907241767546855e-06   7.080086468031567e-06
-1.9585687255222935e-05   1.5907241767546855e-06   7.080086468031567e-06
-1.9585687255222935e-05   1.5907241767546855e-06   7.080086468031567e-06
-1.9585687255222935e-05   1.5907241767546855e-06   7.080086468031567e-06
-1.5005897050828712e-05   0.0   1.6358435859309428e-05
-1.5005897050828712e-05   0.0   1.6358435859309428e-05
-1.5005897050828712e-05   0.0   1.6358435859309428e-05
-1.5005897050828712e-05   0.0   1.6358435859309428e-05
-2.5673544568927783e-05   3.0375232849157293e-06   4.015373000938738e-07
-2.5673544568927783e-05   3.0375232849157293e-06   4.015373000938738e-07
-2.5673544568927783e-05   3.0375232849157293e-06   4.015373000938738e-07
-2.5673544568927783e-05   3.0375232849157293e-06   4.015373000938738e-07
-2.619541129103089e-05   0.0   2.064273966244216e-05
-2.619541129103089e-05   0.0   2.064273966244216e-05
-2.619541129103089e-05   0.0   2.064273966244216e-05
-2.619541129103089e-05   0.0   2.064273966244216e-05
-1.5464964596244134e-05   2.5593173295971293e-06   1.2230714400391922e-06
-1.5464964596244134e-05   2.5593173295971293e-06   1.2230714400391922e-06
-1.5464964596244134e-05   2.5593173295971293e-06   1.2230714400391922e-06
-1.5464964596244134e-05   2.5593173295971293e-06   1.2230714400391922e-06
-1.972236199576411e-05   1.1305526827059273e-06   9.17599256070731e-06
-1.972236199576411e-05   1.1305526827059273e-06   9.17599256070731e-06
-1.972236199576411e-05   1.1305526827059273e-06   9.17599256070731e-06
-1.972236199576411e-05   1.1305526827059273e-06   9.17599256070731e-06
1.6586702725988192e-05   -2.478468292176723e-06   1.1646273305405898e-05
1.6586702725988192e-05   -2.478468292176723e-06   1.1646273305405898e-05
1.6586702725988192e-05   -2.478468292176723e-06   1.1646273305405898e-05
1.6586702725988192e-05   -2.478468292176723e-06   1.1646273305405898e-05
8.358052220055452e-06   -1.8970961740990113e-06   -1.7193209336353681e-06
8.358052220055452e-06   -1.8970961740990113e-06   -1.7193209336353681e-06
8.358052220055452e-06   -1.8970961740990113e-06   -1.7193209336353681e-06
8.358052220055452e-06   -1.8970961740990113e-06   -1.7193209336353681e-06
8.146111195095859e-06   -2.7186476607564836e-06   1.0136995870066478e-05
8.146111195095859e-06   -2.7186476607564836e-06   1.0136995870066478e-05
8.146111195095859e-06   -2.7186476607564836e-06   1.0136995870066478e-05
8.146111195095859e-06   -2.7186476607564836e-06   1.0136995870066478e-05
1.6212087729846554e-05   -2.1426906415104603e-06   -3.6518725660656624e-06
1.6212087729846554e-05   -2.1426906415104603e-06   -3.6518725660656624e-06
1.6212087729846554e-05   -2.1426906415104603e-06   -3.6518725660656624e-06
1.6212087729846554e-05   -2.1426906415104603e-06   -3.6518725660656624e-06
1.1777030738425388e-05   -2.2191330000364672e-06   3.785754501418637e-06
1.1777030738425388e-05   -2.2191330000364672e-06   3.785754501418637e-06
1.1777030738425388e-05   -2.2191330000364672e-06   3.785754501418637e-06
1.1777030738425388e-05   -2.2191330000364672e-06   3.785754501418637e-06
1.6212087729846526e-05   -2.7186476607564836e-06   9.791421658518799e-06
1.6212087729846526e-05   -2.7186476607564836e-06   9.791421658518799e-06
1.6212087729846526e-05   -2.7186476607564836e-06   9.791421658518799e-06
1.6212087729846526e-05   -2.7186476607564836e-06   9.791421658518799e-06
8.146111195095869e-06   -2.1426906415104603e-06   -3.3062983545179697e-06
8.146111195095869e-06   -2.1426906415104603e-06   -3.3062983545179697e-06
8.146111195095869e-06   -2.1426906415104603e-06   -3.3062983545179697e-06
8.146111195095869e-06   -2.1426906415104603e-06   -3.3062983545179697e-06
7.873180689293403e-06   -2.7381787980772145e-06   9.081470596111535e-06
7.873180689293403e-06   -2.7381787980772145e-06   9.081470596111535e-06
7.873180689293403e-06   -2.7381787980772145e-06   9.081470596111535e-06
7.873180689293403e-06   -2.7381787980772145e-06   9.081470596111535e-06
1.583144877768074e-05   -2.177403447248933e-06   -4.518774761697682e-06
1.583144877768074e-05   -2.177403447248933e-06   -4.518774761697682e-06
1.583144877768074e-05   -2.177403447248933e-06   -4.518774761697682e-06
1.583144877768074e-05   -2.177403447248933e-06   -4.518774761697682e-06
1.1680563280487283e-05   -2.3142865339710345e-06   2.4814975856580124e-06
1.1680563280487283e-05   -2.3142865339710345e-06   2.4814975856580124e-06
1.1680563280487283e-05   -2.3142865339710345e-06   2.4814975856580124e-06
1.1680563280487283e-05   -2.3142865339710345e-06   2.4814975856580124e-06
1.583144877768074e-05   -2.7381787980772145e-06   8.745005385614533e-06
1.583144877768074e-05   -2.7381787980772145e-06   8.745005385614533e-06
1.583144877768074e-05   -2.7381787980772145e-06   8.745005385614533e-06
1.583144877768074e-05   -2.7381787980772145e-06   8.745005385614533e-06
7.873180689293403e-06   -2.177403447248933e-06   -4.18230955120068e-06
7.873180689293403e-06   -2.177403447248933e-06   -4.18230955120068e-06
7.873180689293403e-06   -2.177403447248933e-06   -4.18230955120068e-06
7.873180689293403e-06   -2.177403447248933e-06   -4.18230955120068e-06
7.586174525532496e-06   -2.6723061725704824e-06   7.509051112446034e-06
7.586174525532496e-06   -2.6723061725704824e-06   7.509051112446034e-06
7.586174525532496e-06   -2.6723061725704824e-06   7.509051112446034e-06
7.586174525532496e-06   -2.6723061725704824e-06   7.509051112446034e-06
1.535442725764024e-05   -2.155666813769886e-06   -5.74802038968059e-06
1.535442725764024e-05   -2.155666813769886e-06   -5.74802038968059e-06
1.535442725764024e-05   -2.155666813769886e-06   -5.74802038968059e-06
1.535442725764024e-05   -2.155666813769886e-06   -5.74802038968059e-06
1.1174513319989271e-05   -2.251042347360308e-06   1.2757281598921278e-06
1.1174513319989271e-05   -2.251042347360308e-06   1.2757281598921278e-06
1.1174513319989271e-05   -2.251042347360308e-06   1.2757281598921278e-06
1.1174513319989271e-05   -2.251042347360308e-06   1.2757281598921278e-06
8.358052220055466e-06   -1.4936264719075335e-06   1.0908706526781156e-05
8.358052220055466e-06   -1.4936264719075335e-06   1.0908706526781156e-05
8.358052220055466e-06   -1.4936264719075335e-06   1.0908706526781156e-05
8.358052220055466e-06   -1.4936264719075335e-06   1.0908706526781156e-05
8.417368618994267e-07   -6.59669115402918e-07   -1.118111322909426e-06
8.417368618994267e-07   -6.59669115402918e-07   -1.118111322909426e-06
8.417368618994267e-07   -6.59669115402918e-07   -1.118111322909426e-06
8.417368618994267e-07   -6.59669115402918e-07   -1.118111322909426e-06
6.303220278447579e-07   -1.581490326870317e-06   1.1344563904764943e-05
6.303220278447579e-07   -1.581490326870317e-06   1.1344563904764943e-05
6.303220278447579e-07   -1.581490326870317e-06   1.1344563904764943e-05
6.303220278447579e-07   -1.581490326870317e-06   1.1344563904764943e-05
8.146111195095869e-06   -7.898967713888729e-07   -1.656707507275794e-06
8.146111195095869e-06   -7.898967713888729e-07   -1.656707507275794e-06
8.146111195095869e-06   -7.898967713888729e-07   -1.656707507275794e-06
8.146111195095869e-06   -7.898967713888729e-07   -1.656707507275794e-06
4.450511487097729e-06   -1.0530227042570856e-06   4.6605008991086486e-06
4.450511487097729e-06   -1.0530227042570856e-06   4.6605008991086486e-06
4.450511487097729e-06   -1.0530227042570856e-06   4.6605008991086486e-06
4.450511487097729e-06   -1.0530227042570856e-06   4.6605008991086486e-06
8.146111195095865e-06   -1.581490326870317e-06   1.0869607771476044e-05
8.146111195095865e-06   -1.581490326870317e-06   1.0869607771476044e-05
8.146111195095865e-06   -1.581490326870317e-06   1.0869607771476044e-05
8.146111195095865e-06   -1.581490326870317e-06   1.0869607771476044e-05
6.303220278447579e-07   -7.898967713888729e-07   -1.1817513739869018e-06
6.303220278447579e-07   -7.898967713888729e-07   -1.1817513739869018e-06
6.303220278447579e-07   -7.898967713888729e-07   -1.1817513739869018e-06
6.303220278447579e-07   -7.898967713888729e-07   -1.1817513739869018e-06
3.6138653869053315e-07   -1.6171315851562723e-06   1.1224599625291368e-05
3.6138653869053315e-07   -1.6171315851562723e-06   1.1224599625291368e-05
3.6138653869053315e-07   -1.6171315851562723e-06   1.1224599625291368e-05
3.6138653869053315e-07   -1.6171315851562723e-06   1.1224599625291368e-05
7.873180689293403e-06   -8.728864569982611e-07   -1.7416043692748025e-06
7.873180689293403e-06   -8.728864569982611e-07   -1.7416043692748025e-06
7.873180689293403e-06   -8.728864569982611e-07   -1.7416043692748025e-06
7.873180689293403e-06   -8.728864569982611e-07   -1.7416043692748025e-06
4.180868953073195e-06   -1.1010402061115403e-06   4.549140773893695e-06
4.180868953073195e-06   -1.1010402061115403e-06   4.549140773893695e-06
4.180868953073195e-06   -1.1010402061115403e-06   4.549140773893695e-06
4.180868953073195e-06   -1.1010402061115403e-06   4.549140773893695e-06
7.87318068929339e-06   -1.6171315851562723e-06   1.0778052548396594e-05
7.87318068929339e-06   -1.6171315851562723e-06   1.0778052548396594e-05
7.87318068929339e-06   -1.6171315851562723e-06   1.0778052548396594e-05
7.87318068929339e-06   -1.6171315851562723e-06   1.0778052548396594e-05
3.6138653869053315e-07   -8.728864569982611e-07   -1.2950572923801028e-06
3.6138653869053315e-07   -8.728864569982611e-07   -1.2950572923801028e-06
3.6138653869053315e-07   -8.728864569982611e-07   -1.2950572923801028e-06
3.6138653869053315e-07   -8.728864569982611e-07   -1.2950572923801028e-06
6.440403570636544e-08   -1.574563145508045e-06   1.1376011687631935e-05
6.440403570636544e-08   -1.574563145508045e-06   1.1376011687631935e-05
6.440403570636544e-08   -1.574563145508045e-06   1.1376011687631935e-05
6.440403570636544e-08   -1.574563145508045e-06   1.1376011687631935e-05
7.586174525532486e-06   -9.049355132764681e-07   -1.5620490414172043e-06
7.586174525532486e-06   -9.049355132764681e-07   -1.5620490414172043e-06
7.586174525532486e-06   -9.049355132764681e-07   -1.5620490414172043e-06
7.586174525532486e-06   -9.049355132764681e-07   -1.5620490414172043e-06
3.965074643951102e-06   -1.0872210866668622e-06   4.582488771919603e-06
3.965074643951102e-06   -1.0872210866668622e-06   4.582488771919603e-06
3.965074643951102e-06   -1.0872210866668622e-06   4.582488771919603e-06
3.965074643951102e-06   -1.0872210866668622e-06   4.582488771919603e-06
8.417368618994267e-07   -5.680782865320408e-07   1.1125215291292402e-05
8.417368618994267e-07   -5.680782865320408e-07   1.1125215291292402e-05
8.417368618994267e-07   -5.680782865320408e-07   1.1125215291292402e-05
8.417368618994267e-07   -5.680782865320408e-07   1.1125215291292402e-05
-6.447128657074687e-06   6.073551117750714e-07   -3.176338680135828e-07
-6.447128657074687e-06   6.073551117750714e-07   -3.176338680135828e-07
-6.447128657074687e-06   6.073551117750714e-07   -3.176338680135828e-07
-6.447128657074687e-06   6.073551117750714e-07   -3.176338680135828e-07
-6.685690576655526e-06   -5.979535746265634e-07   1.1910942412932265e-05
-6.685690576655526e-06   -5.979535746265634e-07   1.1910942412932265e-05
-6.685690576655526e-06   -5.979535746265634e-07   1.1910942412932265e-05
-6.685690576655526e-06   -5.979535746265634e-07   1.1910942412932265e-05
6.303220278447579e-07   5.108611674124524e-07   -9.477007731249971e-07
6.303220278447579e-07   5.108611674124524e-07   -9.477007731249971e-07
6.303220278447579e-07   5.108611674124524e-07   -9.477007731249971e-07
6.303220278447579e-07   5.108611674124524e-07   -9.477007731249971e-07
-2.9101659005297616e-06   3.8948457320008706e-08   5.236260066888152e-06
-2.9101659005297616e-06   3.8948457320008706e-08   5.236260066888152e-06
-2.9101659005297616e-06   3.8948457320008706e-08   5.236260066888152e-06
-2.9101659005297616e-06   3.8948457320008706e-08   5.236260066888152e-06
6.303220278447579e-07   -5.979535746265634e-07   1.1245653567708855e-05
6.303220278447579e-07   -5.979535746265634e-07   1.1245653567708855e-05
6.303220278447579e-07   -5.979535746265634e-07   1.1245653567708855e-05
6.303220278447579e-07   -5.979535746265634e-07   1.1245653567708855e-05
-6.685690576655526e-06   5.108611674125609e-07   -2.824119279015605e-07
-6.685690576655526e-06   5.108611674125609e-07   -2.824119279015605e-07
-6.685690576655526e-06   5.108611674125609e-07   -2.824119279015605e-07
-6.685690576655526e-06   5.108611674125609e-07   -2.824119279015605e-07
-7.003387961176003e-06   -6.354708229524804e-07   1.2141288167839381e-05
-7.003387961176003e-06   -6.354708229524804e-07   1.2141288167839381e-05
-7.003387961176003e-06   -6.354708229524804e-07   1.2141288167839381e-05
-7.003387961176003e-06   -6.354708229524804e-07   1.2141288167839381e-05
3.6138653869053315e-07   4.210622638250788e-07   -7.672558506714269e-07
3.6138653869053315e-07   4.210622638250788e-07   -7.672558506714269e-07
3.6138653869053315e-07   4.210622638250788e-07   -7.672558506714269e-07
3.6138653869053315e-07   4.210622638250788e-07   -7.672558506714269e-07
-3.1449091722243756e-06   1.4028316760290004e-08   5.320790702425664e-06
-3.1449091722243756e-06   1.4028316760290004e-08   5.320790702425664e-06
-3.1449091722243756e-06   1.4028316760290004e-08   5.320790702425664e-06
-3.1449091722243756e-06   1.4028316760290004e-08   5.320790702425664e-06
3.6138653869053315e-07   -6.354708229524804e-07   1.1507368315772802e-05
3.6138653869053315e-07   -6.354708229524804e-07   1.1507368315772802e-05
3.6138653869053315e-07   -6.354708229524804e-07   1.1507368315772802e-05
3.6138653869053315e-07   -6.354708229524804e-07   1.1507368315772802e-05
-7.003387961175989e-06   4.210622638250788e-07   -1.3333599860489544e-07
-7.003387961175989e-06   4.210622638250788e-07   -1.3333599860489544e-07
-7.003387961175989e-06   4.210622638250788e-07   -1.3333599860489544e-07
-7.003387961175989e-06   4.210622638250788e-07   -1.3333599860489544e-07
-7.341817573064028e-06   -6.268059555570573e-07   1.2417467180333617e-05
-7.341817573064028e-06   -6.268059555570573e-07   1.2417467180333617e-05
-7.341817573064028e-06   -6.268059555570573e-07   1.2417467180333617e-05
-7.341817573064028e-06   -6.268059555570573e-07   1.2417467180333617e-05
6.440403570636544e-08   3.571703781750932e-07   -5.166213011897561e-07
6.440403570636544e-08   3.571703781750932e-07   -5.166213011897561e-07
6.440403570636544e-08   3.571703781750932e-07   -5.166213011897561e-07
6.440403570636544e-08   3.571703781750932e-07   -5.166213011897561e-07
-3.4434429351412804e-06   -2.6465078024028033e-09   5.545680448476375e-06
-3.4434429351412804e-06   -2.6465078024028033e-09   5.545680448476375e-06
-3.4434429351412804e-06   -2.6465078024028033e-09   5.545680448476375e-06
-3.4434429351412804e-06   -2.6465078024028033e-09   5.545680448476375e-06
-6.4471286570746665e-06   7.823318171029355e-07   1.0090818842861606e-05
-6.4471286570746665e-06   7.823318171029355e-07   1.0090818842861606e-05
-6.4471286570746665e-06   7.823318171029355e-07   1.0090818842861606e-05
-6.4471286570746665e-06   7.823318171029355e-07   1.0090818842861606e-05
-1.3612413676065426e-05   1.951069863384428e-06   -1.15008002768744e-06
-1.3612413676065426e-05   1.951069863384428e-06   -1.15008002768744e-06
-1.3612413676065426e-05   1.951069863384428e-06   -1.15008002768744e-06
-1.3612413676065426e-05   1.951069863384428e-06   -1.15008002768744e-06
-1.3955332660575821e-05   7.511979448184209e-07   1.113900483696548e-05
-1.3955332660575821e-05   7.511979448184209e-07   1.113900483696548e-05
-1.3955332660575821e-05   7.511979448184209e-07   1.113900483696548e-05
-1.3955332660575821e-05   7.511979448184209e-07   1.113900483696548e-05
-6.685690576655506e-06   1.8561017764931074e-06   -1.6400076019064814e-06
-6.685690576655506e-06   1.8561017764931074e-06   -1.6400076019064814e-06
-6.685690576655506e-06   1.8561017764931074e-06   -1.6400076019064814e-06
-6.685690576655506e-06   1.8561017764931074e-06   -1.6400076019064814e-06
-1.0097986718243948e-05   1.353464485543722e-06   4.348735008643921e-06
-1.0097986718243948e-05   1.353464485543722e-06   4.348735008643921e-06
-1.0097986718243948e-05   1.353464485543722e-06   4.348735008643921e-06
-1.0097986718243948e-05   1.353464485543722e-06   4.348735008643921e-06
-6.6856905766555196e-06   7.511979448184209e-07   1.0476062537960636e-05
-6.6856905766555196e-06   7.511979448184209e-07   1.0476062537960636e-05
-6.6856905766555196e-06   7.511979448184209e-07   1.0476062537960636e-05
-6.6856905766555196e-06   7.511979448184209e-07   1.0476062537960636e-05
-1.3955332660575787e-05   1.8561017764931074e-06   -9.770653029016912e-07
-1.3955332660575787e-05   1.8561017764931074e-06   -9.770653029016912e-07
-1.3955332660575787e-05   1.8561017764931074e-06   -9.770653029016912e-07
-1.3955332660575787e-05   1.8561017764931074e-06   -9.770653029016912e-07
-1.4377136914402777e-05   6.829998354546682e-07   1.1821632580194519e-05
-1.4377136914402777e-05   6.829998354546682e-07   1.1821632580194519e-05
-1.4377136914402777e-05   6.829998354546682e-07   1.1821632580194519e-05
-1.4377136914402777e-05   6.829998354546682e-07   1.1821632580194519e-05
-7.003387961175989e-06   1.766645622668767e-06   -1.118136480845192e-06
-7.003387961175989e-06   1.766645622668767e-06   -1.118136480845192e-06
-7.003387961175989e-06   1.766645622668767e-06   -1.118136480845192e-06
-7.003387961175989e-06   1.766645622668767e-06   -1.118136480845192e-06
-1.0350278906588414e-05   1.3352549282737896e-06   4.718849511479111e-06
-1.0350278906588414e-05   1.3352549282737896e-06   4.718849511479111e-06
-1.0350278906588414e-05   1.3352549282737896e-06   4.718849511479111e-06
-1.0350278906588414e-05   1.3352549282737896e-06   4.718849511479111e-06
-7.003387961175989e-06   6.829998354546682e-07   1.117144510786607e-05
-7.003387961175989e-06   6.829998354546682e-07   1.117144510786607e-05
-7.003387961175989e-06   6.829998354546682e-07   1.117144510786607e-05
-7.003387961175989e-06   6.829998354546682e-07   1.117144510786607e-05
-1.4377136914402777e-05   1.766645622668767e-06   -4.679490085167707e-07
-1.4377136914402777e-05   1.766645622668767e-06   -4.679490085167707e-07
-1.4377136914402777e-05   1.766645622668767e-06   -4.679490085167707e-07
-1.4377136914402777e-05   1.766645622668767e-06   -4.679490085167707e-07
-1.4821691929456595e-05   6.04380808056932e-07   1.2352459098222959e-05
-1.4821691929456595e-05   6.04380808056932e-07   1.2352459098222959e-05
-1.4821691929456595e-05   6.04380808056932e-07   1.2352459098222959e-05
-1.4821691929456595e-05   6.04380808056932e-07   1.2352459098222959e-05
-7.341817573064001e-06   1.6445347567335504e-06   -7.380905316372324e-07
-7.341817573064001e-06   1.6445347567335504e-06   -7.380905316372324e-07
-7.341817573064001e-06   1.6445347567335504e-06   -7.380905316372324e-07
-7.341817573064001e-06   1.6445347567335504e-06   -7.380905316372324e-07
-1.07815445806738e-05   1.2639926341576416e-06   5.223113087924903e-06
-1.07815445806738e-05   1.2639926341576416e-06   5.223113087924903e-06
-1.07815445806738e-05   1.2639926341576416e-06   5.223113087924903e-06
-1.07815445806738e-05   1.2639926341576416e-06   5.223113087924903e-06
-1.3612413676065426e-05   3.2027281334606446e-06   5.304600385097407e-06
-1.3612413676065426e-05   3.2027281334606446e-06   5.304600385097407e-06
-1.3612413676065426e-05   3.2027281334606446e-06   5.304600385097407e-06
-1.3612413676065426e-05   3.2027281334606446e-06   5.304600385097407e-06
-2.0505067596934643e-05   3.173148069048428e-06   -6.200904188331943e-06
-2.0505067596934643e-05   3.173148069048428e-06   -6.200904188331943e-06
-2.0505067596934643e-05   3.173148069048428e-06   -6.200904188331943e-06
-2.0505067596934643e-05   3.173148069048428e-06   -6.200904188331943e-06
-2.1123250615796644e-05   3.110206216976291e-06   7.937159860436156e-06
-2.1123250615796644e-05   3.110206216976291e-06   7.937159860436156e-06
-2.1123250615796644e-05   3.110206216976291e-06   7.937159860436156e-06
-2.1123250615796644e-05   3.110206216976291e-06   7.937159860436156e-06
-1.3955332660575787e-05   3.242230722188947e-06   -4.0885847680595286e-06
-1.3955332660575787e-05   3.242230722188947e-06   -4.0885847680595286e-06
-1.3955332660575787e-05   3.242230722188947e-06   -4.0885847680595286e-06
-1.3955332660575787e-05   3.242230722188947e-06   -4.0885847680595286e-06
-1.660266772358687e-05   3.224810009266931e-06   3.3409276471209077e-07
-1.660266772358687e-05   3.224810009266931e-06   3.3409276471209077e-07
-1.660266772358687e-05   3.224810009266931e-06   3.3409276471209077e-07
-1.660266772358687e-05   3.224810009266931e-06   3.3409276471209077e-07
-1.395533266057578e-05   3.110206216976291e-06   7.857945157308595e-06
-1.395533266057578e-05   3.110206216976291e-06   7.857945157308595e-06
-1.395533266057578e-05   3.110206216976291e-06   7.857945157308595e-06
-1.395533266057578e-05   3.110206216976291e-06   7.857945157308595e-06
-2.1123250615796644e-05   3.2422307221888387e-06   -4.009370064932008e-06
-2.1123250615796644e-05   3.2422307221888387e-06   -4.009370064932008e-06
-2.1123250615796644e-05   3.2422307221888387e-06   -4.009370064932008e-06
-2.1123250615796644e-05   3.2422307221888387e-06   -4.009370064932008e-06
-2.1729287309060733e-05   3.037523284915621e-06   9.76834705077056e-06
-2.1729287309060733e-05   3.037523284915621e-06   9.76834705077056e-06
-2.1729287309060733e-05   3.037523284915621e-06   9.76834705077056e-06
-2.1729287309060733e-05   3.037523284915621e-06   9.76834705077056e-06
-1.437713691440275e-05   3.2215678901385348e-06   -2.5956637034598107e-06
-1.437713691440275e-05   3.2215678901385348e-06   -2.5956637034598107e-06
-1.437713691440275e-05   3.2215678901385348e-06   -2.5956637034598107e-06
-1.437713691440275e-05   3.2215678901385348e-06   -2.5956637034598107e-06
-1.7325970929747755e-05   3.2315911758573146e-06   2.313045684017431e-06
-1.7325970929747755e-05   3.2315911758573146e-06   2.313045684017431e-06
-1.7325970929747755e-05   3.2315911758573146e-06   2.313045684017431e-06
-1.7325970929747755e-05   3.2315911758573146e-06   2.313045684017431e-06
-1.437713691440275e-05   3.0375232849157293e-06   9.657920287636942e-06
-1.437713691440275e-05   3.0375232849157293e-06   9.657920287636942e-06
-1.437713691440275e-05   3.0375232849157293e-06   9.657920287636942e-06
-1.437713691440275e-05   3.0375232849157293e-06   9.657920287636942e-06
-2.1729287309060733e-05   3.2215678901385348e-06   -2.4852369403261247e-06
-2.1729287309060733e-05   3.2215678901385348e-06   -2.4852369403261247e-06
-2.1729287309060733e-05   3.2215678901385348e-06   -2.4852369403261247e-06
-2.1729287309060733e-05   3.2215678901385348e-06   -2.4852369403261247e-06
-2.244539881505831e-05   2.5593173295971293e-06   1.2823806577398535e-05
-2.244539881505831e-05   2.5593173295971293e-06   1.2823806577398535e-05
-2.244539881505831e-05   2.5593173295971293e-06   1.2823806577398535e-05
-2.244539881505831e-05   2.5593173295971293e-06   1.2823806577398535e-05
-1.482169192945654e-05   2.97387682593399e-06   -1.3110726307315494e-07
-1.482169192945654e-05   2.97387682593399e-06   -1.3110726307315494e-07
-1.482169192945654e-05   2.97387682593399e-06   -1.3110726307315494e-07
-1.482169192945654e-05   2.97387682593399e-06   -1.3110726307315494e-07
-1.756437527790873e-05   3.0841794742196517e-06   4.3738500620425194e-06
-1.756437527790873e-05   3.0841794742196517e-06   4.3738500620425194e-06
-1.756437527790873e-05   3.0841794742196517e-06   4.3738500620425194e-06
-1.756437527790873e-05   3.0841794742196517e-06   4.3738500620425194e-06
1.361474166314914e-05   -1.8970961740990113e-06   1.0372345315618522e-05
1.361474166314914e-05   -1.8970961740990113e-06   1.0372345315618522e-05
1.361474166314914e-05   -1.8970961740990113e-06   1.0372345315618522e-05
1.361474166314914e-05   -1.8970961740990113e-06   1.0372345315618522e-05
6.715461638873398e-06   -1.4124566641268753e-06   -8.356710188577488e-07
6.715461638873398e-06   -1.4124566641268753e-06   -8.356710188577488e-07
6.715461638873398e-06   -1.4124566641268753e-06   -8.356710188577488e-07
6.715461638873398e-06   -1.4124566641268753e-06   -8.356710188577488e-07
6.470855197067473e-06   -2.142690641510352e-06   8.999766298678957e-06
6.470855197067473e-06   -2.142690641510352e-06   8.999766298678957e-06
6.470855197067473e-06   -2.142690641510352e-06   8.999766298678957e-06
6.470855197067473e-06   -2.142690641510352e-06   8.999766298678957e-06
1.3166082806649401e-05   -1.632151402593371e-06   -2.465269927307717e-06
1.3166082806649401e-05   -1.632151402593371e-06   -2.465269927307717e-06
1.3166082806649401e-05   -1.632151402593371e-06   -2.465269927307717e-06
1.3166082806649401e-05   -1.632151402593371e-06   -2.465269927307717e-06
9.534759193582685e-06   -1.7524891537943395e-06   3.659138745190616e-06
9.534759193582685e-06   -1.7524891537943395e-06   3.659138745190616e-06
9.534759193582685e-06   -1.7524891537943395e-06   3.659138745190616e-06
9.534759193582685e-06   -1.7524891537943395e-06   3.659138745190616e-06
1.3166082806649378e-05   -2.142690641510352e-06   8.693442755328704e-06
1.3166082806649378e-05   -2.142690641510352e-06   8.693442755328704e-06
1.3166082806649378e-05   -2.142690641510352e-06   8.693442755328704e-06
1.3166082806649378e-05   -2.142690641510352e-06   8.693442755328704e-06
6.470855197067497e-06   -1.632151402593371e-06   -2.1589463839575174e-06
6.470855197067497e-06   -1.632151402593371e-06   -2.1589463839575174e-06
6.470855197067497e-06   -1.632151402593371e-06   -2.1589463839575174e-06
6.470855197067497e-06   -1.632151402593371e-06   -2.1589463839575174e-06
6.19832206194327e-06   -2.1774034472488244e-06   8.052283702885278e-06
6.19832206194327e-06   -2.1774034472488244e-06   8.052283702885278e-06
6.19832206194327e-06   -2.1774034472488244e-06   8.052283702885278e-06
6.19832206194327e-06   -2.1774034472488244e-06   8.052283702885278e-06
1.2758287067380748e-05   -1.6750691386855808e-06   -3.182391891315112e-06
1.2758287067380748e-05   -1.6750691386855808e-06   -3.182391891315112e-06
1.2758287067380748e-05   -1.6750691386855808e-06   -3.182391891315112e-06
1.2758287067380748e-05   -1.6750691386855808e-06   -3.182391891315112e-06
9.373985728395322e-06   -1.838188738357508e-06   2.555982100130392e-06
9.373985728395322e-06   -1.838188738357508e-06   2.555982100130392e-06
9.373985728395322e-06   -1.838188738357508e-06   2.555982100130392e-06
9.373985728395322e-06   -1.838188738357508e-06   2.555982100130392e-06
1.2758287067380704e-05   -2.1774034472488244e-06   7.750883117747331e-06
1.2758287067380704e-05   -2.1774034472488244e-06   7.750883117747331e-06
1.2758287067380704e-05   -2.1774034472488244e-06   7.750883117747331e-06
1.2758287067380704e-05   -2.1774034472488244e-06   7.750883117747331e-06
6.19832206194328e-06   -1.6750691386855808e-06   -2.8809913061771456e-06
6.19832206194328e-06   -1.6750691386855808e-06   -2.8809913061771456e-06
6.19832206194328e-06   -1.6750691386855808e-06   -2.8809913061771456e-06
6.19832206194328e-06   -1.6750691386855808e-06   -2.8809913061771456e-06
5.935519179963074e-06   -2.1556668137699946e-06   6.720912173309099e-06
5.935519179963074e-06   -2.1556668137699946e-06   6.720912173309099e-06
5.935519179963074e-06   -2.1556668137699946e-06   6.720912173309099e-06
5.935519179963074e-06   -2.1556668137699946e-06   6.720912173309099e-06
1.2294990409451662e-05   -1.686210547907326e-06   -4.1598803020227535e-06
1.2294990409451662e-05   -1.686210547907326e-06   -4.1598803020227535e-06
1.2294990409451662e-05   -1.686210547907326e-06   -4.1598803020227535e-06
1.2294990409451662e-05   -1.686210547907326e-06   -4.1598803020227535e-06
8.90761247019434e-06   -1.8045924356589055e-06   1.5567787293905384e-06
8.90761247019434e-06   -1.8045924356589055e-06   1.5567787293905384e-06
8.90761247019434e-06   -1.8045924356589055e-06   1.5567787293905384e-06
8.90761247019434e-06   -1.8045924356589055e-06   1.5567787293905384e-06
6.715461638873398e-06   -6.596691154028096e-07   1.0763964218424944e-05
6.715461638873398e-06   -6.596691154028096e-07   1.0763964218424944e-05
6.715461638873398e-06   -6.596691154028096e-07   1.0763964218424944e-05
6.715461638873398e-06   -6.596691154028096e-07   1.0763964218424944e-05
2.3819642648319255e-07   -2.7260950785656674e-07   2.007579623024107e-07
2.3819642648319255e-07   -2.7260950785656674e-07   2.007579623024107e-07
2.3819642648319255e-07   -2.7260950785656674e-07   2.007579623024107e-07
2.3819642648319255e-07   -2.7260950785656674e-07   2.007579623024107e-07
2.6115307220073766e-09   -7.898967713888729e-07   1.0867194310731746e-05
2.6115307220073766e-09   -7.898967713888729e-07   1.0867194310731746e-05
2.6115307220073766e-09   -7.898967713888729e-07   1.0867194310731746e-05
2.6115307220073766e-09   -7.898967713888729e-07   1.0867194310731746e-05
6.470855197067497e-06   -4.268348300378753e-07   -1.3104896465464323e-07
6.470855197067497e-06   -4.268348300378753e-07   -1.3104896465464323e-07
6.470855197067497e-06   -4.268348300378753e-07   -1.3104896465464323e-07
6.470855197067497e-06   -4.268348300378753e-07   -1.3104896465464323e-07
3.315624043397787e-06   -5.1816747369596e-07   5.182469210989756e-06
3.315624043397787e-06   -5.1816747369596e-07   5.182469210989756e-06
3.315624043397787e-06   -5.1816747369596e-07   5.182469210989756e-06
3.315624043397787e-06   -5.1816747369596e-07   5.182469210989756e-06
6.47085519706749e-06   -7.898967713888729e-07   1.064935714592118e-05
6.47085519706749e-06   -7.898967713888729e-07   1.064935714592118e-05
6.47085519706749e-06   -7.898967713888729e-07   1.064935714592118e-05
6.47085519706749e-06   -7.898967713888729e-07   1.064935714592118e-05
2.6115307220006003e-09   -4.268348300378753e-07   8.678820015596686e-08
2.6115307220006003e-09   -4.268348300378753e-07   8.678820015596686e-08
2.6115307220006003e-09   -4.268348300378753e-07   8.678820015596686e-08
2.6115307220006003e-09   -4.268348300378753e-07   8.678820015596686e-08
-2.4232102651420493e-07   -8.728864569982611e-07   1.0693060747935966e-05
-2.4232102651420493e-07   -8.728864569982611e-07   1.0693060747935966e-05
-2.4232102651420493e-07   -8.728864569982611e-07   1.0693060747935966e-05
-2.4232102651420493e-07   -8.728864569982611e-07   1.0693060747935966e-05
6.19832206194328e-06   -5.39433351790246e-07   -2.414162626180366e-07
6.19832206194328e-06   -5.39433351790246e-07   -2.414162626180366e-07
6.19832206194328e-06   -5.39433351790246e-07   -2.414162626180366e-07
6.19832206194328e-06   -5.39433351790246e-07   -2.414162626180366e-07
3.0433846797807555e-06   -5.980763750259698e-07   5.051998521594459e-06
3.0433846797807555e-06   -5.980763750259698e-07   5.051998521594459e-06
3.0433846797807555e-06   -5.980763750259698e-07   5.051998521594459e-06
3.0433846797807555e-06   -5.980763750259698e-07   5.051998521594459e-06
6.19832206194327e-06   -8.728864569982611e-07   1.0492988884811135e-05
6.19832206194327e-06   -8.728864569982611e-07   1.0492988884811135e-05
6.19832206194327e-06   -8.728864569982611e-07   1.0492988884811135e-05
6.19832206194327e-06   -8.728864569982611e-07   1.0492988884811135e-05
-2.4232102651420493e-07   -5.39433351790246e-07   -4.13443994931313e-08
-2.4232102651420493e-07   -5.39433351790246e-07   -4.13443994931313e-08
-2.4232102651420493e-07   -5.39433351790246e-07   -4.13443994931313e-08
-2.4232102651420493e-07   -5.39433351790246e-07   -4.13443994931313e-08
-4.973346635010187e-07   -9.049355132764681e-07   1.076432669845016e-05
-4.973346635010187e-07   -9.049355132764681e-07   1.076432669845016e-05
-4.973346635010187e-07   -9.049355132764681e-07   1.076432669845016e-05
-4.973346635010187e-07   -9.049355132764681e-07   1.076432669845016e-05
5.935519179963088e-06   -6.25890859679728e-07   -1.2452316614802812e-07
5.935519179963088e-06   -6.25890859679728e-07   -1.2452316614802812e-07
5.935519179963088e-06   -6.25890859679728e-07   -1.2452316614802812e-07
5.935519179963088e-06   -6.25890859679728e-07   -1.2452316614802812e-07
2.8417878110607064e-06   -6.386131177700581e-07   5.039329136876991e-06
2.8417878110607064e-06   -6.386131177700581e-07   5.039329136876991e-06
2.8417878110607064e-06   -6.386131177700581e-07   5.039329136876991e-06
2.8417878110607064e-06   -6.386131177700581e-07   5.039329136876991e-06
2.3819642648319255e-07   6.073551117750714e-07   1.1091417398864352e-05
2.3819642648319255e-07   6.073551117750714e-07   1.1091417398864352e-05
2.3819642648319255e-07   6.073551117750714e-07   1.1091417398864352e-05
2.3819642648319255e-07   6.073551117750714e-07   1.1091417398864352e-05
-6.05521796210058e-06   8.657424815067911e-07   7.57425839730333e-07
-6.05521796210058e-06   8.657424815067911e-07   7.57425839730333e-07
-6.05521796210058e-06   8.657424815067911e-07   7.57425839730333e-07
-6.05521796210058e-06   8.657424815067911e-07   7.57425839730333e-07
-6.301819106068576e-06   5.108611674124524e-07   1.1238535169300588e-05
-6.301819106068576e-06   5.108611674124524e-07   1.1238535169300588e-05
-6.301819106068576e-06   5.108611674124524e-07   1.1238535169300588e-05
-6.301819106068576e-06   5.108611674124524e-07   1.1238535169300588e-05
2.6115307220006003e-09   7.396782635906178e-07   5.938605169427357e-07
2.6115307220006003e-09   7.396782635906178e-07   5.938605169427357e-07
2.6115307220006003e-09   7.396782635906178e-07   5.938605169427357e-07
2.6115307220006003e-09   7.396782635906178e-07   5.938605169427357e-07
-3.0335739257074955e-06   6.866023536095502e-07   5.686015156980488e-06
-3.0335739257074955e-06   6.866023536095502e-07   5.686015156980488e-06
-3.0335739257074955e-06   6.866023536095502e-07   5.686015156980488e-06
-3.0335739257074955e-06   6.866023536095502e-07   5.686015156980488e-06
2.6115307220073766e-09   5.108611674124524e-07   1.1101244911593678e-05
2.6115307220073766e-09   5.108611674124524e-07   1.1101244911593678e-05
2.6115307220073766e-09   5.108611674124524e-07   1.1101244911593678e-05
2.6115307220073766e-09   5.108611674124524e-07   1.1101244911593678e-05
-6.301819106068576e-06   7.396782635906178e-07   7.311507746496186e-07
-6.301819106068576e-06   7.396782635906178e-07   7.311507746496186e-07
-6.301819106068576e-06   7.396782635906178e-07   7.311507746496186e-07
-6.301819106068576e-06   7.396782635906178e-07   7.311507746496186e-07
-6.561621490652541e-06   4.210622638250788e-07   1.1338648458205757e-05
-6.561621490652541e-06   4.210622638250788e-07   1.1338648458205757e-05
-6.561621490652541e-06   4.210622638250788e-07   1.1338648458205757e-05
-6.561621490652541e-06   4.210622638250788e-07   1.1338648458205757e-05
-2.4232102651420493e-07   6.173727114268911e-07   6.886947494141442e-07
-2.4232102651420493e-07   6.173727114268911e-07   6.886947494141442e-07
-2.4232102651420493e-07   6.173727114268911e-07   6.886947494141442e-07
-2.4232102651420493e-07   6.173727114268911e-07   6.886947494141442e-07
-3.2622621332071494e-06   6.159012079117159e-07   5.722812829344709e-06
-3.2622621332071494e-06   6.159012079117159e-07   5.722812829344709e-06
-3.2622621332071494e-06   6.159012079117159e-07   5.722812829344709e-06
-3.2622621332071494e-06   6.159012079117159e-07   5.722812829344709e-06
-2.4232102651420493e-07   4.210622638250788e-07   1.1220862189644648e-05
-2.4232102651420493e-07   4.210622638250788e-07   1.1220862189644648e-05
-2.4232102651420493e-07   4.210622638250788e-07   1.1220862189644648e-05
-2.4232102651420493e-07   4.210622638250788e-07   1.1220862189644648e-05
-6.561621490652555e-06   6.173727114268911e-07   8.064810179751313e-07
-6.561621490652555e-06   6.173727114268911e-07   8.064810179751313e-07
-6.561621490652555e-06   6.173727114268911e-07   8.064810179751313e-07
-6.561621490652555e-06   6.173727114268911e-07   8.064810179751313e-07
-6.829372486595372e-06   3.571703781750932e-07   1.1498864965582751e-05
-6.829372486595372e-06   3.571703781750932e-07   1.1498864965582751e-05
-6.829372486595372e-06   3.571703781750932e-07   1.1498864965582751e-05
-6.829372486595372e-06   3.571703781750932e-07   1.1498864965582751e-05
-4.973346635010187e-07   5.086488885820565e-07   8.545814875146696e-07
-4.973346635010187e-07   5.086488885820565e-07   8.545814875146696e-07
-4.973346635010187e-07   5.086488885820565e-07   8.545814875146696e-07
-4.973346635010187e-07   5.086488885820565e-07   8.545814875146696e-07
-3.5097977289612605e-06   5.484268909667581e-07   5.85148646185113e-06
-3.5097977289612605e-06   5.484268909667581e-07   5.85148646185113e-06
-3.5097977289612605e-06   5.484268909667581e-07   5.85148646185113e-06
-3.5097977289612605e-06   5.484268909667581e-07   5.85148646185113e-06
-6.0552179621006e-06   1.951069863384428e-06   9.712760833260588e-06
-6.0552179621006e-06   1.951069863384428e-06   9.712760833260588e-06
-6.0552179621006e-06   1.951069863384428e-06   9.712760833260588e-06
-6.0552179621006e-06   1.951069863384428e-06   9.712760833260588e-06
-1.2173603786350629e-05   1.9763069280916623e-06   -4.6940663499841747e-07
-1.2173603786350629e-05   1.9763069280916623e-06   -4.6940663499841747e-07
-1.2173603786350629e-05   1.9763069280916623e-06   -4.6940663499841747e-07
-1.2173603786350629e-05   1.9763069280916623e-06   -4.6940663499841747e-07
-1.2459594941318206e-05   1.8561017764931074e-06   9.882046225406977e-06
-1.2459594941318206e-05   1.8561017764931074e-06   9.882046225406977e-06
-1.2459594941318206e-05   1.8561017764931074e-06   9.882046225406977e-06
-1.2459594941318206e-05   1.8561017764931074e-06   9.882046225406977e-06
-6.301819106068589e-06   1.8579463266785515e-06   -3.820202301203649e-07
-6.301819106068589e-06   1.8579463266785515e-06   -3.820202301203649e-07
-6.301819106068589e-06   1.8579463266785515e-06   -3.820202301203649e-07
-6.301819106068589e-06   1.8579463266785515e-06   -3.820202301203649e-07
-9.206341043592858e-06   1.9028086241815265e-06   4.43193228725171e-06
-9.206341043592858e-06   1.9028086241815265e-06   4.43193228725171e-06
-9.206341043592858e-06   1.9028086241815265e-06   4.43193228725171e-06
-9.206341043592858e-06   1.9028086241815265e-06   4.43193228725171e-06
-6.301819106068589e-06   1.8561017764931074e-06   9.880939495295667e-06
-6.301819106068589e-06   1.8561017764931074e-06   9.880939495295667e-06
-6.301819106068589e-06   1.8561017764931074e-06   9.880939495295667e-06
-6.301819106068589e-06   1.8561017764931074e-06   9.880939495295667e-06
-1.2459594941318192e-05   1.8579463266785515e-06   -3.809135000090551e-07
-1.2459594941318192e-05   1.8579463266785515e-06   -3.809135000090551e-07
-1.2459594941318192e-05   1.8579463266785515e-06   -3.809135000090551e-07
-1.2459594941318192e-05   1.8579463266785515e-06   -3.809135000090551e-07
-1.277544243715218e-05   1.766645622668767e-06   1.0342116104989653e-05
-1.277544243715218e-05   1.766645622668767e-06   1.0342116104989653e-05
-1.277544243715218e-05   1.766645622668767e-06   1.0342116104989653e-05
-1.277544243715218e-05   1.766645622668767e-06   1.0342116104989653e-05
-6.561621490652555e-06   1.7470925043758722e-06   -2.5202682006093954e-09
-6.561621490652555e-06   1.7470925043758722e-06   -2.5202682006093954e-09
-6.561621490652555e-06   1.7470925043758722e-06   -2.5202682006093954e-09
-6.561621490652555e-06   1.7470925043758722e-06   -2.5202682006093954e-09
-9.409549367322888e-06   1.8371280846383575e-06   4.690004844759045e-06
-9.409549367322888e-06   1.8371280846383575e-06   4.690004844759045e-06
-9.409549367322888e-06   1.8371280846383575e-06   4.690004844759045e-06
-9.409549367322888e-06   1.8371280846383575e-06   4.690004844759045e-06
-6.561621490652548e-06   1.766645622668767e-06   1.035384797596538e-05
-6.561621490652548e-06   1.766645622668767e-06   1.035384797596538e-05
-6.561621490652548e-06   1.766645622668767e-06   1.035384797596538e-05
-6.561621490652548e-06   1.766645622668767e-06   1.035384797596538e-05
-1.2775442437152147e-05   1.7470925043758722e-06   -1.425213917640323e-08
-1.2775442437152147e-05   1.7470925043758722e-06   -1.425213917640323e-08
-1.2775442437152147e-05   1.7470925043758722e-06   -1.425213917640323e-08
-1.2775442437152147e-05   1.7470925043758722e-06   -1.425213917640323e-08
-1.307578905515099e-05   1.644534756733442e-06   1.066637094528322e-05
-1.307578905515099e-05   1.644534756733442e-06   1.066637094528322e-05
-1.307578905515099e-05   1.644534756733442e-06   1.066637094528322e-05
-1.307578905515099e-05   1.644534756733442e-06   1.066637094528322e-05
-6.829372486595393e-06   1.610136440712332e-06   2.763156539699037e-07
-6.829372486595393e-06   1.610136440712332e-06   2.763156539699037e-07
-6.829372486595393e-06   1.610136440712332e-06   2.763156539699037e-07
-6.829372486595393e-06   1.610136440712332e-06   2.763156539699037e-07
-9.740772609842163e-06   1.7495463778563697e-06   5.0450032304285555e-06
-9.740772609842163e-06   1.7495463778563697e-06   5.0450032304285555e-06
-9.740772609842163e-06   1.7495463778563697e-06   5.0450032304285555e-06
-9.740772609842163e-06   1.7495463778563697e-06   5.0450032304285555e-06
-1.2173603786350615e-05   3.173148069048428e-06   4.694826950087637e-06
-1.2173603786350615e-05   3.173148069048428e-06   4.694826950087637e-06
-1.2173603786350615e-05   3.173148069048428e-06   4.694826950087637e-06
-1.2173603786350615e-05   3.173148069048428e-06   4.694826950087637e-06
-1.8028303941781246e-05   2.8652131526430043e-06   -5.247767592140049e-06
-1.8028303941781246e-05   2.8652131526430043e-06   -5.247767592140049e-06
-1.8028303941781246e-05   2.8652131526430043e-06   -5.247767592140049e-06
-1.8028303941781246e-05   2.8652131526430043e-06   -5.247767592140049e-06
-1.8479159237482518e-05   3.2422307221888387e-06   6.566375116505462e-06
-1.8479159237482518e-05   3.2422307221888387e-06   6.566375116505462e-06
-1.8479159237482518e-05   3.2422307221888387e-06   6.566375116505462e-06
-1.8479159237482518e-05   3.2422307221888387e-06   6.566375116505462e-06
-1.2459594941318206e-05   2.9019779826161465e-06   -3.2620804000248372e-06
-1.2459594941318206e-05   2.9019779826161465e-06   -3.2620804000248372e-06
-1.2459594941318206e-05   2.9019779826161465e-06   -3.2620804000248372e-06
-1.2459594941318206e-05   2.9019779826161465e-06   -3.2620804000248372e-06
-1.4698849106748221e-05   3.024167297721375e-06   3.966962866286969e-07
-1.4698849106748221e-05   3.024167297721375e-06   3.966962866286969e-07
-1.4698849106748221e-05   3.024167297721375e-06   3.966962866286969e-07
-1.4698849106748221e-05   3.024167297721375e-06   3.966962866286969e-07
-1.2459594941318179e-05   3.2422307221888387e-06   6.770526760249045e-06
-1.2459594941318179e-05   3.2422307221888387e-06   6.770526760249045e-06
-1.2459594941318179e-05   3.2422307221888387e-06   6.770526760249045e-06
-1.2459594941318179e-05   3.2422307221888387e-06   6.770526760249045e-06
-1.8479159237482572e-05   2.9019779826161465e-06   -3.466232043768488e-06
-1.8479159237482572e-05   2.9019779826161465e-06   -3.466232043768488e-06
-1.8479159237482572e-05   2.9019779826161465e-06   -3.466232043768488e-06
-1.8479159237482572e-05   2.9019779826161465e-06   -3.466232043768488e-06
-1.8917727621575603e-05   3.2215678901385348e-06   8.004555882893847e-06
-1.8917727621575603e-05   3.2215678901385348e-06   8.004555882893847e-06
-1.8917727621575603e-05   3.2215678901385348e-06   8.004555882893847e-06
-1.8917727621575603e-05   3.2215678901385348e-06   8.004555882893847e-06
-1.277544243715218e-05   2.87182534488401e-06   -2.0227405639926184e-06
-1.277544243715218e-05   2.87182534488401e-06   -2.0227405639926184e-06
-1.277544243715218e-05   2.87182534488401e-06   -2.0227405639926184e-06
-1.277544243715218e-05   2.87182534488401e-06   -2.0227405639926184e-06
-1.5264438446094953e-05   3.0818601435011767e-06   1.999565238408656e-06
-1.5264438446094953e-05   3.0818601435011767e-06   1.999565238408656e-06
-1.5264438446094953e-05   3.0818601435011767e-06   1.999565238408656e-06
-1.5264438446094953e-05   3.0818601435011767e-06   1.999565238408656e-06
-1.277544243715218e-05   3.2215678901385348e-06   8.214401410046573e-06
-1.277544243715218e-05   3.2215678901385348e-06   8.214401410046573e-06
-1.277544243715218e-05   3.2215678901385348e-06   8.214401410046573e-06
-1.277544243715218e-05   3.2215678901385348e-06   8.214401410046573e-06
-1.891772762157567e-05   2.87182534488401e-06   -2.2325860911453035e-06
-1.891772762157567e-05   2.87182534488401e-06   -2.2325860911453035e-06
-1.891772762157567e-05   2.87182534488401e-06   -2.2325860911453035e-06
-1.891772762157567e-05   2.87182534488401e-06   -2.2325860911453035e-06
-1.9428243474742582e-05   2.97387682593399e-06   1.0457891469033696e-05
-1.9428243474742582e-05   2.97387682593399e-06   1.0457891469033696e-05
-1.9428243474742582e-05   2.97387682593399e-06   1.0457891469033696e-05
-1.9428243474742582e-05   2.97387682593399e-06   1.0457891469033696e-05
-1.307578905515099e-05   2.6549261999213834e-06   6.18378119885527e-08
-1.307578905515099e-05   2.6549261999213834e-06   6.18378119885527e-08
-1.307578905515099e-05   2.6549261999213834e-06   6.18378119885527e-08
-1.307578905515099e-05   2.6549261999213834e-06   6.18378119885527e-08
-1.5390728614597452e-05   2.9919797923316175e-06   3.7178382556201414e-06
-1.5390728614597452e-05   2.9919797923316175e-06   3.7178382556201414e-06
-1.5390728614597452e-05   2.9919797923316175e-06   3.7178382556201414e-06
-1.5390728614597452e-05   2.9919797923316175e-06   3.7178382556201414e-06
1.0489611970063994e-05   -1.4124566641268753e-06   8.770806900872195e-06
1.0489611970063994e-05   -1.4124566641268753e-06   8.770806900872195e-06
1.0489611970063994e-05   -1.4124566641268753e-06   8.770806900872195e-06
1.0489611970063994e-05   -1.4124566641268753e-06   8.770806900872195e-06
4.924448684920099e-06   -9.524632317113721e-07   -2.2846918158497993e-07
4.924448684920099e-06   -9.524632317113721e-07   -2.2846918158497993e-07
4.924448684920099e-06   -9.524632317113721e-07   -2.2846918158497993e-07
4.924448684920099e-06   -9.524632317113721e-07   -2.2846918158497993e-07
4.704678695079467e-06   -1.632151402593371e-06   7.690197578849361e-06
4.704678695079467e-06   -1.632151402593371e-06   7.690197578849361e-06
4.704678695079467e-06   -1.632151402593371e-06   7.690197578849361e-06
4.704678695079467e-06   -1.632151402593371e-06   7.690197578849361e-06
1.0063336117139387e-05   -1.1490870743697265e-06   -1.5307367215179625e-06
1.0063336117139387e-05   -1.1490870743697265e-06   -1.5307367215179625e-06
1.0063336117139387e-05   -1.1490870743697265e-06   -1.5307367215179625e-06
1.0063336117139387e-05   -1.1490870743697265e-06   -1.5307367215179625e-06
7.191132303393038e-06   -1.2949978317717365e-06   3.343816089167054e-06
7.191132303393038e-06   -1.2949978317717365e-06   3.343816089167054e-06
7.191132303393038e-06   -1.2949978317717365e-06   3.343816089167054e-06
7.191132303393038e-06   -1.2949978317717365e-06   3.343816089167054e-06
1.0063336117139387e-05   -1.6321514025934795e-06   7.400358981915229e-06
1.0063336117139387e-05   -1.6321514025934795e-06   7.400358981915229e-06
1.0063336117139387e-05   -1.6321514025934795e-06   7.400358981915229e-06
1.0063336117139387e-05   -1.6321514025934795e-06   7.400358981915229e-06
4.704678695079476e-06   -1.1490870743697265e-06   -1.2408981245838266e-06
4.704678695079476e-06   -1.1490870743697265e-06   -1.2408981245838266e-06
4.704678695079476e-06   -1.1490870743697265e-06   -1.2408981245838266e-06
4.704678695079476e-06   -1.1490870743697265e-06   -1.2408981245838266e-06
4.461070769758513e-06   -1.6750691386855808e-06   6.932318706377879e-06
4.461070769758513e-06   -1.6750691386855808e-06   6.932318706377879e-06
4.461070769758513e-06   -1.6750691386855808e-06   6.932318706377879e-06
4.461070769758513e-06   -1.6750691386855808e-06   6.932318706377879e-06
9.68843592995893e-06   -1.2005800654641156e-06   -2.0646500045556488e-06
9.68843592995893e-06   -1.2005800654641156e-06   -2.0646500045556488e-06
9.68843592995893e-06   -1.2005800654641156e-06   -2.0646500045556488e-06
9.68843592995893e-06   -1.2005800654641156e-06   -2.0646500045556488e-06
7.021618039620157e-06   -1.3753510451736898e-06   2.484909067168166e-06
7.021618039620157e-06   -1.3753510451736898e-06   2.484909067168166e-06
7.021618039620157e-06   -1.3753510451736898e-06   2.484909067168166e-06
7.021618039620157e-06   -1.3753510451736898e-06   2.484909067168166e-06
9.688435929958915e-06   -1.6750691386855808e-06   6.647625262445043e-06
9.688435929958915e-06   -1.6750691386855808e-06   6.647625262445043e-06
9.688435929958915e-06   -1.6750691386855808e-06   6.647625262445043e-06
9.688435929958915e-06   -1.6750691386855808e-06   6.647625262445043e-06
4.461070769758521e-06   -1.2005800654641156e-06   -1.779956560622796e-06
4.461070769758521e-06   -1.2005800654641156e-06   -1.779956560622796e-06
4.461070769758521e-06   -1.2005800654641156e-06   -1.779956560622796e-06
4.461070769758521e-06   -1.2005800654641156e-06   -1.779956560622796e-06
4.235547719972581e-06   -1.686210547907326e-06   5.896199334455218e-06
4.235547719972581e-06   -1.686210547907326e-06   5.896199334455218e-06
4.235547719972581e-06   -1.686210547907326e-06   5.896199334455218e-06
4.235547719972581e-06   -1.686210547907326e-06   5.896199334455218e-06
9.267640819255591e-06   -1.24390230927824e-06   -2.7560074408604502e-06
9.267640819255591e-06   -1.24390230927824e-06   -2.7560074408604502e-06
9.267640819255591e-06   -1.24390230927824e-06   -2.7560074408604502e-06
9.267640819255591e-06   -1.24390230927824e-06   -2.7560074408604502e-06
6.622948059462633e-06   -1.3650398791122988e-06   1.724496367361668e-06
6.622948059462633e-06   -1.3650398791122988e-06   1.724496367361668e-06
6.622948059462633e-06   -1.3650398791122988e-06   1.724496367361668e-06
6.622948059462633e-06   -1.3650398791122988e-06   1.724496367361668e-06
4.92444868492008e-06   -2.7260950785656674e-07   9.850996176953856e-06
4.92444868492008e-06   -2.7260950785656674e-07   9.850996176953856e-06
4.92444868492008e-06   -2.7260950785656674e-07   9.850996176953856e-06
4.92444868492008e-06   -2.7260950785656674e-07   9.850996176953856e-06
-3.352469390005005e-07   -1.4878553274730137e-08   1.2394753765020443e-06
-3.352469390005005e-07   -1.4878553274730137e-08   1.2394753765020443e-06
-3.352469390005005e-07   -1.4878553274730137e-08   1.2394753765020443e-06
-3.352469390005005e-07   -1.4878553274730137e-08   1.2394753765020443e-06
-5.42440388966582e-07   -4.268348300378753e-07   9.86374022260173e-06
-5.42440388966582e-07   -4.268348300378753e-07   9.86374022260173e-06
-5.42440388966582e-07   -4.268348300378753e-07   9.86374022260173e-06
-5.42440388966582e-07   -4.268348300378753e-07   9.86374022260173e-06
4.704678695079476e-06   -1.8409278928870065e-07   9.72896524742106e-07
4.704678695079476e-06   -1.8409278928870065e-07   9.72896524742106e-07
4.704678695079476e-06   -1.8409278928870065e-07   9.72896524742106e-07
4.704678695079476e-06   -1.8409278928870065e-07   9.72896524742106e-07
2.1521023795992017e-06   -2.3104166319194448e-07   5.2553597082178455e-06
2.1521023795992017e-06   -2.3104166319194448e-07   5.2553597082178455e-06
2.1521023795992017e-06   -2.3104166319194448e-07   5.2553597082178455e-06
2.1521023795992017e-06   -2.3104166319194448e-07   5.2553597082178455e-06
4.704678695079464e-06   -4.268348300378753e-07   9.718094998152171e-06
4.704678695079464e-06   -4.268348300378753e-07   9.718094998152171e-06
4.704678695079464e-06   -4.268348300378753e-07   9.718094998152171e-06
4.704678695079464e-06   -4.268348300378753e-07   9.718094998152171e-06
-5.42440388966582e-07   -1.8409278928870065e-07   1.1185417491916074e-06
-5.42440388966582e-07   -1.8409278928870065e-07   1.1185417491916074e-06
-5.42440388966582e-07   -1.8409278928870065e-07   1.1185417491916074e-06
-5.42440388966582e-07   -1.8409278928870065e-07   1.1185417491916074e-06
-7.542788701607689e-07   -5.39433351790246e-07   9.706107703240754e-06
-7.542788701607689e-07   -5.39433351790246e-07   9.706107703240754e-06
-7.542788701607689e-07   -5.39433351790246e-07   9.706107703240754e-06
-7.542788701607689e-07   -5.39433351790246e-07   9.706107703240754e-06
4.461070769758521e-06   -3.1574342961731856e-07   8.796443500715728e-07
4.461070769758521e-06   -3.1574342961731856e-07   8.796443500715728e-07
4.461070769758521e-06   -3.1574342961731856e-07   8.796443500715728e-07
4.461070769758521e-06   -3.1574342961731856e-07   8.796443500715728e-07
1.918117795907466e-06   -3.3456206847363307e-07   5.1291904898040635e-06
1.918117795907466e-06   -3.3456206847363307e-07   5.1291904898040635e-06
1.918117795907466e-06   -3.3456206847363307e-07   5.1291904898040635e-06
1.918117795907466e-06   -3.3456206847363307e-07   5.1291904898040635e-06
4.461070769758513e-06   -5.39433351790246e-07   9.571893749937008e-06
4.461070769758513e-06   -5.39433351790246e-07   9.571893749937008e-06
4.461070769758513e-06   -5.39433351790246e-07   9.571893749937008e-06
4.461070769758513e-06   -5.39433351790246e-07   9.571893749937008e-06
-7.542788701607689e-07   -3.1574342961731856e-07   1.013858303375271e-06
-7.542788701607689e-07   -3.1574342961731856e-07   1.013858303375271e-06
-7.542788701607689e-07   -3.1574342961731856e-07   1.013858303375271e-06
-7.542788701607689e-07   -3.1574342961731856e-07   1.013858303375271e-06
-9.674115733995876e-07   -6.25890859679728e-07   9.764101988981005e-06
-9.674115733995876e-07   -6.25890859679728e-07   9.764101988981005e-06
-9.674115733995876e-07   -6.25890859679728e-07   9.764101988981005e-06
-9.674115733995876e-07   -6.25890859679728e-07   9.764101988981005e-06
4.2355477199725864e-06   -4.355253960653229e-07   9.782838885253989e-07
4.2355477199725864e-06   -4.355253960653229e-07   9.782838885253989e-07
4.2355477199725864e-06   -4.355253960653229e-07   9.782838885253989e-07
4.2355477199725864e-06   -4.355253960653229e-07   9.782838885253989e-07
1.74201833251573e-06   -4.0912394635441666e-07   5.11832533112711e-06
1.74201833251573e-06   -4.0912394635441666e-07   5.11832533112711e-06
1.74201833251573e-06   -4.0912394635441666e-07   5.11832533112711e-06
1.74201833251573e-06   -4.0912394635441666e-07   5.11832533112711e-06
-3.352469390005005e-07   8.657424815067911e-07   1.0407270205291936e-05
-3.352469390005005e-07   8.657424815067911e-07   1.0407270205291936e-05
-3.352469390005005e-07   8.657424815067911e-07   1.0407270205291936e-05
-3.352469390005005e-07   8.657424815067911e-07   1.0407270205291936e-05
-5.4843576165990504e-06   8.949909594733151e-07   1.8429681627410584e-06
-5.4843576165990504e-06   8.949909594733151e-07   1.8429681627410584e-06
-5.4843576165990504e-06   8.949909594733151e-07   1.8429681627410584e-06
-5.4843576165990504e-06   8.949909594733151e-07   1.8429681627410584e-06
-5.693249984147106e-06   7.396782635906178e-07   1.037595247777289e-05
-5.693249984147106e-06   7.396782635906178e-07   1.037595247777289e-05
-5.693249984147106e-06   7.396782635906178e-07   1.037595247777289e-05
-5.693249984147106e-06   7.396782635906178e-07   1.037595247777289e-05
-5.42440388966582e-07   7.482448275646482e-07   1.786129880754297e-06
-5.42440388966582e-07   7.482448275646482e-07   1.786129880754297e-06
-5.42440388966582e-07   7.482448275646482e-07   1.786129880754297e-06
-5.42440388966582e-07   7.482448275646482e-07   1.786129880754297e-06
-3.0215191715920057e-06   7.968086829999695e-07   5.8887895385354165e-06
-3.0215191715920057e-06   7.968086829999695e-07   5.8887895385354165e-06
-3.0215191715920057e-06   7.968086829999695e-07   5.8887895385354165e-06
-3.0215191715920057e-06   7.968086829999695e-07   5.8887895385354165e-06
-5.42440388966582e-07   7.396782635905094e-07   1.0370812539388526e-05
-5.42440388966582e-07   7.396782635905094e-07   1.0370812539388526e-05
-5.42440388966582e-07   7.396782635905094e-07   1.0370812539388526e-05
-5.42440388966582e-07   7.396782635905094e-07   1.0370812539388526e-05
-5.693249984147106e-06   7.482448275646482e-07   1.791269819138722e-06
-5.693249984147106e-06   7.482448275646482e-07   1.791269819138722e-06
-5.693249984147106e-06   7.482448275646482e-07   1.791269819138722e-06
-5.693249984147106e-06   7.482448275646482e-07   1.791269819138722e-06
-5.907041442160545e-06   6.173727114268911e-07   1.0428074220140114e-05
-5.907041442160545e-06   6.173727114268911e-07   1.0428074220140114e-05
-5.907041442160545e-06   6.173727114268911e-07   1.0428074220140114e-05
-5.907041442160545e-06   6.173727114268911e-07   1.0428074220140114e-05
-7.542788701607689e-07   6.039183247470367e-07   1.8482092321483781e-06
-7.542788701607689e-07   6.039183247470367e-07   1.8482092321483781e-06
-7.542788701607689e-07   6.039183247470367e-07   1.8482092321483781e-06
-7.542788701607689e-07   6.039183247470367e-07   1.8482092321483781e-06
-3.2149329824793223e-06   6.989992962347759e-07   5.892250836453568e-06
-3.2149329824793223e-06   6.989992962347759e-07   5.892250836453568e-06
-3.2149329824793223e-06   6.989992962347759e-07   5.892250836453568e-06
-3.2149329824793223e-06   6.989992962347759e-07   5.892250836453568e-06
-7.542788701607689e-07   6.173727114268911e-07   1.043614685214807e-05
-7.542788701607689e-07   6.173727114268911e-07   1.043614685214807e-05
-7.542788701607689e-07   6.173727114268911e-07   1.043614685214807e-05
-7.542788701607689e-07   6.173727114268911e-07   1.043614685214807e-05
-5.907041442160545e-06   6.039183247470367e-07   1.840136600140456e-06
-5.907041442160545e-06   6.039183247470367e-07   1.840136600140456e-06
-5.907041442160545e-06   6.039183247470367e-07   1.840136600140456e-06
-5.907041442160545e-06   6.039183247470367e-07   1.840136600140456e-06
-6.1204576741597696e-06   5.086488885820565e-07   1.0550859115038833e-05
-6.1204576741597696e-06   5.086488885820565e-07   1.0550859115038833e-05
-6.1204576741597696e-06   5.086488885820565e-07   1.0550859115038833e-05
-6.1204576741597696e-06   5.086488885820565e-07   1.0550859115038833e-05
-9.674115733995876e-07   4.671143295038524e-07   1.9873696825520467e-06
-9.674115733995876e-07   4.671143295038524e-07   1.9873696825520467e-06
-9.674115733995876e-07   4.671143295038524e-07   1.9873696825520467e-06
-9.674115733995876e-07   4.671143295038524e-07   1.9873696825520467e-06
-3.4176879240447565e-06   6.039367187595868e-07   5.9890701667408256e-06
-3.4176879240447565e-06   6.039367187595868e-07   5.9890701667408256e-06
-3.4176879240447565e-06   6.039367187595868e-07   5.9890701667408256e-06
-3.4176879240447565e-06   6.039367187595868e-07   5.9890701667408256e-06
-5.484357616599044e-06   1.9763069280916623e-06   9.182844578518824e-06
-5.484357616599044e-06   1.9763069280916623e-06   9.182844578518824e-06
-5.484357616599044e-06   1.9763069280916623e-06   9.182844578518824e-06
-5.484357616599044e-06   1.9763069280916623e-06   9.182844578518824e-06
-1.0536261466533424e-05   1.7733461819018819e-06   6.412283809142602e-07
-1.0536261466533424e-05   1.7733461819018819e-06   6.412283809142602e-07
-1.0536261466533424e-05   1.7733461819018819e-06   6.412283809142602e-07
-1.0536261466533424e-05   1.7733461819018819e-06   6.412283809142602e-07
-1.0761528167421922e-05   1.8579463266785515e-06   9.128704972464477e-06
-1.0761528167421922e-05   1.8579463266785515e-06   9.128704972464477e-06
-1.0761528167421922e-05   1.8579463266785515e-06   9.128704972464477e-06
-1.0761528167421922e-05   1.8579463266785515e-06   9.128704972464477e-06
-5.693249984147113e-06   1.634485492447925e-06   8.156511675449591e-07
-5.693249984147113e-06   1.634485492447925e-06   8.156511675449591e-07
-5.693249984147113e-06   1.634485492447925e-06   8.156511675449591e-07
-5.693249984147113e-06   1.634485492447925e-06   8.156511675449591e-07
-8.091572489393738e-06   1.784870281737851e-06   4.72262446938198e-06
-8.091572489393738e-06   1.784870281737851e-06   4.72262446938198e-06
-8.091572489393738e-06   1.784870281737851e-06   4.72262446938198e-06
-8.091572489393738e-06   1.784870281737851e-06   4.72262446938198e-06
-5.693249984147106e-06   1.85794632667866e-06   9.262781473002907e-06
-5.693249984147106e-06   1.85794632667866e-06   9.262781473002907e-06
-5.693249984147106e-06   1.85794632667866e-06   9.262781473002907e-06
-5.693249984147106e-06   1.85794632667866e-06   9.262781473002907e-06
-1.0761528167421922e-05   1.634485492447925e-06   6.815746670064612e-07
-1.0761528167421922e-05   1.634485492447925e-06   6.815746670064612e-07
-1.0761528167421922e-05   1.634485492447925e-06   6.815746670064612e-07
-1.0761528167421922e-05   1.634485492447925e-06   6.815746670064612e-07
-1.1008720136567525e-05   1.7470925043758722e-06   9.472938010541914e-06
-1.1008720136567525e-05   1.7470925043758722e-06   9.472938010541914e-06
-1.1008720136567525e-05   1.7470925043758722e-06   9.472938010541914e-06
-1.1008720136567525e-05   1.7470925043758722e-06   9.472938010541914e-06
-5.907041442160558e-06   1.5035342986719586e-06   1.11627510995273e-06
-5.907041442160558e-06   1.5035342986719586e-06   1.11627510995273e-06
-5.907041442160558e-06   1.5035342986719586e-06   1.11627510995273e-06
-5.907041442160558e-06   1.5035342986719586e-06   1.11627510995273e-06
-8.249926211694816e-06   1.696930839414153e-06   4.905045134731342e-06
-8.249926211694816e-06   1.696930839414153e-06   4.905045134731342e-06
-8.249926211694816e-06   1.696930839414153e-06   4.905045134731342e-06
-8.249926211694816e-06   1.696930839414153e-06   4.905045134731342e-06
-5.907041442160551e-06   1.7470925043758722e-06   9.619072933964305e-06
-5.907041442160551e-06   1.7470925043758722e-06   9.619072933964305e-06
-5.907041442160551e-06   1.7470925043758722e-06   9.619072933964305e-06
-5.907041442160551e-06   1.7470925043758722e-06   9.619072933964305e-06
-1.1008720136567525e-05   1.5035342986719586e-06   9.701401865303114e-07
-1.1008720136567525e-05   1.5035342986719586e-06   9.701401865303114e-07
-1.1008720136567525e-05   1.5035342986719586e-06   9.701401865303114e-07
-1.1008720136567525e-05   1.5035342986719586e-06   9.701401865303114e-07
-1.123380375912911e-05   1.610136440712332e-06   9.7253845449686e-06
-1.123380375912911e-05   1.610136440712332e-06   9.7253845449686e-06
-1.123380375912911e-05   1.610136440712332e-06   9.7253845449686e-06
-1.123380375912911e-05   1.610136440712332e-06   9.7253845449686e-06
-6.120457674159783e-06   1.3496003902433709e-06   1.3594627003010864e-06
-6.120457674159783e-06   1.3496003902433709e-06   1.3594627003010864e-06
-6.120457674159783e-06   1.3496003902433709e-06   1.3594627003010864e-06
-6.120457674159783e-06   1.3496003902433709e-06   1.3594627003010864e-06
-8.508787748613197e-06   1.5959995594044991e-06   5.192173322893798e-06
-8.508787748613197e-06   1.5959995594044991e-06   5.192173322893798e-06
-8.508787748613197e-06   1.5959995594044991e-06   5.192173322893798e-06
-8.508787748613197e-06   1.5959995594044991e-06   5.192173322893798e-06
-1.0536261466533424e-05   2.8652131526430043e-06   4.467468123506616e-06
-1.0536261466533424e-05   2.8652131526430043e-06   4.467468123506616e-06
-1.0536261466533424e-05   2.8652131526430043e-06   4.467468123506616e-06
-1.0536261466533424e-05   2.8652131526430043e-06   4.467468123506616e-06
-1.5371559661791275e-05   2.4645194964191715e-06   -3.831778395657458e-06
-1.5371559661791275e-05   2.4645194964191715e-06   -3.831778395657458e-06
-1.5371559661791275e-05   2.4645194964191715e-06   -3.831778395657458e-06
-1.5371559661791275e-05   2.4645194964191715e-06   -3.831778395657458e-06
-1.577827442473673e-05   2.901977982616038e-06   5.981296962584686e-06
-1.577827442473673e-05   2.901977982616038e-06   5.981296962584686e-06
-1.577827442473673e-05   2.901977982616038e-06   5.981296962584686e-06
-1.577827442473673e-05   2.901977982616038e-06   5.981296962584686e-06
-1.0761528167421922e-05   2.458242799509335e-06   -2.1137056897427373e-06
-1.0761528167421922e-05   2.458242799509335e-06   -2.1137056897427373e-06
-1.0761528167421922e-05   2.458242799509335e-06   -2.1137056897427373e-06
-1.0761528167421922e-05   2.458242799509335e-06   -2.1137056897427373e-06
-1.2612167610833592e-05   2.6309520035237496e-06   8.670678602014706e-07
-1.2612167610833592e-05   2.6309520035237496e-06   8.670678602014706e-07
-1.2612167610833592e-05   2.6309520035237496e-06   8.670678602014706e-07
-1.2612167610833592e-05   2.6309520035237496e-06   8.670678602014706e-07
-1.0761528167421908e-05   2.9019779826161465e-06   6.247538072448654e-06
-1.0761528167421908e-05   2.9019779826161465e-06   6.247538072448654e-06
-1.0761528167421908e-05   2.9019779826161465e-06   6.247538072448654e-06
-1.0761528167421908e-05   2.9019779826161465e-06   6.247538072448654e-06
-1.5778274424736757e-05   2.458242799509335e-06   -2.3799467996067592e-06
-1.5778274424736757e-05   2.458242799509335e-06   -2.3799467996067592e-06
-1.5778274424736757e-05   2.458242799509335e-06   -2.3799467996067592e-06
-1.5778274424736757e-05   2.458242799509335e-06   -2.3799467996067592e-06
-1.6140688737052787e-05   2.87182534488401e-06   7.1874496114657585e-06
-1.6140688737052787e-05   2.87182534488401e-06   7.1874496114657585e-06
-1.6140688737052787e-05   2.87182534488401e-06   7.1874496114657585e-06
-1.6140688737052787e-05   2.87182534488401e-06   7.1874496114657585e-06
-1.1008720136567525e-05   2.4101587211174114e-06   -1.0888314150831022e-06
-1.1008720136567525e-05   2.4101587211174114e-06   -1.0888314150831022e-06
-1.1008720136567525e-05   2.4101587211174114e-06   -1.0888314150831022e-06
-1.1008720136567525e-05   2.4101587211174114e-06   -1.0888314150831022e-06
-1.3088246061014948e-05   2.662210192869033e-06   2.2258142426120962e-06
-1.3088246061014948e-05   2.662210192869033e-06   2.2258142426120962e-06
-1.3088246061014948e-05   2.662210192869033e-06   2.2258142426120962e-06
-1.3088246061014948e-05   2.662210192869033e-06   2.2258142426120962e-06
-1.1008720136567525e-05   2.87182534488401e-06   7.4644495857257936e-06
-1.1008720136567525e-05   2.87182534488401e-06   7.4644495857257936e-06
-1.1008720136567525e-05   2.87182534488401e-06   7.4644495857257936e-06
-1.1008720136567525e-05   2.87182534488401e-06   7.4644495857257936e-06
-1.6140688737052814e-05   2.4101587211174114e-06   -1.3658313893430288e-06
-1.6140688737052814e-05   2.4101587211174114e-06   -1.3658313893430288e-06
-1.6140688737052814e-05   2.4101587211174114e-06   -1.3658313893430288e-06
-1.6140688737052814e-05   2.4101587211174114e-06   -1.3658313893430288e-06
-1.6555454940189165e-05   2.6549261999213834e-06   9.254523339156235e-06
-1.6555454940189165e-05   2.6549261999213834e-06   9.254523339156235e-06
-1.6555454940189165e-05   2.6549261999213834e-06   9.254523339156235e-06
-1.6555454940189165e-05   2.6549261999213834e-06   9.254523339156235e-06
-1.123380375912911e-05   2.193222277515239e-06   6.621270574997361e-07
-1.123380375912911e-05   2.193222277515239e-06   6.621270574997361e-07
-1.123380375912911e-05   2.193222277515239e-06   6.621270574997361e-07
-1.123380375912911e-05   2.193222277515239e-06   6.621270574997361e-07
-1.3176057814612497e-05   2.571688000912141e-06   3.6721377159342253e-06
-1.3176057814612497e-05   2.571688000912141e-06   3.6721377159342253e-06
-1.3176057814612497e-05   2.571688000912141e-06   3.6721377159342253e-06
-1.3176057814612497e-05   2.571688000912141e-06   3.6721377159342253e-06
7.373190657835797e-06   -9.524632317112636e-07   7.239889716197882e-06
7.373190657835797e-06   -9.524632317112636e-07   7.239889716197882e-06
7.373190657835797e-06   -9.524632317112636e-07   7.239889716197882e-06
7.373190657835797e-06   -9.524632317112636e-07   7.239889716197882e-06
3.068598992913914e-06   -4.89169824665779e-07   3.435463188888161e-07
3.068598992913914e-06   -4.89169824665779e-07   3.435463188888161e-07
3.068598992913914e-06   -4.89169824665779e-07   3.435463188888161e-07
3.068598992913914e-06   -4.89169824665779e-07   3.435463188888161e-07
2.8899870046316597e-06   -1.1490870743697265e-06   6.492367181503442e-06
2.8899870046316597e-06   -1.1490870743697265e-06   6.492367181503442e-06
2.8899870046316597e-06   -1.1490870743697265e-06   6.492367181503442e-06
2.8899870046316597e-06   -1.1490870743697265e-06   6.492367181503442e-06
6.990608713062512e-06   -6.673425371714098e-07   -6.31049054866988e-07
6.990608713062512e-06   -6.673425371714098e-07   -6.31049054866988e-07
6.990608713062512e-06   -6.673425371714098e-07   -6.31049054866988e-07
6.990608713062512e-06   -6.673425371714098e-07   -6.31049054866988e-07
4.828828733597028e-06   -8.327103274058173e-07   3.0711382517163612e-06
4.828828733597028e-06   -8.327103274058173e-07   3.0711382517163612e-06
4.828828733597028e-06   -8.327103274058173e-07   3.0711382517163612e-06
4.828828733597028e-06   -8.327103274058173e-07   3.0711382517163612e-06
6.990608713062526e-06   -1.1490870743697265e-06   6.203320459184452e-06
6.990608713062526e-06   -1.1490870743697265e-06   6.203320459184452e-06
6.990608713062526e-06   -1.1490870743697265e-06   6.203320459184452e-06
6.990608713062526e-06   -1.1490870743697265e-06   6.203320459184452e-06
2.8899870046316513e-06   -6.673425371714098e-07   -3.420023325479641e-07
2.8899870046316513e-06   -6.673425371714098e-07   -3.420023325479641e-07
2.8899870046316513e-06   -6.673425371714098e-07   -3.420023325479641e-07
2.8899870046316513e-06   -6.673425371714098e-07   -3.420023325479641e-07
2.688203870453126e-06   -1.2005800654641156e-06   5.939522989788465e-06
2.688203870453126e-06   -1.2005800654641156e-06   5.939522989788465e-06
2.688203870453126e-06   -1.2005800654641156e-06   5.939522989788465e-06
2.688203870453126e-06   -1.2005800654641156e-06   5.939522989788465e-06
6.660982254950117e-06   -7.274473789465057e-07   -9.656539296170753e-07
6.660982254950117e-06   -7.274473789465057e-07   -9.656539296170753e-07
6.660982254950117e-06   -7.274473789465057e-07   -9.656539296170753e-07
6.660982254950117e-06   -7.274473789465057e-07   -9.656539296170753e-07
4.664467018858791e-06   -9.087223696938864e-07   2.4706364583170068e-06
4.664467018858791e-06   -9.087223696938864e-07   2.4706364583170068e-06
4.664467018858791e-06   -9.087223696938864e-07   2.4706364583170068e-06
4.664467018858791e-06   -9.087223696938864e-07   2.4706364583170068e-06
6.660982254950129e-06   -1.2005800654641156e-06   5.65564337787791e-06
6.660982254950129e-06   -1.2005800654641156e-06   5.65564337787791e-06
6.660982254950129e-06   -1.2005800654641156e-06   5.65564337787791e-06
6.660982254950129e-06   -1.2005800654641156e-06   5.65564337787791e-06
2.688203870453121e-06   -7.274473789465057e-07   -6.817743177065134e-07
2.688203870453121e-06   -7.274473789465057e-07   -6.817743177065134e-07
2.688203870453121e-06   -7.274473789465057e-07   -6.817743177065134e-07
2.688203870453121e-06   -7.274473789465057e-07   -6.817743177065134e-07
2.5068288682989878e-06   -1.24390230927824e-06   5.212548533513794e-06
2.5068288682989878e-06   -1.24390230927824e-06   5.212548533513794e-06
2.5068288682989878e-06   -1.24390230927824e-06   5.212548533513794e-06
2.5068288682989878e-06   -1.24390230927824e-06   5.212548533513794e-06
6.285066200427549e-06   -8.029456062115482e-07   -1.3490877085405208e-06
6.285066200427549e-06   -8.029456062115482e-07   -1.3490877085405208e-06
6.285066200427549e-06   -8.029456062115482e-07   -1.3490877085405208e-06
6.285066200427549e-06   -8.029456062115482e-07   -1.3490877085405208e-06
4.3424978265801454e-06   -9.209098492178429e-07   1.9593047936756764e-06
4.3424978265801454e-06   -9.209098492178429e-07   1.9593047936756764e-06
4.3424978265801454e-06   -9.209098492178429e-07   1.9593047936756764e-06
4.3424978265801454e-06   -9.209098492178429e-07   1.9593047936756764e-06
3.068598992913926e-06   -1.4878553274730137e-08   8.83117174576317e-06
3.068598992913926e-06   -1.4878553274730137e-08   8.83117174576317e-06
3.068598992913926e-06   -1.4878553274730137e-08   8.83117174576317e-06
3.068598992913926e-06   -1.4878553274730137e-08   8.83117174576317e-06
-9.59865970683984e-07   2.2370718000426764e-07   2.2602149130673994e-06
-9.59865970683984e-07   2.2370718000426764e-07   2.2602149130673994e-06
-9.59865970683984e-07   2.2370718000426764e-07   2.2602149130673994e-06
-9.59865970683984e-07   2.2370718000426764e-07   2.2602149130673994e-06
-1.1244992117280043e-06   -1.8409278928870065e-07   8.843924696101885e-06
-1.1244992117280043e-06   -1.8409278928870065e-07   8.843924696101885e-06
-1.1244992117280043e-06   -1.8409278928870065e-07   8.843924696101885e-06
-1.1244992117280043e-06   -1.8409278928870065e-07   8.843924696101885e-06
2.8899870046316513e-06   4.5511986165381376e-08   2.015351470229987e-06
2.8899870046316513e-06   4.5511986165381376e-08   2.015351470229987e-06
2.8899870046316513e-06   4.5511986165381376e-08   2.015351470229987e-06
2.8899870046316513e-06   4.5511986165381376e-08   2.015351470229987e-06
9.394363921526766e-07   1.7348385572069427e-09   5.292535446260087e-06
9.394363921526766e-07   1.7348385572069427e-09   5.292535446260087e-06
9.394363921526766e-07   1.7348385572069427e-09   5.292535446260087e-06
9.394363921526766e-07   1.7348385572069427e-09   5.292535446260087e-06
2.8899870046316563e-06   -1.8409278928870065e-07   8.706161830829371e-06
2.8899870046316563e-06   -1.8409278928870065e-07   8.706161830829371e-06
2.8899870046316563e-06   -1.8409278928870065e-07   8.706161830829371e-06
2.8899870046316563e-06   -1.8409278928870065e-07   8.706161830829371e-06
-1.1244992117279975e-06   4.5511986165435586e-08   2.1531143355025097e-06
-1.1244992117279975e-06   4.5511986165435586e-08   2.1531143355025097e-06
-1.1244992117279975e-06   4.5511986165435586e-08   2.1531143355025097e-06
-1.1244992117279975e-06   4.5511986165435586e-08   2.1531143355025097e-06
-1.2930891040287439e-06   -3.1574342961731856e-07   8.729372026820554e-06
-1.2930891040287439e-06   -3.1574342961731856e-07   8.729372026820554e-06
-1.2930891040287439e-06   -3.1574342961731856e-07   8.729372026820554e-06
-1.2930891040287439e-06   -3.1574342961731856e-07   8.729372026820554e-06
2.688203870453121e-06   -9.866321905429914e-08   1.9636356096797076e-06
2.688203870453121e-06   -9.866321905429914e-08   1.9636356096797076e-06
2.688203870453121e-06   -9.866321905429914e-08   1.9636356096797076e-06
2.688203870453121e-06   -9.866321905429914e-08   1.9636356096797076e-06
7.572515558129594e-07   -1.1613907254751522e-07   5.1923749795095475e-06
7.572515558129594e-07   -1.1613907254751522e-07   5.1923749795095475e-06
7.572515558129594e-07   -1.1613907254751522e-07   5.1923749795095475e-06
7.572515558129594e-07   -1.1613907254751522e-07   5.1923749795095475e-06
2.688203870453131e-06   -3.1574342961731856e-07   8.59912390048284e-06
2.688203870453131e-06   -3.1574342961731856e-07   8.59912390048284e-06
2.688203870453131e-06   -3.1574342961731856e-07   8.59912390048284e-06
2.688203870453131e-06   -3.1574342961731856e-07   8.59912390048284e-06
-1.2930891040287507e-06   -9.866321905435335e-08   2.09388373601752e-06
-1.2930891040287507e-06   -9.866321905435335e-08   2.09388373601752e-06
-1.2930891040287507e-06   -9.866321905435335e-08   2.09388373601752e-06
-1.2930891040287507e-06   -9.866321905435335e-08   2.09388373601752e-06
-1.4604636169857134e-06   -4.355253960653229e-07   8.799570795450925e-06
-1.4604636169857134e-06   -4.355253960653229e-07   8.799570795450925e-06
-1.4604636169857134e-06   -4.355253960653229e-07   8.799570795450925e-06
-1.4604636169857134e-06   -4.355253960653229e-07   8.799570795450925e-06
2.5068288682989776e-06   -2.3866560318428365e-07   2.069300777581115e-06
2.5068288682989776e-06   -2.3866560318428365e-07   2.069300777581115e-06
2.5068288682989776e-06   -2.3866560318428365e-07   2.069300777581115e-06
2.5068288682989776e-06   -2.3866560318428365e-07   2.069300777581115e-06
6.152540343435258e-07   -2.1243952150629825e-07   5.206189851833423e-06
6.152540343435258e-07   -2.1243952150629825e-07   5.206189851833423e-06
6.152540343435258e-07   -2.1243952150629825e-07   5.206189851833423e-06
6.152540343435258e-07   -2.1243952150629825e-07   5.206189851833423e-06
-9.59865970683984e-07   8.949909594733151e-07   9.56026688518955e-06
-9.59865970683984e-07   8.949909594733151e-07   9.56026688518955e-06
-9.59865970683984e-07   8.949909594733151e-07   9.56026688518955e-06
-9.59865970683984e-07   8.949909594733151e-07   9.56026688518955e-06
-4.9178466375073145e-06   8.863237472611142e-07   2.9584321131566522e-06
-4.9178466375073145e-06   8.863237472611142e-07   2.9584321131566522e-06
-4.9178466375073145e-06   8.863237472611142e-07   2.9584321131566522e-06
-4.9178466375073145e-06   8.863237472611142e-07   2.9584321131566522e-06
-5.080847282558938e-06   7.482448275646482e-07   9.498298697153637e-06
-5.080847282558938e-06   7.482448275646482e-07   9.498298697153637e-06
-5.080847282558938e-06   7.482448275646482e-07   9.498298697153637e-06
-5.080847282558938e-06   7.482448275646482e-07   9.498298697153637e-06
-1.1244992117279975e-06   7.262212767131996e-07   2.917599376279653e-06
-1.1244992117279975e-06   7.262212767131996e-07   2.917599376279653e-06
-1.1244992117279975e-06   7.262212767131996e-07   2.917599376279653e-06
-1.1244992117279975e-06   7.262212767131996e-07   2.917599376279653e-06
-3.0284767954306473e-06   7.925337612926537e-07   6.051107858369941e-06
-3.0284767954306473e-06   7.925337612926537e-07   6.051107858369941e-06
-3.0284767954306473e-06   7.925337612926537e-07   6.051107858369941e-06
-3.0284767954306473e-06   7.925337612926537e-07   6.051107858369941e-06
-1.1244992117280043e-06   7.482448275646482e-07   9.511512827664582e-06
-1.1244992117280043e-06   7.482448275646482e-07   9.511512827664582e-06
-1.1244992117280043e-06   7.482448275646482e-07   9.511512827664582e-06
-1.1244992117280043e-06   7.482448275646482e-07   9.511512827664582e-06
-5.080847282558938e-06   7.262212767131454e-07   2.904385245768796e-06
-5.080847282558938e-06   7.262212767131454e-07   2.904385245768796e-06
-5.080847282558938e-06   7.262212767131454e-07   2.904385245768796e-06
-5.080847282558938e-06   7.262212767131454e-07   2.904385245768796e-06
-5.247535190457746e-06   6.039183247470367e-07   9.542179748936409e-06
-5.247535190457746e-06   6.039183247470367e-07   9.542179748936409e-06
-5.247535190457746e-06   6.039183247470367e-07   9.542179748936409e-06
-5.247535190457746e-06   6.039183247470367e-07   9.542179748936409e-06
-1.2930891040287439e-06   5.680129803182078e-07   2.9729794782120365e-06
-1.2930891040287439e-06   5.680129803182078e-07   2.9729794782120365e-06
-1.2930891040287439e-06   5.680129803182078e-07   2.9729794782120365e-06
-1.2930891040287439e-06   5.680129803182078e-07   2.9729794782120365e-06
-3.1771857564182567e-06   6.77105553119773e-07   6.047685021847099e-06
-3.1771857564182567e-06   6.77105553119773e-07   6.047685021847099e-06
-3.1771857564182567e-06   6.77105553119773e-07   6.047685021847099e-06
-3.1771857564182567e-06   6.77105553119773e-07   6.047685021847099e-06
-1.2930891040287439e-06   6.039183247470367e-07   9.563722955593696e-06
-1.2930891040287439e-06   6.039183247470367e-07   9.563722955593696e-06
-1.2930891040287439e-06   6.039183247470367e-07   9.563722955593696e-06
-1.2930891040287439e-06   6.039183247470367e-07   9.563722955593696e-06
-5.247535190457746e-06   5.68012980318262e-07   2.951436271554777e-06
-5.247535190457746e-06   5.68012980318262e-07   2.951436271554777e-06
-5.247535190457746e-06   5.68012980318262e-07   2.951436271554777e-06
-5.247535190457746e-06   5.68012980318262e-07   2.951436271554777e-06
-5.412049990027412e-06   4.671143295038524e-07   9.663746798832496e-06
-5.412049990027412e-06   4.671143295038524e-07   9.663746798832496e-06
-5.412049990027412e-06   4.671143295038524e-07   9.663746798832496e-06
-5.412049990027412e-06   4.671143295038524e-07   9.663746798832496e-06
-1.4604636169857134e-06   4.1596347537644143e-07   3.108460022906193e-06
-1.4604636169857134e-06   4.1596347537644143e-07   3.108460022906193e-06
-1.4604636169857134e-06   4.1596347537644143e-07   3.108460022906193e-06
-1.4604636169857134e-06   4.1596347537644143e-07   3.108460022906193e-06
-3.333030963292758e-06   5.645956861153332e-07   6.140226273641255e-06
-3.333030963292758e-06   5.645956861153332e-07   6.140226273641255e-06
-3.333030963292758e-06   5.645956861153332e-07   6.140226273641255e-06
-3.333030963292758e-06   5.645956861153332e-07   6.140226273641255e-06
-4.9178466375073145e-06   1.7733461819018819e-06   8.475103223749348e-06
-4.9178466375073145e-06   1.7733461819018819e-06   8.475103223749348e-06
-4.9178466375073145e-06   1.7733461819018819e-06   8.475103223749348e-06
-4.9178466375073145e-06   1.7733461819018819e-06   8.475103223749348e-06
-8.821412434841883e-06   1.5323418923154008e-06   1.824557654439866e-06
-8.821412434841883e-06   1.5323418923154008e-06   1.824557654439866e-06
-8.821412434841883e-06   1.5323418923154008e-06   1.824557654439866e-06
-8.821412434841883e-06   1.5323418923154008e-06   1.824557654439866e-06
-8.996944150486749e-06   1.634485492447925e-06   8.368315920079077e-06
-8.996944150486749e-06   1.634485492447925e-06   8.368315920079077e-06
-8.996944150486749e-06   1.634485492447925e-06   8.368315920079077e-06
-8.996944150486749e-06   1.634485492447925e-06   8.368315920079077e-06
-5.080847282558918e-06   1.3772119499799165e-06   1.995851932346863e-06
-5.080847282558918e-06   1.3772119499799165e-06   1.995851932346863e-06
-5.080847282558918e-06   1.3772119499799165e-06   1.995851932346863e-06
-5.080847282558918e-06   1.3772119499799165e-06   1.995851932346863e-06
-6.9342121580504915e-06   1.5505285398206988e-06   4.9808034375952315e-06
-6.9342121580504915e-06   1.5505285398206988e-06   4.9808034375952315e-06
-6.9342121580504915e-06   1.5505285398206988e-06   4.9808034375952315e-06
-6.9342121580504915e-06   1.5505285398206988e-06   4.9808034375952315e-06
-5.080847282558938e-06   1.634485492447925e-06   8.522680045559914e-06
-5.080847282558938e-06   1.634485492447925e-06   8.522680045559914e-06
-5.080847282558938e-06   1.634485492447925e-06   8.522680045559914e-06
-5.080847282558938e-06   1.634485492447925e-06   8.522680045559914e-06
-8.996944150486722e-06   1.3772119499799165e-06   1.84148780686612e-06
-8.996944150486722e-06   1.3772119499799165e-06   1.84148780686612e-06
-8.996944150486722e-06   1.3772119499799165e-06   1.84148780686612e-06
-8.996944150486722e-06   1.3772119499799165e-06   1.84148780686612e-06
-9.193861533802027e-06   1.5035342986719586e-06   8.655589370676006e-06
-9.193861533802027e-06   1.5035342986719586e-06   8.655589370676006e-06
-9.193861533802027e-06   1.5035342986719586e-06   8.655589370676006e-06
-9.193861533802027e-06   1.5035342986719586e-06   8.655589370676006e-06
-5.2475351904577325e-06   1.2323194852176776e-06   2.2411076865081153e-06
-5.2475351904577325e-06   1.2323194852176776e-06   2.2411076865081153e-06
-5.2475351904577325e-06   1.2323194852176776e-06   2.2411076865081153e-06
-5.2475351904577325e-06   1.2323194852176776e-06   2.2411076865081153e-06
-7.052995815084052e-06   1.4454382412225374e-06   5.1223374739493214e-06
-7.052995815084052e-06   1.4454382412225374e-06   5.1223374739493214e-06
-7.052995815084052e-06   1.4454382412225374e-06   5.1223374739493214e-06
-7.052995815084052e-06   1.4454382412225374e-06   5.1223374739493214e-06
-5.247535190457746e-06   1.5035342986719586e-06   8.81831825874852e-06
-5.247535190457746e-06   1.5035342986719586e-06   8.81831825874852e-06
-5.247535190457746e-06   1.5035342986719586e-06   8.81831825874852e-06
-5.247535190457746e-06   1.5035342986719586e-06   8.81831825874852e-06
-9.193861533802e-06   1.2323194852176776e-06   2.078378798435628e-06
-9.193861533802e-06   1.2323194852176776e-06   2.078378798435628e-06
-9.193861533802e-06   1.2323194852176776e-06   2.078378798435628e-06
-9.193861533802e-06   1.2323194852176776e-06   2.078378798435628e-06
-9.367932475392549e-06   1.3496003902433709e-06   8.892409816974609e-06
-9.367932475392549e-06   1.3496003902433709e-06   8.892409816974609e-06
-9.367932475392549e-06   1.3496003902433709e-06   8.892409816974609e-06
-9.367932475392549e-06   1.3496003902433709e-06   8.892409816974609e-06
-5.4120499900273984e-06   1.069015831820419e-06   2.467623076419888e-06
-5.4120499900273984e-06   1.069015831820419e-06   2.467623076419888e-06
-5.4120499900273984e-06   1.069015831820419e-06   2.467623076419888e-06
-5.4120499900273984e-06   1.069015831820419e-06   2.467623076419888e-06
-7.251932676174674e-06   1.3333070964503834e-06   5.375519461220873e-06
-7.251932676174674e-06   1.3333070964503834e-06   5.375519461220873e-06
-7.251932676174674e-06   1.3333070964503834e-06   5.375519461220873e-06
-7.251932676174674e-06   1.3333070964503834e-06   5.375519461220873e-06
-8.821412434841883e-06   2.4645194964191715e-06   4.0979100671600845e-06
-8.821412434841883e-06   2.4645194964191715e-06   4.0979100671600845e-06
-8.821412434841883e-06   2.4645194964191715e-06   4.0979100671600845e-06
-8.821412434841883e-06   2.4645194964191715e-06   4.0979100671600845e-06
-1.2517503953954362e-05   2.029715430348119e-06   -2.3231249043368036e-06
-1.2517503953954362e-05   2.029715430348119e-06   -2.3231249043368036e-06
-1.2517503953954362e-05   2.029715430348119e-06   -2.3231249043368036e-06
-1.2517503953954362e-05   2.029715430348119e-06   -2.3231249043368036e-06
-1.2887111525993817e-05   2.458242799509335e-06   5.288127175019424e-06
-1.2887111525993817e-05   2.458242799509335e-06   5.288127175019424e-06
-1.2887111525993817e-05   2.458242799509335e-06   5.288127175019424e-06
-1.2887111525993817e-05   2.458242799509335e-06   5.288127175019424e-06
-8.996944150486722e-06   1.983395485658651e-06   -9.105767291818978e-07
-8.996944150486722e-06   1.983395485658651e-06   -9.105767291818978e-07
-8.996944150486722e-06   1.983395485658651e-06   -9.105767291818978e-07
-8.996944150486722e-06   1.983395485658651e-06   -9.105767291818978e-07
-1.0399885676644857e-05   2.191072338477893e-06   1.3030530360569619e-06
-1.0399885676644857e-05   2.191072338477893e-06   1.3030530360569619e-06
-1.0399885676644857e-05   2.191072338477893e-06   1.3030530360569619e-06
-1.0399885676644857e-05   2.191072338477893e-06   1.3030530360569619e-06
-8.996944150486749e-06   2.458242799509335e-06   5.573035563329878e-06
-8.996944150486749e-06   2.458242799509335e-06   5.573035563329878e-06
-8.996944150486749e-06   2.458242799509335e-06   5.573035563329878e-06
-8.996944150486749e-06   2.458242799509335e-06   5.573035563329878e-06
-1.288711152599383e-05   1.983395485658651e-06   -1.1954851174923243e-06
-1.288711152599383e-05   1.983395485658651e-06   -1.1954851174923243e-06
-1.288711152599383e-05   1.983395485658651e-06   -1.1954851174923243e-06
-1.288711152599383e-05   1.983395485658651e-06   -1.1954851174923243e-06
-1.3207860462144527e-05   2.4101587211174114e-06   6.30352445094766e-06
-1.3207860462144527e-05   2.4101587211174114e-06   6.30352445094766e-06
-1.3207860462144527e-05   2.4101587211174114e-06   6.30352445094766e-06
-1.3207860462144527e-05   2.4101587211174114e-06   6.30352445094766e-06
-9.193861533802e-06   1.9216698575925148e-06   -9.338044484159206e-08
-9.193861533802e-06   1.9216698575925148e-06   -9.338044484159206e-08
-9.193861533802e-06   1.9216698575925148e-06   -9.338044484159206e-08
-9.193861533802e-06   1.9216698575925148e-06   -9.338044484159206e-08
-1.0797151086678438e-05   2.1950214454474434e-06   2.4147578572399162e-06
-1.0797151086678438e-05   2.1950214454474434e-06   2.4147578572399162e-06
-1.0797151086678438e-05   2.1950214454474434e-06   2.4147578572399162e-06
-1.0797151086678438e-05   2.1950214454474434e-06   2.4147578572399162e-06
-9.193861533802027e-06   2.4101587211174114e-06   6.596617769062565e-06
-9.193861533802027e-06   2.4101587211174114e-06   6.596617769062565e-06
-9.193861533802027e-06   2.4101587211174114e-06   6.596617769062565e-06
-9.193861533802027e-06   2.4101587211174114e-06   6.596617769062565e-06
-1.3207860462144527e-05   1.9216698575925148e-06   -3.864737629564975e-07
-1.3207860462144527e-05   1.9216698575925148e-06   -3.864737629564975e-07
-1.3207860462144527e-05   1.9216698575925148e-06   -3.864737629564975e-07
-1.3207860462144527e-05   1.9216698575925148e-06   -3.864737629564975e-07
-1.3578421980887663e-05   2.193222277515239e-06   8.06179370162446e-06
-1.3578421980887663e-05   2.193222277515239e-06   8.06179370162446e-06
-1.3578421980887663e-05   2.193222277515239e-06   8.06179370162446e-06
-1.3578421980887663e-05   2.193222277515239e-06   8.06179370162446e-06
-9.367932475392508e-06   1.7105521061315737e-06   1.3339132952961156e-06
-9.367932475392508e-06   1.7105521061315737e-06   1.3339132952961156e-06
-9.367932475392508e-06   1.7105521061315737e-06   1.3339132952961156e-06
-9.367932475392508e-06   1.7105521061315737e-06   1.3339132952961156e-06
-1.0874953323866393e-05   2.102702572344406e-06   3.6103244296915274e-06
-1.0874953323866393e-05   2.102702572344406e-06   3.6103244296915274e-06
-1.0874953323866393e-05   2.102702572344406e-06   3.6103244296915274e-06
-1.0874953323866393e-05   2.102702572344406e-06   3.6103244296915274e-06
4.2513744821376725e-06   -4.89169824665779e-07   5.785393360746224e-06
4.2513744821376725e-06   -4.89169824665779e-07   5.785393360746224e-06
4.2513744821376725e-06   -4.89169824665779e-07   5.785393360746224e-06
4.2513744821376725e-06   -4.89169824665779e-07   5.785393360746224e-06
1.1725069105776435e-06   -2.3739001018131378e-08   9.332059023347324e-07
1.1725069105776435e-06   -2.3739001018131378e-08   9.332059023347324e-07
1.1725069105776435e-06   -2.3739001018131378e-08   9.332059023347324e-07
1.1725069105776435e-06   -2.3739001018131378e-08   9.332059023347324e-07
1.036398769224762e-06   -6.673425371714098e-07   5.373170542842385e-06
1.036398769224762e-06   -6.673425371714098e-07   5.373170542842385e-06
1.036398769224762e-06   -6.673425371714098e-07   5.373170542842385e-06
1.036398769224762e-06   -6.673425371714098e-07   5.373170542842385e-06
3.9131445652376135e-06   -1.8490691941529594e-07   2.89132845500737e-07
3.9131445652376135e-06   -1.8490691941529594e-07   2.89132845500737e-07
3.9131445652376135e-06   -1.8490691941529594e-07   2.89132845500737e-07
3.9131445652376135e-06   -1.8490691941529594e-07   2.89132845500737e-07
2.443111506290027e-06   -3.640665308625099e-07   2.846683710615189e-06
2.443111506290027e-06   -3.640665308625099e-07   2.846683710615189e-06
2.443111506290027e-06   -3.640665308625099e-07   2.846683710615189e-06
2.443111506290027e-06   -3.640665308625099e-07   2.846683710615189e-06
3.91314456523762e-06   -6.673425371714098e-07   5.083709172188711e-06
3.91314456523762e-06   -6.673425371714098e-07   5.083709172188711e-06
3.91314456523762e-06   -6.673425371714098e-07   5.083709172188711e-06
3.91314456523762e-06   -6.673425371714098e-07   5.083709172188711e-06
1.0363987692247585e-06   -1.8490691941529594e-07   5.785942161543565e-07
1.0363987692247585e-06   -1.8490691941529594e-07   5.785942161543565e-07
1.0363987692247585e-06   -1.8490691941529594e-07   5.785942161543565e-07
1.0363987692247585e-06   -1.8490691941529594e-07   5.785942161543565e-07
8.766736771665315e-07   -7.274473789465057e-07   5.029017721665615e-06
8.766736771665315e-07   -7.274473789465057e-07   5.029017721665615e-06
8.766736771665315e-07   -7.274473789465057e-07   5.029017721665615e-06
8.766736771665315e-07   -7.274473789465057e-07   5.029017721665615e-06
3.6254997193385004e-06   -2.5264908300144185e-07   1.627620071453537e-07
3.6254997193385004e-06   -2.5264908300144185e-07   1.627620071453537e-07
3.6254997193385004e-06   -2.5264908300144185e-07   1.627620071453537e-07
3.6254997193385004e-06   -2.5264908300144185e-07   1.627620071453537e-07
2.2838915102699746e-06   -4.3458891423910073e-07   2.5079395876687586e-06
2.2838915102699746e-06   -4.3458891423910073e-07   2.5079395876687586e-06
2.2838915102699746e-06   -4.3458891423910073e-07   2.5079395876687586e-06
2.2838915102699746e-06   -4.3458891423910073e-07   2.5079395876687586e-06
3.625499719338507e-06   -7.274473789465057e-07   4.744138744098561e-06
3.625499719338507e-06   -7.274473789465057e-07   4.744138744098561e-06
3.625499719338507e-06   -7.274473789465057e-07   4.744138744098561e-06
3.625499719338507e-06   -7.274473789465057e-07   4.744138744098561e-06
8.766736771665298e-07   -2.5264908300144185e-07   4.4764098471234727e-07
8.766736771665298e-07   -2.5264908300144185e-07   4.4764098471234727e-07
8.766736771665298e-07   -2.5264908300144185e-07   4.4764098471234727e-07
8.766736771665298e-07   -2.5264908300144185e-07   4.4764098471234727e-07
7.377113339584873e-07   -8.029456062115482e-07   4.620584128166646e-06
7.377113339584873e-07   -8.029456062115482e-07   4.620584128166646e-06
7.377113339584873e-07   -8.029456062115482e-07   4.620584128166646e-06
7.377113339584873e-07   -8.029456062115482e-07   4.620584128166646e-06
3.286846432067169e-06   -3.621837310906792e-07   1.0756850624643697e-07
3.286846432067169e-06   -3.621837310906792e-07   1.0756850624643697e-07
3.286846432067169e-06   -3.621837310906792e-07   1.0756850624643697e-07
3.286846432067169e-06   -3.621837310906792e-07   1.0756850624643697e-07
2.0374683177882994e-06   -4.677775367993575e-07   2.253221646803105e-06
2.0374683177882994e-06   -4.677775367993575e-07   2.253221646803105e-06
2.0374683177882994e-06   -4.677775367993575e-07   2.253221646803105e-06
2.0374683177882994e-06   -4.677775367993575e-07   2.253221646803105e-06
1.1725069105776452e-06   2.2370718000426764e-07   7.838169009146008e-06
1.1725069105776452e-06   2.2370718000426764e-07   7.838169009146008e-06
1.1725069105776452e-06   2.2370718000426764e-07   7.838169009146008e-06
1.1725069105776452e-06   2.2370718000426764e-07   7.838169009146008e-06
-1.6222227419105339e-06   4.3803292734684177e-07   3.3088817034045853e-06
-1.6222227419105339e-06   4.3803292734684177e-07   3.3088817034045853e-06
-1.6222227419105339e-06   4.3803292734684177e-07   3.3088817034045853e-06
-1.6222227419105339e-06   4.3803292734684177e-07   3.3088817034045853e-06
-1.7423925025783428e-06   4.5511986165435586e-08   7.858159516231243e-06
-1.7423925025783428e-06   4.5511986165435586e-08   7.858159516231243e-06
-1.7423925025783428e-06   4.5511986165435586e-08   7.858159516231243e-06
-1.7423925025783428e-06   4.5511986165435586e-08   7.858159516231243e-06
1.0363987692247585e-06   2.582372705168699e-07   3.0992055592818988e-06
1.0363987692247585e-06   2.582372705168699e-07   3.0992055592818988e-06
1.0363987692247585e-06   2.582372705168699e-07   3.0992055592818988e-06
1.0363987692247585e-06   2.582372705168699e-07   3.0992055592818988e-06
-3.105669208215041e-07   2.2244646349282946e-07   5.365622860240368e-06
-3.105669208215041e-07   2.2244646349282946e-07   5.365622860240368e-06
-3.105669208215041e-07   2.2244646349282946e-07   5.365622860240368e-06
-3.105669208215041e-07   2.2244646349282946e-07   5.365622860240368e-06
1.0363987692247594e-06   4.5511986165435586e-08   7.730524345620372e-06
1.0363987692247594e-06   4.5511986165435586e-08   7.730524345620372e-06
1.0363987692247594e-06   4.5511986165435586e-08   7.730524345620372e-06
1.0363987692247594e-06   4.5511986165435586e-08   7.730524345620372e-06
-1.7423925025783428e-06   2.582372705168699e-07   3.226840729892821e-06
-1.7423925025783428e-06   2.582372705168699e-07   3.226840729892821e-06
-1.7423925025783428e-06   2.582372705168699e-07   3.226840729892821e-06
-1.7423925025783428e-06   2.582372705168699e-07   3.226840729892821e-06
-1.8663242065830197e-06   -9.866321905435335e-08   7.798175878324974e-06
-1.8663242065830197e-06   -9.866321905435335e-08   7.798175878324974e-06
-1.8663242065830197e-06   -9.866321905435335e-08   7.798175878324974e-06
-1.8663242065830197e-06   -9.866321905435335e-08   7.798175878324974e-06
8.766736771665298e-07   1.0758382973412783e-07   3.1027645094693012e-06
8.766736771665298e-07   1.0758382973412783e-07   3.1027645094693012e-06
8.766736771665298e-07   1.0758382973412783e-07   3.1027645094693012e-06
8.766736771665298e-07   1.0758382973412783e-07   3.1027645094693012e-06
-4.3956349222873036e-07   9.813614289163599e-08   5.302161737233725e-06
-4.3956349222873036e-07   9.813614289163599e-08   5.302161737233725e-06
-4.3956349222873036e-07   9.813614289163599e-08   5.302161737233725e-06
-4.3956349222873036e-07   9.813614289163599e-08   5.302161737233725e-06
8.766736771665315e-07   -9.866321905435335e-08   7.674427649051853e-06
8.766736771665315e-07   -9.866321905435335e-08   7.674427649051853e-06
8.766736771665315e-07   -9.866321905435335e-08   7.674427649051853e-06
8.766736771665315e-07   -9.866321905435335e-08   7.674427649051853e-06
-1.8663242065830265e-06   1.0758382973418204e-07   3.226512738742414e-06
-1.8663242065830265e-06   1.0758382973418204e-07   3.226512738742414e-06
-1.8663242065830265e-06   1.0758382973418204e-07   3.226512738742414e-06
-1.8663242065830265e-06   1.0758382973418204e-07   3.226512738742414e-06
-1.988695724904901e-06   -2.3866560318428365e-07   7.891039492163442e-06
-1.988695724904901e-06   -2.3866560318428365e-07   7.891039492163442e-06
-1.988695724904901e-06   -2.3866560318428365e-07   7.891039492163442e-06
-1.988695724904901e-06   -2.3866560318428365e-07   7.891039492163442e-06
7.377113339584848e-07   -4.426410365896078e-08   3.230386827676014e-06
7.377113339584848e-07   -4.426410365896078e-08   3.230386827676014e-06
7.377113339584848e-07   -4.426410365896078e-08   3.230386827676014e-06
7.377113339584848e-07   -4.426410365896078e-08   3.230386827676014e-06
-5.476268716607833e-07   -1.1443853549465352e-08   5.352925020309183e-06
-5.476268716607833e-07   -1.1443853549465352e-08   5.352925020309183e-06
-5.476268716607833e-07   -1.1443853549465352e-08   5.352925020309183e-06
-5.476268716607833e-07   -1.1443853549465352e-08   5.352925020309183e-06
-1.6222227419105339e-06   8.863237472611142e-07   8.67018198496823e-06
-1.6222227419105339e-06   8.863237472611142e-07   8.67018198496823e-06
-1.6222227419105339e-06   8.863237472611142e-07   8.67018198496823e-06
-1.6222227419105339e-06   8.863237472611142e-07   8.67018198496823e-06
-4.3628441664261705e-06   8.409975612161391e-07   4.0752838991484975e-06
-4.3628441664261705e-06   8.409975612161391e-07   4.0752838991484975e-06
-4.3628441664261705e-06   8.409975612161391e-07   4.0752838991484975e-06
-4.3628441664261705e-06   8.409975612161391e-07   4.0752838991484975e-06
-4.478683001802434e-06   7.262212767131996e-07   8.59311093021623e-06
-4.478683001802434e-06   7.262212767131996e-07   8.59311093021623e-06
-4.478683001802434e-06   7.262212767131996e-07   8.59311093021623e-06
-4.478683001802434e-06   7.262212767131996e-07   8.59311093021623e-06
-1.742392502578336e-06   6.76998565392827e-07   4.062160391635055e-06
-1.742392502578336e-06   6.76998565392827e-07   4.062160391635055e-06
-1.742392502578336e-06   6.76998565392827e-07   4.062160391635055e-06
-1.742392502578336e-06   6.76998565392827e-07   4.062160391635055e-06
-3.0577567426694683e-06   7.623351630637156e-07   6.20323216651802e-06
-3.0577567426694683e-06   7.623351630637156e-07   6.20323216651802e-06
-3.0577567426694683e-06   7.623351630637156e-07   6.20323216651802e-06
-3.0577567426694683e-06   7.623351630637156e-07   6.20323216651802e-06
-1.7423925025783428e-06   7.262212767131996e-07   8.622644557008475e-06
-1.7423925025783428e-06   7.262212767131996e-07   8.622644557008475e-06
-1.7423925025783428e-06   7.262212767131996e-07   8.622644557008475e-06
-1.7423925025783428e-06   7.262212767131996e-07   8.622644557008475e-06
-4.478683001802427e-06   6.769985653928812e-07   4.03262676484283e-06
-4.478683001802427e-06   6.769985653928812e-07   4.03262676484283e-06
-4.478683001802427e-06   6.769985653928812e-07   4.03262676484283e-06
-4.478683001802427e-06   6.769985653928812e-07   4.03262676484283e-06
-4.598112255616524e-06   5.68012980318262e-07   8.644798525640123e-06
-4.598112255616524e-06   5.68012980318262e-07   8.644798525640123e-06
-4.598112255616524e-06   5.68012980318262e-07   8.644798525640123e-06
-4.598112255616524e-06   5.68012980318262e-07   8.644798525640123e-06
-1.8663242065830197e-06   5.138911555193325e-07   4.124291538797006e-06
-1.8663242065830197e-06   5.138911555193325e-07   4.124291538797006e-06
-1.8663242065830197e-06   5.138911555193325e-07   4.124291538797006e-06
-1.8663242065830197e-06   5.138911555193325e-07   4.124291538797006e-06
-3.160469942221849e-06   6.384053332765625e-07   6.206492591540679e-06
-3.160469942221849e-06   6.384053332765625e-07   6.206492591540679e-06
-3.160469942221849e-06   6.384053332765625e-07   6.206492591540679e-06
-3.160469942221849e-06   6.384053332765625e-07   6.206492591540679e-06
-1.8663242065830265e-06   5.68012980318262e-07   8.677271620519491e-06
-1.8663242065830265e-06   5.68012980318262e-07   8.677271620519491e-06
-1.8663242065830265e-06   5.68012980318262e-07   8.677271620519491e-06
-1.8663242065830265e-06   5.68012980318262e-07   8.677271620519491e-06
-4.598112255616517e-06   5.138911555192783e-07   4.091818443917631e-06
-4.598112255616517e-06   5.138911555192783e-07   4.091818443917631e-06
-4.598112255616517e-06   5.138911555192783e-07   4.091818443917631e-06
-4.598112255616517e-06   5.138911555192783e-07   4.091818443917631e-06
-4.715534713195208e-06   4.159634753763872e-07   8.777407115643783e-06
-4.715534713195208e-06   4.159634753763872e-07   8.777407115643783e-06
-4.715534713195208e-06   4.159634753763872e-07   8.777407115643783e-06
-4.715534713195208e-06   4.159634753763872e-07   8.777407115643783e-06
-1.988695724904901e-06   3.5817056518296173e-07   4.2673512146094295e-06
-1.988695724904901e-06   3.5817056518296173e-07   4.2673512146094295e-06
-1.988695724904901e-06   3.5817056518296173e-07   4.2673512146094295e-06
-1.988695724904901e-06   3.5817056518296173e-07   4.2673512146094295e-06
-3.2699610194601356e-06   5.171888059261973e-07   6.307382427755674e-06
-3.2699610194601356e-06   5.171888059261973e-07   6.307382427755674e-06
-3.2699610194601356e-06   5.171888059261973e-07   6.307382427755674e-06
-3.2699610194601356e-06   5.171888059261973e-07   6.307382427755674e-06
-4.3628441664261705e-06   1.5323418923154008e-06   7.653714388376298e-06
-4.3628441664261705e-06   1.5323418923154008e-06   7.653714388376298e-06
-4.3628441664261705e-06   1.5323418923154008e-06   7.653714388376298e-06
-4.3628441664261705e-06   1.5323418923154008e-06   7.653714388376298e-06
-7.063128785742565e-06   1.2613709573936686e-06   2.9906574618959167e-06
-7.063128785742565e-06   1.2613709573936686e-06   2.9906574618959167e-06
-7.063128785742565e-06   1.2613709573936686e-06   2.9906574618959167e-06
-7.063128785742565e-06   1.2613709573936686e-06   2.9906574618959167e-06
-7.189982750687525e-06   1.3772119499799165e-06   7.516321351466054e-06
-7.189982750687525e-06   1.3772119499799165e-06   7.516321351466054e-06
-7.189982750687525e-06   1.3772119499799165e-06   7.516321351466054e-06
-7.189982750687525e-06   1.3772119499799165e-06   7.516321351466054e-06
-4.47868300180242e-06   1.0967848410994635e-06   3.1657447019859102e-06
-4.47868300180242e-06   1.0967848410994635e-06   3.1657447019859102e-06
-4.47868300180242e-06   1.0967848410994635e-06   3.1657447019859102e-06
-4.47868300180242e-06   1.0967848410994635e-06   3.1657447019859102e-06
-5.759495757906929e-06   1.2932891108064512e-06   5.182530067002883e-06
-5.759495757906929e-06   1.2932891108064512e-06   5.182530067002883e-06
-5.759495757906929e-06   1.2932891108064512e-06   5.182530067002883e-06
-5.759495757906929e-06   1.2932891108064512e-06   5.182530067002883e-06
-4.478683001802434e-06   1.3772119499799165e-06   7.684577616794391e-06
-4.478683001802434e-06   1.3772119499799165e-06   7.684577616794391e-06
-4.478683001802434e-06   1.3772119499799165e-06   7.684577616794391e-06
-4.478683001802434e-06   1.3772119499799165e-06   7.684577616794391e-06
-7.189982750687511e-06   1.0967848410994635e-06   2.9974884366576682e-06
-7.189982750687511e-06   1.0967848410994635e-06   2.9974884366576682e-06
-7.189982750687511e-06   1.0967848410994635e-06   2.9974884366576682e-06
-7.189982750687511e-06   1.0967848410994635e-06   2.9974884366576682e-06
-7.339504050373535e-06   1.2323194852176234e-06   7.762680731011407e-06
-7.339504050373535e-06   1.2323194852176234e-06   7.762680731011407e-06
-7.339504050373535e-06   1.2323194852176234e-06   7.762680731011407e-06
-7.339504050373535e-06   1.2323194852176234e-06   7.762680731011407e-06
-4.5981122556165106e-06   9.460041359141461e-07   3.365483615998599e-06
-4.5981122556165106e-06   9.460041359141461e-07   3.365483615998599e-06
-4.5981122556165106e-06   9.460041359141461e-07   3.365483615998599e-06
-4.5981122556165106e-06   9.460041359141461e-07   3.365483615998599e-06
-5.839849670699795e-06   1.1775076033680764e-06   5.296143893998291e-06
-5.839849670699795e-06   1.1775076033680764e-06   5.296143893998291e-06
-5.839849670699795e-06   1.1775076033680764e-06   5.296143893998291e-06
-5.839849670699795e-06   1.1775076033680764e-06   5.296143893998291e-06
-4.598112255616517e-06   1.2323194852176234e-06   7.934469940593515e-06
-4.598112255616517e-06   1.2323194852176234e-06   7.934469940593515e-06
-4.598112255616517e-06   1.2323194852176234e-06   7.934469940593515e-06
-4.598112255616517e-06   1.2323194852176234e-06   7.934469940593515e-06
-7.339504050373494e-06   9.460041359141461e-07   3.193694406416491e-06
-7.339504050373494e-06   9.460041359141461e-07   3.193694406416491e-06
-7.339504050373494e-06   9.460041359141461e-07   3.193694406416491e-06
-7.339504050373494e-06   9.460041359141461e-07   3.193694406416491e-06
-7.466916585402032e-06   1.0690158318204732e-06   7.99604780155809e-06
-7.466916585402032e-06   1.0690158318204732e-06   7.99604780155809e-06
-7.466916585402032e-06   1.0690158318204732e-06   7.99604780155809e-06
-7.466916585402032e-06   1.0690158318204732e-06   7.99604780155809e-06
-4.715534713195181e-06   7.836610316940321e-07   3.5816242279559246e-06
-4.715534713195181e-06   7.836610316940321e-07   3.5816242279559246e-06
-4.715534713195181e-06   7.836610316940321e-07   3.5816242279559246e-06
-4.715534713195181e-06   7.836610316940321e-07   3.5816242279559246e-06
-5.981491334769239e-06   1.0602517489341923e-06   5.52559750023558e-06
-5.981491334769239e-06   1.0602517489341923e-06   5.52559750023558e-06
-5.981491334769239e-06   1.0602517489341923e-06   5.52559750023558e-06
-5.981491334769239e-06   1.0602517489341923e-06   5.52559750023558e-06
-7.063128785742592e-06   2.029715430348119e-06   3.604331708289242e-06
-7.063128785742592e-06   2.029715430348119e-06   3.604331708289242e-06
-7.063128785742592e-06   2.029715430348119e-06   3.604331708289242e-06
-7.063128785742592e-06   2.029715430348119e-06   3.604331708289242e-06
-9.534969231983362e-06   1.5706544709982295e-06   -7.90838944388661e-07
-9.534969231983362e-06   1.5706544709982295e-06   -7.90838944388661e-07
-9.534969231983362e-06   1.5706544709982295e-06   -7.90838944388661e-07
-9.534969231983362e-06   1.5706544709982295e-06   -7.90838944388661e-07
-9.861758729789994e-06   1.983395485658651e-06   4.4671239246793525e-06
-9.861758729789994e-06   1.983395485658651e-06   4.4671239246793525e-06
-9.861758729789994e-06   1.983395485658651e-06   4.4671239246793525e-06
-9.861758729789994e-06   1.983395485658651e-06   4.4671239246793525e-06
-7.189982750687484e-06   1.4881740010941422e-06   3.1129685024725495e-07
-7.189982750687484e-06   1.4881740010941422e-06   3.1129685024725495e-07
-7.189982750687484e-06   1.4881740010941422e-06   3.1129685024725495e-07
-7.189982750687484e-06   1.4881740010941422e-06   3.1129685024725495e-07
-8.105105382190588e-06   1.7329423728407894e-06   1.6896402130381046e-06
-8.105105382190588e-06   1.7329423728407894e-06   1.6896402130381046e-06
-8.105105382190588e-06   1.7329423728407894e-06   1.6896402130381046e-06
-8.105105382190588e-06   1.7329423728407894e-06   1.6896402130381046e-06
-7.189982750687498e-06   1.983395485658651e-06   4.764256815418036e-06
-7.189982750687498e-06   1.983395485658651e-06   4.764256815418036e-06
-7.189982750687498e-06   1.983395485658651e-06   4.764256815418036e-06
-7.189982750687498e-06   1.983395485658651e-06   4.764256815418036e-06
-9.861758729789994e-06   1.4881740010941422e-06   1.4163959508544212e-08
-9.861758729789994e-06   1.4881740010941422e-06   1.4163959508544212e-08
-9.861758729789994e-06   1.4881740010941422e-06   1.4163959508544212e-08
-9.861758729789994e-06   1.4881740010941422e-06   1.4163959508544212e-08
-1.0141497960707116e-05   1.9216698575925148e-06   5.288071890608207e-06
-1.0141497960707116e-05   1.9216698575925148e-06   5.288071890608207e-06
-1.0141497960707116e-05   1.9216698575925148e-06   5.288071890608207e-06
-1.0141497960707116e-05   1.9216698575925148e-06   5.288071890608207e-06
-7.339504050373494e-06   1.4169205290491603e-06   9.209316371782761e-07
-7.339504050373494e-06   1.4169205290491603e-06   9.209316371782761e-07
-7.339504050373494e-06   1.4169205290491603e-06   9.209316371782761e-07
-7.339504050373494e-06   1.4169205290491603e-06   9.209316371782761e-07
-8.422404912477837e-06   1.7131134475633844e-06   2.548050656243716e-06
-8.422404912477837e-06   1.7131134475633844e-06   2.548050656243716e-06
-8.422404912477837e-06   1.7131134475633844e-06   2.548050656243716e-06
-8.422404912477837e-06   1.7131134475633844e-06   2.548050656243716e-06
-7.339504050373521e-06   1.9216698575925148e-06   5.590921487734295e-06
-7.339504050373521e-06   1.9216698575925148e-06   5.590921487734295e-06
-7.339504050373521e-06   1.9216698575925148e-06   5.590921487734295e-06
-7.339504050373521e-06   1.9216698575925148e-06   5.590921487734295e-06
-1.0141497960707116e-05   1.4169205290491603e-06   6.180820400522146e-07
-1.0141497960707116e-05   1.4169205290491603e-06   6.180820400522146e-07
-1.0141497960707116e-05   1.4169205290491603e-06   6.180820400522146e-07
-1.0141497960707116e-05   1.4169205290491603e-06   6.180820400522146e-07
-1.047449986972433e-05   1.7105521061315195e-06   6.735943379169876e-06
-1.047449986972433e-05   1.7105521061315195e-06   6.735943379169876e-06
-1.047449986972433e-05   1.7105521061315195e-06   6.735943379169876e-06
-1.047449986972433e-05   1.7105521061315195e-06   6.735943379169876e-06
-7.466916585402005e-06   1.2193098122679114e-06   2.018049948284285e-06
-7.466916585402005e-06   1.2193098122679114e-06   2.018049948284285e-06
-7.466916585402005e-06   1.2193098122679114e-06   2.018049948284285e-06
-7.466916585402005e-06   1.2193098122679114e-06   2.018049948284285e-06
-8.494058815146787e-06   1.6232315999970687e-06   3.4876005918881687e-06
-8.494058815146787e-06   1.6232315999970687e-06   3.4876005918881687e-06
-8.494058815146787e-06   1.6232315999970687e-06   3.4876005918881687e-06
-8.494058815146787e-06   1.6232315999970687e-06   3.4876005918881687e-06
1.0830116783303029e-06   -2.3739001018077167e-08   4.39929476535783e-06
1.0830116783303029e-06   -2.3739001018077167e-08   4.39929476535783e-06
1.0830116783303029e-06   -2.3739001018077167e-08   4.39929476535783e-06
1.0830116783303029e-06   -2.3739001018077167e-08   4.39929476535783e-06
-7.479553759201225e-07   4.288878707269352e-07   1.6192591313208247e-06
-7.479553759201225e-07   4.288878707269352e-07   1.6192591313208247e-06
-7.479553759201225e-07   4.288878707269352e-07   1.6192591313208247e-06
-7.479553759201225e-07   4.288878707269352e-07   1.6192591313208247e-06
-8.478849666105844e-07   -1.8490691941535015e-07   4.309695275103254e-06
-8.478849666105844e-07   -1.8490691941535015e-07   4.309695275103254e-06
-8.478849666105844e-07   -1.8490691941535015e-07   4.309695275103254e-06
-8.478849666105844e-07   -1.8490691941535015e-07   4.309695275103254e-06
7.817860614977378e-07   2.782974508700733e-07   1.315654272751459e-06
7.817860614977378e-07   2.782974508700733e-07   1.315654272751459e-06
7.817860614977378e-07   2.782974508700733e-07   1.315654272751459e-06
7.817860614977378e-07   2.782974508700733e-07   1.315654272751459e-06
1.7849124242253504e-08   9.799477462000064e-08   2.6970641072606425e-06
1.7849124242253504e-08   9.799477462000064e-08   2.6970641072606425e-06
1.7849124242253504e-08   9.799477462000064e-08   2.6970641072606425e-06
1.7849124242253504e-08   9.799477462000064e-08   2.6970641072606425e-06
7.817860614977378e-07   -1.8490691941535015e-07   4.031772652931994e-06
7.817860614977378e-07   -1.8490691941535015e-07   4.031772652931994e-06
7.817860614977378e-07   -1.8490691941535015e-07   4.031772652931994e-06
7.817860614977378e-07   -1.8490691941535015e-07   4.031772652931994e-06
-8.478849666105844e-07   2.782974508700733e-07   1.5935768949227117e-06
-8.478849666105844e-07   2.782974508700733e-07   1.5935768949227117e-06
-8.478849666105844e-07   2.782974508700733e-07   1.5935768949227117e-06
-8.478849666105844e-07   2.782974508700733e-07   1.5935768949227117e-06
-9.719227761974845e-07   -2.5264908300149606e-07   4.178266903756935e-06
-9.719227761974845e-07   -2.5264908300149606e-07   4.178266903756935e-06
-9.719227761974845e-07   -2.5264908300149606e-07   4.178266903756935e-06
-9.719227761974845e-07   -2.5264908300149606e-07   4.178266903756935e-06
5.188495500220944e-07   1.9788144153983205e-07   1.4233280453328716e-06
5.188495500220944e-07   1.9788144153983205e-07   1.4233280453328716e-06
5.188495500220944e-07   1.9788144153983205e-07   1.4233280453328716e-06
5.188495500220944e-07   1.9788144153983205e-07   1.4233280453328716e-06
-1.421260913615329e-07   3.401646895591229e-08   2.6232730978559396e-06
-1.421260913615329e-07   3.401646895591229e-08   2.6232730978559396e-06
-1.421260913615329e-07   3.401646895591229e-08   2.6232730978559396e-06
-1.421260913615329e-07   3.401646895591229e-08   2.6232730978559396e-06
5.188495500220978e-07   -2.5264908300144185e-07   3.907948589032127e-06
5.188495500220978e-07   -2.5264908300144185e-07   3.907948589032127e-06
5.188495500220978e-07   -2.5264908300144185e-07   3.907948589032127e-06
5.188495500220978e-07   -2.5264908300144185e-07   3.907948589032127e-06
-9.719227761974836e-07   1.9788144153983205e-07   1.6936463600576658e-06
-9.719227761974836e-07   1.9788144153983205e-07   1.6936463600576658e-06
-9.719227761974836e-07   1.9788144153983205e-07   1.6936463600576658e-06
-9.719227761974836e-07   1.9788144153983205e-07   1.6936463600576658e-06
-1.0765915285518112e-06   -3.621837310906792e-07   4.104014273103234e-06
-1.0765915285518112e-06   -3.621837310906792e-07   4.104014273103234e-06
-1.0765915285518112e-06   -3.621837310906792e-07   4.104014273103234e-06
-1.0765915285518112e-06   -3.621837310906792e-07   4.104014273103234e-06
1.877562749781381e-07   2.9722004829589675e-08   1.7616244923345726e-06
1.877562749781381e-07   2.9722004829589675e-08   1.7616244923345726e-06
1.877562749781381e-07   2.9722004829589675e-08   1.7616244923345726e-06
1.877562749781381e-07   2.9722004829589675e-08   1.7616244923345726e-06
-3.2316272609340934e-07   -2.0995734685341425e-08   2.6435868044960483e-06
-3.2316272609340934e-07   -2.0995734685341425e-08   2.6435868044960483e-06
-3.2316272609340934e-07   -2.0995734685341425e-08   2.6435868044960483e-06
-3.2316272609340934e-07   -2.0995734685341425e-08   2.6435868044960483e-06
-7.479553759201225e-07   4.3803292734684177e-07   6.917951241069151e-06
-7.479553759201225e-07   4.3803292734684177e-07   6.917951241069151e-06
-7.479553759201225e-07   4.3803292734684177e-07   6.917951241069151e-06
-7.479553759201225e-07   4.3803292734684177e-07   6.917951241069151e-06
-2.2755927989589084e-06   5.320612532356932e-07   4.428305864871143e-06
-2.2755927989589084e-06   5.320612532356932e-07   4.428305864871143e-06
-2.2755927989589084e-06   5.320612532356932e-07   4.428305864871143e-06
-2.2755927989589084e-06   5.320612532356932e-07   4.428305864871143e-06
-2.3521996041415383e-06   2.582372705168699e-07   6.894500926269261e-06
-2.3521996041415383e-06   2.582372705168699e-07   6.894500926269261e-06
-2.3521996041415383e-06   2.582372705168699e-07   6.894500926269261e-06
-2.3521996041415383e-06   2.582372705168699e-07   6.894500926269261e-06
-8.478849666105844e-07   3.652277839142357e-07   4.323115555679216e-06
-8.478849666105844e-07   3.652277839142357e-07   4.323115555679216e-06
-8.478849666105844e-07   3.652277839142357e-07   4.323115555679216e-06
-8.478849666105844e-07   3.652277839142357e-07   4.323115555679216e-06
-1.5677324245094451e-06   3.7763465459480106e-07   5.5154171964356865e-06
-1.5677324245094451e-06   3.7763465459480106e-07   5.5154171964356865e-06
-1.5677324245094451e-06   3.7763465459480106e-07   5.5154171964356865e-06
-1.5677324245094451e-06   3.7763465459480106e-07   5.5154171964356865e-06
-8.478849666105852e-07   2.582372705168699e-07   6.8303066182307925e-06
-8.478849666105852e-07   2.582372705168699e-07   6.8303066182307925e-06
-8.478849666105852e-07   2.582372705168699e-07   6.8303066182307925e-06
-8.478849666105852e-07   2.582372705168699e-07   6.8303066182307925e-06
-2.3521996041415315e-06   3.652277839142357e-07   4.387309863717649e-06
-2.3521996041415315e-06   3.652277839142357e-07   4.387309863717649e-06
-2.3521996041415315e-06   3.652277839142357e-07   4.387309863717649e-06
-2.3521996041415315e-06   3.652277839142357e-07   4.387309863717649e-06
-2.4313936637755727e-06   1.0758382973418204e-07   6.896912331508649e-06
-2.4313936637755727e-06   1.0758382973418204e-07   6.896912331508649e-06
-2.4313936637755727e-06   1.0758382973418204e-07   6.896912331508649e-06
-2.4313936637755727e-06   1.0758382973418204e-07   6.896912331508649e-06
-9.719227761974836e-07   2.1345366805873307e-07   4.400938949217079e-06
-9.719227761974836e-07   2.1345366805873307e-07   4.400938949217079e-06
-9.719227761974836e-07   2.1345366805873307e-07   4.400938949217079e-06
-9.719227761974836e-07   2.1345366805873307e-07   4.400938949217079e-06
-1.6463433947159096e-06   2.5703775430942514e-07   5.498822861664163e-06
-1.6463433947159096e-06   2.5703775430942514e-07   5.498822861664163e-06
-1.6463433947159096e-06   2.5703775430942514e-07   5.498822861664163e-06
-1.6463433947159096e-06   2.5703775430942514e-07   5.498822861664163e-06
-9.719227761974845e-07   1.0758382973412783e-07   6.833390428513881e-06
-9.719227761974845e-07   1.0758382973412783e-07   6.833390428513881e-06
-9.719227761974845e-07   1.0758382973412783e-07   6.833390428513881e-06
-9.719227761974845e-07   1.0758382973412783e-07   6.833390428513881e-06
-2.4313936637755727e-06   2.1345366805873307e-07   4.464460852211837e-06
-2.4313936637755727e-06   2.1345366805873307e-07   4.464460852211837e-06
-2.4313936637755727e-06   2.1345366805873307e-07   4.464460852211837e-06
-2.4313936637755727e-06   2.1345366805873307e-07   4.464460852211837e-06
-2.5095495785377748e-06   -4.426410365896078e-08   7.0197685327651595e-06
-2.5095495785377748e-06   -4.426410365896078e-08   7.0197685327651595e-06
-2.5095495785377748e-06   -4.426410365896078e-08   7.0197685327651595e-06
-2.5095495785377748e-06   -4.426410365896078e-08   7.0197685327651595e-06
-1.0765915285518095e-06   5.1391001849052185e-08   4.574112052817089e-06
-1.0765915285518095e-06   5.1391001849052185e-08   4.574112052817089e-06
-1.0765915285518095e-06   5.1391001849052185e-08   4.574112052817089e-06
-1.0765915285518095e-06   5.1391001849052185e-08   4.574112052817089e-06
-1.724056612716146e-06   1.4064282588180767e-07   5.5996694320046875e-06
-1.724056612716146e-06   1.4064282588180767e-07   5.5996694320046875e-06
-1.724056612716146e-06   1.4064282588180767e-07   5.5996694320046875e-06
-1.724056612716146e-06   1.4064282588180767e-07   5.5996694320046875e-06
-2.2755927989589016e-06   8.409975612161391e-07   7.767966143973305e-06
-2.2755927989589016e-06   8.409975612161391e-07   7.767966143973305e-06
-2.2755927989589016e-06   8.409975612161391e-07   7.767966143973305e-06
-2.2755927989589016e-06   8.409975612161391e-07   7.767966143973305e-06
-3.7855453801584658e-06   6.527789462806529e-07   5.138447339679409e-06
-3.7855453801584658e-06   6.527789462806529e-07   5.138447339679409e-06
-3.7855453801584658e-06   6.527789462806529e-07   5.138447339679409e-06
-3.7855453801584658e-06   6.527789462806529e-07   5.138447339679409e-06
-3.8512029138235485e-06   6.769985653928812e-07   7.623586222882308e-06
-3.8512029138235485e-06   6.769985653928812e-07   7.623586222882308e-06
-3.8512029138235485e-06   6.769985653928812e-07   7.623586222882308e-06
-3.8512029138235485e-06   6.769985653928812e-07   7.623586222882308e-06
-2.3521996041415315e-06   4.999412901775268e-07   5.231481738541451e-06
-2.3521996041415315e-06   4.999412901775268e-07   5.231481738541451e-06
-2.3521996041415315e-06   4.999412901775268e-07   5.231481738541451e-06
-2.3521996041415315e-06   4.999412901775268e-07   5.231481738541451e-06
-3.0685362645584435e-06   6.529548184152712e-07   6.333568055626933e-06
-3.0685362645584435e-06   6.529548184152712e-07   6.333568055626933e-06
-3.0685362645584435e-06   6.529548184152712e-07   6.333568055626933e-06
-3.0685362645584435e-06   6.529548184152712e-07   6.333568055626933e-06
-2.3521996041415315e-06   6.769985653928812e-07   7.729820588011461e-06
-2.3521996041415315e-06   6.769985653928812e-07   7.729820588011461e-06
-2.3521996041415315e-06   6.769985653928812e-07   7.729820588011461e-06
-2.3521996041415315e-06   6.769985653928812e-07   7.729820588011461e-06
-3.8512029138235485e-06   4.999412901775268e-07   5.125247373412257e-06
-3.8512029138235485e-06   4.999412901775268e-07   5.125247373412257e-06
-3.8512029138235485e-06   4.999412901775268e-07   5.125247373412257e-06
-3.8512029138235485e-06   4.999412901775268e-07   5.125247373412257e-06
-3.9212409570622375e-06   5.138911555192783e-07   7.693230093194954e-06
-3.9212409570622375e-06   5.138911555192783e-07   7.693230093194954e-06
-3.9212409570622375e-06   5.138911555192783e-07   7.693230093194954e-06
-3.9212409570622375e-06   5.138911555192783e-07   7.693230093194954e-06
-2.4313936637755727e-06   3.447894249054861e-07   5.311612309418843e-06
-2.4313936637755727e-06   3.447894249054861e-07   5.311612309418843e-06
-2.4313936637755727e-06   3.447894249054861e-07   5.311612309418843e-06
-2.4313936637755727e-06   3.447894249054861e-07   5.311612309418843e-06
-3.12468661863101e-06   5.315259426343999e-07   6.355058656873903e-06
-3.12468661863101e-06   5.315259426343999e-07   6.355058656873903e-06
-3.12468661863101e-06   5.315259426343999e-07   6.355058656873903e-06
-3.12468661863101e-06   5.315259426343999e-07   6.355058656873903e-06
-2.4313936637755727e-06   5.138911555193325e-07   7.794691131563235e-06
-2.4313936637755727e-06   5.138911555193325e-07   7.794691131563235e-06
-2.4313936637755727e-06   5.138911555193325e-07   7.794691131563235e-06
-2.4313936637755727e-06   5.138911555193325e-07   7.794691131563235e-06
-3.921240957062224e-06   3.447894249055403e-07   5.210151271050576e-06
-3.921240957062224e-06   3.447894249055403e-07   5.210151271050576e-06
-3.921240957062224e-06   3.447894249055403e-07   5.210151271050576e-06
-3.921240957062224e-06   3.447894249055403e-07   5.210151271050576e-06
-3.98985257750834e-06   3.5817056518296173e-07   7.844341717256557e-06
-3.98985257750834e-06   3.5817056518296173e-07   7.844341717256557e-06
-3.98985257750834e-06   3.5817056518296173e-07   7.844341717256557e-06
-3.98985257750834e-06   3.5817056518296173e-07   7.844341717256557e-06
-2.5095495785377748e-06   1.985867273048979e-07   5.4729203550324515e-06
-2.5095495785377748e-06   1.985867273048979e-07   5.4729203550324515e-06
-2.5095495785377748e-06   1.985867273048979e-07   5.4729203550324515e-06
-2.5095495785377748e-06   1.985867273048979e-07   5.4729203550324515e-06
-3.187180149841383e-06   4.122869850939283e-07   6.47408448586502e-06
-3.187180149841383e-06   4.122869850939283e-07   6.47408448586502e-06
-3.187180149841383e-06   4.122869850939283e-07   6.47408448586502e-06
-3.187180149841383e-06   4.122869850939283e-07   6.47408448586502e-06
-3.7855453801584793e-06   1.2613709573936686e-06   6.732991098712529e-06
-3.7855453801584793e-06   1.2613709573936686e-06   6.732991098712529e-06
-3.7855453801584793e-06   1.2613709573936686e-06   6.732991098712529e-06
-3.7855453801584793e-06   1.2613709573936686e-06   6.732991098712529e-06
-5.276525709393493e-06   8.920463625146889e-07   4.026429126393408e-06
-5.276525709393493e-06   8.920463625146889e-07   4.026429126393408e-06
-5.276525709393493e-06   8.920463625146889e-07   4.026429126393408e-06
-5.276525709393493e-06   8.920463625146889e-07   4.026429126393408e-06
-5.348949390268838e-06   1.0967848410995177e-06   6.537511188742251e-06
-5.348949390268838e-06   1.0967848410995177e-06   6.537511188742251e-06
-5.348949390268838e-06   1.0967848410995177e-06   6.537511188742251e-06
-5.348949390268838e-06   1.0967848410995177e-06   6.537511188742251e-06
-3.8512029138235485e-06   7.31463222294307e-07   4.26046003261655e-06
-3.8512029138235485e-06   7.31463222294307e-07   4.26046003261655e-06
-3.8512029138235485e-06   7.31463222294307e-07   4.26046003261655e-06
-3.8512029138235485e-06   7.31463222294307e-07   4.26046003261655e-06
-4.555837249348091e-06   9.84483152422519e-07   5.283038633747131e-06
-4.555837249348091e-06   9.84483152422519e-07   5.283038633747131e-06
-4.555837249348091e-06   9.84483152422519e-07   5.283038633747131e-06
-4.555837249348091e-06   9.84483152422519e-07   5.283038633747131e-06
-3.8512029138235485e-06   1.0967848410994635e-06   6.756704160025388e-06
-3.8512029138235485e-06   1.0967848410994635e-06   6.756704160025388e-06
-3.8512029138235485e-06   1.0967848410994635e-06   6.756704160025388e-06
-3.8512029138235485e-06   1.0967848410994635e-06   6.756704160025388e-06
-5.348949390268824e-06   7.314632222942528e-07   4.041267061333433e-06
-5.348949390268824e-06   7.314632222942528e-07   4.041267061333433e-06
-5.348949390268824e-06   7.314632222942528e-07   4.041267061333433e-06
-5.348949390268824e-06   7.314632222942528e-07   4.041267061333433e-06
-5.447349504477501e-06   9.460041359142003e-07   6.751923360375455e-06
-5.447349504477501e-06   9.460041359142003e-07   6.751923360375455e-06
-5.447349504477501e-06   9.460041359142003e-07   6.751923360375455e-06
-5.447349504477501e-06   9.460041359142003e-07   6.751923360375455e-06
-3.9212409570622375e-06   5.87717627746696e-07   4.4233810195837714e-06
-3.9212409570622375e-06   5.87717627746696e-07   4.4233810195837714e-06
-3.9212409570622375e-06   5.87717627746696e-07   4.4233810195837714e-06
-3.9212409570622375e-06   5.87717627746696e-07   4.4233810195837714e-06
-4.595078376698312e-06   8.6686095420905e-07   5.3789573897665606e-06
-4.595078376698312e-06   8.6686095420905e-07   5.3789573897665606e-06
-4.595078376698312e-06   8.6686095420905e-07   5.3789573897665606e-06
-4.595078376698312e-06   8.6686095420905e-07   5.3789573897665606e-06
-3.921240957062224e-06   9.460041359141461e-07   6.966895265275827e-06
-3.921240957062224e-06   9.460041359141461e-07   6.966895265275827e-06
-3.921240957062224e-06   9.460041359141461e-07   6.966895265275827e-06
-3.921240957062224e-06   9.460041359141461e-07   6.966895265275827e-06
-5.447349504477487e-06   5.87717627746696e-07   4.208409114683304e-06
-5.447349504477487e-06   5.87717627746696e-07   4.208409114683304e-06
-5.447349504477487e-06   5.87717627746696e-07   4.208409114683304e-06
-5.447349504477487e-06   5.87717627746696e-07   4.208409114683304e-06
-5.525842009961442e-06   7.836610316940321e-07   6.987296225983812e-06
-5.525842009961442e-06   7.836610316940321e-07   6.987296225983812e-06
-5.525842009961442e-06   7.836610316940321e-07   6.987296225983812e-06
-5.525842009961442e-06   7.836610316940321e-07   6.987296225983812e-06
-3.98985257750834e-06   4.4033728046840876e-07   4.633308089297395e-06
-3.98985257750834e-06   4.4033728046840876e-07   4.633308089297395e-06
-3.98985257750834e-06   4.4033728046840876e-07   4.633308089297395e-06
-3.98985257750834e-06   4.4033728046840876e-07   4.633308089297395e-06
-4.677513436496711e-06   7.539776982409818e-07   5.591225270281237e-06
-4.677513436496711e-06   7.539776982409818e-07   5.591225270281237e-06
-4.677513436496711e-06   7.539776982409818e-07   5.591225270281237e-06
-4.677513436496711e-06   7.539776982409818e-07   5.591225270281237e-06
-5.276525709393493e-06   1.5706544709982295e-06   3.00533651111047e-06
-5.276525709393493e-06   1.5706544709982295e-06   3.00533651111047e-06
-5.276525709393493e-06   1.5706544709982295e-06   3.00533651111047e-06
-5.276525709393493e-06   1.5706544709982295e-06   3.00533651111047e-06
-6.490795632564309e-06   1.0705068777715145e-06   6.814647498897227e-07
-6.490795632564309e-06   1.0705068777715145e-06   6.814647498897227e-07
-6.490795632564309e-06   1.0705068777715145e-06   6.814647498897227e-07
-6.490795632564309e-06   1.0705068777715145e-06   6.814647498897227e-07
-6.75998949723661e-06   1.4881740010941422e-06   3.536755250691198e-06
-6.75998949723661e-06   1.4881740010941422e-06   3.536755250691198e-06
-6.75998949723661e-06   1.4881740010941422e-06   3.536755250691198e-06
-6.75998949723661e-06   1.4881740010941422e-06   3.536755250691198e-06
-5.348949390268838e-06   9.639000816931355e-07   1.499586090718811e-06
-5.348949390268838e-06   9.639000816931355e-07   1.499586090718811e-06
-5.348949390268838e-06   9.639000816931355e-07   1.499586090718811e-06
-5.348949390268838e-06   9.639000816931355e-07   1.499586090718811e-06
-5.760886994170217e-06   1.2573448269611524e-06   2.0100819167269987e-06
-5.760886994170217e-06   1.2573448269611524e-06   2.0100819167269987e-06
-5.760886994170217e-06   1.2573448269611524e-06   2.0100819167269987e-06
-5.760886994170217e-06   1.2573448269611524e-06   2.0100819167269987e-06
-5.348949390268838e-06   1.4881740010941422e-06   3.85131960233177e-06
-5.348949390268838e-06   1.4881740010941422e-06   3.85131960233177e-06
-5.348949390268838e-06   1.4881740010941422e-06   3.85131960233177e-06
-5.348949390268838e-06   1.4881740010941422e-06   3.85131960233177e-06
-6.759989497236651e-06   9.639000816931355e-07   1.1850217390782496e-06
-6.759989497236651e-06   9.639000816931355e-07   1.1850217390782496e-06
-6.759989497236651e-06   9.639000816931355e-07   1.1850217390782496e-06
-6.759989497236651e-06   9.639000816931355e-07   1.1850217390782496e-06
-6.989829986061525e-06   1.4169205290491603e-06   4.162934456232437e-06
-6.989829986061525e-06   1.4169205290491603e-06   4.162934456232437e-06
-6.989829986061525e-06   1.4169205290491603e-06   4.162934456232437e-06
-6.989829986061525e-06   1.4169205290491603e-06   4.162934456232437e-06
-5.447349504477501e-06   8.898769708745656e-07   1.9083597884971004e-06
-5.447349504477501e-06   8.898769708745656e-07   1.9083597884971004e-06
-5.447349504477501e-06   8.898769708745656e-07   1.9083597884971004e-06
-5.447349504477501e-06   8.898769708745656e-07   1.9083597884971004e-06
-5.991163210561254e-06   1.2171527610891773e-06   2.61835049117476e-06
-5.991163210561254e-06   1.2171527610891773e-06   2.61835049117476e-06
-5.991163210561254e-06   1.2171527610891773e-06   2.61835049117476e-06
-5.991163210561254e-06   1.2171527610891773e-06   2.61835049117476e-06
-5.447349504477501e-06   1.4169205290491603e-06   4.479160591137145e-06
-5.447349504477501e-06   1.4169205290491603e-06   4.479160591137145e-06
-5.447349504477501e-06   1.4169205290491603e-06   4.479160591137145e-06
-5.447349504477501e-06   1.4169205290491603e-06   4.479160591137145e-06
-6.9898299860615654e-06   8.898769708745114e-07   1.5921336535923678e-06
-6.9898299860615654e-06   8.898769708745114e-07   1.5921336535923678e-06
-6.9898299860615654e-06   8.898769708745114e-07   1.5921336535923678e-06
-6.9898299860615654e-06   8.898769708745114e-07   1.5921336535923678e-06
-7.279679511295142e-06   1.2193098122679114e-06   5.292896456399242e-06
-7.279679511295142e-06   1.2193098122679114e-06   5.292896456399242e-06
-7.279679511295142e-06   1.2193098122679114e-06   5.292896456399242e-06
-7.279679511295142e-06   1.2193098122679114e-06   5.292896456399242e-06
-5.525842009961428e-06   7.159125289534786e-07   2.6718723241651204e-06
-5.525842009961428e-06   7.159125289534786e-07   2.6718723241651204e-06
-5.525842009961428e-06   7.159125289534786e-07   2.6718723241651204e-06
-5.525842009961428e-06   7.159125289534786e-07   2.6718723241651204e-06
-6.053366049978541e-06   1.1347048975219915e-06   3.299803636385801e-06
-6.053366049978541e-06   1.1347048975219915e-06   3.299803636385801e-06
-6.053366049978541e-06   1.1347048975219915e-06   3.299803636385801e-06
-6.053366049978541e-06   1.1347048975219915e-06   3.299803636385801e-06
-2.263810325986882e-06   4.288878707269352e-07   3.2164969664974453e-06
-2.263810325986882e-06   4.288878707269352e-07   3.2164969664974453e-06
-2.263810325986882e-06   4.288878707269352e-07   3.2164969664974453e-06
-2.263810325986882e-06   4.288878707269352e-07   3.2164969664974453e-06
-2.647375057933581e-06   8.413274390007598e-07   2.824686154217251e-06
-2.647375057933581e-06   8.413274390007598e-07   2.824686154217251e-06
-2.647375057933581e-06   8.413274390007598e-07   2.824686154217251e-06
-2.647375057933581e-06   8.413274390007598e-07   2.824686154217251e-06
-2.7240950546835894e-06   2.782974508700733e-07   3.4082177758235706e-06
-2.7240950546835894e-06   2.782974508700733e-07   3.4082177758235706e-06
-2.7240950546835894e-06   2.782974508700733e-07   3.4082177758235706e-06
-2.7240950546835894e-06   2.782974508700733e-07   3.4082177758235706e-06
-2.5696922349758825e-06   6.510697231957544e-07   2.927216379581998e-06
-2.5696922349758825e-06   6.510697231957544e-07   2.927216379581998e-06
-2.5696922349758825e-06   6.510697231957544e-07   2.927216379581998e-06
-2.5696922349758825e-06   6.510697231957544e-07   2.927216379581998e-06
-2.4930189088817898e-06   5.1076616453292e-07   2.8836096379561985e-06
-2.4930189088817898e-06   5.1076616453292e-07   2.8836096379561985e-06
-2.4930189088817898e-06   5.1076616453292e-07   2.8836096379561985e-06
-2.4930189088817898e-06   5.1076616453292e-07   2.8836096379561985e-06
-2.5696922349758892e-06   2.782974508700733e-07   3.1845544124281186e-06
-2.5696922349758892e-06   2.782974508700733e-07   3.1845544124281186e-06
-2.5696922349758892e-06   2.782974508700733e-07   3.1845544124281186e-06
-2.5696922349758892e-06   2.782974508700733e-07   3.1845544124281186e-06
-2.7240950546835894e-06   6.510697231957544e-07   3.1508797429774093e-06
-2.7240950546835894e-06   6.510697231957544e-07   3.1508797429774093e-06
-2.7240950546835894e-06   6.510697231957544e-07   3.1508797429774093e-06
-2.7240950546835894e-06   6.510697231957544e-07   3.1508797429774093e-06
-2.823338174453948e-06   1.9788144153983205e-07   3.4888122480182255e-06
-2.823338174453948e-06   1.9788144153983205e-07   3.4888122480182255e-06
-2.823338174453948e-06   1.9788144153983205e-07   3.4888122480182255e-06
-2.823338174453948e-06   1.9788144153983205e-07   3.4888122480182255e-06
-2.869184610526548e-06   5.220060481978103e-07   3.3707482108110196e-06
-2.869184610526548e-06   5.220060481978103e-07   3.3707482108110196e-06
-2.869184610526548e-06   5.220060481978103e-07   3.3707482108110196e-06
-2.869184610526548e-06   5.220060481978103e-07   3.3707482108110196e-06
-2.674123587782209e-06   4.294387066055812e-07   3.101186911192398e-06
-2.674123587782209e-06   4.294387066055812e-07   3.101186911192398e-06
-2.674123587782209e-06   4.294387066055812e-07   3.101186911192398e-06
-2.674123587782209e-06   4.294387066055812e-07   3.101186911192398e-06
-2.869184610526555e-06   1.9788144153983205e-07   3.2943374840233247e-06
-2.869184610526555e-06   1.9788144153983205e-07   3.2943374840233247e-06
-2.869184610526555e-06   1.9788144153983205e-07   3.2943374840233247e-06
-2.869184610526555e-06   1.9788144153983205e-07   3.2943374840233247e-06
-2.823338174453948e-06   5.220060481978103e-07   3.5652229748058255e-06
-2.823338174453948e-06   5.220060481978103e-07   3.5652229748058255e-06
-2.823338174453948e-06   5.220060481978103e-07   3.5652229748058255e-06
-2.823338174453948e-06   5.220060481978103e-07   3.5652229748058255e-06
-2.889635499497175e-06   2.9722004829589675e-08   3.7867803325639267e-06
-2.889635499497175e-06   2.9722004829589675e-08   3.7867803325639267e-06
-2.889635499497175e-06   2.9722004829589675e-08   3.7867803325639267e-06
-2.889635499497175e-06   2.9722004829589675e-08   3.7867803325639267e-06
-3.1893219840508375e-06   2.0592364623504616e-07   4.1805368219767e-06
-3.1893219840508375e-06   2.0592364623504616e-07   4.1805368219767e-06
-3.1893219840508375e-06   2.0592364623504616e-07   4.1805368219767e-06
-3.1893219840508375e-06   2.0592364623504616e-07   4.1805368219767e-06
-2.8104895304955994e-06   3.3272486220091197e-07   3.4730686698050434e-06
-2.8104895304955994e-06   3.3272486220091197e-07   3.4730686698050434e-06
-2.8104895304955994e-06   3.3272486220091197e-07   3.4730686698050434e-06
-2.8104895304955994e-06   3.3272486220091197e-07   3.4730686698050434e-06
-2.647375057933576e-06   5.32061253235639e-07   6.216590445478747e-06
-2.647375057933576e-06   5.32061253235639e-07   6.216590445478747e-06
-2.647375057933576e-06   5.32061253235639e-07   6.216590445478747e-06
-2.647375057933576e-06   5.32061253235639e-07   6.216590445478747e-06
-2.7885235452491334e-06   2.1936036114544367e-07   5.793722431365371e-06
-2.7885235452491334e-06   2.1936036114544367e-07   5.793722431365371e-06
-2.7885235452491334e-06   2.1936036114544367e-07   5.793722431365371e-06
-2.7885235452491334e-06   2.1936036114544367e-07   5.793722431365371e-06
-2.8168785928910417e-06   3.652277839141815e-07   5.978856419381365e-06
-2.8168785928910417e-06   3.652277839141815e-07   5.978856419381365e-06
-2.8168785928910417e-06   3.652277839141815e-07   5.978856419381365e-06
-2.8168785928910417e-06   3.652277839141815e-07   5.978856419381365e-06
-2.7240950546835894e-06   1.0039442191627271e-07   5.983117206234369e-06
-2.7240950546835894e-06   1.0039442191627271e-07   5.983117206234369e-06
-2.7240950546835894e-06   1.0039442191627271e-07   5.983117206234369e-06
-2.7240950546835894e-06   1.0039442191627271e-07   5.983117206234369e-06
-2.7381203671370118e-06   2.671815571734593e-07   5.906420445835754e-06
-2.7381203671370118e-06   2.671815571734593e-07   5.906420445835754e-06
-2.7381203671370118e-06   2.671815571734593e-07   5.906420445835754e-06
-2.7381203671370118e-06   2.671815571734593e-07   5.906420445835754e-06
-2.7240950546835877e-06   3.652277839142357e-07   6.1377564365800124e-06
-2.7240950546835877e-06   3.652277839142357e-07   6.1377564365800124e-06
-2.7240950546835877e-06   3.652277839142357e-07   6.1377564365800124e-06
-2.7240950546835877e-06   3.652277839142357e-07   6.1377564365800124e-06
-2.816878592891035e-06   1.0039442191627271e-07   5.8242171890356e-06
-2.816878592891035e-06   1.0039442191627271e-07   5.8242171890356e-06
-2.816878592891035e-06   1.0039442191627271e-07   5.8242171890356e-06
-2.816878592891035e-06   1.0039442191627271e-07   5.8242171890356e-06
-2.851107104811731e-06   2.1345366805878728e-07   6.048104261832302e-06
-2.851107104811731e-06   2.1345366805878728e-07   6.048104261832302e-06
-2.851107104811731e-06   2.1345366805878728e-07   6.048104261832302e-06
-2.851107104811731e-06   2.1345366805878728e-07   6.048104261832302e-06
-2.823338174453948e-06   -3.321395751680156e-08   6.149823286581298e-06
-2.823338174453948e-06   -3.321395751680156e-08   6.149823286581298e-06
-2.823338174453948e-06   -3.321395751680156e-08   6.149823286581298e-06
-2.823338174453948e-06   -3.321395751680156e-08   6.149823286581298e-06
-2.7718832842940556e-06   1.709700374364644e-07   5.941554739342776e-06
-2.7718832842940556e-06   1.709700374364644e-07   5.941554739342776e-06
-2.7718832842940556e-06   1.709700374364644e-07   5.941554739342776e-06
-2.7718832842940556e-06   1.709700374364644e-07   5.941554739342776e-06
-2.823338174453948e-06   2.1345366805878728e-07   6.196104837177547e-06
-2.823338174453948e-06   2.1345366805878728e-07   6.196104837177547e-06
-2.823338174453948e-06   2.1345366805878728e-07   6.196104837177547e-06
-2.823338174453948e-06   2.1345366805878728e-07   6.196104837177547e-06
-2.8511071048117177e-06   -3.3213957516828665e-08   6.001822711235955e-06
-2.8511071048117177e-06   -3.3213957516828665e-08   6.001822711235955e-06
-2.8511071048117177e-06   -3.3213957516828665e-08   6.001822711235955e-06
-2.8511071048117177e-06   -3.3213957516828665e-08   6.001822711235955e-06
-2.878640985148858e-06   5.1391001849052185e-08   6.209620482256877e-06
-2.878640985148858e-06   5.1391001849052185e-08   6.209620482256877e-06
-2.878640985148858e-06   5.1391001849052185e-08   6.209620482256877e-06
-2.878640985148858e-06   5.1391001849052185e-08   6.209620482256877e-06
-2.889635499497173e-06   -2.0611561354666767e-07   6.382448642074769e-06
-2.889635499497173e-06   -2.0611561354666767e-07   6.382448642074769e-06
-2.889635499497173e-06   -2.0611561354666767e-07   6.382448642074769e-06
-2.889635499497173e-06   -2.0611561354666767e-07   6.382448642074769e-06
-2.821053596353859e-06   6.052986294323112e-08   6.108158184275191e-06
-2.821053596353859e-06   6.052986294323112e-08   6.108158184275191e-06
-2.821053596353859e-06   6.052986294323112e-08   6.108158184275191e-06
-2.821053596353859e-06   6.052986294323112e-08   6.108158184275191e-06
-2.78852354524914e-06   6.527789462806529e-07   6.852042553994218e-06
-2.78852354524914e-06   6.527789462806529e-07   6.852042553994218e-06
-2.78852354524914e-06   6.527789462806529e-07   6.852042553994218e-06
-2.78852354524914e-06   6.527789462806529e-07   6.852042553994218e-06
-3.087760901294249e-06   6.329867675917674e-08   5.999625465539456e-06
-3.087760901294249e-06   6.329867675917674e-08   5.999625465539456e-06
-3.087760901294249e-06   6.329867675917674e-08   5.999625465539456e-06
-3.087760901294249e-06   6.329867675917674e-08   5.999625465539456e-06
-3.101876923240643e-06   4.999412901775268e-07   6.502360700028954e-06
-3.101876923240643e-06   4.999412901775268e-07   6.502360700028954e-06
-3.101876923240643e-06   4.999412901775268e-07   6.502360700028954e-06
-3.101876923240643e-06   4.999412901775268e-07   6.502360700028954e-06
-2.816878592891035e-06   -3.450470011602991e-08   6.348031076955761e-06
-2.816878592891035e-06   -3.450470011602991e-08   6.348031076955761e-06
-2.816878592891035e-06   -3.450470011602991e-08   6.348031076955761e-06
-2.816878592891035e-06   -3.450470011602991e-08   6.348031076955761e-06
-2.9448640066533297e-06   2.840246077259311e-07   6.370222515187735e-06
-2.9448640066533297e-06   2.840246077259311e-07   6.370222515187735e-06
-2.9448640066533297e-06   2.840246077259311e-07   6.370222515187735e-06
-2.9448640066533297e-06   2.840246077259311e-07   6.370222515187735e-06
-2.8168785928910417e-06   4.99941290177581e-07   6.823028294205072e-06
-2.8168785928910417e-06   4.99941290177581e-07   6.823028294205072e-06
-2.8168785928910417e-06   4.99941290177581e-07   6.823028294205072e-06
-2.8168785928910417e-06   4.99941290177581e-07   6.823028294205072e-06
-3.1018769232406295e-06   -3.4504700116057014e-08   6.027363482779603e-06
-3.1018769232406295e-06   -3.4504700116057014e-08   6.027363482779603e-06
-3.1018769232406295e-06   -3.4504700116057014e-08   6.027363482779603e-06
-3.1018769232406295e-06   -3.4504700116057014e-08   6.027363482779603e-06
-3.1222451406547524e-06   3.447894249054861e-07   6.597531154379761e-06
-3.1222451406547524e-06   3.447894249054861e-07   6.597531154379761e-06
-3.1222451406547524e-06   3.447894249054861e-07   6.597531154379761e-06
-3.1222451406547524e-06   3.447894249054861e-07   6.597531154379761e-06
-2.8511071048117244e-06   -1.5141818286045676e-07   6.443358992634264e-06
-2.8511071048117244e-06   -1.5141818286045676e-07   6.443358992634264e-06
-2.8511071048117244e-06   -1.5141818286045676e-07   6.443358992634264e-06
-2.8511071048117244e-06   -1.5141818286045676e-07   6.443358992634264e-06
-2.9529501966043365e-06   1.883075461075372e-07   6.409262041574297e-06
-2.9529501966043365e-06   1.883075461075372e-07   6.409262041574297e-06
-2.9529501966043365e-06   1.883075461075372e-07   6.409262041574297e-06
-2.9529501966043365e-06   1.883075461075372e-07   6.409262041574297e-06
-2.851107104811731e-06   3.447894249055403e-07   6.89525571903924e-06
-2.851107104811731e-06   3.447894249055403e-07   6.89525571903924e-06
-2.851107104811731e-06   3.447894249055403e-07   6.89525571903924e-06
-2.851107104811731e-06   3.447894249055403e-07   6.89525571903924e-06
-3.122245140654739e-06   -1.5141818286042966e-07   6.145634427974663e-06
-3.122245140654739e-06   -1.5141818286042966e-07   6.145634427974663e-06
-3.122245140654739e-06   -1.5141818286042966e-07   6.145634427974663e-06
-3.122245140654739e-06   -1.5141818286042966e-07   6.145634427974663e-06
-3.137923778603004e-06   1.985867273048979e-07   6.7716048217305745e-06
-3.137923778603004e-06   1.985867273048979e-07   6.7716048217305745e-06
-3.137923778603004e-06   1.985867273048979e-07   6.7716048217305745e-06
-3.137923778603004e-06   1.985867273048979e-07   6.7716048217305745e-06
-2.878640985148858e-06   -2.6713143842324485e-07   6.6188977320771495e-06
-2.878640985148858e-06   -2.6713143842324485e-07   6.6188977320771495e-06
-2.878640985148858e-06   -2.6713143842324485e-07   6.6188977320771495e-06
-2.878640985148858e-06   -2.6713143842324485e-07   6.6188977320771495e-06
-2.966300323748741e-06   9.027033401825353e-08   6.550555566278552e-06
-2.966300323748741e-06   9.027033401825353e-08   6.550555566278552e-06
-2.966300323748741e-06   9.027033401825353e-08   6.550555566278552e-06
-2.966300323748741e-06   9.027033401825353e-08   6.550555566278552e-06
-3.087760901294249e-06   8.920463625146889e-07   5.607930935922726e-06
-3.087760901294249e-06   8.920463625146889e-07   5.607930935922726e-06
-3.087760901294249e-06   8.920463625146889e-07   5.607930935922726e-06
-3.087760901294249e-06   8.920463625146889e-07   5.607930935922726e-06
-3.4829512049656556e-06   2.975394369728339e-07   4.592576274478639e-06
-3.4829512049656556e-06   2.975394369728339e-07   4.592576274478639e-06
-3.4829512049656556e-06   2.975394369728339e-07   4.592576274478639e-06
-3.4829512049656556e-06   2.975394369728339e-07   4.592576274478639e-06
-3.4955563546145926e-06   7.314632222942528e-07   5.299356266961358e-06
-3.4955563546145926e-06   7.314632222942528e-07   5.299356266961358e-06
-3.4955563546145926e-06   7.314632222942528e-07   5.299356266961358e-06
-3.4955563546145926e-06   7.314632222942528e-07   5.299356266961358e-06
-3.101876923240643e-06   1.6776806850763966e-07   4.981440973610002e-06
-3.101876923240643e-06   1.6776806850763966e-07   4.981440973610002e-06
-3.101876923240643e-06   1.6776806850763966e-07   4.981440973610002e-06
-3.101876923240643e-06   1.6776806850763966e-07   4.981440973610002e-06
-3.2836315656939913e-06   5.323118397687707e-07   5.065639114942264e-06
-3.2836315656939913e-06   5.323118397687707e-07   5.065639114942264e-06
-3.2836315656939913e-06   5.323118397687707e-07   5.065639114942264e-06
-3.2836315656939913e-06   5.323118397687707e-07   5.065639114942264e-06
-3.101876923240643e-06   7.314632222942528e-07   5.6375733592332335e-06
-3.101876923240643e-06   7.314632222942528e-07   5.6375733592332335e-06
-3.101876923240643e-06   7.314632222942528e-07   5.6375733592332335e-06
-3.101876923240643e-06   7.314632222942528e-07   5.6375733592332335e-06
-3.4955563546145926e-06   1.6776806850766677e-07   4.643223881338056e-06
-3.4955563546145926e-06   1.6776806850766677e-07   4.643223881338056e-06
-3.4955563546145926e-06   1.6776806850766677e-07   4.643223881338056e-06
-3.4955563546145926e-06   1.6776806850766677e-07   4.643223881338056e-06
-3.5390455493518146e-06   5.87717627746696e-07   5.4918109506469585e-06
-3.5390455493518146e-06   5.87717627746696e-07   5.4918109506469585e-06
-3.5390455493518146e-06   5.87717627746696e-07   5.4918109506469585e-06
-3.5390455493518146e-06   5.87717627746696e-07   5.4918109506469585e-06
-3.122245140654739e-06   5.613437396997326e-08   5.116093555084439e-06
-3.122245140654739e-06   5.613437396997326e-08   5.116093555084439e-06
-3.122245140654739e-06   5.613437396997326e-08   5.116093555084439e-06
-3.122245140654739e-06   5.613437396997326e-08   5.116093555084439e-06
-3.28044443932899e-06   4.269639818449357e-07   5.157261288149691e-06
-3.28044443932899e-06   4.269639818449357e-07   5.157261288149691e-06
-3.28044443932899e-06   4.269639818449357e-07   5.157261288149691e-06
-3.28044443932899e-06   4.269639818449357e-07   5.157261288149691e-06
-3.122245140654739e-06   5.87717627746696e-07   5.810760902912835e-06
-3.122245140654739e-06   5.87717627746696e-07   5.810760902912835e-06
-3.122245140654739e-06   5.87717627746696e-07   5.810760902912835e-06
-3.122245140654739e-06   5.87717627746696e-07   5.810760902912835e-06
-3.5390455493518146e-06   5.613437396997326e-08   4.797143602818464e-06
-3.5390455493518146e-06   5.613437396997326e-08   4.797143602818464e-06
-3.5390455493518146e-06   5.613437396997326e-08   4.797143602818464e-06
-3.5390455493518146e-06   5.613437396997326e-08   4.797143602818464e-06
-3.5668549743680765e-06   4.4033728046840876e-07   5.729499093390855e-06
-3.5668549743680765e-06   4.4033728046840876e-07   5.729499093390855e-06
-3.5668549743680765e-06   4.4033728046840876e-07   5.729499093390855e-06
-3.5668549743680765e-06   4.4033728046840876e-07   5.729499093390855e-06
-3.137923778603004e-06   -5.6735661750607035e-08   5.312857532447076e-06
-3.137923778603004e-06   -5.6735661750607035e-08   5.312857532447076e-06
-3.137923778603004e-06   -5.6735661750607035e-08   5.312857532447076e-06
-3.137923778603004e-06   -5.6735661750607035e-08   5.312857532447076e-06
-3.3034624530152117e-06   3.321770447940503e-07   5.355407699207177e-06
-3.3034624530152117e-06   3.321770447940503e-07   5.355407699207177e-06
-3.3034624530152117e-06   3.321770447940503e-07   5.355407699207177e-06
-3.3034624530152117e-06   3.321770447940503e-07   5.355407699207177e-06
-3.482951204965669e-06   1.0705068777715145e-06   2.2063509600299576e-06
-3.482951204965669e-06   1.0705068777715145e-06   2.2063509600299576e-06
-3.482951204965669e-06   1.0705068777715145e-06   2.2063509600299576e-06
-3.482951204965669e-06   1.0705068777715145e-06   2.2063509600299576e-06
-3.537181758834834e-06   5.019379865731793e-07   1.7748253688623406e-06
-3.537181758834834e-06   5.019379865731793e-07   1.7748253688623406e-06
-3.537181758834834e-06   5.019379865731793e-07   1.7748253688623406e-06
-3.537181758834834e-06   5.019379865731793e-07   1.7748253688623406e-06
-3.719552691983796e-06   9.639000816931355e-07   2.4245179081020408e-06
-3.719552691983796e-06   9.639000816931355e-07   2.4245179081020408e-06
-3.719552691983796e-06   9.639000816931355e-07   2.4245179081020408e-06
-3.719552691983796e-06   9.639000816931355e-07   2.4245179081020408e-06
-3.4955563546145926e-06   4.0863776795205665e-07   2.3843480673980337e-06
-3.4955563546145926e-06   4.0863776795205665e-07   2.3843480673980337e-06
-3.4955563546145926e-06   4.0863776795205665e-07   2.3843480673980337e-06
-3.4955563546145926e-06   4.0863776795205665e-07   2.3843480673980337e-06
-3.4422664312283626e-06   7.573828329969588e-07   2.086284489394031e-06
-3.4422664312283626e-06   7.573828329969588e-07   2.086284489394031e-06
-3.4422664312283626e-06   7.573828329969588e-07   2.086284489394031e-06
-3.4422664312283626e-06   7.573828329969588e-07   2.086284489394031e-06
-3.495556354614579e-06   9.639000816931355e-07   2.7576752963466068e-06
-3.495556354614579e-06   9.639000816931355e-07   2.7576752963466068e-06
-3.495556354614579e-06   9.639000816931355e-07   2.7576752963466068e-06
-3.495556354614579e-06   9.639000816931355e-07   2.7576752963466068e-06
-3.719552691983796e-06   4.0863776795205665e-07   2.0511906791534135e-06
-3.719552691983796e-06   4.0863776795205665e-07   2.0511906791534135e-06
-3.719552691983796e-06   4.0863776795205665e-07   2.0511906791534135e-06
-3.719552691983796e-06   4.0863776795205665e-07   2.0511906791534135e-06
-3.878949738317199e-06   8.898769708745114e-07   2.866634694073905e-06
-3.878949738317199e-06   8.898769708745114e-07   2.866634694073905e-06
-3.878949738317199e-06   8.898769708745114e-07   2.866634694073905e-06
-3.878949738317199e-06   8.898769708745114e-07   2.866634694073905e-06
-3.539045549351801e-06   3.4799875356313114e-07   2.625254642851777e-06
-3.539045549351801e-06   3.4799875356313114e-07   2.625254642851777e-06
-3.539045549351801e-06   3.4799875356313114e-07   2.625254642851777e-06
-3.539045549351801e-06   3.4799875356313114e-07   2.625254642851777e-06
-3.5747467561700804e-06   7.051705513459012e-07   2.4704535755457697e-06
-3.5747467561700804e-06   7.051705513459012e-07   2.4704535755457697e-06
-3.5747467561700804e-06   7.051705513459012e-07   2.4704535755457697e-06
-3.5747467561700804e-06   7.051705513459012e-07   2.4704535755457697e-06
-3.5390455493518146e-06   8.898769708745656e-07   3.1917616244606735e-06
-3.5390455493518146e-06   8.898769708745656e-07   3.1917616244606735e-06
-3.5390455493518146e-06   8.898769708745656e-07   3.1917616244606735e-06
-3.5390455493518146e-06   8.898769708745656e-07   3.1917616244606735e-06
-3.878949738317199e-06   3.4799875356313114e-07   2.3001277124648864e-06
-3.878949738317199e-06   3.4799875356313114e-07   2.3001277124648864e-06
-3.878949738317199e-06   3.4799875356313114e-07   2.3001277124648864e-06
-3.878949738317199e-06   3.4799875356313114e-07   2.3001277124648864e-06
-4.110115792321003e-06   7.159125289534786e-07   3.6775740785338954e-06
-4.110115792321003e-06   7.159125289534786e-07   3.6775740785338954e-06
-4.110115792321003e-06   7.159125289534786e-07   3.6775740785338954e-06
-4.110115792321003e-06   7.159125289534786e-07   3.6775740785338954e-06
-3.5668549743680765e-06   2.2177336151998884e-07   3.06862288240568e-06
-3.5668549743680765e-06   2.2177336151998884e-07   3.06862288240568e-06
-3.5668549743680765e-06   2.2177336151998884e-07   3.06862288240568e-06
-3.5668549743680765e-06   2.2177336151998884e-07   3.06862288240568e-06
-3.6201107228034734e-06   6.397663837721501e-07   2.906586649779728e-06
-3.6201107228034734e-06   6.397663837721501e-07   2.906586649779728e-06
-3.6201107228034734e-06   6.397663837721501e-07   2.906586649779728e-06
-3.6201107228034734e-06   6.397663837721501e-07   2.906586649779728e-06
-6.338000519404143e-06   8.413274390007598e-07   2.7532008050913513e-06
-6.338000519404143e-06   8.413274390007598e-07   2.7532008050913513e-06
-6.338000519404143e-06   8.413274390007598e-07   2.7532008050913513e-06
-6.338000519404143e-06   8.413274390007598e-07   2.7532008050913513e-06
-4.35800083351505e-06   1.1552625693665838e-06   6.241561359792658e-06
-4.35800083351505e-06   1.1552625693665838e-06   6.241561359792658e-06
-4.35800083351505e-06   1.1552625693665838e-06   6.241561359792658e-06
-4.35800083351505e-06   1.1552625693665838e-06   6.241561359792658e-06
-4.361412611413284e-06   6.510697231957544e-07   3.0533888834991056e-06
-4.361412611413284e-06   6.510697231957544e-07   3.0533888834991056e-06
-4.361412611413284e-06   6.510697231957544e-07   3.0533888834991056e-06
-4.361412611413284e-06   6.510697231957544e-07   3.0533888834991056e-06
-7.025507485217462e-06   4.2876816082008517e-07   7.626927943931538e-06
-7.025507485217462e-06   4.2876816082008517e-07   7.626927943931538e-06
-7.025507485217462e-06   4.2876816082008517e-07   7.626927943931538e-06
-7.025507485217462e-06   4.2876816082008517e-07   7.626927943931538e-06
-5.23419182783578e-06   6.754810420688657e-07   4.493374119546126e-06
-5.23419182783578e-06   6.754810420688657e-07   4.493374119546126e-06
-5.23419182783578e-06   6.754810420688657e-07   4.493374119546126e-06
-5.23419182783578e-06   6.754810420688657e-07   4.493374119546126e-06
-7.025507485217474e-06   6.510697231957815e-07   3.1867698209245288e-06
-7.025507485217474e-06   6.510697231957815e-07   3.1867698209245288e-06
-7.025507485217474e-06   6.510697231957815e-07   3.1867698209245288e-06
-7.025507485217474e-06   6.510697231957815e-07   3.1867698209245288e-06
-4.361412611413284e-06   4.2876816082008517e-07   7.493547006506135e-06
-4.361412611413284e-06   4.2876816082008517e-07   7.493547006506135e-06
-4.361412611413284e-06   4.2876816082008517e-07   7.493547006506135e-06
-4.361412611413284e-06   4.2876816082008517e-07   7.493547006506135e-06
-4.434855037200966e-06   5.220060481978103e-07   3.3803900203981102e-06
-4.434855037200966e-06   5.220060481978103e-07   3.3803900203981102e-06
-4.434855037200966e-06   5.220060481978103e-07   3.3803900203981102e-06
-4.434855037200966e-06   5.220060481978103e-07   3.3803900203981102e-06
-7.062880163318566e-06   2.9374686424085467e-07   7.897387407634932e-06
-7.062880163318566e-06   2.9374686424085467e-07   7.897387407634932e-06
-7.062880163318566e-06   2.9374686424085467e-07   7.897387407634932e-06
-7.062880163318566e-06   2.9374686424085467e-07   7.897387407634932e-06
-5.6076650163863544e-06   4.0756514963893116e-07   5.403737858175691e-06
-5.6076650163863544e-06   4.0756514963893116e-07   5.403737858175691e-06
-5.6076650163863544e-06   4.0756514963893116e-07   5.403737858175691e-06
-5.6076650163863544e-06   4.0756514963893116e-07   5.403737858175691e-06
-7.062880163318581e-06   5.220060481978103e-07   3.517345530772289e-06
-7.062880163318581e-06   5.220060481978103e-07   3.517345530772289e-06
-7.062880163318581e-06   5.220060481978103e-07   3.517345530772289e-06
-7.062880163318581e-06   5.220060481978103e-07   3.517345530772289e-06
-4.434855037200958e-06   2.9374686424085467e-07   7.76043189726076e-06
-4.434855037200958e-06   2.9374686424085467e-07   7.76043189726076e-06
-4.434855037200958e-06   2.9374686424085467e-07   7.76043189726076e-06
-4.434855037200958e-06   2.9374686424085467e-07   7.76043189726076e-06
-4.401254847097202e-06   2.0592364623504616e-07   3.949639479948052e-06
-4.401254847097202e-06   2.0592364623504616e-07   3.949639479948052e-06
-4.401254847097202e-06   2.0592364623504616e-07   3.949639479948052e-06
-4.401254847097202e-06   2.0592364623504616e-07   3.949639479948052e-06
-7.161132750410905e-06   -2.8867901372432443e-07   8.84619758144647e-06
-7.161132750410905e-06   -2.8867901372432443e-07   8.84619758144647e-06
-7.161132750410905e-06   -2.8867901372432443e-07   8.84619758144647e-06
-7.161132750410905e-06   -2.8867901372432443e-07   8.84619758144647e-06
-5.536226956451098e-06   1.8020828053844778e-07   5.8566888816224676e-06
-5.536226956451098e-06   1.8020828053844778e-07   5.8566888816224676e-06
-5.536226956451098e-06   1.8020828053844778e-07   5.8566888816224676e-06
-5.536226956451098e-06   1.8020828053844778e-07   5.8566888816224676e-06
-4.358000833515057e-06   2.1936036114544367e-07   6.098218695713091e-06
-4.358000833515057e-06   2.1936036114544367e-07   6.098218695713091e-06
-4.358000833515057e-06   2.1936036114544367e-07   6.098218695713091e-06
-4.358000833515057e-06   2.1936036114544367e-07   6.098218695713091e-06
-2.7120554052382354e-06   -1.4307228310090421e-06   7.851411160881773e-06
-2.7120554052382354e-06   -1.4307228310090421e-06   7.851411160881773e-06
-2.7120554052382354e-06   -1.4307228310090421e-06   7.851411160881773e-06
-2.7120554052382354e-06   -1.4307228310090421e-06   7.851411160881773e-06
-2.7264851791975524e-06   1.0039442191627271e-07   5.114908430910972e-06
-2.7264851791975524e-06   1.0039442191627271e-07   5.114908430910972e-06
-2.7264851791975524e-06   1.0039442191627271e-07   5.114908430910972e-06
-2.7264851791975524e-06   1.0039442191627271e-07   5.114908430910972e-06
-4.361412611413284e-06   -1.1841354378255674e-06   8.610505400449017e-06
-4.361412611413284e-06   -1.1841354378255674e-06   8.610505400449017e-06
-4.361412611413284e-06   -1.1841354378255674e-06   8.610505400449017e-06
-4.361412611413284e-06   -1.1841354378255674e-06   8.610505400449017e-06
-3.5240540735269464e-06   -7.100726425523856e-07   6.930470160141237e-06
-3.5240540735269464e-06   -7.100726425523856e-07   6.930470160141237e-06
-3.5240540735269464e-06   -7.100726425523856e-07   6.930470160141237e-06
-3.5240540735269464e-06   -7.100726425523856e-07   6.930470160141237e-06
-4.3614126114132856e-06   1.0039442191627271e-07   5.885626346756038e-06
-4.3614126114132856e-06   1.0039442191627271e-07   5.885626346756038e-06
-4.3614126114132856e-06   1.0039442191627271e-07   5.885626346756038e-06
-4.3614126114132856e-06   1.0039442191627271e-07   5.885626346756038e-06
-2.7264851791975456e-06   -1.1841354378255674e-06   7.839787484603917e-06
-2.7264851791975456e-06   -1.1841354378255674e-06   7.839787484603917e-06
-2.7264851791975456e-06   -1.1841354378255674e-06   7.839787484603917e-06
-2.7264851791975456e-06   -1.1841354378255674e-06   7.839787484603917e-06
-2.749928676333137e-06   -3.321395751680156e-08   5.260865435864371e-06
-2.749928676333137e-06   -3.321395751680156e-08   5.260865435864371e-06
-2.749928676333137e-06   -3.321395751680156e-08   5.260865435864371e-06
-2.749928676333137e-06   -3.321395751680156e-08   5.260865435864371e-06
-4.434855037200958e-06   -1.206755451365528e-06   8.77320093361993e-06
-4.434855037200958e-06   -1.206755451365528e-06   8.77320093361993e-06
-4.434855037200958e-06   -1.206755451365528e-06   8.77320093361993e-06
-4.434855037200958e-06   -1.206755451365528e-06   8.77320093361993e-06
-3.5074455444947745e-06   -6.210024695946714e-07   6.876066656713745e-06
-3.5074455444947745e-06   -6.210024695946714e-07   6.876066656713745e-06
-3.5074455444947745e-06   -6.210024695946714e-07   6.876066656713745e-06
-3.5074455444947745e-06   -6.210024695946714e-07   6.876066656713745e-06
-4.434855037200966e-06   -3.321395751680156e-08   5.964990332173593e-06
-4.434855037200966e-06   -3.321395751680156e-08   5.964990332173593e-06
-4.434855037200966e-06   -3.321395751680156e-08   5.964990332173593e-06
-4.434855037200966e-06   -3.321395751680156e-08   5.964990332173593e-06
-2.7499286763331236e-06   -1.206755451365528e-06   8.069076037310705e-06
-2.7499286763331236e-06   -1.206755451365528e-06   8.069076037310705e-06
-2.7499286763331236e-06   -1.206755451365528e-06   8.069076037310705e-06
-2.7499286763331236e-06   -1.206755451365528e-06   8.069076037310705e-06
-2.7383628627663235e-06   -2.0611561354666767e-07   5.445976246789923e-06
-2.7383628627663235e-06   -2.0611561354666767e-07   5.445976246789923e-06
-2.7383628627663235e-06   -2.0611561354666767e-07   5.445976246789923e-06
-2.7383628627663235e-06   -2.0611561354666767e-07   5.445976246789923e-06
-4.401254847097192e-06   -1.205872394234868e-06   8.817316955754276e-06
-4.401254847097192e-06   -1.205872394234868e-06   8.817316955754276e-06
-4.401254847097192e-06   -1.205872394234868e-06   8.817316955754276e-06
-4.401254847097192e-06   -1.205872394234868e-06   8.817316955754276e-06
-3.5372912441830455e-06   -6.891701505753306e-07   7.067356271368315e-06
-3.5372912441830455e-06   -6.891701505753306e-07   7.067356271368315e-06
-3.5372912441830455e-06   -6.891701505753306e-07   7.067356271368315e-06
-3.5372912441830455e-06   -6.891701505753306e-07   7.067356271368315e-06
-2.7120554052382354e-06   6.329867675917674e-08   5.667759976307388e-06
-2.7120554052382354e-06   6.329867675917674e-08   5.667759976307388e-06
-2.7120554052382354e-06   6.329867675917674e-08   5.667759976307388e-06
-2.7120554052382354e-06   6.329867675917674e-08   5.667759976307388e-06
-2.0410161155902157e-06   -1.1190603240201531e-06   6.076743391919856e-06
-2.0410161155902157e-06   -1.1190603240201531e-06   6.076743391919856e-06
-2.0410161155902157e-06   -1.1190603240201531e-06   6.076743391919856e-06
-2.0410161155902157e-06   -1.1190603240201531e-06   6.076743391919856e-06
-2.0330098633991725e-06   -3.450470011602991e-08   4.999961287738942e-06
-2.0330098633991725e-06   -3.450470011602991e-08   4.999961287738942e-06
-2.0330098633991725e-06   -3.450470011602991e-08   4.999961287738942e-06
-2.0330098633991725e-06   -3.450470011602991e-08   4.999961287738942e-06
-2.7264851791975456e-06   -1.099106418603026e-06   6.794514511828477e-06
-2.7264851791975456e-06   -1.099106418603026e-06   6.794514511828477e-06
-2.7264851791975456e-06   -1.099106418603026e-06   6.794514511828477e-06
-2.7264851791975456e-06   -1.099106418603026e-06   6.794514511828477e-06
-2.3650768938793917e-06   -5.628123089279255e-07   5.8703909038265435e-06
-2.3650768938793917e-06   -5.628123089279255e-07   5.8703909038265435e-06
-2.3650768938793917e-06   -5.628123089279255e-07   5.8703909038265435e-06
-2.3650768938793917e-06   -5.628123089279255e-07   5.8703909038265435e-06
-2.7264851791975456e-06   -3.450470011602991e-08   5.638722318831134e-06
-2.7264851791975456e-06   -3.450470011602991e-08   5.638722318831134e-06
-2.7264851791975456e-06   -3.450470011602991e-08   5.638722318831134e-06
-2.7264851791975456e-06   -3.450470011602991e-08   5.638722318831134e-06
-2.0330098633991725e-06   -1.099106418603026e-06   6.155753480736305e-06
-2.0330098633991725e-06   -1.099106418603026e-06   6.155753480736305e-06
-2.0330098633991725e-06   -1.099106418603026e-06   6.155753480736305e-06
-2.0330098633991725e-06   -1.099106418603026e-06   6.155753480736305e-06
-2.0295897565478818e-06   -1.5141818286045676e-07   5.11511927101015e-06
-2.0295897565478818e-06   -1.5141818286045676e-07   5.11511927101015e-06
-2.0295897565478818e-06   -1.5141818286045676e-07   5.11511927101015e-06
-2.0295897565478818e-06   -1.5141818286045676e-07   5.11511927101015e-06
-2.7499286763331236e-06   -1.130222259947925e-06   6.90296658357133e-06
-2.7499286763331236e-06   -1.130222259947925e-06   6.90296658357133e-06
-2.7499286763331236e-06   -1.130222259947925e-06   6.90296658357133e-06
-2.7499286763331236e-06   -1.130222259947925e-06   6.90296658357133e-06
-2.35449565045087e-06   -5.946912519554711e-07   5.922592935638619e-06
-2.35449565045087e-06   -5.946912519554711e-07   5.922592935638619e-06
-2.35449565045087e-06   -5.946912519554711e-07   5.922592935638619e-06
-2.35449565045087e-06   -5.946912519554711e-07   5.922592935638619e-06
-2.7499286763331236e-06   -1.5141818286042966e-07   5.702401717262639e-06
-2.7499286763331236e-06   -1.5141818286042966e-07   5.702401717262639e-06
-2.7499286763331236e-06   -1.5141818286042966e-07   5.702401717262639e-06
-2.7499286763331236e-06   -1.5141818286042966e-07   5.702401717262639e-06
-2.0295897565478953e-06   -1.130222259947925e-06   6.3156841373188544e-06
-2.0295897565478953e-06   -1.130222259947925e-06   6.3156841373188544e-06
-2.0295897565478953e-06   -1.130222259947925e-06   6.3156841373188544e-06
-2.0295897565478953e-06   -1.130222259947925e-06   6.3156841373188544e-06
-2.004156292251415e-06   -2.6713143842324485e-07   5.295024531460762e-06
-2.004156292251415e-06   -2.6713143842324485e-07   5.295024531460762e-06
-2.004156292251415e-06   -2.6713143842324485e-07   5.295024531460762e-06
-2.004156292251415e-06   -2.6713143842324485e-07   5.295024531460762e-06
-2.7383628627663167e-06   -1.170306062704888e-06   7.060606923554535e-06
-2.7383628627663167e-06   -1.170306062704888e-06   7.060606923554535e-06
-2.7383628627663167e-06   -1.170306062704888e-06   7.060606923554535e-06
-2.7383628627663167e-06   -1.170306062704888e-06   7.060606923554535e-06
-2.3428997451392186e-06   -6.43596740901878e-07   6.0854761344276005e-06
-2.3428997451392186e-06   -6.43596740901878e-07   6.0854761344276005e-06
-2.3428997451392186e-06   -6.43596740901878e-07   6.0854761344276005e-06
-2.3428997451392186e-06   -6.43596740901878e-07   6.0854761344276005e-06
-2.0410161155902157e-06   2.975394369728339e-07   3.907999540104048e-06
-2.0410161155902157e-06   2.975394369728339e-07   3.907999540104048e-06
-2.0410161155902157e-06   2.975394369728339e-07   3.907999540104048e-06
-2.0410161155902157e-06   2.975394369728339e-07   3.907999540104048e-06
-1.755509579239156e-06   -4.638069183730744e-07   3.9270359541482465e-06
-1.755509579239156e-06   -4.638069183730744e-07   3.9270359541482465e-06
-1.755509579239156e-06   -4.638069183730744e-07   3.9270359541482465e-06
-1.755509579239156e-06   -4.638069183730744e-07   3.9270359541482465e-06
-1.729579370789405e-06   1.6776806850763966e-07   3.530213772987771e-06
-1.729579370789405e-06   1.6776806850763966e-07   3.530213772987771e-06
-1.729579370789405e-06   1.6776806850763966e-07   3.530213772987771e-06
-1.729579370789405e-06   1.6776806850763966e-07   3.530213772987771e-06
-2.0330098633991725e-06   -5.386069407950001e-07   4.459756266252319e-06
-2.0330098633991725e-06   -5.386069407950001e-07   4.459756266252319e-06
-2.0330098633991725e-06   -5.386069407950001e-07   4.459756266252319e-06
-2.0330098633991725e-06   -5.386069407950001e-07   4.459756266252319e-06
-1.8765152447806522e-06   -1.0656354877092394e-07   3.939705866673736e-06
-1.8765152447806522e-06   -1.0656354877092394e-07   3.939705866673736e-06
-1.8765152447806522e-06   -1.0656354877092394e-07   3.939705866673736e-06
-1.8765152447806522e-06   -1.0656354877092394e-07   3.939705866673736e-06
-2.0330098633991725e-06   1.6776806850763966e-07   3.954038778569382e-06
-2.0330098633991725e-06   1.6776806850763966e-07   3.954038778569382e-06
-2.0330098633991725e-06   1.6776806850763966e-07   3.954038778569382e-06
-2.0330098633991725e-06   1.6776806850763966e-07   3.954038778569382e-06
-1.729579370789405e-06   -5.386069407950001e-07   4.035931260670735e-06
-1.729579370789405e-06   -5.386069407950001e-07   4.035931260670735e-06
-1.729579370789405e-06   -5.386069407950001e-07   4.035931260670735e-06
-1.729579370789405e-06   -5.386069407950001e-07   4.035931260670735e-06
-1.7247334168986637e-06   5.613437396997326e-08   3.693857399597806e-06
-1.7247334168986637e-06   5.613437396997326e-08   3.693857399597806e-06
-1.7247334168986637e-06   5.613437396997326e-08   3.693857399597806e-06
-1.7247334168986637e-06   5.613437396997326e-08   3.693857399597806e-06
-2.0295897565478818e-06   -5.967339569002805e-07   4.593672297535271e-06
-2.0295897565478818e-06   -5.967339569002805e-07   4.593672297535271e-06
-2.0295897565478818e-06   -5.967339569002805e-07   4.593672297535271e-06
-2.0295897565478818e-06   -5.967339569002805e-07   4.593672297535271e-06
-1.8504153318432492e-06   -1.839118954200501e-07   4.047355019472584e-06
-1.8504153318432492e-06   -1.839118954200501e-07   4.047355019472584e-06
-1.8504153318432492e-06   -1.839118954200501e-07   4.047355019472584e-06
-1.8504153318432492e-06   -1.839118954200501e-07   4.047355019472584e-06
-2.0295897565478953e-06   5.613437396997326e-08   4.0855783981198985e-06
-2.0295897565478953e-06   5.613437396997326e-08   4.0855783981198985e-06
-2.0295897565478953e-06   5.613437396997326e-08   4.0855783981198985e-06
-2.0295897565478953e-06   5.613437396997326e-08   4.0855783981198985e-06
-1.7247334168986773e-06   -5.967339569002805e-07   4.201951299013117e-06
-1.7247334168986773e-06   -5.967339569002805e-07   4.201951299013117e-06
-1.7247334168986773e-06   -5.967339569002805e-07   4.201951299013117e-06
-1.7247334168986773e-06   -5.967339569002805e-07   4.201951299013117e-06
-1.709253664107277e-06   -5.673566175063414e-08   3.8993265047518354e-06
-1.709253664107277e-06   -5.673566175063414e-08   3.8993265047518354e-06
-1.709253664107277e-06   -5.673566175063414e-08   3.8993265047518354e-06
-1.709253664107277e-06   -5.673566175063414e-08   3.8993265047518354e-06
-2.004156292251415e-06   -6.718835392768917e-07   4.759919611507779e-06
-2.004156292251415e-06   -6.718835392768917e-07   4.759919611507779e-06
-2.004156292251415e-06   -6.718835392768917e-07   4.759919611507779e-06
-2.004156292251415e-06   -6.718835392768917e-07   4.759919611507779e-06
-1.834399499365375e-06   -2.527944743697659e-07   4.225538184420214e-06
-1.834399499365375e-06   -2.527944743697659e-07   4.225538184420214e-06
-1.834399499365375e-06   -2.527944743697659e-07   4.225538184420214e-06
-1.834399499365375e-06   -2.527944743697659e-07   4.225538184420214e-06
-1.755509579239156e-06   5.019379865731522e-07   9.745821559992233e-07
-1.755509579239156e-06   5.019379865731522e-07   9.745821559992233e-07
-1.755509579239156e-06   5.019379865731522e-07   9.745821559992233e-07
-1.755509579239156e-06   5.019379865731522e-07   9.745821559992233e-07
-1.0985758068406256e-06   -4.442126731449075e-08   1.7416562243308928e-06
-1.0985758068406256e-06   -4.442126731449075e-08   1.7416562243308928e-06
-1.0985758068406256e-06   -4.442126731449075e-08   1.7416562243308928e-06
-1.0985758068406256e-06   -4.442126731449075e-08   1.7416562243308928e-06
-1.1702201677526178e-06   4.0863776795205665e-07   9.871157275737736e-07
-1.1702201677526178e-06   4.0863776795205665e-07   9.871157275737736e-07
-1.1702201677526178e-06   4.0863776795205665e-07   9.871157275737736e-07
-1.1702201677526178e-06   4.0863776795205665e-07   9.871157275737736e-07
-1.729579370789405e-06   -6.506595117128898e-08   2.20360329744254e-06
-1.729579370789405e-06   -6.506595117128898e-08   2.20360329744254e-06
-1.729579370789405e-06   -6.506595117128898e-08   2.20360329744254e-06
-1.729579370789405e-06   -6.506595117128898e-08   2.20360329744254e-06
-1.3887622479995363e-06   2.598918938627318e-07   1.4406000524390384e-06
-1.3887622479995363e-06   2.598918938627318e-07   1.4406000524390384e-06
-1.3887622479995363e-06   2.598918938627318e-07   1.4406000524390384e-06
-1.3887622479995363e-06   2.598918938627318e-07   1.4406000524390384e-06
-1.7295793707894185e-06   4.0863776795205665e-07   1.271337959047705e-06
-1.7295793707894185e-06   4.0863776795205665e-07   1.271337959047705e-06
-1.7295793707894185e-06   4.0863776795205665e-07   1.271337959047705e-06
-1.7295793707894185e-06   4.0863776795205665e-07   1.271337959047705e-06
-1.1702201677526178e-06   -6.506595117128898e-08   1.9193810659685e-06
-1.1702201677526178e-06   -6.506595117128898e-08   1.9193810659685e-06
-1.1702201677526178e-06   -6.506595117128898e-08   1.9193810659685e-06
-1.1702201677526178e-06   -6.506595117128898e-08   1.9193810659685e-06
-1.2305462163297756e-06   3.4799875356313114e-07   1.257985290338689e-06
-1.2305462163297756e-06   3.4799875356313114e-07   1.257985290338689e-06
-1.2305462163297756e-06   3.4799875356313114e-07   1.257985290338689e-06
-1.2305462163297756e-06   3.4799875356313114e-07   1.257985290338689e-06
-1.7247334168986637e-06   -9.197316192422356e-08   2.3456137739125322e-06
-1.7247334168986637e-06   -9.197316192422356e-08   2.3456137739125322e-06
-1.7247334168986637e-06   -9.197316192422356e-08   2.3456137739125322e-06
-1.7247334168986637e-06   -9.197316192422356e-08   2.3456137739125322e-06
-1.4255104290618925e-06   2.1565669100636633e-07   1.6623308824260984e-06
-1.4255104290618925e-06   2.1565669100636633e-07   1.6623308824260984e-06
-1.4255104290618925e-06   2.1565669100636633e-07   1.6623308824260984e-06
-1.4255104290618925e-06   2.1565669100636633e-07   1.6623308824260984e-06
-1.7247334168986637e-06   3.4799875356313114e-07   1.5219684396310882e-06
-1.7247334168986637e-06   3.4799875356313114e-07   1.5219684396310882e-06
-1.7247334168986637e-06   3.4799875356313114e-07   1.5219684396310882e-06
-1.7247334168986637e-06   3.4799875356313114e-07   1.5219684396310882e-06
-1.2305462163297756e-06   -9.197316192421001e-08   2.08163062462016e-06
-1.2305462163297756e-06   -9.197316192421001e-08   2.08163062462016e-06
-1.2305462163297756e-06   -9.197316192421001e-08   2.08163062462016e-06
-1.2305462163297756e-06   -9.197316192421001e-08   2.08163062462016e-06
-1.358807664178643e-06   2.2177336151998884e-07   1.7433791962349183e-06
-1.358807664178643e-06   2.2177336151998884e-07   1.7433791962349183e-06
-1.358807664178643e-06   2.2177336151998884e-07   1.7433791962349183e-06
-1.358807664178643e-06   2.2177336151998884e-07   1.7433791962349183e-06
-1.709253664107277e-06   -1.2815401149154427e-07   2.537412286589464e-06
-1.709253664107277e-06   -1.2815401149154427e-07   2.537412286589464e-06
-1.709253664107277e-06   -1.2815401149154427e-07   2.537412286589464e-06
-1.709253664107277e-06   -1.2815401149154427e-07   2.537412286589464e-06
-1.438978906999496e-06   1.8386270599147808e-07   1.899744327586684e-06
-1.438978906999496e-06   1.8386270599147808e-07   1.899744327586684e-06
-1.438978906999496e-06   1.8386270599147808e-07   1.899744327586684e-06
-1.438978906999496e-06   1.8386270599147808e-07   1.899744327586684e-06
-1.528716769256007e-05   1.1552625693665838e-06   7.066401870527466e-06
-1.528716769256007e-05   1.1552625693665838e-06   7.066401870527466e-06
-1.528716769256007e-05   1.1552625693665838e-06   7.066401870527466e-06
-1.528716769256007e-05   1.1552625693665838e-06   7.066401870527466e-06
-3.5344758038573534e-06   -8.102002599844086e-06   2.1099862583505602e-05
-3.5344758038573534e-06   -8.102002599844086e-06   2.1099862583505602e-05
-3.5344758038573534e-06   -8.102002599844086e-06   2.1099862583505602e-05
-3.5344758038573534e-06   -8.102002599844086e-06   2.1099862583505602e-05
-4.18919338628289e-06   4.287681608200987e-07   3.827143135231941e-06
-4.18919338628289e-06   4.287681608200987e-07   3.827143135231941e-06
-4.18919338628289e-06   4.287681608200987e-07   3.827143135231941e-06
-4.18919338628289e-06   4.287681608200987e-07   3.827143135231941e-06
-1.3942755335518082e-05   -6.392715954259893e-06   2.417597018633856e-05
-1.3942755335518082e-05   -6.392715954259893e-06   2.417597018633856e-05
-1.3942755335518082e-05   -6.392715954259893e-06   2.417597018633856e-05
-1.3942755335518082e-05   -6.392715954259893e-06   2.417597018633856e-05
-9.28061820789098e-06   -3.178373390793188e-06   1.4477136102213366e-05
-9.28061820789098e-06   -3.178373390793188e-06   1.4477136102213366e-05
-9.28061820789098e-06   -3.178373390793188e-06   1.4477136102213366e-05
-9.28061820789098e-06   -3.178373390793188e-06   1.4477136102213366e-05
-1.3942755335518058e-05   4.287681608200987e-07   7.920033604279927e-06
-1.3942755335518058e-05   4.287681608200987e-07   7.920033604279927e-06
-1.3942755335518058e-05   4.287681608200987e-07   7.920033604279927e-06
-1.3942755335518058e-05   4.287681608200987e-07   7.920033604279927e-06
-4.1891933862828954e-06   -6.392715954259893e-06   2.0083079717290566e-05
-4.1891933862828954e-06   -6.392715954259893e-06   2.0083079717290566e-05
-4.1891933862828954e-06   -6.392715954259893e-06   2.0083079717290566e-05
-4.1891933862828954e-06   -6.392715954259893e-06   2.0083079717290566e-05
-4.3042238073776105e-06   2.9374686424085467e-07   4.209234367612929e-06
-4.3042238073776105e-06   2.9374686424085467e-07   4.209234367612929e-06
-4.3042238073776105e-06   2.9374686424085467e-07   4.209234367612929e-06
-4.3042238073776105e-06   2.9374686424085467e-07   4.209234367612929e-06
-1.315985178976985e-05   -5.5818185006628976e-06   2.2493953557208878e-05
-1.315985178976985e-05   -5.5818185006628976e-06   2.2493953557208878e-05
-1.315985178976985e-05   -5.5818185006628976e-06   2.2493953557208878e-05
-1.315985178976985e-05   -5.5818185006628976e-06   2.2493953557208878e-05
-9.019008200468253e-06   -3.021301215190855e-06   1.4056237203756341e-05
-9.019008200468253e-06   -3.021301215190855e-06   1.4056237203756341e-05
-9.019008200468253e-06   -3.021301215190855e-06   1.4056237203756341e-05
-9.019008200468253e-06   -3.021301215190855e-06   1.4056237203756341e-05
-1.3159851789769827e-05   2.9374686424085467e-07   7.734573586555176e-06
-1.3159851789769827e-05   2.9374686424085467e-07   7.734573586555176e-06
-1.3159851789769827e-05   2.9374686424085467e-07   7.734573586555176e-06
-1.3159851789769827e-05   2.9374686424085467e-07   7.734573586555176e-06
-4.304223807377617e-06   -5.5818185006628976e-06   1.896861433826663e-05
-4.304223807377617e-06   -5.5818185006628976e-06   1.896861433826663e-05
-4.304223807377617e-06   -5.5818185006628976e-06   1.896861433826663e-05
-4.304223807377617e-06   -5.5818185006628976e-06   1.896861433826663e-05
-4.756231743590663e-06   -2.8867901372432443e-07   5.251964431849965e-06
-4.756231743590663e-06   -2.8867901372432443e-07   5.251964431849965e-06
-4.756231743590663e-06   -2.8867901372432443e-07   5.251964431849965e-06
-4.756231743590663e-06   -2.8867901372432443e-07   5.251964431849965e-06
-1.2149500076968228e-05   -4.496787058240471e-06   2.0098943147522236e-05
-1.2149500076968228e-05   -4.496787058240471e-06   2.0098943147522236e-05
-1.2149500076968228e-05   -4.496787058240471e-06   2.0098943147522236e-05
-1.2149500076968228e-05   -4.496787058240471e-06   2.0098943147522236e-05
-8.6962748293254e-06   -2.793437418537303e-06   1.3321557950962303e-05
-8.6962748293254e-06   -2.793437418537303e-06   1.3321557950962303e-05
-8.6962748293254e-06   -2.793437418537303e-06   1.3321557950962303e-05
-8.6962748293254e-06   -2.793437418537303e-06   1.3321557950962303e-05
-3.534475803857345e-06   -1.4307228310090421e-06   4.111942485382851e-06
-3.534475803857345e-06   -1.4307228310090421e-06   4.111942485382851e-06
-3.534475803857345e-06   -1.4307228310090421e-06   4.111942485382851e-06
-3.534475803857345e-06   -1.4307228310090421e-06   4.111942485382851e-06
-1.21383463013145e-06   -2.686157465978673e-06   7.226416993944242e-06
-1.21383463013145e-06   -2.686157465978673e-06   7.226416993944242e-06
-1.21383463013145e-06   -2.686157465978673e-06   7.226416993944242e-06
-1.21383463013145e-06   -2.686157465978673e-06   7.226416993944242e-06
-1.3798593398134618e-06   -1.1841354378255674e-06   3.5615199004719188e-06
-1.3798593398134618e-06   -1.1841354378255674e-06   3.5615199004719188e-06
-1.3798593398134618e-06   -1.1841354378255674e-06   3.5615199004719188e-06
-1.3798593398134618e-06   -1.1841354378255674e-06   3.5615199004719188e-06
-4.1891933862828954e-06   -3.4884381523304215e-06   9.62632493995719e-06
-4.1891933862828954e-06   -3.4884381523304215e-06   9.62632493995719e-06
-4.1891933862828954e-06   -3.4884381523304215e-06   9.62632493995719e-06
-4.1891933862828954e-06   -3.4884381523304215e-06   9.62632493995719e-06
-2.4444876370365867e-06   -1.8013366629509269e-06   5.706221130918958e-06
-2.4444876370365867e-06   -1.8013366629509269e-06   5.706221130918958e-06
-2.4444876370365867e-06   -1.8013366629509269e-06   5.706221130918958e-06
-2.4444876370365867e-06   -1.8013366629509269e-06   5.706221130918958e-06
-4.189193386282887e-06   -1.1841354378255674e-06   4.9441015291747825e-06
-4.189193386282887e-06   -1.1841354378255674e-06   4.9441015291747825e-06
-4.189193386282887e-06   -1.1841354378255674e-06   4.9441015291747825e-06
-4.189193386282887e-06   -1.1841354378255674e-06   4.9441015291747825e-06
-1.3798593398134685e-06   -3.4884381523304215e-06   8.243743311254286e-06
-1.3798593398134685e-06   -3.4884381523304215e-06   8.243743311254286e-06
-1.3798593398134685e-06   -3.4884381523304215e-06   8.243743311254286e-06
-1.3798593398134685e-06   -3.4884381523304215e-06   8.243743311254286e-06
-1.5239350479900914e-06   -1.206755451365528e-06   4.007536751905662e-06
-1.5239350479900914e-06   -1.206755451365528e-06   4.007536751905662e-06
-1.5239350479900914e-06   -1.206755451365528e-06   4.007536751905662e-06
-1.5239350479900914e-06   -1.206755451365528e-06   4.007536751905662e-06
-4.304223807377617e-06   -3.230866538142931e-06   9.855818002951284e-06
-4.304223807377617e-06   -3.230866538142931e-06   9.855818002951284e-06
-4.304223807377617e-06   -3.230866538142931e-06   9.855818002951284e-06
-4.304223807377617e-06   -3.230866538142931e-06   9.855818002951284e-06
-2.783339653432006e-06   -2.1793176581655872e-06   6.690081751722239e-06
-2.783339653432006e-06   -2.1793176581655872e-06   6.690081751722239e-06
-2.783339653432006e-06   -2.1793176581655872e-06   6.690081751722239e-06
-2.783339653432006e-06   -2.1793176581655872e-06   6.690081751722239e-06
-4.3042238073776105e-06   -1.206755451365528e-06   5.222003403972096e-06
-4.3042238073776105e-06   -1.206755451365528e-06   5.222003403972096e-06
-4.3042238073776105e-06   -1.206755451365528e-06   5.222003403972096e-06
-4.3042238073776105e-06   -1.206755451365528e-06   5.222003403972096e-06
-1.5239350479900982e-06   -3.230866538142931e-06   8.641351350884846e-06
-1.5239350479900982e-06   -3.230866538142931e-06   8.641351350884846e-06
-1.5239350479900982e-06   -3.230866538142931e-06   8.641351350884846e-06
-1.5239350479900982e-06   -3.230866538142931e-06   8.641351350884846e-06
-1.7622938194525136e-06   -1.2058723942348816e-06   4.404899247146616e-06
-1.7622938194525136e-06   -1.2058723942348816e-06   4.404899247146616e-06
-1.7622938194525136e-06   -1.2058723942348816e-06   4.404899247146616e-06
-1.7622938194525136e-06   -1.2058723942348816e-06   4.404899247146616e-06
-4.7562317435906665e-06   -3.0641159858795343e-06   1.050974194236361e-05
-4.7562317435906665e-06   -3.0641159858795343e-06   1.050974194236361e-05
-4.7562317435906665e-06   -3.0641159858795343e-06   1.050974194236361e-05
-4.7562317435906665e-06   -3.0641159858795343e-06   1.050974194236361e-05
-2.9949582958829397e-06   -1.993624379966227e-06   6.931991232636104e-06
-2.9949582958829397e-06   -1.993624379966227e-06   6.931991232636104e-06
-2.9949582958829397e-06   -1.993624379966227e-06   6.931991232636104e-06
-2.9949582958829397e-06   -1.993624379966227e-06   6.931991232636104e-06
-1.21383463013145e-06   -1.1190603240201531e-06   2.2934293359067244e-06
-1.21383463013145e-06   -1.1190603240201531e-06   2.2934293359067244e-06
-1.21383463013145e-06   -1.1190603240201531e-06   2.2934293359067244e-06
-1.21383463013145e-06   -1.1190603240201531e-06   2.2934293359067244e-06
-6.879752008910438e-07   -8.491736153765883e-07   3.3317937431602145e-06
-6.879752008910438e-07   -8.491736153765883e-07   3.3317937431602145e-06
-6.879752008910438e-07   -8.491736153765883e-07   3.3317937431602145e-06
-6.879752008910438e-07   -8.491736153765883e-07   3.3317937431602145e-06
-6.736907637116369e-07   -1.099106418603026e-06   2.528241202880355e-06
-6.736907637116369e-07   -1.099106418603026e-06   2.528241202880355e-06
-6.736907637116369e-07   -1.099106418603026e-06   2.528241202880355e-06
-6.736907637116369e-07   -1.099106418603026e-06   2.528241202880355e-06
-1.3798593398134685e-06   -1.0791159599633225e-06   3.693194554532864e-06
-1.3798593398134685e-06   -1.0791159599633225e-06   3.693194554532864e-06
-1.3798593398134685e-06   -1.0791159599633225e-06   3.693194554532864e-06
-1.3798593398134685e-06   -1.0791159599633225e-06   3.693194554532864e-06
-9.250889434070443e-07   -9.652783530405428e-07   2.8669413297017777e-06
-9.250889434070443e-07   -9.652783530405428e-07   2.8669413297017777e-06
-9.250889434070443e-07   -9.652783530405428e-07   2.8669413297017777e-06
-9.250889434070443e-07   -9.652783530405428e-07   2.8669413297017777e-06
-1.3798593398134618e-06   -1.099106418603026e-06   2.5162469276965053e-06
-1.3798593398134618e-06   -1.099106418603026e-06   2.5162469276965053e-06
-1.3798593398134618e-06   -1.099106418603026e-06   2.5162469276965053e-06
-1.3798593398134618e-06   -1.099106418603026e-06   2.5162469276965053e-06
-6.736907637116369e-07   -1.0791159599633225e-06   3.7051888297166938e-06
-6.736907637116369e-07   -1.0791159599633225e-06   3.7051888297166938e-06
-6.736907637116369e-07   -1.0791159599633225e-06   3.7051888297166938e-06
-6.736907637116369e-07   -1.0791159599633225e-06   3.7051888297166938e-06
-6.876296156108297e-07   -1.130222259947925e-06   2.7115348802265852e-06
-6.876296156108297e-07   -1.130222259947925e-06   2.7115348802265852e-06
-6.876296156108297e-07   -1.130222259947925e-06   2.7115348802265852e-06
-6.876296156108297e-07   -1.130222259947925e-06   2.7115348802265852e-06
-1.5239350479900982e-06   -1.3467096231807789e-06   4.2352696854650295e-06
-1.5239350479900982e-06   -1.3467096231807789e-06   4.2352696854650295e-06
-1.5239350479900982e-06   -1.3467096231807789e-06   4.2352696854650295e-06
-1.5239350479900982e-06   -1.3467096231807789e-06   4.2352696854650295e-06
-9.967708582968676e-07   -1.0546288772095243e-06   3.1814142550602633e-06
-9.967708582968676e-07   -1.0546288772095243e-06   3.1814142550602633e-06
-9.967708582968676e-07   -1.0546288772095243e-06   3.1814142550602633e-06
-9.967708582968676e-07   -1.0546288772095243e-06   3.1814142550602633e-06
-1.5239350479900914e-06   -1.1302222599479385e-06   2.841427298166287e-06
-1.5239350479900914e-06   -1.1302222599479385e-06   2.841427298166287e-06
-1.5239350479900914e-06   -1.1302222599479385e-06   2.841427298166287e-06
-1.5239350479900914e-06   -1.1302222599479385e-06   2.841427298166287e-06
-6.876296156108297e-07   -1.3467096231807789e-06   4.105377267525314e-06
-6.876296156108297e-07   -1.3467096231807789e-06   4.105377267525314e-06
-6.876296156108297e-07   -1.3467096231807789e-06   4.105377267525314e-06
-6.876296156108297e-07   -1.3467096231807789e-06   4.105377267525314e-06
-7.211971447889873e-07   -1.170306062704888e-06   2.9907716282960594e-06
-7.211971447889873e-07   -1.170306062704888e-06   2.9907716282960594e-06
-7.211971447889873e-07   -1.170306062704888e-06   2.9907716282960594e-06
-7.211971447889873e-07   -1.170306062704888e-06   2.9907716282960594e-06
-1.7622938194525136e-06   -1.5990921544777535e-06   4.983204407798985e-06
-1.7622938194525136e-06   -1.5990921544777535e-06   4.983204407798985e-06
-1.7622938194525136e-06   -1.5990921544777535e-06   4.983204407798985e-06
-1.7622938194525136e-06   -1.5990921544777535e-06   4.983204407798985e-06
-1.081489531871652e-06   -1.1399121209901711e-06   3.573022575071669e-06
-1.081489531871652e-06   -1.1399121209901711e-06   3.573022575071669e-06
-1.081489531871652e-06   -1.1399121209901711e-06   3.573022575071669e-06
-1.081489531871652e-06   -1.1399121209901711e-06   3.573022575071669e-06
-6.879752008910438e-07   -4.638069183730744e-07   7.624617365288171e-07
-6.879752008910438e-07   -4.638069183730744e-07   7.624617365288171e-07
-6.879752008910438e-07   -4.638069183730744e-07   7.624617365288171e-07
-6.879752008910438e-07   -4.638069183730744e-07   7.624617365288171e-07
-5.352094061629632e-07   3.340904886399242e-08   1.3154009747512018e-06
-5.352094061629632e-07   3.340904886399242e-08   1.3154009747512018e-06
-5.352094061629632e-07   3.340904886399242e-08   1.3154009747512018e-06
-5.352094061629632e-07   3.340904886399242e-08   1.3154009747512018e-06
-4.43746203732291e-07   -5.386069407950137e-07   1.1207304875449e-06
-4.43746203732291e-07   -5.386069407950137e-07   1.1207304875449e-06
-4.43746203732291e-07   -5.386069407950137e-07   1.1207304875449e-06
-4.43746203732291e-07   -5.386069407950137e-07   1.1207304875449e-06
-6.736907637116369e-07   -5.7796108880771505e-08   1.2154849216952e-06
-6.736907637116369e-07   -5.7796108880771505e-08   1.2154849216952e-06
-6.736907637116369e-07   -5.7796108880771505e-08   1.2154849216952e-06
-6.736907637116369e-07   -5.7796108880771505e-08   1.2154849216952e-06
-5.481162257731553e-07   -2.5193984967765865e-07   1.1226802696091376e-06
-5.481162257731553e-07   -2.5193984967765865e-07   1.1226802696091376e-06
-5.481162257731553e-07   -2.5193984967765865e-07   1.1226802696091376e-06
-5.481162257731553e-07   -2.5193984967765865e-07   1.1226802696091376e-06
-6.736907637116369e-07   -5.386069407950137e-07   8.322439883963625e-07
-6.736907637116369e-07   -5.386069407950137e-07   8.322439883963625e-07
-6.736907637116369e-07   -5.386069407950137e-07   8.322439883963625e-07
-6.736907637116369e-07   -5.386069407950137e-07   8.322439883963625e-07
-4.43746203732291e-07   -5.7796108880771505e-08   1.5039714208437376e-06
-4.43746203732291e-07   -5.7796108880771505e-08   1.5039714208437376e-06
-4.43746203732291e-07   -5.7796108880771505e-08   1.5039714208437376e-06
-4.43746203732291e-07   -5.7796108880771505e-08   1.5039714208437376e-06
-3.9814681223907466e-07   -5.967339569002805e-07   1.2323140013564013e-06
-3.9814681223907466e-07   -5.967339569002805e-07   1.2323140013564013e-06
-3.9814681223907466e-07   -5.967339569002805e-07   1.2323140013564013e-06
-3.9814681223907466e-07   -5.967339569002805e-07   1.2323140013564013e-06
-6.876296156108297e-07   -1.9208235537799933e-07   1.4719943793959224e-06
-6.876296156108297e-07   -1.9208235537799933e-07   1.4719943793959224e-06
-6.876296156108297e-07   -1.9208235537799933e-07   1.4719943793959224e-06
-6.876296156108297e-07   -1.9208235537799933e-07   1.4719943793959224e-06
-5.067495561499481e-07   -3.1530441534040793e-07   1.2444608496052392e-06
-5.067495561499481e-07   -3.1530441534040793e-07   1.2444608496052392e-06
-5.067495561499481e-07   -3.1530441534040793e-07   1.2444608496052392e-06
-5.067495561499481e-07   -3.1530441534040793e-07   1.2444608496052392e-06
-6.876296156108297e-07   -5.967339569002805e-07   9.895230404429882e-07
-6.876296156108297e-07   -5.967339569002805e-07   9.895230404429882e-07
-6.876296156108297e-07   -5.967339569002805e-07   9.895230404429882e-07
-6.876296156108297e-07   -5.967339569002805e-07   9.895230404429882e-07
-3.9814681223907466e-07   -1.9208235537799933e-07   1.7147853403092677e-06
-3.9814681223907466e-07   -1.9208235537799933e-07   1.7147853403092677e-06
-3.9814681223907466e-07   -1.9208235537799933e-07   1.7147853403092677e-06
-3.9814681223907466e-07   -1.9208235537799933e-07   1.7147853403092677e-06
-3.2886477603279337e-07   -6.718835392768781e-07   1.3621216980019683e-06
-3.2886477603279337e-07   -6.718835392768781e-07   1.3621216980019683e-06
-3.2886477603279337e-07   -6.718835392768781e-07   1.3621216980019683e-06
-3.2886477603279337e-07   -6.718835392768781e-07   1.3621216980019683e-06
-7.211971447889873e-07   -4.5499586063742755e-07   1.8858763720785846e-06
-7.211971447889873e-07   -4.5499586063742755e-07   1.8858763720785846e-06
-7.211971447889873e-07   -4.5499586063742755e-07   1.8858763720785846e-06
-7.211971447889873e-07   -4.5499586063742755e-07   1.8858763720785846e-06
-4.782018406121471e-07   -4.072691868161867e-07   1.4522481941578653e-06
-4.782018406121471e-07   -4.072691868161867e-07   1.4522481941578653e-06
-4.782018406121471e-07   -4.072691868161867e-07   1.4522481941578653e-06
-4.782018406121471e-07   -4.072691868161867e-07   1.4522481941578653e-06
-5.352094061629632e-07   -4.442126731449075e-08   -7.96772860613727e-07
-5.352094061629632e-07   -4.442126731449075e-08   -7.96772860613727e-07
-5.352094061629632e-07   -4.442126731449075e-08   -7.96772860613727e-07
-5.352094061629632e-07   -4.442126731449075e-08   -7.96772860613727e-07
-1.2526077273691686e-07   6.6298366744818e-08   -4.709335780142391e-08
-1.2526077273691686e-07   6.6298366744818e-08   -4.709335780142391e-08
-1.2526077273691686e-07   6.6298366744818e-08   -4.709335780142391e-08
-1.2526077273691686e-07   6.6298366744818e-08   -4.709335780142391e-08
-3.6392920701642205e-08   -6.506595117127542e-08   -6.06189657531732e-07
-3.6392920701642205e-08   -6.506595117127542e-08   -6.06189657531732e-07
-3.6392920701642205e-08   -6.506595117127542e-08   -6.06189657531732e-07
-3.6392920701642205e-08   -6.506595117127542e-08   -6.06189657531732e-07
-4.43746203732291e-07   1.1061374574814486e-07   -3.267533729895723e-08
-4.43746203732291e-07   1.1061374574814486e-07   -3.267533729895723e-08
-4.43746203732291e-07   1.1061374574814486e-07   -3.267533729895723e-08
-4.43746203732291e-07   1.1061374574814486e-07   -3.267533729895723e-08
-2.604858226168237e-07   3.3755335504684965e-08   -2.9199425967873973e-07
-2.604858226168237e-07   3.3755335504684965e-08   -2.9199425967873973e-07
-2.604858226168237e-07   3.3755335504684965e-08   -2.9199425967873973e-07
-2.604858226168237e-07   3.3755335504684965e-08   -2.9199425967873973e-07
-4.4374620373230454e-07   -6.506595117127542e-08   -7.115974756833764e-07
-4.4374620373230454e-07   -6.506595117127542e-08   -7.115974756833764e-07
-4.4374620373230454e-07   -6.506595117127542e-08   -7.115974756833764e-07
-4.4374620373230454e-07   -6.506595117127542e-08   -7.115974756833764e-07
-3.6392920701642205e-08   1.1061374574814486e-07   7.273248085268714e-08
-3.6392920701642205e-08   1.1061374574814486e-07   7.273248085268714e-08
-3.6392920701642205e-08   1.1061374574814486e-07   7.273248085268714e-08
-3.6392920701642205e-08   1.1061374574814486e-07   7.273248085268714e-08
5.352433925817721e-09   -9.197316192422356e-08   -5.18805818381339e-07
5.352433925817721e-09   -9.197316192422356e-08   -5.18805818381339e-07
5.352433925817721e-09   -9.197316192422356e-08   -5.18805818381339e-07
5.352433925817721e-09   -9.197316192422356e-08   -5.18805818381339e-07
-3.9814681223907466e-07   8.338968034716975e-08   4.847521986394527e-08
-3.9814681223907466e-07   8.338968034716975e-08   4.847521986394527e-08
-3.9814681223907466e-07   8.338968034716975e-08   4.847521986394527e-08
-3.9814681223907466e-07   8.338968034716975e-08   4.847521986394527e-08
-1.9723052163948156e-07   2.1122482138064382e-08   -2.490249455431529e-07
-1.9723052163948156e-07   2.1122482138064382e-08   -2.490249455431529e-07
-1.9723052163948156e-07   2.1122482138064382e-08   -2.490249455431529e-07
-1.9723052163948156e-07   2.1122482138064382e-08   -2.490249455431529e-07
-3.9814681223907466e-07   -9.197316192422356e-08   -6.240235237441703e-07
-3.9814681223907466e-07   -9.197316192422356e-08   -6.240235237441703e-07
-3.9814681223907466e-07   -9.197316192422356e-08   -6.240235237441703e-07
-3.9814681223907466e-07   -9.197316192422356e-08   -6.240235237441703e-07
5.352433925817721e-09   8.338968034716975e-08   1.5369292522676974e-07
5.352433925817721e-09   8.338968034716975e-08   1.5369292522676974e-07
5.352433925817721e-09   8.338968034716975e-08   1.5369292522676974e-07
5.352433925817721e-09   8.338968034716975e-08   1.5369292522676974e-07
5.4131261280473617e-08   -1.2815401149154427e-07   -3.8449180779644805e-07
5.4131261280473617e-08   -1.2815401149154427e-07   -3.8449180779644805e-07
5.4131261280473617e-08   -1.2815401149154427e-07   -3.8449180779644805e-07
5.4131261280473617e-08   -1.2815401149154427e-07   -3.8449180779644805e-07
-3.2886477603279337e-07   4.985447618203307e-08   1.4702982845479383e-07
-3.2886477603279337e-07   4.985447618203307e-08   1.4702982845479383e-07
-3.2886477603279337e-07   4.985447618203307e-08   1.4702982845479383e-07
-3.2886477603279337e-07   4.985447618203307e-08   1.4702982845479383e-07
-1.4108674226028368e-07   3.6544176401610232e-09   -1.3821352604090147e-07
-1.4108674226028368e-07   3.6544176401610232e-09   -1.3821352604090147e-07
-1.4108674226028368e-07   3.6544176401610232e-09   -1.3821352604090147e-07
-1.4108674226028368e-07   3.6544176401610232e-09   -1.3821352604090147e-07
              </DataArray>   
             <DataArray type="Float64" NumberOfComponents="3" Name="Stress" format="ascii">   
-0.8027376327461979   -0.20068440818654948   -0.20068440818654948
-0.8027376327461979   -0.20068440818654948   -0.20068440818654948
-0.8027376327461979   -0.20068440818654948   -0.20068440818654948
-0.8027376327461979   -0.20068440818654948   -0.20068440818654948
-0.46418926130063476   -0.015439539082820253   -0.009594233512562517
-0.46418926130063476   -0.015439539082820253   -0.009594233512562517
-0.46418926130063476   -0.015439539082820253   -0.009594233512562517
-0.46418926130063476   -0.015439539082820253   -0.009594233512562517
-0.49970264116330965   -0.12492566029082741   -0.12492566029082741
-0.49970264116330965   -0.12492566029082741   -0.12492566029082741
-0.49970264116330965   -0.12492566029082741   -0.12492566029082741
-0.49970264116330965   -0.12492566029082741   -0.12492566029082741
-0.7733924641822505   -0.06408951856250347   -0.024691094031181242
-0.7733924641822505   -0.06408951856250347   -0.024691094031181242
-0.7733924641822505   -0.06408951856250347   -0.024691094031181242
-0.7733924641822505   -0.06408951856250347   -0.024691094031181242
-0.6063923473966999   -0.09975667534750496   -0.0017144453396083772
-0.6063923473966999   -0.09975667534750496   -0.0017144453396083772
-0.6063923473966999   -0.09975667534750496   -0.0017144453396083772
-0.6063923473966999   -0.09975667534750496   -0.0017144453396083772
-0.8395959351816831   -0.20989898379542077   -0.20989898379542077
-0.8395959351816831   -0.20989898379542077   -0.20989898379542077
-0.8395959351816831   -0.20989898379542077   -0.20989898379542077
-0.8395959351816831   -0.20989898379542077   -0.20989898379542077
-0.4492587821893173   0.005124192916650741   -0.0027562186283439025
-0.4492587821893173   0.005124192916650741   -0.0027562186283439025
-0.4492587821893173   0.005124192916650741   -0.0027562186283439025
-0.4492587821893173   0.005124192916650741   -0.0027562186283439025
-0.500668563625018   -0.1251671409062545   -0.1251671409062545
-0.500668563625018   -0.1251671409062545   -0.1251671409062545
-0.500668563625018   -0.1251671409062545   -0.1251671409062545
-0.500668563625018   -0.1251671409062545   -0.1251671409062545
-0.7988868142635102   -0.06456500849605731   -0.03611969619324545
-0.7988868142635102   -0.06456500849605731   -0.03611969619324545
-0.7988868142635102   -0.06456500849605731   -0.03611969619324545
-0.7988868142635102   -0.06456500849605731   -0.03611969619324545
-0.6285337517150367   -0.09376245290045476   -0.03331118335965582
-0.6285337517150367   -0.09376245290045476   -0.03331118335965582
-0.6285337517150367   -0.09376245290045476   -0.03331118335965582
-0.6285337517150367   -0.09376245290045476   -0.03331118335965582
-0.8652776370285011   -0.21631940925712528   -0.21631940925712528
-0.8652776370285011   -0.21631940925712528   -0.21631940925712528
-0.8652776370285011   -0.21631940925712528   -0.21631940925712528
-0.8652776370285011   -0.21631940925712528   -0.21631940925712528
-0.44753957287997354   0.013325427834868245   0.001985244077845137
-0.44753957287997354   0.013325427834868245   0.001985244077845137
-0.44753957287997354   0.013325427834868245   0.001985244077845137
-0.44753957287997354   0.013325427834868245   0.001985244077845137
-0.4999056473572348   -0.1249764118393087   -0.1249764118393087
-0.4999056473572348   -0.1249764118393087   -0.1249764118393087
-0.4999056473572348   -0.1249764118393087   -0.1249764118393087
-0.4999056473572348   -0.1249764118393087   -0.1249764118393087
-0.8445818922511588   -0.05631019229918616   -0.02190553518447269
-0.8445818922511588   -0.05631019229918616   -0.02190553518447269
-0.8445818922511588   -0.05631019229918616   -0.02190553518447269
-0.8445818922511588   -0.05631019229918616   -0.02190553518447269
-0.6447890100186753   -0.0921680151244018   -0.060114645101074005
-0.6447890100186753   -0.0921680151244018   -0.060114645101074005
-0.6447890100186753   -0.0921680151244018   -0.060114645101074005
-0.6447890100186753   -0.0921680151244018   -0.060114645101074005
-0.5102027853128434   -0.12755069632821084   -0.12755069632821084
-0.5102027853128434   -0.12755069632821084   -0.12755069632821084
-0.5102027853128434   -0.12755069632821084   -0.12755069632821084
-0.5102027853128434   -0.12755069632821084   -0.12755069632821084
-0.213458365951804   -0.01468545723872175   -0.0047283479946736255
-0.213458365951804   -0.01468545723872175   -0.0047283479946736255
-0.213458365951804   -0.01468545723872175   -0.0047283479946736255
-0.213458365951804   -0.01468545723872175   -0.0047283479946736255
-0.2235310848614621   -0.05588277121536552   -0.05588277121536552
-0.2235310848614621   -0.05588277121536552   -0.05588277121536552
-0.2235310848614621   -0.05588277121536552   -0.05588277121536552
-0.2235310848614621   -0.05588277121536552   -0.05588277121536552
-0.46420637289508176   -0.05488352602135633   -0.01748645321915903
-0.46420637289508176   -0.05488352602135633   -0.01748645321915903
-0.46420637289508176   -0.05488352602135633   -0.01748645321915903
-0.46420637289508176   -0.05488352602135633   -0.01748645321915903
-0.3426757385504247   -0.06508085151789984   0.0026033666579603917
-0.3426757385504247   -0.06508085151789984   0.0026033666579603917
-0.3426757385504247   -0.06508085151789984   0.0026033666579603917
-0.3426757385504247   -0.06508085151789984   0.0026033666579603917
-0.4997026411633092   -0.1249256602908273   -0.1249256602908273
-0.4997026411633092   -0.1249256602908273   -0.1249256602908273
-0.4997026411633092   -0.1249256602908273   -0.1249256602908273
-0.4997026411633092   -0.1249256602908273   -0.1249256602908273
-0.20098860457692663   0.001205575070413134   -0.00025871607846686233
-0.20098860457692663   0.001205575070413134   -0.00025871607846686233
-0.20098860457692663   0.001205575070413134   -0.00025871607846686233
-0.20098860457692663   0.001205575070413134   -0.00025871607846686233
-0.21810945627396736   -0.05452736406849184   -0.05452736406849184
-0.21810945627396736   -0.05452736406849184   -0.05452736406849184
-0.21810945627396736   -0.05452736406849184   -0.05452736406849184
-0.21810945627396736   -0.05452736406849184   -0.05452736406849184
-0.46260922623872697   -0.0446553740495817   -0.015382220831472327
-0.46260922623872697   -0.0446553740495817   -0.015382220831472327
-0.46260922623872697   -0.0446553740495817   -0.015382220831472327
-0.46260922623872697   -0.0446553740495817   -0.015382220831472327
-0.3374748649526377   -0.054699999033141544   -0.017597106496176844
-0.3374748649526377   -0.054699999033141544   -0.017597106496176844
-0.3374748649526377   -0.054699999033141544   -0.017597106496176844
-0.3374748649526377   -0.054699999033141544   -0.017597106496176844
-0.500668563625018   -0.1251671409062545   -0.1251671409062545
-0.500668563625018   -0.1251671409062545   -0.1251671409062545
-0.500668563625018   -0.1251671409062545   -0.1251671409062545
-0.500668563625018   -0.1251671409062545   -0.1251671409062545
-0.19259747959225712   0.01343704208360022   0.005068113187967373
-0.19259747959225712   0.01343704208360022   0.005068113187967373
-0.19259747959225712   0.01343704208360022   0.005068113187967373
-0.19259747959225712   0.01343704208360022   0.005068113187967373
-0.21309940358335858   -0.053274850895839644   -0.053274850895839644
-0.21309940358335858   -0.053274850895839644   -0.053274850895839644
-0.21309940358335858   -0.053274850895839644   -0.053274850895839644
-0.21309940358335858   -0.053274850895839644   -0.053274850895839644
-0.4587387746533845   -0.03433231526296711   -0.00978614489640427
-0.4587387746533845   -0.03433231526296711   -0.00978614489640427
-0.4587387746533845   -0.03433231526296711   -0.00978614489640427
-0.4587387746533845   -0.03433231526296711   -0.00978614489640427
-0.33868022792137414   -0.048283154030402564   -0.03914005935762148
-0.33868022792137414   -0.048283154030402564   -0.03914005935762148
-0.33868022792137414   -0.048283154030402564   -0.03914005935762148
-0.33868022792137414   -0.048283154030402564   -0.03914005935762148
-0.232861783227917   -0.05821544580697925   -0.05821544580697925
-0.232861783227917   -0.05821544580697925   -0.05821544580697925
-0.232861783227917   -0.05821544580697925   -0.05821544580697925
-0.232861783227917   -0.05821544580697925   -0.05821544580697925
0.026259066145686648   0.0014853498081729725   0.00023481494053656927
0.026259066145686648   0.0014853498081729725   0.00023481494053656927
0.026259066145686648   0.0014853498081729725   0.00023481494053656927
0.026259066145686648   0.0014853498081729725   0.00023481494053656927
0.034955757757541395   0.008738939439385349   0.008738939439385349
0.034955757757541395   0.008738939439385349   0.008738939439385349
0.034955757757541395   0.008738939439385349   0.008738939439385349
0.034955757757541395   0.008738939439385349   0.008738939439385349
-0.21011564869575103   -0.03630470708871435   -0.008383654513461451
-0.21011564869575103   -0.03630470708871435   -0.008383654513461451
-0.21011564869575103   -0.03630470708871435   -0.008383654513461451
-0.21011564869575103   -0.03630470708871435   -0.008383654513461451
-0.09064256805501901   -0.022965094452069866   0.015040811485318804
-0.09064256805501901   -0.022965094452069866   0.015040811485318804
-0.09064256805501901   -0.022965094452069866   0.015040811485318804
-0.09064256805501901   -0.022965094452069866   0.015040811485318804
-0.2235310848614621   -0.05588277121536552   -0.05588277121536552
-0.2235310848614621   -0.05588277121536552   -0.05588277121536552
-0.2235310848614621   -0.05588277121536552   -0.05588277121536552
-0.2235310848614621   -0.05588277121536552   -0.05588277121536552
0.035644388064616374   0.015590197707400336   0.0053308327067450294
0.035644388064616374   0.015590197707400336   0.0053308327067450294
0.035644388064616374   0.015590197707400336   0.0053308327067450294
0.035644388064616374   0.015590197707400336   0.0053308327067450294
0.03987722418139265   0.009969306045348162   0.009969306045348162
0.03987722418139265   0.009969306045348162   0.009969306045348162
0.03987722418139265   0.009969306045348162   0.009969306045348162
0.03987722418139265   0.009969306045348162   0.009969306045348162
-0.20228129125071875   -0.024296278827862196   -0.005617624192880452
-0.20228129125071875   -0.024296278827862196   -0.005617624192880452
-0.20228129125071875   -0.024296278827862196   -0.005617624192880452
-0.20228129125071875   -0.024296278827862196   -0.005617624192880452
-0.08652617444350802   -0.014132120199895064   -0.005277565487488933
-0.08652617444350802   -0.014132120199895064   -0.005277565487488933
-0.08652617444350802   -0.014132120199895064   -0.005277565487488933
-0.08652617444350802   -0.014132120199895064   -0.005277565487488933
-0.21810945627396736   -0.05452736406849184   -0.05452736406849184
-0.21810945627396736   -0.05452736406849184   -0.05452736406849184
-0.21810945627396736   -0.05452736406849184   -0.05452736406849184
-0.21810945627396736   -0.05452736406849184   -0.05452736406849184
0.04323575659799256   0.027730758679329483   0.009000515494366106
0.04323575659799256   0.027730758679329483   0.009000515494366106
0.04323575659799256   0.027730758679329483   0.009000515494366106
0.04323575659799256   0.027730758679329483   0.009000515494366106
0.04635191552723156   0.01158797888180789   0.01158797888180789
0.04635191552723156   0.01158797888180789   0.01158797888180789
0.04635191552723156   0.01158797888180789   0.01158797888180789
0.04635191552723156   0.01158797888180789   0.01158797888180789
-0.19376240013175625   -0.010010337664179955   0.00014565313051146007
-0.19376240013175625   -0.010010337664179955   0.00014565313051146007
-0.19376240013175625   -0.010010337664179955   0.00014565313051146007
-0.19376240013175625   -0.010010337664179955   0.00014565313051146007
-0.08349690749547145   -0.005616203372777382   -0.02541386742442515
-0.08349690749547145   -0.005616203372777382   -0.02541386742442515
-0.08349690749547145   -0.005616203372777382   -0.02541386742442515
-0.08349690749547145   -0.005616203372777382   -0.02541386742442515
0.02879448132882754   0.007198620332206885   0.007198620332206885
0.02879448132882754   0.007198620332206885   0.007198620332206885
0.02879448132882754   0.007198620332206885   0.007198620332206885
0.02879448132882754   0.007198620332206885   0.007198620332206885
0.28902439427754395   0.026574984327344738   0.009166924658555326
0.28902439427754395   0.026574984327344738   0.009166924658555326
0.28902439427754395   0.026574984327344738   0.009166924658555326
0.28902439427754395   0.026574984327344738   0.009166924658555326
0.3143046012729014   0.07857615031822535   0.07857615031822535
0.3143046012729014   0.07857615031822535   0.07857615031822535
0.3143046012729014   0.07857615031822535   0.07857615031822535
0.3143046012729014   0.07857615031822535   0.07857615031822535
0.0265871631449759   -0.020307048802347606   -0.0040580453817096965
0.0265871631449759   -0.020307048802347606   -0.0040580453817096965
0.0265871631449759   -0.020307048802347606   -0.0040580453817096965
0.0265871631449759   -0.020307048802347606   -0.0040580453817096965
0.1644491403957797   0.02049992932755268   0.029772836797455772
0.1644491403957797   0.02049992932755268   0.029772836797455772
0.1644491403957797   0.02049992932755268   0.029772836797455772
0.1644491403957797   0.02049992932755268   0.029772836797455772
0.03495575775754151   0.008738939439385378   0.008738939439385378
0.03495575775754151   0.008738939439385378   0.008738939439385378
0.03495575775754151   0.008738939439385378   0.008738939439385378
0.03495575775754151   0.008738939439385378   0.008738939439385378
0.2929881939015529   0.03658234931770951   0.013987914461998877
0.2929881939015529   0.03658234931770951   0.013987914461998877
0.2929881939015529   0.03658234931770951   0.013987914461998877
0.2929881939015529   0.03658234931770951   0.013987914461998877
0.3134342845644017   0.07835857114110042   0.07835857114110042
0.3134342845644017   0.07835857114110042   0.07835857114110042
0.3134342845644017   0.07835857114110042   0.07835857114110042
0.3134342845644017   0.07835857114110042   0.07835857114110042
0.034224079132195544   -0.008546537111725186   0.00021942395643571085
0.034224079132195544   -0.008546537111725186   0.00021942395643571085
0.034224079132195544   -0.008546537111725186   0.00021942395643571085
0.034224079132195544   -0.008546537111725186   0.00021942395643571085
0.16372013005874791   0.027085057642197968   0.007637997427169301
0.16372013005874791   0.027085057642197968   0.007637997427169301
0.16372013005874791   0.027085057642197968   0.007637997427169301
0.16372013005874791   0.027085057642197968   0.007637997427169301
0.03987722418139269   0.009969306045348172   0.009969306045348172
0.03987722418139269   0.009969306045348172   0.009969306045348172
0.03987722418139269   0.009969306045348172   0.009969306045348172
0.03987722418139269   0.009969306045348172   0.009969306045348172
0.29496045893095696   0.0470220473997795   0.01732596671519771
0.29496045893095696   0.0470220473997795   0.01732596671519771
0.29496045893095696   0.0470220473997795   0.01732596671519771
0.29496045893095696   0.0470220473997795   0.01732596671519771
0.3199617482873917   0.07999043707184793   0.07999043707184793
0.3199617482873917   0.07999043707184793   0.07999043707184793
0.3199617482873917   0.07999043707184793   0.07999043707184793
0.3199617482873917   0.07999043707184793   0.07999043707184793
0.04411506177991246   0.0069678868601131295   0.005023802166906816
0.04411506177991246   0.0069678868601131295   0.005023802166906816
0.04411506177991246   0.0069678868601131295   0.005023802166906816
0.04411506177991246   0.0069678868601131295   0.005023802166906816
0.16672337272091492   0.03686230514191065   -0.01288312959210042
0.16672337272091492   0.03686230514191065   -0.01288312959210042
0.16672337272091492   0.03686230514191065   -0.01288312959210042
0.16672337272091492   0.03686230514191065   -0.01288312959210042
0.3131955694226266   0.07829889235565665   0.07829889235565665
0.3131955694226266   0.07829889235565665   0.07829889235565665
0.3131955694226266   0.07829889235565665   0.07829889235565665
0.3131955694226266   0.07829889235565665   0.07829889235565665
0.652517938944876   0.04989107974864283   0.017685201456437847
0.652517938944876   0.04989107974864283   0.017685201456437847
0.652517938944876   0.04989107974864283   0.017685201456437847
0.652517938944876   0.04989107974864283   0.017685201456437847
0.667524538653972   0.166881134663493   0.166881134663493
0.667524538653972   0.166881134663493   0.166881134663493
0.667524538653972   0.166881134663493   0.166881134663493
0.667524538653972   0.166881134663493   0.166881134663493
0.27950227527642413   -0.01567236111566482   -0.0011869682302705943
0.27950227527642413   -0.01567236111566482   -0.0011869682302705943
0.27950227527642413   -0.01567236111566482   -0.0011869682302705943
0.27950227527642413   -0.01567236111566482   -0.0011869682302705943
0.46497961512836034   0.0659757932299653   0.05230203923948952
0.46497961512836034   0.0659757932299653   0.05230203923948952
0.46497961512836034   0.0659757932299653   0.05230203923948952
0.46497961512836034   0.0659757932299653   0.05230203923948952
0.3143046012729011   0.07857615031822528   0.07857615031822528
0.3143046012729011   0.07857615031822528   0.07857615031822528
0.3143046012729011   0.07857615031822528   0.07857615031822528
0.3143046012729011   0.07857615031822528   0.07857615031822528
0.6188276642098619   0.05873807478197181   0.03153982232447393
0.6188276642098619   0.05873807478197181   0.03153982232447393
0.6188276642098619   0.05873807478197181   0.03153982232447393
0.6188276642098619   0.05873807478197181   0.03153982232447393
0.6481509465084061   0.16203773662710153   0.16203773662710153
0.6481509465084061   0.16203773662710153   0.16203773662710153
0.6481509465084061   0.16203773662710153   0.16203773662710153
0.6481509465084061   0.16203773662710153   0.16203773662710153
0.28092939407659845   -0.008389162325234553   0.002581852168419073
0.28092939407659845   -0.008389162325234553   0.002581852168419073
0.28092939407659845   -0.008389162325234553   0.002581852168419073
0.28092939407659845   -0.008389162325234553   0.002581852168419073
0.4517208108066214   0.06802844916812795   0.025050622357038935
0.4517208108066214   0.06802844916812795   0.025050622357038935
0.4517208108066214   0.06802844916812795   0.025050622357038935
0.4517208108066214   0.06802844916812795   0.025050622357038935
0.3134342845644017   0.07835857114110042   0.07835857114110042
0.3134342845644017   0.07835857114110042   0.07835857114110042
0.3134342845644017   0.07835857114110042   0.07835857114110042
0.3134342845644017   0.07835857114110042   0.07835857114110042
0.5994254542760014   0.059069401416166886   0.021378610676022477
0.5994254542760014   0.059069401416166886   0.021378610676022477
0.5994254542760014   0.059069401416166886   0.021378610676022477
0.5994254542760014   0.059069401416166886   0.021378610676022477
0.6189765568651189   0.15474413921627972   0.15474413921627972
0.6189765568651189   0.15474413921627972   0.15474413921627972
0.6189765568651189   0.15474413921627972   0.15474413921627972
0.6189765568651189   0.15474413921627972   0.15474413921627972
0.29180823116953375   0.009935147392874169   0.009278141161531906
0.29180823116953375   0.009935147392874169   0.009278141161531906
0.29180823116953375   0.009935147392874169   0.009278141161531906
0.29180823116953375   0.009935147392874169   0.009278141161531906
0.4330316704553203   0.07393661478941962   -0.006702655729241887
0.4330316704553203   0.07393661478941962   -0.006702655729241887
0.4330316704553203   0.07393661478941962   -0.006702655729241887
0.4330316704553203   0.07393661478941962   -0.006702655729241887
-0.6303374249849246   -0.045211210013550954   0.0076955755180741735
-0.6303374249849246   -0.045211210013550954   0.0076955755180741735
-0.6303374249849246   -0.045211210013550954   0.0076955755180741735
-0.6303374249849246   -0.045211210013550954   0.0076955755180741735
-0.4018097596395462   -0.009837664784528632   -0.00280872993931449
-0.4018097596395462   -0.009837664784528632   -0.00280872993931449
-0.4018097596395462   -0.009837664784528632   -0.00280872993931449
-0.4018097596395462   -0.009837664784528632   -0.00280872993931449
-0.4040530288483023   0.01647997028064159   0.008816914850596266
-0.4040530288483023   0.01647997028064159   0.008816914850596266
-0.4040530288483023   0.01647997028064159   0.008816914850596266
-0.4040530288483023   0.01647997028064159   0.008816914850596266
-0.6394801883647543   -0.04392339158937068   -0.007837191605468006
-0.6394801883647543   -0.04392339158937068   -0.007837191605468006
-0.6394801883647543   -0.04392339158937068   -0.007837191605468006
-0.6394801883647543   -0.04392339158937068   -0.007837191605468006
-0.498560186135119   -0.01720642536064322   -0.0022842502302921446
-0.498560186135119   -0.01720642536064322   -0.0022842502302921446
-0.498560186135119   -0.01720642536064322   -0.0022842502302921446
-0.498560186135119   -0.01720642536064322   -0.0022842502302921446
-0.634559562628971   -0.030680175290663206   0.003522720774741011
-0.634559562628971   -0.030680175290663206   0.003522720774741011
-0.634559562628971   -0.030680175290663206   0.003522720774741011
-0.634559562628971   -0.030680175290663206   0.003522720774741011
-0.40961581836246225   0.002594590203558997   -0.005111652643113581
-0.40961581836246225   0.002594590203558997   -0.005111652643113581
-0.40961581836246225   0.002594590203558997   -0.005111652643113581
-0.40961581836246225   0.002594590203558997   -0.005111652643113581
-0.40424350933995257   0.023574990832232218   0.00993699552464506
-0.40424350933995257   0.023574990832232218   0.00993699552464506
-0.40424350933995257   0.023574990832232218   0.00993699552464506
-0.40424350933995257   0.023574990832232218   0.00993699552464506
-0.6429480162017761   -0.03858080336489185   -0.010316658023280804
-0.6429480162017761   -0.03858080336489185   -0.010316658023280804
-0.6429480162017761   -0.03858080336489185   -0.010316658023280804
-0.6429480162017761   -0.03858080336489185   -0.010316658023280804
-0.5121962837001098   -0.011400747335014144   -0.005006228939239726
-0.5121962837001098   -0.011400747335014144   -0.005006228939239726
-0.5121962837001098   -0.011400747335014144   -0.005006228939239726
-0.5121962837001098   -0.011400747335014144   -0.005006228939239726
-0.63110136677102   -0.018097352171491526   0.02843313793709374
-0.63110136677102   -0.018097352171491526   0.02843313793709374
-0.63110136677102   -0.018097352171491526   0.02843313793709374
-0.63110136677102   -0.018097352171491526   0.02843313793709374
-0.4112284613319635   0.007953237077576766   -0.009366010680750426
-0.4112284613319635   0.007953237077576766   -0.009366010680750426
-0.4112284613319635   0.007953237077576766   -0.009366010680750426
-0.4112284613319635   0.007953237077576766   -0.009366010680750426
-0.3965632023154992   0.04122681171832639   0.01776079496743138
-0.3965632023154992   0.04122681171832639   0.01776079496743138
-0.3965632023154992   0.04122681171832639   0.01776079496743138
-0.3965632023154992   0.04122681171832639   0.01776079496743138
-0.624568115342768   -0.030876232728471426   -0.016736336909413056
-0.624568115342768   -0.030876232728471426   -0.016736336909413056
-0.624568115342768   -0.030876232728471426   -0.016736336909413056
-0.624568115342768   -0.030876232728471426   -0.016736336909413056
-0.492153206653537   0.004862290977519418   0.01100604952232214
-0.492153206653537   0.004862290977519418   0.01100604952232214
-0.492153206653537   0.004862290977519418   0.01100604952232214
-0.492153206653537   0.004862290977519418   0.01100604952232214
-0.41162180851789115   -0.05476150331343178   -0.006945135802136184
-0.41162180851789115   -0.05476150331343178   -0.006945135802136184
-0.41162180851789115   -0.05476150331343178   -0.006945135802136184
-0.41162180851789115   -0.05476150331343178   -0.006945135802136184
-0.1903790403317809   -0.004604403895421369   0.0019318351772620833
-0.1903790403317809   -0.004604403895421369   0.0019318351772620833
-0.1903790403317809   -0.004604403895421369   0.0019318351772620833
-0.1903790403317809   -0.004604403895421369   0.0019318351772620833
-0.19284811667414242   0.003491223467066526   0.0030290380020163467
-0.19284811667414242   0.003491223467066526   0.0030290380020163467
-0.19284811667414242   0.003491223467066526   0.0030290380020163467
-0.19284811667414242   0.003491223467066526   0.0030290380020163467
-0.4195993288963346   -0.040029586895964434   -0.012405028212959336
-0.4195993288963346   -0.040029586895964434   -0.012405028212959336
-0.4195993288963346   -0.040029586895964434   -0.012405028212959336
-0.4195993288963346   -0.040029586895964434   -0.012405028212959336
-0.3036313931558934   -0.024831385423631162   -0.007112703187064648
-0.3036313931558934   -0.024831385423631162   -0.007112703187064648
-0.3036313931558934   -0.024831385423631162   -0.007112703187064648
-0.3036313931558934   -0.024831385423631162   -0.007112703187064648
-0.4191455236306993   -0.04367265273399819   -0.006492936046750362
-0.4191455236306993   -0.04367265273399819   -0.006492936046750362
-0.4191455236306993   -0.04367265273399819   -0.006492936046750362
-0.4191455236306993   -0.04367265273399819   -0.006492936046750362
-0.19256044254148896   0.007875768703389387   8.286342896227962e-05
-0.19256044254148896   0.007875768703389387   8.286342896227962e-05
-0.19256044254148896   0.007875768703389387   8.286342896227962e-05
-0.19256044254148896   0.007875768703389387   8.286342896227962e-05
-0.1918605546862978   0.013370791879493478   0.003999937261474875
-0.1918605546862978   0.013370791879493478   0.003999937261474875
-0.1918605546862978   0.013370791879493478   0.003999937261474875
-0.1918605546862978   0.013370791879493478   0.003999937261474875
-0.41947093611333547   -0.029186294396697746   -0.013438853113339776
-0.41947093611333547   -0.029186294396697746   -0.013438853113339776
-0.41947093611333547   -0.029186294396697746   -0.013438853113339776
-0.41947093611333547   -0.029186294396697746   -0.013438853113339776
-0.30277921886828396   -0.013757491584687392   -0.0033928266448344513
-0.30277921886828396   -0.013757491584687392   -0.0033928266448344513
-0.30277921886828396   -0.013757491584687392   -0.0033928266448344513
-0.30277921886828396   -0.013757491584687392   -0.0033928266448344513
-0.41778128833166334   -0.03287393668517494   -0.0013029719165017113
-0.41778128833166334   -0.03287393668517494   -0.0013029719165017113
-0.41778128833166334   -0.03287393668517494   -0.0013029719165017113
-0.41778128833166334   -0.03287393668517494   -0.0013029719165017113
-0.19216974174542772   0.0184388948905135   -0.0026141010451912958
-0.19216974174542772   0.0184388948905135   -0.0026141010451912958
-0.19216974174542772   0.0184388948905135   -0.0026141010451912958
-0.19216974174542772   0.0184388948905135   -0.0026141010451912958
-0.18839895734667292   0.023267665647634238   0.007873942349890962
-0.18839895734667292   0.023267665647634238   0.007873942349890962
-0.18839895734667292   0.023267665647634238   0.007873942349890962
-0.18839895734667292   0.023267665647634238   0.007873942349890962
-0.41468713447541605   -0.016653051157393434   -0.014979002956435079
-0.41468713447541605   -0.016653051157393434   -0.014979002956435079
-0.41468713447541605   -0.016653051157393434   -0.014979002956435079
-0.41468713447541605   -0.016653051157393434   -0.014979002956435079
-0.30123017358087234   -0.003272725826762371   0.0014987648648102266
-0.30123017358087234   -0.003272725826762371   0.0014987648648102266
-0.30123017358087234   -0.003272725826762371   0.0014987648648102266
-0.30123017358087234   -0.003272725826762371   0.0014987648648102266
-0.2006364211439542   -0.04561050432805655   -0.008348968450970669
-0.2006364211439542   -0.04561050432805655   -0.008348968450970669
-0.2006364211439542   -0.04561050432805655   -0.008348968450970669
-0.2006364211439542   -0.04561050432805655   -0.008348968450970669
0.019349961488491108   0.004383358777372431   0.00781414499468833
0.019349961488491108   0.004383358777372431   0.00781414499468833
0.019349961488491108   0.004383358777372431   0.00781414499468833
0.019349961488491108   0.004383358777372431   0.00781414499468833
0.018667490914294496   0.011263060127616315   0.0006720419581468071
0.018667490914294496   0.011263060127616315   0.0006720419581468071
0.018667490914294496   0.011263060127616315   0.0006720419581468071
0.018667490914294496   0.011263060127616315   0.0006720419581468071
-0.20124331187134967   -0.030112980137821634   -0.005342734379131719
-0.20124331187134967   -0.030112980137821634   -0.005342734379131719
-0.20124331187134967   -0.030112980137821634   -0.005342734379131719
-0.20124331187134967   -0.030112980137821634   -0.005342734379131719
-0.09185004064139331   -0.015224153186758717   -0.002984710432773402
-0.09185004064139331   -0.015224153186758717   -0.002984710432773402
-0.09185004064139331   -0.015224153186758717   -0.002984710432773402
-0.09185004064139331   -0.015224153186758717   -0.002984710432773402
-0.20264323124885336   -0.03468712914794751   -0.007768182256524437
-0.20264323124885336   -0.03468712914794751   -0.007768182256524437
-0.20264323124885336   -0.03468712914794751   -0.007768182256524437
-0.20264323124885336   -0.03468712914794751   -0.007768182256524437
0.02082350243126909   0.016593301277213066   0.006121858393423034
0.02082350243126909   0.016593301277213066   0.006121858393423034
0.02082350243126909   0.016593301277213066   0.006121858393423034
0.02082350243126909   0.016593301277213066   0.006121858393423034
0.020505205742885974   0.022105767447519388   0.0036061101904227106
0.020505205742885974   0.022105767447519388   0.0036061101904227106
0.020505205742885974   0.022105767447519388   0.0036061101904227106
0.020505205742885974   0.022105767447519388   0.0036061101904227106
-0.20031501158692525   -0.018215292701138284   -0.00668626266103061
-0.20031501158692525   -0.018215292701138284   -0.00668626266103061
-0.20031501158692525   -0.018215292701138284   -0.00668626266103061
-0.20031501158692525   -0.018215292701138284   -0.00668626266103061
-0.09016055549789612   -0.0037192073532953014   0.0010151416136662973
-0.09016055549789612   -0.0037192073532953014   0.0010151416136662973
-0.09016055549789612   -0.0037192073532953014   0.0010151416136662973
-0.09016055549789612   -0.0037192073532953014   0.0010151416136662973
-0.20087641586316934   -0.0236945785503784   -0.004013998193010899
-0.20087641586316934   -0.0236945785503784   -0.004013998193010899
-0.20087641586316934   -0.0236945785503784   -0.004013998193010899
-0.20087641586316934   -0.0236945785503784   -0.004013998193010899
0.021882833443350375   0.028401276720979796   0.004198739419284142
0.021882833443350375   0.028401276720979796   0.004198739419284142
0.021882833443350375   0.028401276720979796   0.004198739419284142
0.021882833443350375   0.028401276720979796   0.004198739419284142
0.021261309107966978   0.03414288376016805   0.005888051012528752
0.021261309107966978   0.03414288376016805   0.005888051012528752
0.021261309107966978   0.03414288376016805   0.005888051012528752
0.021261309107966978   0.03414288376016805   0.005888051012528752
-0.19742187462214134   -0.0055172264843160665   -0.008455751895500027
-0.19742187462214134   -0.0055172264843160665   -0.008455751895500027
-0.19742187462214134   -0.0055172264843160665   -0.008455751895500027
-0.19742187462214134   -0.0055172264843160665   -0.008455751895500027
-0.08763950538515024   0.008311322276807632   0.00539465972583257
-0.08763950538515024   0.008311322276807632   0.00539465972583257
-0.08763950538515024   0.008311322276807632   0.00539465972583257
-0.08763950538515024   0.008311322276807632   0.00539465972583257
0.008129026451723748   -0.0335157570432379   -0.010391414368538137
0.008129026451723748   -0.0335157570432379   -0.010391414368538137
0.008129026451723748   -0.0335157570432379   -0.010391414368538137
0.008129026451723748   -0.0335157570432379   -0.010391414368538137
0.236076171845334   0.01612905179807121   0.014433158346797578
0.236076171845334   0.01612905179807121   0.014433158346797578
0.236076171845334   0.01612905179807121   0.014433158346797578
0.236076171845334   0.01612905179807121   0.014433158346797578
0.23602660644600248   0.021919711437036846   -0.0023636874858144995
0.23602660644600248   0.021919711437036846   -0.0023636874858144995
0.23602660644600248   0.021919711437036846   -0.0023636874858144995
0.23602660644600248   0.021919711437036846   -0.0023636874858144995
0.01260969296881436   -0.019952755980763365   0.0015988683391258227
0.01260969296881436   -0.019952755980763365   0.0015988683391258227
0.01260969296881436   -0.019952755980763365   0.0015988683391258227
0.01260969296881436   -0.019952755980763365   0.0015988683391258227
0.12167493403051767   -0.0029903521983090375   0.00016791667779228817
0.12167493403051767   -0.0029903521983090375   0.00016791667779228817
0.12167493403051767   -0.0029903521983090375   0.00016791667779228817
0.12167493403051767   -0.0029903521983090375   0.00016791667779228817
0.009831368107196734   -0.02441308426958876   -0.007832427680136766
0.009831368107196734   -0.02441308426958876   -0.007832427680136766
0.009831368107196734   -0.02441308426958876   -0.007832427680136766
0.009831368107196734   -0.02441308426958876   -0.007832427680136766
0.24018054999088306   0.02775565840912495   0.01257008326649869
0.24018054999088306   0.02775565840912495   0.01257008326649869
0.24018054999088306   0.02775565840912495   0.01257008326649869
0.24018054999088306   0.02775565840912495   0.01257008326649869
0.2382306732945552   0.03266133856757415   0.0022522081905723074
0.2382306732945552   0.03266133856757415   0.0022522081905723074
0.2382306732945552   0.03266133856757415   0.0022522081905723074
0.2382306732945552   0.03266133856757415   0.0022522081905723074
0.013393659484040407   -0.009302569337350346   -0.0005432843189353853
0.013393659484040407   -0.009302569337350346   -0.0005432843189353853
0.013393659484040407   -0.009302569337350346   -0.0005432843189353853
0.013393659484040407   -0.009302569337350346   -0.0005432843189353853
0.12362833987706288   0.007266119513581425   0.005086005819352175
0.12362833987706288   0.007266119513581425   0.005086005819352175
0.12362833987706288   0.007266119513581425   0.005086005819352175
0.12362833987706288   0.007266119513581425   0.005086005819352175
0.011339804325177904   -0.014325252295446242   -0.005789877155151922
0.011339804325177904   -0.014325252295446242   -0.005789877155151922
0.011339804325177904   -0.014325252295446242   -0.005789877155151922
0.011339804325177904   -0.014325252295446242   -0.005789877155151922
0.2412827312199641   0.03868222429221604   0.011491612092970902
0.2412827312199641   0.03868222429221604   0.011491612092970902
0.2412827312199641   0.03868222429221604   0.011491612092970902
0.2412827312199641   0.03868222429221604   0.011491612092970902
0.23467678621264798   0.045050454012078085   0.004874913493995624
0.23467678621264798   0.045050454012078085   0.004874913493995624
0.23467678621264798   0.045050454012078085   0.004874913493995624
0.23467678621264798   0.045050454012078085   0.004874913493995624
0.013545514500516151   0.00383411787410111   -0.0023821561386584396
0.013545514500516151   0.00383411787410111   -0.0023821561386584396
0.013545514500516151   0.00383411787410111   -0.0023821561386584396
0.013545514500516151   0.00383411787410111   -0.0023821561386584396
0.12577843437663572   0.01898125910119035   0.00965581761657036
0.12577843437663572   0.01898125910119035   0.00965581761657036
0.12577843437663572   0.01898125910119035   0.00965581761657036
0.12577843437663572   0.01898125910119035   0.00965581761657036
0.2171534499642774   -0.044607615159039375   -0.01944378410137471
0.2171534499642774   -0.044607615159039375   -0.01944378410137471
0.2171534499642774   -0.044607615159039375   -0.01944378410137471
0.2171534499642774   -0.044607615159039375   -0.01944378410137471
0.44854511613203574   0.029643855307151343   0.014334404457785496
0.44854511613203574   0.029643855307151343   0.014334404457785496
0.44854511613203574   0.029643855307151343   0.014334404457785496
0.44854511613203574   0.029643855307151343   0.014334404457785496
0.45397579438619906   0.013603591324311562   -0.029280725140164016
0.45397579438619906   0.013603591324311562   -0.029280725140164016
0.45397579438619906   0.013603591324311562   -0.029280725140164016
0.45397579438619906   0.013603591324311562   -0.029280725140164016
0.2321034738926148   -0.008727039343632725   0.008667400527912952
0.2321034738926148   -0.008727039343632725   0.008667400527912952
0.2321034738926148   -0.008727039343632725   0.008667400527912952
0.2321034738926148   -0.008727039343632725   0.008667400527912952
0.32108694414643657   -0.005916866282371633   -0.008263973948434679
0.32108694414643657   -0.005916866282371633   -0.008263973948434679
0.32108694414643657   -0.005916866282371633   -0.008263973948434679
0.32108694414643657   -0.005916866282371633   -0.008263973948434679
0.22366666386563433   -0.029209022951576985   -0.01303466599904209
0.22366666386563433   -0.029209022951576985   -0.01303466599904209
0.22366666386563433   -0.029209022951576985   -0.01303466599904209
0.22366666386563433   -0.029209022951576985   -0.01303466599904209
0.46659623018848695   0.03826920070756376   0.009155844488023247
0.46659623018848695   0.03826920070756376   0.009155844488023247
0.46659623018848695   0.03826920070756376   0.009155844488023247
0.46659623018848695   0.03826920070756376   0.009155844488023247
0.4594879567481919   0.025407325990155633   -0.006994268926223457
0.4594879567481919   0.025407325990155633   -0.006994268926223457
0.4594879567481919   0.025407325990155633   -0.006994268926223457
0.4594879567481919   0.025407325990155633   -0.006994268926223457
0.23149248260144964   -0.0033822873451436683   0.004604880637758178
0.23149248260144964   -0.0033822873451436683   0.004604880637758178
0.23149248260144964   -0.0033822873451436683   0.004604880637758178
0.23149248260144964   -0.0033822873451436683   0.004604880637758178
0.3384549019919929   0.008484579118957877   0.005620433096497041
0.3384549019919929   0.008484579118957877   0.005620433096497041
0.3384549019919929   0.008484579118957877   0.005620433096497041
0.3384549019919929   0.008484579118957877   0.005620433096497041
0.22467497490181043   -0.022274504695826314   -0.010590440509752667
0.22467497490181043   -0.022274504695826314   -0.010590440509752667
0.22467497490181043   -0.022274504695826314   -0.010590440509752667
0.22467497490181043   -0.022274504695826314   -0.010590440509752667
0.4657851863364739   0.04377926522948175   0.006119939775860929
0.4657851863364739   0.04377926522948175   0.006119939775860929
0.4657851863364739   0.04377926522948175   0.006119939775860929
0.4657851863364739   0.04377926522948175   0.006119939775860929
0.4592985564397738   0.039464014978879663   -0.01056784617868067
0.4592985564397738   0.039464014978879663   -0.01056784617868067
0.4592985564397738   0.039464014978879663   -0.01056784617868067
0.4592985564397738   0.039464014978879663   -0.01056784617868067
0.2269882447424174   0.008821991846582299   0.0026606683083348123
0.2269882447424174   0.008821991846582299   0.0026606683083348123
0.2269882447424174   0.008821991846582299   0.0026606683083348123
0.2269882447424174   0.008821991846582299   0.0026606683083348123
0.330202318373152   0.015071704528944685   0.004350840854284371
0.330202318373152   0.015071704528944685   0.004350840854284371
0.330202318373152   0.015071704528944685   0.004350840854284371
0.330202318373152   0.015071704528944685   0.004350840854284371
-0.49207385573186324   -0.022128111840971104   0.026003130870790224
-0.49207385573186324   -0.022128111840971104   0.026003130870790224
-0.49207385573186324   -0.022128111840971104   0.026003130870790224
-0.49207385573186324   -0.022128111840971104   0.026003130870790224
-0.3278341716497276   -0.012888967104033526   -0.006765744959535141
-0.3278341716497276   -0.012888967104033526   -0.006765744959535141
-0.3278341716497276   -0.012888967104033526   -0.006765744959535141
-0.3278341716497276   -0.012888967104033526   -0.006765744959535141
-0.31564061254272957   0.02676092539949873   0.021744817516854306
-0.31564061254272957   0.02676092539949873   0.021744817516854306
-0.31564061254272957   0.02676092539949873   0.021744817516854306
-0.31564061254272957   0.02676092539949873   0.021744817516854306
-0.494207487607089   -0.0354366014196838   -0.010559904176599057
-0.494207487607089   -0.0354366014196838   -0.010559904176599057
-0.494207487607089   -0.0354366014196838   -0.010559904176599057
-0.494207487607089   -0.0354366014196838   -0.010559904176599057
-0.3909650430785662   -0.006036243103528863   -0.0010235465964865305
-0.3909650430785662   -0.006036243103528863   -0.0010235465964865305
-0.3909650430785662   -0.006036243103528863   -0.0010235465964865305
-0.3909650430785662   -0.006036243103528863   -0.0010235465964865305
-0.48013987657127866   -0.004682984160856843   0.029024533743625593
-0.48013987657127866   -0.004682984160856843   0.029024533743625593
-0.48013987657127866   -0.004682984160856843   0.029024533743625593
-0.48013987657127866   -0.004682984160856843   0.029024533743625593
-0.3274992872023664   -0.0017837554831547087   -0.009003874898676191
-0.3274992872023664   -0.0017837554831547087   -0.009003874898676191
-0.3274992872023664   -0.0017837554831547087   -0.009003874898676191
-0.3274992872023664   -0.0017837554831547087   -0.009003874898676191
-0.31420610264915966   0.03325123483547354   0.02010161942592965
-0.31420610264915966   0.03325123483547354   0.02010161942592965
-0.31420610264915966   0.03325123483547354   0.02010161942592965
-0.31420610264915966   0.03325123483547354   0.02010161942592965
-0.4862265877987635   -0.029537108942752938   -0.01441033327402801
-0.4862265877987635   -0.029537108942752938   -0.01441033327402801
-0.4862265877987635   -0.029537108942752938   -0.01441033327402801
-0.4862265877987635   -0.029537108942752938   -0.01441033327402801
-0.3915269696497882   0.001585014388931577   0.0043644050648733446
-0.3915269696497882   0.001585014388931577   0.0043644050648733446
-0.3915269696497882   0.001585014388931577   0.0043644050648733446
-0.3915269696497882   0.001585014388931577   0.0043644050648733446
-0.4731454814546319   0.0014455442416404507   0.020012545262236444
-0.4731454814546319   0.0014455442416404507   0.020012545262236444
-0.4731454814546319   0.0014455442416404507   0.020012545262236444
-0.4731454814546319   0.0014455442416404507   0.020012545262236444
-0.32656106859171896   0.0029947220526536505   -0.011416697504043418
-0.32656106859171896   0.0029947220526536505   -0.011416697504043418
-0.32656106859171896   0.0029947220526536505   -0.011416697504043418
-0.32656106859171896   0.0029947220526536505   -0.011416697504043418
-0.31437707033911994   0.03769996632770979   0.015953613367844795
-0.31437707033911994   0.03769996632770979   0.015953613367844795
-0.31437707033911994   0.03769996632770979   0.015953613367844795
-0.31437707033911994   0.03769996632770979   0.015953613367844795
-0.4759557570823764   -0.02318520509269846   -0.018334071788643495
-0.4759557570823764   -0.02318520509269846   -0.018334071788643495
-0.4759557570823764   -0.02318520509269846   -0.018334071788643495
-0.4759557570823764   -0.02318520509269846   -0.018334071788643495
-0.38004550166111045   0.008449634143430515   0.0093406753363398
-0.38004550166111045   0.008449634143430515   0.0093406753363398
-0.38004550166111045   0.008449634143430515   0.0093406753363398
-0.38004550166111045   0.008449634143430515   0.0093406753363398
-0.3286130902408536   -0.031122868263773702   0.007573563244575006
-0.3286130902408536   -0.031122868263773702   0.007573563244575006
-0.3286130902408536   -0.031122868263773702   0.007573563244575006
-0.3286130902408536   -0.031122868263773702   0.007573563244575006
-0.16692142592485168   -0.006280051361192772   0.00027307784189346644
-0.16692142592485168   -0.006280051361192772   0.00027307784189346644
-0.16692142592485168   -0.006280051361192772   0.00027307784189346644
-0.16692142592485168   -0.006280051361192772   0.00027307784189346644
-0.16200353191551153   0.01632931424032509   0.01179368048766525
-0.16200353191551153   0.01632931424032509   0.01179368048766525
-0.16200353191551153   0.01632931424032509   0.01179368048766525
-0.16200353191551153   0.01632931424032509   0.01179368048766525
-0.33378312788583997   -0.030690909177709287   -0.011515924621492766
-0.33378312788583997   -0.030690909177709287   -0.011515924621492766
-0.33378312788583997   -0.030690909177709287   -0.011515924621492766
-0.33378312788583997   -0.030690909177709287   -0.011515924621492766
-0.24698428006629322   -0.012123710898526208   -0.005148743175609644
-0.24698428006629322   -0.012123710898526208   -0.005148743175609644
-0.24698428006629322   -0.012123710898526208   -0.005148743175609644
-0.24698428006629322   -0.012123710898526208   -0.005148743175609644
-0.32741754638595494   -0.017656675009376524   0.00727774870960058
-0.32741754638595494   -0.017656675009376524   0.00727774870960058
-0.32741754638595494   -0.017656675009376524   0.00727774870960058
-0.32741754638595494   -0.017656675009376524   0.00727774870960058
-0.1670905139313168   0.004573679556071825   -0.0018855949071065123
-0.1670905139313168   0.004573679556071825   -0.0018855949071065123
-0.1670905139313168   0.004573679556071825   -0.0018855949071065123
-0.1670905139313168   0.004573679556071825   -0.0018855949071065123
-0.16136169298497918   0.027159184137040333   0.010179296426994326
-0.16136169298497918   0.027159184137040333   0.010179296426994326
-0.16136169298497918   0.027159184137040333   0.010179296426994326
-0.16136169298497918   0.027159184137040333   0.010179296426994326
-0.3317207245931619   -0.02060737014866952   -0.013612885309938257
-0.3317207245931619   -0.02060737014866952   -0.013612885309938257
-0.3317207245931619   -0.02060737014866952   -0.013612885309938257
-0.3317207245931619   -0.02060737014866952   -0.013612885309938257
-0.24414724855932382   -0.0012105537085910431   -9.722636488391188e-05
-0.24414724855932382   -0.0012105537085910431   -9.722636488391188e-05
-0.24414724855932382   -0.0012105537085910431   -9.722636488391188e-05
-0.24414724855932382   -0.0012105537085910431   -9.722636488391188e-05
-0.3252283323297214   -0.0066680515379900634   0.004909757396584523
-0.3252283323297214   -0.0066680515379900634   0.004909757396584523
-0.3252283323297214   -0.0066680515379900634   0.004909757396584523
-0.3252283323297214   -0.0066680515379900634   0.004909757396584523
-0.16681386540636114   0.014260085368419904   -0.004182466911291847
-0.16681386540636114   0.014260085368419904   -0.004182466911291847
-0.16681386540636114   0.014260085368419904   -0.004182466911291847
-0.16681386540636114   0.014260085368419904   -0.004182466911291847
-0.16118842491956042   0.03856392501400102   0.007607168344679671
-0.16118842491956042   0.03856392501400102   0.007607168344679671
-0.16118842491956042   0.03856392501400102   0.007607168344679671
-0.16118842491956042   0.03856392501400102   0.007607168344679671
-0.32997369369567786   -0.00969280845989183   -0.014636728627344293
-0.32997369369567786   -0.00969280845989183   -0.014636728627344293
-0.32997369369567786   -0.00969280845989183   -0.014636728627344293
-0.32997369369567786   -0.00969280845989183   -0.014636728627344293
-0.24415193860070394   0.008842170140507338   0.003784776112366193
-0.24415193860070394   0.008842170140507338   0.003784776112366193
-0.24415193860070394   0.008842170140507338   0.003784776112366193
-0.24415193860070394   0.008842170140507338   0.003784776112366193
-0.17305585093903525   -0.03583037702092855   -0.0008487215692902202
-0.17305585093903525   -0.03583037702092855   -0.0008487215692902202
-0.17305585093903525   -0.03583037702092855   -0.0008487215692902202
-0.17305585093903525   -0.03583037702092855   -0.0008487215692902202
-0.007427938128480106   0.001451652799492344   0.007379572173135122
-0.007427938128480106   0.001451652799492344   0.007379572173135122
-0.007427938128480106   0.001451652799492344   0.007379572173135122
-0.007427938128480106   0.001451652799492344   0.007379572173135122
-0.007937800888215052   0.01032568029938141   0.0035450568237488955
-0.007937800888215052   0.01032568029938141   0.0035450568237488955
-0.007937800888215052   0.01032568029938141   0.0035450568237488955
-0.007937800888215052   0.01032568029938141   0.0035450568237488955
-0.17304563142068893   -0.022826458177384275   -0.004261044620512288
-0.17304563142068893   -0.022826458177384275   -0.004261044620512288
-0.17304563142068893   -0.022826458177384275   -0.004261044620512288
-0.17304563142068893   -0.022826458177384275   -0.004261044620512288
-0.09065144962527578   -0.011327655306552803   -0.002912574982510242
-0.09065144962527578   -0.011327655306552803   -0.002912574982510242
-0.09065144962527578   -0.011327655306552803   -0.002912574982510242
-0.09065144962527578   -0.011327655306552803   -0.002912574982510242
-0.17285791559321712   -0.023830948948730238   -0.0023179747118072715
-0.17285791559321712   -0.023830948948730238   -0.0023179747118072715
-0.17285791559321712   -0.023830948948730238   -0.0023179747118072715
-0.17285791559321712   -0.023830948948730238   -0.0023179747118072715
-0.0071748035251980626   0.012280884261216185   0.005404839676999153
-0.0071748035251980626   0.012280884261216185   0.005404839676999153
-0.0071748035251980626   0.012280884261216185   0.005404839676999153
-0.0071748035251980626   0.012280884261216185   0.005404839676999153
-0.007018186669996125   0.022112809247915775   0.0016574221673105322
-0.007018186669996125   0.022112809247915775   0.0016574221673105322
-0.007018186669996125   0.022112809247915775   0.0016574221673105322
-0.007018186669996125   0.022112809247915775   0.0016574221673105322
-0.1724781779502481   -0.011971733866834353   -0.006272210395474008
-0.1724781779502481   -0.011971733866834353   -0.006272210395474008
-0.1724781779502481   -0.011971733866834353   -0.006272210395474008
-0.1724781779502481   -0.011971733866834353   -0.006272210395474008
-0.08964704497205635   -0.0004469161422923848   0.0011757375238656007
-0.08964704497205635   -0.0004469161422923848   0.0011757375238656007
-0.08964704497205635   -0.0004469161422923848   0.0011757375238656007
-0.08964704497205635   -0.0004469161422923848   0.0011757375238656007
-0.17222236831025037   -0.012210408938384282   -0.004754487123935481
-0.17222236831025037   -0.012210408938384282   -0.004754487123935481
-0.17222236831025037   -0.012210408938384282   -0.004754487123935481
-0.17222236831025037   -0.012210408938384282   -0.004754487123935481
-0.006490034586590428   0.02313544604286914   0.0032755457893857793
-0.006490034586590428   0.02313544604286914   0.0032755457893857793
-0.006490034586590428   0.02313544604286914   0.0032755457893857793
-0.006490034586590428   0.02313544604286914   0.0032755457893857793
-0.006719740625049977   0.034243692235920664   -0.0003532922914077554
-0.006719740625049977   0.034243692235920664   -0.0003532922914077554
-0.006719740625049977   0.034243692235920664   -0.0003532922914077554
-0.006719740625049977   0.034243692235920664   -0.0003532922914077554
-0.17227358278897004   -0.0009402237723920293   -0.008314472215976015
-0.17227358278897004   -0.0009402237723920293   -0.008314472215976015
-0.17227358278897004   -0.0009402237723920293   -0.008314472215976015
-0.17227358278897004   -0.0009402237723920293   -0.008314472215976015
-0.08883768194703671   0.010444897654916439   0.004927103990437497
-0.08883768194703671   0.010444897654916439   0.004927103990437497
-0.08883768194703671   0.010444897654916439   0.004927103990437497
-0.08883768194703671   0.010444897654916439   0.004927103990437497
-0.01880057383079487   -0.03944943309525246   -0.008582520443693842
-0.01880057383079487   -0.03944943309525246   -0.008582520443693842
-0.01880057383079487   -0.03944943309525246   -0.008582520443693842
-0.01880057383079487   -0.03944943309525246   -0.008582520443693842
0.1512380661774721   0.010462797367057425   0.014048135200969782
0.1512380661774721   0.010462797367057425   0.014048135200969782
0.1512380661774721   0.010462797367057425   0.014048135200969782
0.1512380661774721   0.010462797367057425   0.014048135200969782
0.14625236036010655   0.005317209341351541   -0.0056939724415918415
0.14625236036010655   0.005317209341351541   -0.0056939724415918415
0.14625236036010655   0.005317209341351541   -0.0056939724415918415
0.14625236036010655   0.005317209341351541   -0.0056939724415918415
-0.012939127280419519   -0.014269082183950598   0.003133187346058651
-0.012939127280419519   -0.014269082183950598   0.003133187346058651
-0.012939127280419519   -0.014269082183950598   0.003133187346058651
-0.012939127280419519   -0.014269082183950598   0.003133187346058651
0.0654835483693676   -0.009326508348611541   -0.0016761793367725784
0.0654835483693676   -0.009326508348611541   -0.0016761793367725784
0.0654835483693676   -0.009326508348611541   -0.0016761793367725784
0.0654835483693676   -0.009326508348611541   -0.0016761793367725784
-0.01861215662277481   -0.02868092323070004   -0.010820118318968367
-0.01861215662277481   -0.02868092323070004   -0.010820118318968367
-0.01861215662277481   -0.02868092323070004   -0.010820118318968367
-0.01861215662277481   -0.02868092323070004   -0.010820118318968367
0.15300768010568674   0.020811340791325225   0.012588494836335331
0.15300768010568674   0.020811340791325225   0.012588494836335331
0.15300768010568674   0.020811340791325225   0.012588494836335331
0.15300768010568674   0.020811340791325225   0.012588494836335331
0.14883634863056228   0.016296507935690624   -0.007990587100252432
0.14883634863056228   0.016296507935690624   -0.007990587100252432
0.14883634863056228   0.016296507935690624   -0.007990587100252432
0.14883634863056228   0.016296507935690624   -0.007990587100252432
-0.012484293419892864   -0.004539222650061773   0.0009789203158046009
-0.012484293419892864   -0.004539222650061773   0.0009789203158046009
-0.012484293419892864   -0.004539222650061773   0.0009789203158046009
-0.012484293419892864   -0.004539222650061773   0.0009789203158046009
0.0662398002243984   0.0005487257840890193   0.0023982405865788144
0.0662398002243984   0.0005487257840890193   0.0023982405865788144
0.0662398002243984   0.0005487257840890193   0.0023982405865788144
0.0662398002243984   0.0005487257840890193   0.0023982405865788144
-0.01800546077669957   -0.018089136957807544   -0.013077002160483315
-0.01800546077669957   -0.018089136957807544   -0.013077002160483315
-0.01800546077669957   -0.018089136957807544   -0.013077002160483315
-0.01800546077669957   -0.018089136957807544   -0.013077002160483315
0.15553800390762718   0.03102691016369487   0.010787287057067763
0.15553800390762718   0.03102691016369487   0.010787287057067763
0.15553800390762718   0.03102691016369487   0.010787287057067763
0.15553800390762718   0.03102691016369487   0.010787287057067763
0.15048821123108835   0.030019105307601445   -0.008399915701727073
0.15048821123108835   0.030019105307601445   -0.008399915701727073
0.15048821123108835   0.030019105307601445   -0.008399915701727073
0.15048821123108835   0.030019105307601445   -0.008399915701727073
-0.012374744378548855   0.006786555462165307   -0.0011711742851466729
-0.012374744378548855   0.006786555462165307   -0.0011711742851466729
-0.012374744378548855   0.006786555462165307   -0.0011711742851466729
-0.012374744378548855   0.006786555462165307   -0.0011711742851466729
0.06874106601179338   0.011511643665458822   0.0072159555767961955
0.06874106601179338   0.011511643665458822   0.0072159555767961955
0.06874106601179338   0.011511643665458822   0.0072159555767961955
0.06874106601179338   0.011511643665458822   0.0072159555767961955
0.13511210651743596   -0.039277833878130164   -0.016841031854022203
0.13511210651743596   -0.039277833878130164   -0.016841031854022203
0.13511210651743596   -0.039277833878130164   -0.016841031854022203
0.13511210651743596   -0.039277833878130164   -0.016841031854022203
0.2987483578605409   0.022221188278635423   0.015829908028384333
0.2987483578605409   0.022221188278635423   0.015829908028384333
0.2987483578605409   0.022221188278635423   0.015829908028384333
0.2987483578605409   0.022221188278635423   0.015829908028384333
0.2964661014856776   -0.002072945663735379   -0.022424758665663107
0.2964661014856776   -0.002072945663735379   -0.022424758665663107
0.2964661014856776   -0.002072945663735379   -0.022424758665663107
0.2964661014856776   -0.002072945663735379   -0.022424758665663107
0.14786730711902216   -0.002986211017941401   0.010684181712280031
0.14786730711902216   -0.002986211017941401   0.010684181712280031
0.14786730711902216   -0.002986211017941401   0.010684181712280031
0.14786730711902216   -0.002986211017941401   0.010684181712280031
0.2088803742627164   -0.007827330453994044   -0.006977999646953847
0.2088803742627164   -0.007827330453994044   -0.006977999646953847
0.2088803742627164   -0.007827330453994044   -0.006977999646953847
0.2088803742627164   -0.007827330453994044   -0.006977999646953847
0.13539235535538227   -0.03394841731786117   -0.020728370805998694
0.13539235535538227   -0.03394841731786117   -0.020728370805998694
0.13539235535538227   -0.03394841731786117   -0.020728370805998694
0.13539235535538227   -0.03394841731786117   -0.020728370805998694
0.3098326516060889   0.029780858992956336   0.012554187279701961
0.3098326516060889   0.029780858992956336   0.012554187279701961
0.3098326516060889   0.029780858992956336   0.012554187279701961
0.3098326516060889   0.029780858992956336   0.012554187279701961
0.30411264468641386   0.004189402493246605   -0.030156832255254708
0.30411264468641386   0.004189402493246605   -0.030156832255254708
0.30411264468641386   0.004189402493246605   -0.030156832255254708
0.30411264468641386   0.004189402493246605   -0.030156832255254708
0.14913672369317063   0.0017964672940960005   0.008011328854386266
0.14913672369317063   0.0017964672940960005   0.008011328854386266
0.14913672369317063   0.0017964672940960005   0.008011328854386266
0.14913672369317063   0.0017964672940960005   0.008011328854386266
0.2186542755740241   -0.0010265749494730303   -0.0020581912415993334
0.2186542755740241   -0.0010265749494730303   -0.0020581912415993334
0.2186542755740241   -0.0010265749494730303   -0.0020581912415993334
0.2186542755740241   -0.0010265749494730303   -0.0020581912415993334
0.1371104219031798   -0.02770368181053655   -0.022620030990936388
0.1371104219031798   -0.02770368181053655   -0.022620030990936388
0.1371104219031798   -0.02770368181053655   -0.022620030990936388
0.1371104219031798   -0.02770368181053655   -0.022620030990936388
0.3181138816755711   0.03566448679704582   0.008374268386734976
0.3181138816755711   0.03566448679704582   0.008374268386734976
0.3181138816755711   0.03566448679704582   0.008374268386734976
0.3181138816755711   0.03566448679704582   0.008374268386734976
0.31623370899325376   0.0204476138409862   -0.02845668597048203
0.31623370899325376   0.0204476138409862   -0.02845668597048203
0.31623370899325376   0.0204476138409862   -0.02845668597048203
0.31623370899325376   0.0204476138409862   -0.02845668597048203
0.14979154681876747   0.012252711614762952   0.005883155929509343
0.14979154681876747   0.012252711614762952   0.005883155929509343
0.14979154681876747   0.012252711614762952   0.005883155929509343
0.14979154681876747   0.012252711614762952   0.005883155929509343
0.2206017346242085   0.006703377610174532   0.0034321744388673275
0.2206017346242085   0.006703377610174532   0.0034321744388673275
0.2206017346242085   0.006703377610174532   0.0034321744388673275
0.2206017346242085   0.006703377610174532   0.0034321744388673275
-0.34889240373410463   -0.011072268700640618   0.023375979141806454
-0.34889240373410463   -0.011072268700640618   0.023375979141806454
-0.34889240373410463   -0.011072268700640618   0.023375979141806454
-0.34889240373410463   -0.011072268700640618   0.023375979141806454
-0.24542831506656393   -0.016733437116425352   -0.008748327908115049
-0.24542831506656393   -0.016733437116425352   -0.008748327908115049
-0.24542831506656393   -0.016733437116425352   -0.008748327908115049
-0.24542831506656393   -0.016733437116425352   -0.008748327908115049
-0.23079067896037475   0.023336344317507585   0.019888015862643653
-0.23079067896037475   0.023336344317507585   0.019888015862643653
-0.23079067896037475   0.023336344317507585   0.019888015862643653
-0.23079067896037475   0.023336344317507585   0.019888015862643653
-0.3489043314716262   -0.02879554878918114   -0.012813808893185563
-0.3489043314716262   -0.02879554878918114   -0.012813808893185563
-0.3489043314716262   -0.02879554878918114   -0.012813808893185563
-0.3489043314716262   -0.02879554878918114   -0.012813808893185563
-0.28155236756146634   -0.004410474685374734   -0.0008927346944028833
-0.28155236756146634   -0.004410474685374734   -0.0008927346944028833
-0.28155236756146634   -0.004410474685374734   -0.0008927346944028833
-0.28155236756146634   -0.004410474685374734   -0.0008927346944028833
-0.3355751546470229   0.002840959413149338   0.022195567027500564
-0.3355751546470229   0.002840959413149338   0.022195567027500564
-0.3355751546470229   0.002840959413149338   0.022195567027500564
-0.3355751546470229   0.002840959413149338   0.022195567027500564
-0.24302908868074063   -0.0072093967805849715   -0.01075829164109026
-0.24302908868074063   -0.0072093967805849715   -0.01075829164109026
-0.24302908868074063   -0.0072093967805849715   -0.01075829164109026
-0.24302908868074063   -0.0072093967805849715   -0.01075829164109026
-0.22860487961186457   0.0282246363465036   0.01677668498535582
-0.22860487961186457   0.0282246363465036   0.01677668498535582
-0.22860487961186457   0.0282246363465036   0.01677668498535582
-0.22860487961186457   0.0282246363465036   0.01677668498535582
-0.3404765264913169   -0.023339490203459018   -0.016156917215550307
-0.3404765264913169   -0.023339490203459018   -0.016156917215550307
-0.3404765264913169   -0.023339490203459018   -0.016156917215550307
-0.3404765264913169   -0.023339490203459018   -0.016156917215550307
-0.27946233687141664   0.00201974542275786   0.002774696252862148
-0.27946233687141664   0.00201974542275786   0.002774696252862148
-0.27946233687141664   0.00201974542275786   0.002774696252862148
-0.27946233687141664   0.00201974542275786   0.002774696252862148
-0.3272846066977454   0.008688326868354926   0.017774864680493285
-0.3272846066977454   0.008688326868354926   0.017774864680493285
-0.3272846066977454   0.008688326868354926   0.017774864680493285
-0.3272846066977454   0.008688326868354926   0.017774864680493285
-0.2408165286164264   -0.0028229099363003066   -0.013234013754647313
-0.2408165286164264   -0.0028229099363003066   -0.013234013754647313
-0.2408165286164264   -0.0028229099363003066   -0.013234013754647313
-0.2408165286164264   -0.0028229099363003066   -0.013234013754647313
-0.22740026511524178   0.03307917855687647   0.014432354492096577
-0.22740026511524178   0.03307917855687647   0.014432354492096577
-0.22740026511524178   0.03307917855687647   0.014432354492096577
-0.22740026511524178   0.03307917855687647   0.014432354492096577
-0.3292372663984807   -0.01608368579897637   -0.019318927778738497
-0.3292372663984807   -0.01608368579897637   -0.019318927778738497
-0.3292372663984807   -0.01608368579897637   -0.019318927778738497
-0.3292372663984807   -0.01608368579897637   -0.019318927778738497
-0.2688886815331808   0.008085456896460654   0.007867057035468038
-0.2688886815331808   0.008085456896460654   0.007867057035468038
-0.2688886815331808   0.008085456896460654   0.007867057035468038
-0.2688886815331808   0.008085456896460654   0.007867057035468038
-0.2424720408888906   -0.019654057291345263   0.008953663155169917
-0.2424720408888906   -0.019654057291345263   0.008953663155169917
-0.2424720408888906   -0.019654057291345263   0.008953663155169917
-0.2424720408888906   -0.019654057291345263   0.008953663155169917
-0.14181070362313986   -0.010834684143770392   -0.0014170340116647197
-0.14181070362313986   -0.010834684143770392   -0.0014170340116647197
-0.14181070362313986   -0.010834684143770392   -0.0014170340116647197
-0.14181070362313986   -0.010834684143770392   -0.0014170340116647197
-0.1345756366367496   0.013597315823706067   0.010717709136493647
-0.1345756366367496   0.013597315823706067   0.010717709136493647
-0.1345756366367496   0.013597315823706067   0.010717709136493647
-0.1345756366367496   0.013597315823706067   0.010717709136493647
-0.24618019005293665   -0.023475983167128223   -0.01024721211553017
-0.24618019005293665   -0.023475983167128223   -0.01024721211553017
-0.24618019005293665   -0.023475983167128223   -0.01024721211553017
-0.24618019005293665   -0.023475983167128223   -0.01024721211553017
-0.19052712031032748   -0.009208025108501133   -0.004006601827171285
-0.19052712031032748   -0.009208025108501133   -0.004006601827171285
-0.19052712031032748   -0.009208025108501133   -0.004006601827171285
-0.19052712031032748   -0.009208025108501133   -0.004006601827171285
-0.2395890469509541   -0.008085336684152213   0.007317856911406758
-0.2395890469509541   -0.008085336684152213   0.007317856911406758
-0.2395890469509541   -0.008085336684152213   0.007317856911406758
-0.2395890469509541   -0.008085336684152213   0.007317856911406758
-0.14031935510415688   -0.0009459060246946559   -0.0034576613521421
-0.14031935510415688   -0.0009459060246946559   -0.0034576613521421
-0.14031935510415688   -0.0009459060246946559   -0.0034576613521421
-0.14031935510415688   -0.0009459060246946559   -0.0034576613521421
-0.13286870470676282   0.023640017808245754   0.00877203458823907
-0.13286870470676282   0.023640017808245754   0.00877203458823907
-0.13286870470676282   0.023640017808245754   0.00877203458823907
-0.13286870470676282   0.023640017808245754   0.00877203458823907
-0.24282936549219983   -0.014037200352126411   -0.012083907717690386
-0.24282936549219983   -0.014037200352126411   -0.012083907717690386
-0.24282936549219983   -0.014037200352126411   -0.012083907717690386
-0.24282936549219983   -0.014037200352126411   -0.012083907717690386
-0.1868598411511209   0.0006167401239338816   0.0002171713933925689
-0.1868598411511209   0.0006167401239338816   0.0002171713933925689
-0.1868598411511209   0.0006167401239338816   0.0002171713933925689
-0.1868598411511209   0.0006167401239338816   0.0002171713933925689
-0.23574018107700714   0.0026468986814819975   0.006677915324664611
-0.23574018107700714   0.0026468986814819975   0.006677915324664611
-0.23574018107700714   0.0026468986814819975   0.006677915324664611
-0.23574018107700714   0.0026468986814819975   0.006677915324664611
-0.13890567759531847   0.008008130301274445   -0.00578094234756746
-0.13890567759531847   0.008008130301274445   -0.00578094234756746
-0.13890567759531847   0.008008130301274445   -0.00578094234756746
-0.13890567759531847   0.008008130301274445   -0.00578094234756746
-0.13121806952073178   0.034377705353121894   0.0069602162627744255
-0.13121806952073178   0.034377705353121894   0.0069602162627744255
-0.13121806952073178   0.034377705353121894   0.0069602162627744255
-0.13121806952073178   0.034377705353121894   0.0069602162627744255
-0.24033574626473767   -0.003827164501213974   -0.013338708197292298
-0.24033574626473767   -0.003827164501213974   -0.013338708197292298
-0.24033574626473767   -0.003827164501213974   -0.013338708197292298
-0.24033574626473767   -0.003827164501213974   -0.013338708197292298
-0.1854204006813148   0.009910832920525692   0.004257858794618867
-0.1854204006813148   0.009910832920525692   0.004257858794618867
-0.1854204006813148   0.009910832920525692   0.004257858794618867
-0.1854204006813148   0.009910832920525692   0.004257858794618867
-0.14474076129959626   -0.027389356314084675   0.00048734977636616844
-0.14474076129959626   -0.027389356314084675   0.00048734977636616844
-0.14474076129959626   -0.027389356314084675   0.00048734977636616844
-0.14474076129959626   -0.027389356314084675   0.00048734977636616844
-0.039146463687992315   -0.003475830785996551   0.0058741647524975255
-0.039146463687992315   -0.003475830785996551   0.0058741647524975255
-0.039146463687992315   -0.003475830785996551   0.0058741647524975255
-0.039146463687992315   -0.003475830785996551   0.0058741647524975255
-0.038240894184911285   0.0053875294523581165   0.0020041562924220397
-0.038240894184911285   0.0053875294523581165   0.0020041562924220397
-0.038240894184911285   0.0053875294523581165   0.0020041562924220397
-0.038240894184911285   0.0053875294523581165   0.0020041562924220397
-0.14315872525646164   -0.015900597190655834   -0.002699820947706168
-0.14315872525646164   -0.015900597190655834   -0.002699820947706168
-0.14315872525646164   -0.015900597190655834   -0.002699820947706168
-0.14315872525646164   -0.015900597190655834   -0.002699820947706168
-0.09148334150318946   -0.00989409298297332   -0.0028624033411465137
-0.09148334150318946   -0.00989409298297332   -0.0028624033411465137
-0.09148334150318946   -0.00989409298297332   -0.0028624033411465137
-0.09148334150318946   -0.00989409298297332   -0.0028624033411465137
-0.14291719931009958   -0.01618926709372858   -0.0012035213128231501
-0.14291719931009958   -0.01618926709372858   -0.0012035213128231501
-0.14291719931009958   -0.01618926709372858   -0.0012035213128231501
-0.14291719931009958   -0.01618926709372858   -0.0012035213128231501
-0.03763261745534987   0.006526002031354337   0.003907067361232926
-0.03763261745534987   0.006526002031354337   0.003907067361232926
-0.03763261745534987   0.006526002031354337   0.003907067361232926
-0.03763261745534987   0.006526002031354337   0.003907067361232926
-0.03617646610525686   0.016638246503132843   0.00047597960937072366
-0.03617646610525686   0.016638246503132843   0.00047597960937072366
-0.03617646610525686   0.016638246503132843   0.00047597960937072366
-0.03617646610525686   0.016638246503132843   0.00047597960937072366
-0.14144794085730195   -0.005824942548648862   -0.004659185807561953
-0.14144794085730195   -0.005824942548648862   -0.004659185807561953
-0.14144794085730195   -0.005824942548648862   -0.004659185807561953
-0.14144794085730195   -0.005824942548648862   -0.004659185807561953
-0.08927644729965631   0.00019659141296229574   0.001126757195409495
-0.08927644729965631   0.00019659141296229574   0.001126757195409495
-0.08927644729965631   0.00019659141296229574   0.001126757195409495
-0.08927644729965631   0.00019659141296229574   0.001126757195409495
-0.14091606329045353   -0.0049748474668119755   -0.002849893055156698
-0.14091606329045353   -0.0049748474668119755   -0.002849893055156698
-0.14091606329045353   -0.0049748474668119755   -0.002849893055156698
-0.14091606329045353   -0.0049748474668119755   -0.002849893055156698
-0.03592349168040546   0.016573003412995845   0.0018060948237650903
-0.03592349168040546   0.016573003412995845   0.0018060948237650903
-0.03592349168040546   0.016573003412995845   0.0018060948237650903
-0.03592349168040546   0.016573003412995845   0.0018060948237650903
-0.03431849378649607   0.028052334811941807   -0.0013067682967808168
-0.03431849378649607   0.028052334811941807   -0.0013067682967808168
-0.03431849378649607   0.028052334811941807   -0.0013067682967808168
-0.03431849378649607   0.028052334811941807   -0.0013067682967808168
-0.13995699589700694   0.004363434835566754   -0.006720145101046692
-0.13995699589700694   0.004363434835566754   -0.006720145101046692
-0.13995699589700694   0.004363434835566754   -0.006720145101046692
-0.13995699589700694   0.004363434835566754   -0.006720145101046692
-0.08726277195549909   0.010336048637049195   0.0049701172941181565
-0.08726277195549909   0.010336048637049195   0.0049701172941181565
-0.08726277195549909   0.010336048637049195   0.0049701172941181565
-0.08726277195549909   0.010336048637049195   0.0049701172941181565
-0.04792337099857445   -0.03373029802135655   -0.007755904565053525
-0.04792337099857445   -0.03373029802135655   -0.007755904565053525
-0.04792337099857445   -0.03373029802135655   -0.007755904565053525
-0.04792337099857445   -0.03373029802135655   -0.007755904565053525
0.06189524598699709   0.004751901344758941   0.012722868244770723
0.06189524598699709   0.004751901344758941   0.012722868244770723
0.06189524598699709   0.004751901344758941   0.012722868244770723
0.06189524598699709   0.004751901344758941   0.012722868244770723
0.05726831740921422   -0.002314484917139809   -0.007301271009521142
0.05726831740921422   -0.002314484917139809   -0.007301271009521142
0.05726831740921422   -0.002314484917139809   -0.007301271009521142
0.05726831740921422   -0.002314484917139809   -0.007301271009521142
-0.04030663942585521   -0.007728613518386429   0.004791573058446971
-0.04030663942585521   -0.007728613518386429   0.004791573058446971
-0.04030663942585521   -0.007728613518386429   0.004791573058446971
-0.04030663942585521   -0.007728613518386429   0.004791573058446971
0.007348810426740383   -0.009481612818603243   -0.0020482814854888027
0.007348810426740383   -0.009481612818603243   -0.0020482814854888027
0.007348810426740383   -0.009481612818603243   -0.0020482814854888027
0.007348810426740383   -0.009481612818603243   -0.0020482814854888027
-0.04633366555632005   -0.02349088460899597   -0.009581286503267675
-0.04633366555632005   -0.02349088460899597   -0.009581286503267675
-0.04633366555632005   -0.02349088460899597   -0.009581286503267675
-0.04633366555632005   -0.02349088460899597   -0.009581286503267675
0.06430543095415266   0.01445787358794317   0.011111938210087097
0.06430543095415266   0.01445787358794317   0.011111938210087097
0.06430543095415266   0.01445787358794317   0.011111938210087097
0.06430543095415266   0.01445787358794317   0.011111938210087097
0.06113031441571105   0.008331318293660296   -0.008282982801192792
0.06113031441571105   0.008331318293660296   -0.008282982801192792
0.06113031441571105   0.008331318293660296   -0.008282982801192792
0.06113031441571105   0.008331318293660296   -0.008282982801192792
-0.03881882696462857   0.0012814973021158752   0.002620924513529492
-0.03881882696462857   0.0012814973021158752   0.002620924513529492
-0.03881882696462857   0.0012814973021158752   0.002620924513529492
-0.03881882696462857   0.0012814973021158752   0.002620924513529492
0.009416202599351754   -0.0003046154199708227   0.002018753774812144
0.009416202599351754   -0.0003046154199708227   0.002018753774812144
0.009416202599351754   -0.0003046154199708227   0.002018753774812144
0.009416202599351754   -0.0003046154199708227   0.002018753774812144
-0.04463581384503993   -0.013501511096278052   -0.01168100149013356
-0.04463581384503993   -0.013501511096278052   -0.01168100149013356
-0.04463581384503993   -0.013501511096278052   -0.01168100149013356
-0.04463581384503993   -0.013501511096278052   -0.01168100149013356
0.06782415493915973   0.023991180335090723   0.00952635777461926
0.06782415493915973   0.023991180335090723   0.00952635777461926
0.06782415493915973   0.023991180335090723   0.00952635777461926
0.06782415493915973   0.023991180335090723   0.00952635777461926
0.06424860377663476   0.020427359322767333   -0.009590503137316327
0.06424860377663476   0.020427359322767333   -0.009590503137316327
0.06424860377663476   0.020427359322767333   -0.009590503137316327
0.06424860377663476   0.020427359322767333   -0.009590503137316327
-0.03723089229138845   0.011627966643107876   0.0005556073475908984
-0.03723089229138845   0.011627966643107876   0.0005556073475908984
-0.03723089229138845   0.011627966643107876   0.0005556073475908984
-0.03723089229138845   0.011627966643107876   0.0005556073475908984
0.012565609621799676   0.009625815888217728   0.006213057998406651
0.012565609621799676   0.009625815888217728   0.006213057998406651
0.012565609621799676   0.009625815888217728   0.006213057998406651
0.012565609621799676   0.009625815888217728   0.006213057998406651
0.0485040738525774   -0.034074890287623165   -0.015406200794945177
0.0485040738525774   -0.034074890287623165   -0.015406200794945177
0.0485040738525774   -0.034074890287623165   -0.015406200794945177
0.0485040738525774   -0.034074890287623165   -0.015406200794945177
0.15083664866856744   0.015034609065141188   0.016647936684356844
0.15083664866856744   0.015034609065141188   0.016647936684356844
0.15083664866856744   0.015034609065141188   0.016647936684356844
0.15083664866856744   0.015034609065141188   0.016647936684356844
0.14922685856401824   -0.00891131559242463   -0.0203008926051322
0.14922685856401824   -0.00891131559242463   -0.0203008926051322
0.14922685856401824   -0.00891131559242463   -0.0203008926051322
0.14922685856401824   -0.00891131559242463   -0.0203008926051322
0.062281819340510344   0.003001625902748044   0.012450127827071196
0.062281819340510344   0.003001625902748044   0.012450127827071196
0.062281819340510344   0.003001625902748044   0.012450127827071196
0.062281819340510344   0.003001625902748044   0.012450127827071196
0.09733982854100012   -0.007214201127372033   -0.00530320931548043
0.09733982854100012   -0.007214201127372033   -0.00530320931548043
0.09733982854100012   -0.007214201127372033   -0.00530320931548043
0.09733982854100012   -0.007214201127372033   -0.00530320931548043
0.049970571180810205   -0.02826940996814667   -0.017835077100534353
0.049970571180810205   -0.02826940996814667   -0.017835077100534353
0.049970571180810205   -0.02826940996814667   -0.017835077100534353
0.049970571180810205   -0.02826940996814667   -0.017835077100534353
0.16256782829073863   0.023389441845491354   0.014103198590555633
0.16256782829073863   0.023389441845491354   0.014103198590555633
0.16256782829073863   0.023389441845491354   0.014103198590555633
0.16256782829073863   0.023389441845491354   0.014103198590555633
0.15777320969438305   -0.0029596623508176337   -0.0244058053713943
0.15777320969438305   -0.0029596623508176337   -0.0244058053713943
0.15777320969438305   -0.0029596623508176337   -0.0244058053713943
0.15777320969438305   -0.0029596623508176337   -0.0244058053713943
0.06454180203409828   0.007365113229929238   0.009740660354473433
0.06454180203409828   0.007365113229929238   0.009740660354473433
0.06454180203409828   0.007365113229929238   0.009740660354473433
0.06454180203409828   0.007365113229929238   0.009740660354473433
0.105875092426206   -0.0011860641530693668   -0.0005370303229416343
0.105875092426206   -0.0011860641530693668   -0.0005370303229416343
0.105875092426206   -0.0011860641530693668   -0.0005370303229416343
0.105875092426206   -0.0011860641530693668   -0.0005370303229416343
0.05231215286007182   -0.023316005917122372   -0.020726466368606755
0.05231215286007182   -0.023316005917122372   -0.020726466368606755
0.05231215286007182   -0.023316005917122372   -0.020726466368606755
0.05231215286007182   -0.023316005917122372   -0.020726466368606755
0.17108099349296468   0.028799591420790492   0.010373859849909442
0.17108099349296468   0.028799591420790492   0.010373859849909442
0.17108099349296468   0.028799591420790492   0.010373859849909442
0.17108099349296468   0.028799591420790492   0.010373859849909442
0.17095150119258248   0.010072760718510109   -0.026176552925569883
0.17095150119258248   0.010072760718510109   -0.026176552925569883
0.17095150119258248   0.010072760718510109   -0.026176552925569883
0.17095150119258248   0.010072760718510109   -0.026176552925569883
0.06685114900596566   0.016096718175952096   0.00775286415615291
0.06685114900596566   0.016096718175952096   0.00775286415615291
0.06685114900596566   0.016096718175952096   0.00775286415615291
0.06685114900596566   0.016096718175952096   0.00775286415615291
0.11028949145661428   0.00541218672242319   0.0036061419824390427
0.11028949145661428   0.00541218672242319   0.0036061419824390427
0.11028949145661428   0.00541218672242319   0.0036061419824390427
0.11028949145661428   0.00541218672242319   0.0036061419824390427
-0.20664581808075336   -0.0030706994052874387   0.020782863661767747
-0.20664581808075336   -0.0030706994052874387   0.020782863661767747
-0.20664581808075336   -0.0030706994052874387   0.020782863661767747
-0.20664581808075336   -0.0030706994052874387   0.020782863661767747
-0.16289104393420614   -0.02095974239215932   -0.010150424780274527
-0.16289104393420614   -0.02095974239215932   -0.010150424780274527
-0.16289104393420614   -0.02095974239215932   -0.010150424780274527
-0.16289104393420614   -0.02095974239215932   -0.010150424780274527
-0.1473758824051248   0.0176194500127575   0.017732736050010113
-0.1473758824051248   0.0176194500127575   0.017732736050010113
-0.1473758824051248   0.0176194500127575   0.017732736050010113
-0.1473758824051248   0.0176194500127575   0.017732736050010113
-0.2058573989771797   -0.022489085469198335   -0.013868803256801891
-0.2058573989771797   -0.022489085469198335   -0.013868803256801891
-0.2058573989771797   -0.022489085469198335   -0.013868803256801891
-0.2058573989771797   -0.022489085469198335   -0.013868803256801891
-0.17385675629718522   -0.004697927117159509   -0.0028268545589123645
-0.17385675629718522   -0.004697927117159509   -0.0028268545589123645
-0.17385675629718522   -0.004697927117159509   -0.0028268545589123645
-0.17385675629718522   -0.004697927117159509   -0.0028268545589123645
-0.1928302554224259   0.008947995007374164   0.019829834040394526
-0.1928302554224259   0.008947995007374164   0.019829834040394526
-0.1928302554224259   0.008947995007374164   0.019829834040394526
-0.1928302554224259   0.008947995007374164   0.019829834040394526
-0.1594824687512847   -0.012897073255222213   -0.012283672412808635
-0.1594824687512847   -0.012897073255222213   -0.012283672412808635
-0.1594824687512847   -0.012897073255222213   -0.012283672412808635
-0.1594824687512847   -0.012897073255222213   -0.012283672412808635
-0.1438108895481768   0.02221923555894417   0.01497107465332929
-0.1438108895481768   0.02221923555894417   0.01497107465332929
-0.1438108895481768   0.02221923555894417   0.01497107465332929
-0.1438108895481768   0.02221923555894417   0.01497107465332929
-0.19631518396187425   -0.017272655243668666   -0.017282595668242112
-0.19631518396187425   -0.017272655243668666   -0.017282595668242112
-0.19631518396187425   -0.017272655243668666   -0.017282595668242112
-0.19631518396187425   -0.017272655243668666   -0.017282595668242112
-0.16886591387341726   0.0013029969896668353   0.001028501722677145
-0.16886591387341726   0.0013029969896668353   0.001028501722677145
-0.16886591387341726   0.0013029969896668353   0.001028501722677145
-0.16886591387341726   0.0013029969896668353   0.001028501722677145
-0.1833011316442501   0.014524978620254411   0.01599003205595378
-0.1833011316442501   0.014524978620254411   0.01599003205595378
-0.1833011316442501   0.014524978620254411   0.01599003205595378
-0.1833011316442501   0.014524978620254411   0.01599003205595378
-0.15595941016460071   -0.008712866603778645   -0.014839426266065547
-0.15595941016460071   -0.008712866603778645   -0.014839426266065547
-0.15595941016460071   -0.008712866603778645   -0.014839426266065547
-0.15595941016460071   -0.008712866603778645   -0.014839426266065547
-0.1409511098117976   0.028018814034183145   0.01290741480037591
-0.1409511098117976   0.028018814034183145   0.01290741480037591
-0.1409511098117976   0.028018814034183145   0.01290741480037591
-0.1409511098117976   0.028018814034183145   0.01290741480037591
-0.1835084595957281   -0.008907253314683228   -0.01998292256405748
-0.1835084595957281   -0.008907253314683228   -0.01998292256405748
-0.1835084595957281   -0.008907253314683228   -0.01998292256405748
-0.1835084595957281   -0.008907253314683228   -0.01998292256405748
-0.1588606115383584   0.007260373787244388   0.005778994611365286
-0.1588606115383584   0.007260373787244388   0.005778994611365286
-0.1588606115383584   0.007260373787244388   0.005778994611365286
-0.1588606115383584   0.007260373787244388   0.005778994611365286
-0.1569947655797788   -0.011594870677353226   0.00996609527705622
-0.1569947655797788   -0.011594870677353226   0.00996609527705622
-0.1569947655797788   -0.011594870677353226   0.00996609527705622
-0.1569947655797788   -0.011594870677353226   0.00996609527705622
-0.11677682199512966   -0.015870692168822524   -0.0029956328463607083
-0.11677682199512966   -0.015870692168822524   -0.0029956328463607083
-0.11677682199512966   -0.015870692168822524   -0.0029956328463607083
-0.11677682199512966   -0.015870692168822524   -0.0029956328463607083
-0.10819340230717611   0.007984884813735774   0.00907034004302926
-0.10819340230717611   0.007984884813735774   0.00907034004302926
-0.10819340230717611   0.007984884813735774   0.00907034004302926
-0.10819340230717611   0.007984884813735774   0.00907034004302926
-0.15947333570453542   -0.01655012148197918   -0.00858495895230435
-0.15947333570453542   -0.01655012148197918   -0.00858495895230435
-0.15947333570453542   -0.01655012148197918   -0.00858495895230435
-0.15947333570453542   -0.01655012148197918   -0.00858495895230435
-0.13502313277259922   -0.008273425713282868   -0.003727396559272205
-0.13502313277259922   -0.008273425713282868   -0.003727396559272205
-0.13502313277259922   -0.008273425713282868   -0.003727396559272205
-0.13502313277259922   -0.008273425713282868   -0.003727396559272205
-0.15296843770915905   -0.0010885903056229752   0.008477999848218457
-0.15296843770915905   -0.0010885903056229752   0.008477999848218457
-0.15296843770915905   -0.0010885903056229752   0.008477999848218457
-0.15296843770915905   -0.0010885903056229752   0.008477999848218457
-0.11395634064427006   -0.006734686704337207   -0.00502478012436752
-0.11395634064427006   -0.006734686704337207   -0.00502478012436752
-0.11395634064427006   -0.006734686704337207   -0.00502478012436752
-0.11395634064427006   -0.006734686704337207   -0.00502478012436752
-0.10512928884204845   0.017368232440089216   0.0072431795932363634
-0.10512928884204845   0.017368232440089216   0.0072431795932363634
-0.10512928884204845   0.017368232440089216   0.0072431795932363634
-0.10512928884204845   0.017368232440089216   0.0072431795932363634
-0.15482098708823724   -0.007573513382392625   -0.010286664105633229
-0.15482098708823724   -0.007573513382392625   -0.010286664105633229
-0.15482098708823724   -0.007573513382392625   -0.010286664105633229
-0.15482098708823724   -0.007573513382392625   -0.010286664105633229
-0.13054713952520386   0.0007288903562978691   0.0003037926890295632
-0.13054713952520386   0.0007288903562978691   0.0003037926890295632
-0.13054713952520386   0.0007288903562978691   0.0003037926890295632
-0.13054713952520386   0.0007288903562978691   0.0003037926890295632
-0.1479323550324379   0.008896316534631354   0.0076866662563365214
-0.1479323550324379   0.008896316534631354   0.0076866662563365214
-0.1479323550324379   0.008896316534631354   0.0076866662563365214
-0.1479323550324379   0.008896316534631354   0.0076866662563365214
-0.11116160855427107   0.0017547148666399344   -0.007304901394428924
-0.11116160855427107   0.0017547148666399344   -0.007304901394428924
-0.11116160855427107   0.0017547148666399344   -0.007304901394428924
-0.11116160855427107   0.0017547148666399344   -0.007304901394428924
-0.10207322949268205   0.027593609099163117   0.0055026430325375575
-0.10207322949268205   0.027593609099163117   0.0055026430325375575
-0.10207322949268205   0.027593609099163117   0.0055026430325375575
-0.10207322949268205   0.027593609099163117   0.0055026430325375575
-0.15101271675997033   0.0022714236317348327   -0.011653229538036774
-0.15101271675997033   0.0022714236317348327   -0.011653229538036774
-0.15101271675997033   0.0022714236317348327   -0.011653229538036774
-0.15101271675997033   0.0022714236317348327   -0.011653229538036774
-0.12732464906928148   0.00960244695359478   0.004264364318110414
-0.12732464906928148   0.00960244695359478   0.004264364318110414
-0.12732464906928148   0.00960244695359478   0.004264364318110414
-0.12732464906928148   0.00960244695359478   0.004264364318110414
-0.11658987650709776   -0.019771388179435787   0.0018397906044106196
-0.11658987650709776   -0.019771388179435787   0.0018397906044106196
-0.11658987650709776   -0.019771388179435787   0.0018397906044106196
-0.11658987650709776   -0.019771388179435787   0.0018397906044106196
-0.0711707739258718   -0.008589438867651792   0.0042366979117096975
-0.0711707739258718   -0.008589438867651792   0.0042366979117096975
-0.0711707739258718   -0.008589438867651792   0.0042366979117096975
-0.0711707739258718   -0.008589438867651792   0.0042366979117096975
-0.06892523653388564   -0.00040752082135059667   0.0005320721762478615
-0.06892523653388564   -0.00040752082135059667   0.0005320721762478615
-0.06892523653388564   -0.00040752082135059667   0.0005320721762478615
-0.06892523653388564   -0.00040752082135059667   0.0005320721762478615
-0.11358312058055038   -0.008925510317021651   -0.0009678561930846759
-0.11358312058055038   -0.008925510317021651   -0.0009678561930846759
-0.11358312058055038   -0.008925510317021651   -0.0009678561930846759
-0.11358312058055038   -0.008925510317021651   -0.0009678561930846759
-0.09271768849910224   -0.00897752414803671   -0.00272837793845609
-0.09271768849910224   -0.00897752414803671   -0.00272837793845609
-0.09271768849910224   -0.00897752414803671   -0.00272837793845609
-0.09271768849910224   -0.00897752414803671   -0.00272837793845609
-0.11343091283064159   -0.00936794672338606   0.000235618962822677
-0.11343091283064159   -0.00936794672338606   0.000235618962822677
-0.11343091283064159   -0.00936794672338606   0.000235618962822677
-0.11343091283064159   -0.00936794672338606   0.000235618962822677
-0.0683384032124251   0.0007739566563836134   0.002284761305816362
-0.0683384032124251   0.0007739566563836134   0.002284761305816362
-0.0683384032124251   0.0007739566563836134   0.002284761305816362
-0.0683384032124251   0.0007739566563836134   0.002284761305816362
-0.06558394225315889   0.01008543201330437   -0.000971311601938871
-0.06558394225315889   0.01008543201330437   -0.000971311601938871
-0.06558394225315889   0.01008543201330437   -0.000971311601938871
-0.06558394225315889   0.01008543201330437   -0.000971311601938871
-0.11051176763375468   0.0005732885468249516   -0.002874270472032014
-0.11051176763375468   0.0005732885468249516   -0.002874270472032014
-0.11051176763375468   0.0005732885468249516   -0.002874270472032014
-0.11051176763375468   0.0005732885468249516   -0.002874270472032014
-0.08918622105304502   0.00043579438973877574   0.0011908531867743698
-0.08918622105304502   0.00043579438973877574   0.0011908531867743698
-0.08918622105304502   0.00043579438973877574   0.0011908531867743698
-0.08918622105304502   0.00043579438973877574   0.0011908531867743698
-0.11011423197202402   0.0010924797221741125   -0.001405783338728834
-0.11011423197202402   0.0010924797221741125   -0.001405783338728834
-0.11011423197202402   0.0010924797221741125   -0.001405783338728834
-0.11011423197202402   0.0010924797221741125   -0.001405783338728834
-0.06531236881350336   0.01023534993934071   0.00023663767030309302
-0.06531236881350336   0.01023534993934071   0.00023663767030309302
-0.06531236881350336   0.01023534993934071   0.00023663767030309302
-0.06531236881350336   0.01023534993934071   0.00023663767030309302
-0.062426041466453044   0.020679012061123072   -0.0026732134038189807
-0.062426041466453044   0.020679012061123072   -0.0026732134038189807
-0.062426041466453044   0.020679012061123072   -0.0026732134038189807
-0.062426041466453044   0.020679012061123072   -0.0026732134038189807
-0.10764861102844968   0.010143824429546325   -0.004924479976683367
-0.10764861102844968   0.010143824429546325   -0.004924479976683367
-0.10764861102844968   0.010143824429546325   -0.004924479976683367
-0.10764861102844968   0.010143824429546325   -0.004924479976683367
-0.08585394589650705   0.009883557242411672   0.004951257171112045
-0.08585394589650705   0.009883557242411672   0.004951257171112045
-0.08585394589650705   0.009883557242411672   0.004951257171112045
-0.08585394589650705   0.009883557242411672   0.004951257171112045
-0.0769372224425089   -0.026830135581601813   -0.006354847957527035
-0.0769372224425089   -0.026830135581601813   -0.006354847957527035
-0.0769372224425089   -0.026830135581601813   -0.006354847957527035
-0.0769372224425089   -0.026830135581601813   -0.006354847957527035
-0.027141761821095338   -0.000865204481802277   0.011084716178041102
-0.027141761821095338   -0.000865204481802277   0.011084716178041102
-0.027141761821095338   -0.000865204481802277   0.011084716178041102
-0.027141761821095338   -0.000865204481802277   0.011084716178041102
-0.03046431501510057   -0.008394112596713556   -0.008378246743943307
-0.03046431501510057   -0.008394112596713556   -0.008378246743943307
-0.03046431501510057   -0.008394112596713556   -0.008378246743943307
-0.03046431501510057   -0.008394112596713556   -0.008378246743943307
-0.06787020478911632   -0.001012491194873174   0.006412201273616518
-0.06787020478911632   -0.001012491194873174   0.006412201273616518
-0.06787020478911632   -0.001012491194873174   0.006412201273616518
-0.06787020478911632   -0.001012491194873174   0.006412201273616518
-0.0505604805911478   -0.008875551865321817   -0.001972973486020591
-0.0505604805911478   -0.008875551865321817   -0.001972973486020591
-0.0505604805911478   -0.008875551865321817   -0.001972973486020591
-0.0505604805911478   -0.008875551865321817   -0.001972973486020591
-0.07397161028287005   -0.017034488149569985   -0.008072829240455975
-0.07397161028287005   -0.017034488149569985   -0.008072829240455975
-0.07397161028287005   -0.017034488149569985   -0.008072829240455975
-0.07397161028287005   -0.017034488149569985   -0.008072829240455975
-0.02353680322913388   0.008453990650196105   0.009411208938980477
-0.02353680322913388   0.008453990650196105   0.009411208938980477
-0.02353680322913388   0.008453990650196105   0.009411208938980477
-0.02353680322913388   0.008453990650196105   0.009411208938980477
-0.025513969400364923   0.0015308131214384693   -0.009437353954117357
-0.025513969400364923   0.0015308131214384693   -0.009437353954117357
-0.025513969400364923   0.0015308131214384693   -0.009437353954117357
-0.025513969400364923   0.0015308131214384693   -0.009437353954117357
-0.06504599118941246   0.007512852792462882   0.004291022937634744
-0.06504599118941246   0.007512852792462882   0.004291022937634744
-0.06504599118941246   0.007512852792462882   0.004291022937634744
-0.06504599118941246   0.007512852792462882   0.004291022937634744
-0.04677549983756702   -8.590410815675215e-05   0.0020289435421116447
-0.04677549983756702   -8.590410815675215e-05   0.0020289435421116447
-0.04677549983756702   -8.590410815675215e-05   0.0020289435421116447
-0.04677549983756702   -8.590410815675215e-05   0.0020289435421116447
-0.0709527208533737   -0.007679517413568083   -0.010050255176141346
-0.0709527208533737   -0.007679517413568083   -0.010050255176141346
-0.0709527208533737   -0.007679517413568083   -0.010050255176141346
-0.0709527208533737   -0.007679517413568083   -0.010050255176141346
-0.018837543615813072   0.017492879448059905   0.00798270864202047
-0.018837543615813072   0.017492879448059905   0.00798270864202047
-0.018837543615813072   0.017492879448059905   0.00798270864202047
-0.018837543615813072   0.017492879448059905   0.00798270864202047
-0.02133214971123094   0.012579131088671947   -0.010587313004742437
-0.02133214971123094   0.012579131088671947   -0.010587313004742437
-0.02133214971123094   0.012579131088671947   -0.010587313004742437
-0.02133214971123094   0.012579131088671947   -0.010587313004742437
-0.06215396970382459   0.01712075830506288   0.002245399165383471
-0.06215396970382459   0.01712075830506288   0.002245399165383471
-0.06215396970382459   0.01712075830506288   0.002245399165383471
-0.06215396970382459   0.01712075830506288   0.002245399165383471
-0.04288928682433433   0.009026142833623088   0.006014048550176913
-0.04288928682433433   0.009026142833623088   0.006014048550176913
-0.04288928682433433   0.009026142833623088   0.006014048550176913
-0.04288928682433433   0.009026142833623088   0.006014048550176913
-0.037725423852332164   -0.028789293723249464   -0.013909504736696809
-0.037725423852332164   -0.028789293723249464   -0.013909504736696809
-0.037725423852332164   -0.028789293723249464   -0.013909504736696809
-0.037725423852332164   -0.028789293723249464   -0.013909504736696809
0.005021755646792433   0.008002130114664741   0.01707030271174252
0.005021755646792433   0.008002130114664741   0.01707030271174252
0.005021755646792433   0.008002130114664741   0.01707030271174252
0.005021755646792433   0.008002130114664741   0.01707030271174252
0.0049554144512888865   -0.014646590661390811   -0.01846455010440546
0.0049554144512888865   -0.014646590661390811   -0.01846455010440546
0.0049554144512888865   -0.014646590661390811   -0.01846455010440546
0.0049554144512888865   -0.014646590661390811   -0.01846455010440546
-0.022518702915003092   0.008977776920175424   0.013977924239655094
-0.022518702915003092   0.008977776920175424   0.013977924239655094
-0.022518702915003092   0.008977776920175424   0.013977924239655094
-0.022518702915003092   0.008977776920175424   0.013977924239655094
-0.012686763340564773   -0.0062791356080288555   -0.0031221600698750516
-0.012686763340564773   -0.0062791356080288555   -0.0031221600698750516
-0.012686763340564773   -0.0062791356080288555   -0.0031221600698750516
-0.012686763340564773   -0.0062791356080288555   -0.0031221600698750516
-0.03472912744915988   -0.022091561102325293   -0.016004860408629102
-0.03472912744915988   -0.022091561102325293   -0.016004860408629102
-0.03472912744915988   -0.022091561102325293   -0.016004860408629102
-0.03472912744915988   -0.022091561102325293   -0.016004860408629102
0.018046517296710623   0.017303425672374688   0.01504094778893771
0.018046517296710623   0.017303425672374688   0.01504094778893771
0.018046517296710623   0.017303425672374688   0.01504094778893771
0.018046517296710623   0.017303425672374688   0.01504094778893771
0.014536603882095241   -0.008979422295228698   -0.021976819119317058
0.014536603882095241   -0.008979422295228698   -0.021976819119317058
0.014536603882095241   -0.008979422295228698   -0.021976819119317058
0.014536603882095241   -0.008979422295228698   -0.021976819119317058
-0.01906785152718536   0.01309153948657331   0.011232509046645623
-0.01906785152718536   0.01309153948657331   0.011232509046645623
-0.01906785152718536   0.01309153948657331   0.011232509046645623
-0.01906785152718536   0.01309153948657331   0.011232509046645623
-0.004913487586961113   -0.00042474287316239274   0.0011885945880954869
-0.004913487586961113   -0.00042474287316239274   0.0011885945880954869
-0.004913487586961113   -0.00042474287316239274   0.0011885945880954869
-0.004913487586961113   -0.00042474287316239274   0.0011885945880954869
-0.031127425962036548   -0.017426357640332533   -0.018547466000704456
-0.031127425962036548   -0.017426357640332533   -0.018547466000704456
-0.031127425962036548   -0.017426357640332533   -0.018547466000704456
-0.031127425962036548   -0.017426357640332533   -0.018547466000704456
0.02748185299201937   0.022424149506750094   0.011345854628324808
0.02748185299201937   0.022424149506750094   0.011345854628324808
0.02748185299201937   0.022424149506750094   0.011345854628324808
0.02748185299201937   0.022424149506750094   0.011345854628324808
0.02806023384469821   0.002072833583007954   -0.023575643647300356
0.02806023384469821   0.002072833583007954   -0.023575643647300356
0.02806023384469821   0.002072833583007954   -0.023575643647300356
0.02806023384469821   0.002072833583007954   -0.023575643647300356
-0.015852109535959308   0.020258999493257004   0.009133019467030642
-0.015852109535959308   0.020258999493257004   0.009133019467030642
-0.015852109535959308   0.020258999493257004   0.009133019467030642
-0.015852109535959308   0.020258999493257004   0.009133019467030642
0.002260675063686775   0.00568346626570174   0.0054392833611290985
0.002260675063686775   0.00568346626570174   0.0054392833611290985
0.002260675063686775   0.00568346626570174   0.0054392833611290985
0.002260675063686775   0.00568346626570174   0.0054392833611290985
-0.06577591093258943   0.004398366097302181   0.019524984665416266
-0.06577591093258943   0.004398366097302181   0.019524984665416266
-0.06577591093258943   0.004398366097302181   0.019524984665416266
-0.06577591093258943   0.004398366097302181   0.019524984665416266
-0.08140542850803355   -0.025290934203580577   -0.01135666652861267
-0.08140542850803355   -0.025290934203580577   -0.01135666652861267
-0.08140542850803355   -0.025290934203580577   -0.01135666652861267
-0.08140542850803355   -0.025290934203580577   -0.01135666652861267
-0.06499557343543982   0.011647045677177715   0.01595002693334615
-0.06499557343543982   0.011647045677177715   0.01595002693334615
-0.06499557343543982   0.011647045677177715   0.01595002693334615
-0.06499557343543982   0.011647045677177715   0.01595002693334615
-0.06396410588050644   -0.016206532687911054   -0.014703856769125254
-0.06396410588050644   -0.016206532687911054   -0.014703856769125254
-0.06396410588050644   -0.016206532687911054   -0.014703856769125254
-0.06396410588050644   -0.016206532687911054   -0.014703856769125254
-0.06739284827069754   -0.005165882961449434   -0.005487515304738284
-0.06739284827069754   -0.005165882961449434   -0.005487515304738284
-0.06739284827069754   -0.005165882961449434   -0.005487515304738284
-0.06739284827069754   -0.005165882961449434   -0.005487515304738284
-0.05117694022387045   0.014854878915042578   0.018170559911101093
-0.05117694022387045   0.014854878915042578   0.018170559911101093
-0.05117694022387045   0.014854878915042578   0.018170559911101093
-0.05117694022387045   0.014854878915042578   0.018170559911101093
-0.07695914936442244   -0.01859077619812239   -0.013630030836265935
-0.07695914936442244   -0.01859077619812239   -0.013630030836265935
-0.07695914936442244   -0.01859077619812239   -0.013630030836265935
-0.07695914936442244   -0.01859077619812239   -0.013630030836265935
-0.06009144282902456   0.016107710001132567   0.013395489422914346
-0.06009144282902456   0.016107710001132567   0.013395489422914346
-0.06009144282902456   0.016107710001132567   0.013395489422914346
-0.06009144282902456   0.016107710001132567   0.013395489422914346
-0.053187151596891975   -0.011165399514322145   -0.018261753846512123
-0.053187151596891975   -0.011165399514322145   -0.018261753846512123
-0.053187151596891975   -0.011165399514322145   -0.018261753846512123
-0.053187151596891975   -0.011165399514322145   -0.018261753846512123
-0.059448098052068986   0.0005105402020316053   -0.00128081911853992
-0.059448098052068986   0.0005105402020316053   -0.00128081911853992
-0.059448098052068986   0.0005105402020316053   -0.00128081911853992
-0.059448098052068986   0.0005105402020316053   -0.00128081911853992
-0.04034993416625585   0.02027391717297725   0.014485016619369063
-0.04034993416625585   0.02027391717297725   0.014485016619369063
-0.04034993416625585   0.02027391717297725   0.014485016619369063
-0.04034993416625585   0.02027391717297725   0.014485016619369063
-0.0721589592634534   -0.014561905689958278   -0.01627247705813904
-0.0721589592634534   -0.014561905689958278   -0.01627247705813904
-0.0721589592634534   -0.014561905689958278   -0.01627247705813904
-0.0721589592634534   -0.014561905689958278   -0.01627247705813904
-0.055627621425482526   0.02297854145070849   0.011565213092655522
-0.055627621425482526   0.02297854145070849   0.011565213092655522
-0.055627621425482526   0.02297854145070849   0.011565213092655522
-0.055627621425482526   0.02297854145070849   0.011565213092655522
-0.03879058963170233   -0.0015885685484511684   -0.020555425770748762
-0.03879058963170233   -0.0015885685484511684   -0.020555425770748762
-0.03879058963170233   -0.0015885685484511684   -0.020555425770748762
-0.03879058963170233   -0.0015885685484511684   -0.020555425770748762
-0.049962550209616166   0.00648068663356316   0.0031957815294292756
-0.049962550209616166   0.00648068663356316   0.0031957815294292756
-0.049962550209616166   0.00648068663356316   0.0031957815294292756
-0.049962550209616166   0.00648068663356316   0.0031957815294292756
-0.07266669504497394   -0.004200272410750017   0.011246338993853777
-0.07266669504497394   -0.004200272410750017   0.011246338993853777
-0.07266669504497394   -0.004200272410750017   0.011246338993853777
-0.07266669504497394   -0.004200272410750017   0.011246338993853777
-0.09235400767363201   -0.02064403247485064   -0.004432407235939761
-0.09235400767363201   -0.02064403247485064   -0.004432407235939761
-0.09235400767363201   -0.02064403247485064   -0.004432407235939761
-0.09235400767363201   -0.02064403247485064   -0.004432407235939761
-0.08263338805772494   0.0020169774091882663   0.007410587856722394
-0.08263338805772494   0.0020169774091882663   0.007410587856722394
-0.08263338805772494   0.0020169774091882663   0.007410587856722394
-0.08263338805772494   0.0020169774091882663   0.007410587856722394
-0.0737289016134487   -0.009421994975448988   -0.006647573304069575
-0.0737289016134487   -0.009421994975448988   -0.006647573304069575
-0.0737289016134487   -0.009421994975448988   -0.006647573304069575
-0.0737289016134487   -0.009421994975448988   -0.006647573304069575
-0.08043788180516091   -0.007425086791674938   -0.0037871484868613617
-0.08043788180516091   -0.007425086791674938   -0.0037871484868613617
-0.08043788180516091   -0.007425086791674938   -0.0037871484868613617
-0.08043788180516091   -0.007425086791674938   -0.0037871484868613617
-0.06744616066452669   0.005534277174584292   0.009809859290504264
-0.06744616066452669   0.005534277174584292   0.009809859290504264
-0.06744616066452669   0.005534277174584292   0.009809859290504264
-0.06744616066452669   0.005534277174584292   0.009809859290504264
-0.08826850963553504   -0.012291675369733652   -0.006456367253406548
-0.08826850963553504   -0.012291675369733652   -0.006456367253406548
-0.08826850963553504   -0.012291675369733652   -0.006456367253406548
-0.08826850963553504   -0.012291675369733652   -0.006456367253406548
-0.07826749151073012   0.0109234416279969   0.005644615368807286
-0.07826749151073012   0.0109234416279969   0.005644615368807286
-0.07826749151073012   0.0109234416279969   0.005644615368807286
-0.07826749151073012   0.0109234416279969   0.005644615368807286
-0.0678210133920913   -0.0008836708242588517   -0.008260982567027
-0.0678210133920913   -0.0008836708242588517   -0.008260982567027
-0.0678210133920913   -0.0008836708242588517   -0.008260982567027
-0.0678210133920913   -0.0008836708242588517   -0.008260982567027
-0.07518957004196472   0.0008450119713304012   8.224848637906294e-05
-0.07518957004196472   0.0008450119713304012   8.224848637906294e-05
-0.07518957004196472   0.0008450119713304012   8.224848637906294e-05
-0.07518957004196472   0.0008450119713304012   8.224848637906294e-05
-0.061229245808706666   0.014970837166472848   0.008843347359163565
-0.061229245808706666   0.014970837166472848   0.008843347359163565
-0.061229245808706666   0.014970837166472848   0.008843347359163565
-0.061229245808706666   0.014970837166472848   0.008843347359163565
-0.08416807625570766   -0.004239883524329274   -0.00869498320375509
-0.08416807625570766   -0.004239883524329274   -0.00869498320375509
-0.08416807625570766   -0.004239883524329274   -0.00869498320375509
-0.08416807625570766   -0.004239883524329274   -0.00869498320375509
-0.0738766556628426   0.020822407292578154   0.003965627669044415
-0.0738766556628426   0.020822407292578154   0.003965627669044415
-0.0738766556628426   0.020822407292578154   0.003965627669044415
-0.0738766556628426   0.020822407292578154   0.003965627669044415
-0.0627600232287661   0.008635045200129986   -0.009753299673183925
-0.0627600232287661   0.008635045200129986   -0.009753299673183925
-0.0627600232287661   0.008635045200129986   -0.009753299673183925
-0.0627600232287661   0.008635045200129986   -0.009753299673183925
-0.07022344217382608   0.009431909440045495   0.00403698266288245
-0.07022344217382608   0.009431909440045495   0.00403698266288245
-0.07022344217382608   0.009431909440045495   0.00403698266288245
-0.07022344217382608   0.009431909440045495   0.00403698266288245
-0.0891732312789679   -0.012393151223422664   0.003220593485951425
-0.0891732312789679   -0.012393151223422664   0.003220593485951425
-0.0891732312789679   -0.012393151223422664   0.003220593485951425
-0.0891732312789679   -0.012393151223422664   0.003220593485951425
-0.10315809875899365   -0.013276082828484834   0.002653626428144362
-0.10315809875899365   -0.013276082828484834   0.002653626428144362
-0.10315809875899365   -0.013276082828484834   0.002653626428144362
-0.10315809875899365   -0.013276082828484834   0.002653626428144362
-0.0997028716866097   -0.006152350076041266   -0.0009823038821157788
-0.0997028716866097   -0.006152350076041266   -0.0009823038821157788
-0.0997028716866097   -0.006152350076041266   -0.0009823038821157788
-0.0997028716866097   -0.006152350076041266   -0.0009823038821157788
-0.08467550391881636   -0.0016792617079497626   0.0008962476684033546
-0.08467550391881636   -0.0016792617079497626   0.0008962476684033546
-0.08467550391881636   -0.0016792617079497626   0.0008962476684033546
-0.08467550391881636   -0.0016792617079497626   0.0008962476684033546
-0.09431929883801347   -0.007901790408360617   -0.0025371943395896203
-0.09431929883801347   -0.007901790408360617   -0.0025371943395896203
-0.09431929883801347   -0.007901790408360617   -0.0025371943395896203
-0.09431929883801347   -0.007901790408360617   -0.0025371943395896203
-0.08471597057237996   -0.0026296487818698363   0.001644301474503972
-0.08471597057237996   -0.0026296487818698363   0.001644301474503972
-0.08471597057237996   -0.0026296487818698363   0.001644301474503972
-0.08471597057237996   -0.0026296487818698363   0.001644301474503972
-0.0990487767459962   -0.00458833471507011   0.0007241554599814685
-0.0990487767459962   -0.00458833471507011   0.0007241554599814685
-0.0990487767459962   -0.00458833471507011   0.0007241554599814685
-0.0990487767459962   -0.00458833471507011   0.0007241554599814685
-0.09510334206415225   0.0037346085374887032   -0.00247609608830805
-0.09510334206415225   0.0037346085374887032   -0.00247609608830805
-0.09510334206415225   0.0037346085374887032   -0.00247609608830805
-0.09510334206415225   0.0037346085374887032   -0.00247609608830805
-0.08032392276711577   0.007245846267209807   -0.0009599455523338117
-0.08032392276711577   0.007245846267209807   -0.0009599455523338117
-0.08032392276711577   0.007245846267209807   -0.0009599455523338117
-0.08032392276711577   0.007245846267209807   -0.0009599455523338117
-0.08950545353750546   0.0009171587196924805   0.0012938954628116343
-0.08950545353750546   0.0009171587196924805   0.0012938954628116343
-0.08950545353750546   0.0009171587196924805   0.0012938954628116343
-0.08950545353750546   0.0009171587196924805   0.0012938954628116343
-0.08013817725813474   0.007221488640258213   -6.860380478001561e-06
-0.08013817725813474   0.007221488640258213   -6.860380478001561e-06
-0.08013817725813474   0.007221488640258213   -6.860380478001561e-06
-0.08013817725813474   0.007221488640258213   -6.860380478001561e-06
-0.09475183575204084   0.004296217985532577   -0.001280173975794891
-0.09475183575204084   0.004296217985532577   -0.001280173975794891
-0.09475183575204084   0.004296217985532577   -0.001280173975794891
-0.09475183575204084   0.004296217985532577   -0.001280173975794891
-0.09069773402022516   0.013688952869527145   -0.004149714785003788
-0.09069773402022516   0.013688952869527145   -0.004149714785003788
-0.09069773402022516   0.013688952869527145   -0.004149714785003788
-0.09069773402022516   0.013688952869527145   -0.004149714785003788
-0.07619492004912659   0.016207573573146887   -0.00301086054294384
-0.07619492004912659   0.016207573573146887   -0.00301086054294384
-0.07619492004912659   0.016207573573146887   -0.00301086054294384
-0.07619492004912659   0.016207573573146887   -0.00301086054294384
-0.08492493343207963   0.009754042874711193   0.0049444295928666475
-0.08492493343207963   0.009754042874711193   0.0049444295928666475
-0.08492493343207963   0.009754042874711193   0.0049444295928666475
-0.08492493343207963   0.009754042874711193   0.0049444295928666475
-0.10599985688846611   -0.019850013450354635   -0.004981233597349927
-0.10599985688846611   -0.019850013450354635   -0.004981233597349927
-0.10599985688846611   -0.019850013450354635   -0.004981233597349927
-0.10599985688846611   -0.019850013450354635   -0.004981233597349927
-0.11501610709865522   -0.006050750717425415   0.009399332040470817
-0.11501610709865522   -0.006050750717425415   0.009399332040470817
-0.11501610709865522   -0.006050750717425415   0.009399332040470817
-0.11501610709865522   -0.006050750717425415   0.009399332040470817
-0.11701970014447825   -0.01402957983200403   -0.00952374655667583
-0.11701970014447825   -0.01402957983200403   -0.00952374655667583
-0.11701970014447825   -0.01402957983200403   -0.00952374655667583
-0.11701970014447825   -0.01402957983200403   -0.00952374655667583
-0.09549644967413272   0.005880236077845422   0.008017220026382409
-0.09549644967413272   0.005880236077845422   0.008017220026382409
-0.09549644967413272   0.005880236077845422   0.008017220026382409
-0.09549644967413272   0.005880236077845422   0.008017220026382409
-0.10791047111369084   -0.00797705909062683   -0.0016043404222813229
-0.10791047111369084   -0.00797705909062683   -0.0016043404222813229
-0.10791047111369084   -0.00797705909062683   -0.0016043404222813229
-0.10791047111369084   -0.00797705909062683   -0.0016043404222813229
-0.1016741676262943   -0.01037829229028894   -0.006612841366291992
-0.1016741676262943   -0.01037829229028894   -0.006612841366291992
-0.1016741676262943   -0.01037829229028894   -0.006612841366291992
-0.1016741676262943   -0.01037829229028894   -0.006612841366291992
-0.11019914153704459   0.0028717891914035454   0.007677677457084894
-0.11019914153704459   0.0028717891914035454   0.007677677457084894
-0.11019914153704459   0.0028717891914035454   0.007677677457084894
-0.11019914153704459   0.0028717891914035454   0.007677677457084894
-0.11092250561272497   -0.004658333972168711   -0.010688396462210705
-0.11092250561272497   -0.004658333972168711   -0.010688396462210705
-0.11092250561272497   -0.004658333972168711   -0.010688396462210705
-0.11092250561272497   -0.004658333972168711   -0.010688396462210705
-0.09137814287462749   0.013923799349611937   0.0059607090471918145
-0.09137814287462749   0.013923799349611937   0.0059607090471918145
-0.09137814287462749   0.013923799349611937   0.0059607090471918145
-0.09137814287462749   0.013923799349611937   0.0059607090471918145
-0.10239222463471584   0.0005323407692905749   0.0023583020249856954
-0.10239222463471584   0.0005323407692905749   0.0023583020249856954
-0.10239222463471584   0.0005323407692905749   0.0023583020249856954
-0.10239222463471584   0.0005323407692905749   0.0023583020249856954
-0.09736230286888788   -0.0015132270382145901   -0.008523064536284871
-0.09736230286888788   -0.0015132270382145901   -0.008523064536284871
-0.09736230286888788   -0.0015132270382145901   -0.008523064536284871
-0.09736230286888788   -0.0015132270382145901   -0.008523064536284871
-0.10428884520869267   0.011428192825429753   0.006393378760353761
-0.10428884520869267   0.011428192825429753   0.006393378760353761
-0.10428884520869267   0.011428192825429753   0.006393378760353761
-0.10428884520869267   0.011428192825429753   0.006393378760353761
-0.10559716487961765   0.005634876184121965   -0.011740816263528036
-0.10559716487961765   0.005634876184121965   -0.011740816263528036
-0.10559716487961765   0.005634876184121965   -0.011740816263528036
-0.10559716487961765   0.005634876184121965   -0.011740816263528036
-0.08724924416731024   0.02285048883754446   0.003931198511553411
-0.08724924416731024   0.02285048883754446   0.003931198511553411
-0.08724924416731024   0.02285048883754446   0.003931198511553411
-0.08724924416731024   0.02285048883754446   0.003931198511553411
-0.09777045952033443   0.008930781447633238   0.006131443921120012
-0.09777045952033443   0.008930781447633238   0.006131443921120012
-0.09777045952033443   0.008930781447633238   0.006131443921120012
-0.09777045952033443   0.008930781447633238   0.006131443921120012
-0.12290929599207712   -0.02351801115355899   -0.012599351990506597
-0.12290929599207712   -0.02351801115355899   -0.012599351990506597
-0.12290929599207712   -0.02351801115355899   -0.012599351990506597
-0.12290929599207712   -0.02351801115355899   -0.012599351990506597
-0.1381400100277592   0.0013020213665388553   0.0171169925018213
-0.1381400100277592   0.0013020213665388553   0.0171169925018213
-0.1381400100277592   0.0013020213665388553   0.0171169925018213
-0.1381400100277592   0.0013020213665388553   0.0171169925018213
-0.1366124277598381   -0.02000827593252694   -0.01685861517902173
-0.1366124277598381   -0.02000827593252694   -0.01685861517902173
-0.1366124277598381   -0.02000827593252694   -0.01685861517902173
-0.1366124277598381   -0.02000827593252694   -0.01685861517902173
-0.10626359409386954   0.014889349232874514   0.015337854631487752
-0.10626359409386954   0.014889349232874514   0.015337854631487752
-0.10626359409386954   0.014889349232874514   0.015337854631487752
-0.10626359409386954   0.014889349232874514   0.015337854631487752
-0.12088609627499959   -0.005222089839871935   -0.0006201234218701892
-0.12088609627499959   -0.005222089839871935   -0.0006201234218701892
-0.12088609627499959   -0.005222089839871935   -0.0006201234218701892
-0.12088609627499959   -0.005222089839871935   -0.0006201234218701892
-0.11836734315470948   -0.015871536886387132   -0.014420004553451288
-0.11836734315470948   -0.015871536886387132   -0.014420004553451288
-0.11836734315470948   -0.015871536886387132   -0.014420004553451288
-0.11836734315470948   -0.015871536886387132   -0.014420004553451288
-0.12383023672889933   0.011431052156833356   0.015613011886311753
-0.12383023672889933   0.011431052156833356   0.015613011886311753
-0.12383023672889933   0.011431052156833356   0.015613011886311753
-0.12383023672889933   0.011431052156833356   0.015613011886311753
-0.1259397530813617   -0.014554938456063989   -0.0201279791123645
-0.1259397530813617   -0.014554938456063989   -0.0201279791123645
-0.1259397530813617   -0.014554938456063989   -0.0201279791123645
-0.1259397530813617   -0.014554938456063989   -0.0201279791123645
-0.10159264721251762   0.018731619235789795   0.012570942330867538
-0.10159264721251762   0.018731619235789795   0.012570942330867538
-0.10159264721251762   0.018731619235789795   0.012570942330867538
-0.10159264721251762   0.018731619235789795   0.012570942330867538
-0.11381294068965901   0.0004995245872390398   0.003160026126797691
-0.11381294068965901   0.0004995245872390398   0.003160026126797691
-0.11381294068965901   0.0004995245872390398   0.003160026126797691
-0.11381294068965901   0.0004995245872390398   0.003160026126797691
-0.11347288573476201   -0.011379746144320215   -0.016718884900245343
-0.11347288573476201   -0.011379746144320215   -0.016718884900245343
-0.11347288573476201   -0.011379746144320215   -0.016718884900245343
-0.11347288573476201   -0.011379746144320215   -0.016718884900245343
-0.1133465290951361   0.016269412388027114   0.012013789974672598
-0.1133465290951361   0.016269412388027114   0.012013789974672598
-0.1133465290951361   0.016269412388027114   0.012013789974672598
-0.1133465290951361   0.016269412388027114   0.012013789974672598
-0.1118250414730404   -0.005169022521638304   -0.022034158670364824
-0.1118250414730404   -0.005169022521638304   -0.022034158670364824
-0.1118250414730404   -0.005169022521638304   -0.022034158670364824
-0.1118250414730404   -0.005169022521638304   -0.022034158670364824
-0.0974304956983694   0.024373329774585277   0.010354076052249521
-0.0974304956983694   0.024373329774585277   0.010354076052249521
-0.0974304956983694   0.024373329774585277   0.010354076052249521
-0.0974304956983694   0.024373329774585277   0.010354076052249521
-0.1038310853645626   0.006176116974782861   0.0075750895044916135
-0.1038310853645626   0.006176116974782861   0.0075750895044916135
-0.1038310853645626   0.006176116974782861   0.0075750895044916135
-0.1038310853645626   0.006176116974782861   0.0075750895044916135
0.07478257560487983   0.011953497018572859   0.018677485469248783
0.07478257560487983   0.011953497018572859   0.018677485469248783
0.07478257560487983   0.011953497018572859   0.018677485469248783
0.07478257560487983   0.011953497018572859   0.018677485469248783
-0.0009002666754159908   -0.0298748831786401   -0.012214713646111328
-0.0009002666754159908   -0.0298748831786401   -0.012214713646111328
-0.0009002666754159908   -0.0298748831786401   -0.012214713646111328
-0.0009002666754159908   -0.0298748831786401   -0.012214713646111328
0.016379341388388025   0.005681898935385878   0.014394854078464936
0.016379341388388025   0.005681898935385878   0.014394854078464936
0.016379341388388025   0.005681898935385878   0.014394854078464936
0.016379341388388025   0.005681898935385878   0.014394854078464936
0.07761207024849641   -0.010006422188366117   -0.015351952008631884
0.07761207024849641   -0.010006422188366117   -0.015351952008631884
0.07761207024849641   -0.010006422188366117   -0.015351952008631884
0.07761207024849641   -0.010006422188366117   -0.015351952008631884
0.0382539313791555   -0.005628849912585486   -0.008986415713404649
0.0382539313791555   -0.005628849912585486   -0.008986415713404649
0.0382539313791555   -0.005628849912585486   -0.008986415713404649
0.0382539313791555   -0.005628849912585486   -0.008986415713404649
0.09024188793592501   0.020944650231024403   0.01684606400912058
0.09024188793592501   0.020944650231024403   0.01684606400912058
0.09024188793592501   0.020944650231024403   0.01684606400912058
0.09024188793592501   0.020944650231024403   0.01684606400912058
0.004549260662046592   -0.02446943652291748   -0.014604214094938886
0.004549260662046592   -0.02446943652291748   -0.014604214094938886
0.004549260662046592   -0.02446943652291748   -0.014604214094938886
0.004549260662046592   -0.02446943652291748   -0.014604214094938886
0.02250618106458754   0.010022766546987803   0.0119857437985581
0.02250618106458754   0.010022766546987803   0.0119857437985581
0.02250618106458754   0.010022766546987803   0.0119857437985581
0.02250618106458754   0.010022766546987803   0.0119857437985581
0.08959969538499048   -0.0051088228319674765   -0.01913745545544974
0.08959969538499048   -0.0051088228319674765   -0.01913745545544974
0.08959969538499048   -0.0051088228319674765   -0.01913745545544974
0.08959969538499048   -0.0051088228319674765   -0.01913745545544974
0.04909928755123659   -0.0002446961229805693   -0.004300987191110558
0.04909928755123659   -0.0002446961229805693   -0.004300987191110558
0.04909928755123659   -0.0002446961229805693   -0.004300987191110558
0.04909928755123659   -0.0002446961229805693   -0.004300987191110558
0.10234460878042718   0.026240800890330814   0.013237487799433534
0.10234460878042718   0.026240800890330814   0.013237487799433534
0.10234460878042718   0.026240800890330814   0.013237487799433534
0.10234460878042718   0.026240800890330814   0.013237487799433534
0.010533312207362384   -0.020554812637099105   -0.017301021303479786
0.010533312207362384   -0.020554812637099105   -0.017301021303479786
0.010533312207362384   -0.020554812637099105   -0.017301021303479786
0.010533312207362384   -0.020554812637099105   -0.017301021303479786
0.028441720536274192   0.018042694424222412   0.010368578924642621
0.028441720536274192   0.018042694424222412   0.010368578924642621
0.028441720536274192   0.018042694424222412   0.010368578924642621
0.028441720536274192   0.018042694424222412   0.010368578924642621
0.10554071005707692   0.005837509067676713   -0.021083141133968156
0.10554071005707692   0.005837509067676713   -0.021083141133968156
0.10554071005707692   0.005837509067676713   -0.021083141133968156
0.10554071005707692   0.005837509067676713   -0.021083141133968156
0.05806823963163859   0.005827723978534161   9.696741405309226e-05
0.05806823963163859   0.005827723978534161   9.696741405309226e-05
0.05806823963163859   0.005827723978534161   9.696741405309226e-05
0.05806823963163859   0.005827723978534161   9.696741405309226e-05
0.010768463133030847   0.003431461314305363   0.012822590903177396
0.010768463133030847   0.003431461314305363   0.012822590903177396
0.010768463133030847   0.003431461314305363   0.012822590903177396
0.010768463133030847   0.003431461314305363   0.012822590903177396
-0.06890183641929305   -0.02543030144460632   -0.00561621635043144
-0.06890183641929305   -0.02543030144460632   -0.00561621635043144
-0.06890183641929305   -0.02543030144460632   -0.00561621635043144
-0.06890183641929305   -0.02543030144460632   -0.00561621635043144
-0.05809927455093193   -0.0038094642973100475   0.005785453024108374
-0.05809927455093193   -0.0038094642973100475   0.005785453024108374
-0.05809927455093193   -0.0038094642973100475   0.005785453024108374
-0.05809927455093193   -0.0038094642973100475   0.005785453024108374
0.010974608124708523   -0.002568459378490255   -0.004378453926056456
0.010974608124708523   -0.002568459378490255   -0.004378453926056456
0.010974608124708523   -0.002568459378490255   -0.004378453926056456
0.010974608124708523   -0.002568459378490255   -0.004378453926056456
-0.026902302741302356   -0.006444109871995378   -0.004282450292902246
-0.026902302741302356   -0.006444109871995378   -0.004282450292902246
-0.026902302741302356   -0.006444109871995378   -0.004282450292902246
-0.026902302741302356   -0.006444109871995378   -0.004282450292902246
0.01710811595188011   0.012349206970577602   0.011371418860734573
0.01710811595188011   0.012349206970577602   0.011371418860734573
0.01710811595188011   0.012349206970577602   0.011371418860734573
0.01710811595188011   0.012349206970577602   0.011371418860734573
-0.06364355998122877   -0.018137908249502992   -0.00760753017518285
-0.06364355998122877   -0.018137908249502992   -0.00760753017518285
-0.06364355998122877   -0.018137908249502992   -0.00760753017518285
-0.06364355998122877   -0.018137908249502992   -0.00760753017518285
-0.05252571045968355   0.004643428965384019   0.004079213448787282
-0.05252571045968355   0.004643428965384019   0.004079213448787282
-0.05252571045968355   0.004643428965384019   0.004079213448787282
-0.05252571045968355   0.004643428965384019   0.004079213448787282
0.01799903445543126   0.005410957776202473   -0.005938180476437961
0.01799903445543126   0.005410957776202473   -0.005938180476437961
0.01799903445543126   0.005410957776202473   -0.005938180476437961
0.01799903445543126   0.005410957776202473   -0.005938180476437961
-0.02098735145111036   0.0009804599903899631   -0.0005539457480118423
-0.02098735145111036   0.0009804599903899631   -0.0005539457480118423
-0.02098735145111036   0.0009804599903899631   -0.0005539457480118423
-0.02098735145111036   0.0009804599903899631   -0.0005539457480118423
0.02439509452278376   0.02125196899952247   0.010201108637004547
0.02439509452278376   0.02125196899952247   0.010201108637004547
0.02439509452278376   0.02125196899952247   0.010201108637004547
0.02439509452278376   0.02125196899952247   0.010201108637004547
-0.058351871685981965   -0.01062768341687933   -0.009780480300441423
-0.058351871685981965   -0.01062768341687933   -0.009780480300441423
-0.058351871685981965   -0.01062768341687933   -0.009780480300441423
-0.058351871685981965   -0.01062768341687933   -0.009780480300441423
-0.04691295006127823   0.014245753662774625   0.0024531694725513833
-0.04691295006127823   0.014245753662774625   0.0024531694725513833
-0.04691295006127823   0.014245753662774625   0.0024531694725513833
-0.04691295006127823   0.014245753662774625   0.0024531694725513833
0.02414680060204015   0.014503362312348712   -0.00756668863465486
0.02414680060204015   0.014503362312348712   -0.00756668863465486
0.02414680060204015   0.014503362312348712   -0.00756668863465486
0.02414680060204015   0.014503362312348712   -0.00756668863465486
-0.014400599433701686   0.009222438628174222   0.0034376182969225715
-0.014400599433701686   0.009222438628174222   0.0034376182969225715
-0.014400599433701686   0.009222438628174222   0.0034376182969225715
-0.014400599433701686   0.009222438628174222   0.0034376182969225715
-0.06271614416936144   -0.004785023754385837   0.004666967209007124
-0.06271614416936144   -0.004785023754385837   0.004666967209007124
-0.06271614416936144   -0.004785023754385837   0.004666967209007124
-0.06271614416936144   -0.004785023754385837   0.004666967209007124
-0.13563770095685365   -0.01831854511594424   0.0011065659958501375
-0.13563770095685365   -0.01831854511594424   0.0011065659958501375
-0.13563770095685365   -0.01831854511594424   0.0011065659958501375
-0.13563770095685365   -0.01831854511594424   0.0011065659958501375
-0.13080562325257616   -0.011592361968079098   -0.002539134298491184
-0.13080562325257616   -0.011592361968079098   -0.002539134298491184
-0.13080562325257616   -0.011592361968079098   -0.002539134298491184
-0.13080562325257616   -0.011592361968079098   -0.002539134298491184
-0.056964608932234234   0.0048266894869878636   0.002822627333298967
-0.056964608932234234   0.0048266894869878636   0.002822627333298967
-0.056964608932234234   0.0048266894869878636   0.002822627333298967
-0.056964608932234234   0.0048266894869878636   0.002822627333298967
-0.0966702468545369   -0.006869696086487423   -0.002525658069790845
-0.0966702468545369   -0.006869696086487423   -0.002525658069790845
-0.0966702468545369   -0.006869696086487423   -0.002525658069790845
-0.0966702468545369   -0.006869696086487423   -0.002525658069790845
-0.05701267497094061   0.004296543227746426   0.0031124433990085444
-0.05701267497094061   0.004296543227746426   0.0031124433990085444
-0.05701267497094061   0.004296543227746426   0.0031124433990085444
-0.05701267497094061   0.004296543227746426   0.0031124433990085444
-0.1302458072974156   -0.010550465792384747   -0.0007819506983827223
-0.1302458072974156   -0.010550465792384747   -0.0007819506983827223
-0.1302458072974156   -0.010550465792384747   -0.0007819506983827223
-0.1302458072974156   -0.010550465792384747   -0.0007819506983827223
-0.12493347088996151   -0.0022823932625542255   -0.003991595078308224
-0.12493347088996151   -0.0022823932625542255   -0.003991595078308224
-0.12493347088996151   -0.0022823932625542255   -0.003991595078308224
-0.12493347088996151   -0.0022823932625542255   -0.003991595078308224
-0.05144843475840928   0.013041620334384834   0.0010674005861588051
-0.05144843475840928   0.013041620334384834   0.0010674005861588051
-0.05144843475840928   0.013041620334384834   0.0010674005861588051
-0.05144843475840928   0.013041620334384834   0.0010674005861588051
-0.09059888106749714   0.0012920555504506055   0.0012421152646229254
-0.09059888106749714   0.0012920555504506055   0.0012421152646229254
-0.09059888106749714   0.0012920555504506055   0.0012421152646229254
-0.09059888106749714   0.0012920555504506055   0.0012421152646229254
-0.05127547974631117   0.013535235981703607   0.0014385599993305903
-0.05127547974631117   0.013535235981703607   0.0014385599993305903
-0.05127547974631117   0.013535235981703607   0.0014385599993305903
-0.05127547974631117   0.013535235981703607   0.0014385599993305903
-0.124692675004136   -0.0023622580119508664   -0.0027077508997853028
-0.124692675004136   -0.0023622580119508664   -0.0027077508997853028
-0.124692675004136   -0.0023622580119508664   -0.0027077508997853028
-0.124692675004136   -0.0023622580119508664   -0.0027077508997853028
-0.11929561427489849   0.007062471021965264   -0.005635679073080076
-0.11929561427489849   0.007062471021965264   -0.005635679073080076
-0.11929561427489849   0.007062471021965264   -0.005635679073080076
-0.11929561427489849   0.007062471021965264   -0.005635679073080076
-0.04618992823484807   0.0212804893285963   -0.0009664570611195179
-0.04618992823484807   0.0212804893285963   -0.0009664570611195179
-0.04618992823484807   0.0212804893285963   -0.0009664570611195179
-0.04618992823484807   0.0212804893285963   -0.0009664570611195179
-0.08485558579990177   0.009435713999372718   0.004764257624189301
-0.08485558579990177   0.009435713999372718   0.004764257624189301
-0.08485558579990177   0.009435713999372718   0.004764257624189301
-0.08485558579990177   0.009435713999372718   0.004764257624189301
-0.13549115374763582   -0.012767895891763706   -0.0037113471822400384
-0.13549115374763582   -0.012767895891763706   -0.0037113471822400384
-0.13549115374763582   -0.012767895891763706   -0.0037113471822400384
-0.13549115374763582   -0.012767895891763706   -0.0037113471822400384
-0.20203818674617827   -0.011622287157121502   0.007678819285431103
-0.20203818674617827   -0.011622287157121502   0.007678819285431103
-0.20203818674617827   -0.011622287157121502   0.007678819285431103
-0.20203818674617827   -0.011622287157121502   0.007678819285431103
-0.20239484936039934   -0.019245980331628127   -0.010715462334718734
-0.20239484936039934   -0.019245980331628127   -0.010715462334718734
-0.20239484936039934   -0.019245980331628127   -0.010715462334718734
-0.20239484936039934   -0.019245980331628127   -0.010715462334718734
-0.12367296582274169   0.011973807363950421   0.009557983518651647
-0.12367296582274169   0.011973807363950421   0.009557983518651647
-0.12367296582274169   0.011973807363950421   0.009557983518651647
-0.12367296582274169   0.011973807363950421   0.009557983518651647
-0.16495747305222866   -0.007137226960024379   -0.0010889279912680233
-0.16495747305222866   -0.007137226960024379   -0.0010889279912680233
-0.16495747305222866   -0.007137226960024379   -0.0010889279912680233
-0.16495747305222866   -0.007137226960024379   -0.0010889279912680233
-0.1297471211770715   -0.0036176161715220367   -0.005221369717523782
-0.1297471211770715   -0.0036176161715220367   -0.005221369717523782
-0.1297471211770715   -0.0036176161715220367   -0.005221369717523782
-0.1297471211770715   -0.0036176161715220367   -0.005221369717523782
-0.19588934612248807   -0.003223208912571225   0.005789282435782134
-0.19588934612248807   -0.003223208912571225   0.005789282435782134
-0.19588934612248807   -0.003223208912571225   0.005789282435782134
-0.19588934612248807   -0.003223208912571225   0.005789282435782134
-0.19497592238822242   -0.010373235075867938   -0.011926683566604965
-0.19497592238822242   -0.010373235075867938   -0.011926683566604965
-0.19497592238822242   -0.010373235075867938   -0.011926683566604965
-0.19497592238822242   -0.010373235075867938   -0.011926683566604965
-0.11826823078480476   0.019440462018587512   0.0076117501663339
-0.11826823078480476   0.019440462018587512   0.0076117501663339
-0.11826823078480476   0.019440462018587512   0.0076117501663339
-0.11826823078480476   0.019440462018587512   0.0076117501663339
-0.15760524031451317   0.0010984436268446154   0.0028050788640949977
-0.15760524031451317   0.0010984436268446154   0.0028050788640949977
-0.15760524031451317   0.0010984436268446154   0.0028050788640949977
-0.15760524031451317   0.0010984436268446154   0.0028050788640949977
-0.1241379047762643   0.004767061337807729   -0.007063219110184742
-0.1241379047762643   0.004767061337807729   -0.007063219110184742
-0.1241379047762643   0.004767061337807729   -0.007063219110184742
-0.1241379047762643   0.004767061337807729   -0.007063219110184742
-0.18862306087567116   0.004783353126003427   0.004681035794279904
-0.18862306087567116   0.004783353126003427   0.004681035794279904
-0.18862306087567116   0.004783353126003427   0.004681035794279904
-0.18862306087567116   0.004783353126003427   0.004681035794279904
-0.18834798797866276   -0.0007253305195645474   -0.012849154462639116
-0.18834798797866276   -0.0007253305195645474   -0.012849154462639116
-0.18834798797866276   -0.0007253305195645474   -0.012849154462639116
-0.18834798797866276   -0.0007253305195645474   -0.012849154462639116
-0.11292205675659218   0.027646462656919286   0.005648116883497497
-0.11292205675659218   0.027646462656919286   0.005648116883497497
-0.11292205675659218   0.027646462656919286   0.005648116883497497
-0.11292205675659218   0.027646462656919286   0.005648116883497497
-0.15220458865032657   0.008740732759869474   0.006283404561502079
-0.15220458865032657   0.008740732759869474   0.006283404561502079
-0.15220458865032657   0.008740732759869474   0.006283404561502079
-0.15220458865032657   0.008740732759869474   0.006283404561502079
-0.20718851228109647   -0.018225080578124307   -0.011470014968157211
-0.20718851228109647   -0.018225080578124307   -0.011470014968157211
-0.20718851228109647   -0.018225080578124307   -0.011470014968157211
-0.20718851228109647   -0.018225080578124307   -0.011470014968157211
-0.27803991307790527   -0.005303186158695329   0.01691952239392739
-0.27803991307790527   -0.005303186158695329   0.01691952239392739
-0.27803991307790527   -0.005303186158695329   0.01691952239392739
-0.27803991307790527   -0.005303186158695329   0.01691952239392739
-0.274591972334494   -0.02492776894595431   -0.015419358022024291
-0.274591972334494   -0.02492776894595431   -0.015419358022024291
-0.274591972334494   -0.02492776894595431   -0.015419358022024291
-0.274591972334494   -0.02492776894595431   -0.015419358022024291
-0.18900042526605146   0.02033320732709301   0.01667747047829956
-0.18900042526605146   0.02033320732709301   0.01667747047829956
-0.18900042526605146   0.02033320732709301   0.01667747047829956
-0.18900042526605146   0.02033320732709301   0.01667747047829956
-0.22694761731700622   -0.0040737168998565415   0.00202187953949424
-0.22694761731700622   -0.0040737168998565415   0.00202187953949424
-0.22694761731700622   -0.0040737168998565415   0.00202187953949424
-0.22694761731700622   -0.0040737168998565415   0.00202187953949424
-0.20094238840471057   -0.009711506777644346   -0.012987631110257877
-0.20094238840471057   -0.009711506777644346   -0.012987631110257877
-0.20094238840471057   -0.009711506777644346   -0.012987631110257877
-0.20094238840471057   -0.009711506777644346   -0.012987631110257877
-0.26225273422793544   0.005514220126681804   0.015834843438127542
-0.26225273422793544   0.005514220126681804   0.015834843438127542
-0.26225273422793544   0.005514220126681804   0.015834843438127542
-0.26225273422793544   0.005514220126681804   0.015834843438127542
-0.2626993188079248   -0.019680527647538686   -0.018383120490367742
-0.2626993188079248   -0.019680527647538686   -0.018383120490367742
-0.2626993188079248   -0.019680527647538686   -0.018383120490367742
-0.2626993188079248   -0.019680527647538686   -0.018383120490367742
-0.1830050567278675   0.023786356301733563   0.013768053357567017
-0.1830050567278675   0.023786356301733563   0.013768053357567017
-0.1830050567278675   0.023786356301733563   0.013768053357567017
-0.1830050567278675   0.023786356301733563   0.013768053357567017
-0.22042263497094583   0.001455597780788874   0.005147833887052594
-0.22042263497094583   0.001455597780788874   0.005147833887052594
-0.22042263497094583   0.001455597780788874   0.005147833887052594
-0.22042263497094583   0.001455597780788874   0.005147833887052594
-0.1946006347749403   -0.005390719048400619   -0.015032761527661842
-0.1946006347749403   -0.005390719048400619   -0.015032761527661842
-0.1946006347749403   -0.005390719048400619   -0.015032761527661842
-0.1946006347749403   -0.005390719048400619   -0.015032761527661842
-0.25062353683089034   0.00997675163255679   0.01233851011470603
-0.25062353683089034   0.00997675163255679   0.01233851011470603
-0.25062353683089034   0.00997675163255679   0.01233851011470603
-0.25062353683089034   0.00997675163255679   0.01233851011470603
-0.24794418710726054   -0.011908488061160835   -0.020541321717589885
-0.24794418710726054   -0.011908488061160835   -0.020541321717589885
-0.24794418710726054   -0.011908488061160835   -0.020541321717589885
-0.24794418710726054   -0.011908488061160835   -0.020541321717589885
-0.17777032370385382   0.027849103156998664   0.011464733234842421
-0.17777032370385382   0.027849103156998664   0.011464733234842421
-0.17777032370385382   0.027849103156998664   0.011464733234842421
-0.17777032370385382   0.027849103156998664   0.011464733234842421
-0.20763794465241686   0.006597028350862531   0.009597425138703387
-0.20763794465241686   0.006597028350862531   0.009597425138703387
-0.20763794465241686   0.006597028350862531   0.009597425138703387
-0.20763794465241686   0.006597028350862531   0.009597425138703387
0.2166851121043342   0.019768670277681193   0.01841767485574495
0.2166851121043342   0.019768670277681193   0.01841767485574495
0.2166851121043342   0.019768670277681193   0.01841767485574495
0.2166851121043342   0.019768670277681193   0.01841767485574495
0.07890540865293624   -0.035253691992029865   -0.01210354685840535
0.07890540865293624   -0.035253691992029865   -0.01210354685840535
0.07890540865293624   -0.035253691992029865   -0.01210354685840535
0.07890540865293624   -0.035253691992029865   -0.01210354685840535
0.09681344307262882   -0.0004532877437168001   0.013212347390482293
0.09681344307262882   -0.0004532877437168001   0.013212347390482293
0.09681344307262882   -0.0004532877437168001   0.013212347390482293
0.09681344307262882   -0.0004532877437168001   0.013212347390482293
0.22025502365165614   -0.004318750863784207   -0.015479444948071748
0.22025502365165614   -0.004318750863784207   -0.015479444948071748
0.22025502365165614   -0.004318750863784207   -0.015479444948071748
0.22025502365165614   -0.004318750863784207   -0.015479444948071748
0.14375078879336348   -0.006202317857258374   -0.013698851806427404
0.14375078879336348   -0.006202317857258374   -0.013698851806427404
0.14375078879336348   -0.006202317857258374   -0.013698851806427404
0.14375078879336348   -0.006202317857258374   -0.013698851806427404
0.23287904873714374   0.027318124861838135   0.016003804753742037
0.23287904873714374   0.027318124861838135   0.016003804753742037
0.23287904873714374   0.027318124861838135   0.016003804753742037
0.23287904873714374   0.027318124861838135   0.016003804753742037
0.0851011082812903   -0.031178473175190215   -0.014624141134735927
0.0851011082812903   -0.031178473175190215   -0.014624141134735927
0.0851011082812903   -0.031178473175190215   -0.014624141134735927
0.0851011082812903   -0.031178473175190215   -0.014624141134735927
0.10371745746590118   0.0037155033222788687   0.010866413234871298
0.10371745746590118   0.0037155033222788687   0.010866413234871298
0.10371745746590118   0.0037155033222788687   0.010866413234871298
0.10371745746590118   0.0037155033222788687   0.010866413234871298
0.23307138364366387   0.00040604953396944365   -0.01941542623829251
0.23307138364366387   0.00040604953396944365   -0.01941542623829251
0.23307138364366387   0.00040604953396944365   -0.01941542623829251
0.23307138364366387   0.00040604953396944365   -0.01941542623829251
0.15721576044163577   -0.0011216294477151487   -0.008348677265396226
0.15721576044163577   -0.0011216294477151487   -0.008348677265396226
0.15721576044163577   -0.0011216294477151487   -0.008348677265396226
0.15721576044163577   -0.0011216294477151487   -0.008348677265396226
0.24581471671147798   0.03241927520947424   0.01228801342527137
0.24581471671147798   0.03241927520947424   0.01228801342527137
0.24581471671147798   0.03241927520947424   0.01228801342527137
0.24581471671147798   0.03241927520947424   0.01228801342527137
0.09192772920828478   -0.02734411754302836   -0.017022607187902463
0.09192772920828478   -0.02734411754302836   -0.017022607187902463
0.09192772920828478   -0.02734411754302836   -0.017022607187902463
0.09192772920828478   -0.02734411754302836   -0.017022607187902463
0.11061574199571193   0.012952530331790932   0.00941693324796794
0.11061574199571193   0.012952530331790932   0.00941693324796794
0.11061574199571193   0.012952530331790932   0.00941693324796794
0.11061574199571193   0.012952530331790932   0.00941693324796794
0.24994322604753438   0.0127174963424877   -0.02091644802894346
0.24994322604753438   0.0127174963424877   -0.02091644802894346
0.24994322604753438   0.0127174963424877   -0.02091644802894346
0.24994322604753438   0.0127174963424877   -0.02091644802894346
0.1653100875231883   0.005100788462779789   -0.003768839608631105
0.1653100875231883   0.005100788462779789   -0.003768839608631105
0.1653100875231883   0.005100788462779789   -0.003768839608631105
0.1653100875231883   0.005100788462779789   -0.003768839608631105
0.09358918086837009   0.011169558106966019   0.014892064119767113
0.09358918086837009   0.011169558106966019   0.014892064119767113
0.09358918086837009   0.011169558106966019   0.014892064119767113
0.09358918086837009   0.011169558106966019   0.014892064119767113
-0.04645338427393694   -0.03292516643556276   -0.006370716523120573
-0.04645338427393694   -0.03292516643556276   -0.006370716523120573
-0.04645338427393694   -0.03292516643556276   -0.006370716523120573
-0.04645338427393694   -0.03292516643556276   -0.006370716523120573
-0.03424936003317703   -0.009851556647618238   0.004430027886189188
-0.03424936003317703   -0.009851556647618238   0.004430027886189188
-0.03424936003317703   -0.009851556647618238   0.004430027886189188
-0.03424936003317703   -0.009851556647618238   0.004430027886189188
0.09406032487338958   0.0008460782220657791   -0.0018526095714955539
0.09406032487338958   0.0008460782220657791   -0.0018526095714955539
0.09406032487338958   0.0008460782220657791   -0.0018526095714955539
0.09406032487338958   0.0008460782220657791   -0.0018526095714955539
0.025499875076951926   -0.006792382777689815   -0.005774148837936109
0.025499875076951926   -0.006792382777689815   -0.005774148837936109
0.025499875076951926   -0.006792382777689815   -0.005774148837936109
0.025499875076951926   -0.006792382777689815   -0.005774148837936109
0.1007051820644771   0.01891408092989676   0.013303673676110062
0.1007051820644771   0.01891408092989676   0.013303673676110062
0.1007051820644771   0.01891408092989676   0.013303673676110062
0.1007051820644771   0.01891408092989676   0.013303673676110062
-0.040330344571740805   -0.02735568670292581   -0.008470764751323096
-0.040330344571740805   -0.02735568670292581   -0.008470764751323096
-0.040330344571740805   -0.02735568670292581   -0.008470764751323096
-0.040330344571740805   -0.02735568670292581   -0.008470764751323096
-0.02782902148849388   -0.0020108598777521017   0.0027807871977143057
-0.02782902148849388   -0.0020108598777521017   0.0027807871977143057
-0.02782902148849388   -0.0020108598777521017   0.0027807871977143057
-0.02782902148849388   -0.0020108598777521017   0.0027807871977143057
0.10167024533558149   0.007850395828660296   -0.0035045399231075887
0.10167024533558149   0.007850395828660296   -0.0035045399231075887
0.10167024533558149   0.007850395828660296   -0.0035045399231075887
0.10167024533558149   0.007850395828660296   -0.0035045399231075887
0.03168145726494693   -0.0006138340300702351   -0.002287151876271336
0.03168145726494693   -0.0006138340300702351   -0.002287151876271336
0.03168145726494693   -0.0006138340300702351   -0.002287151876271336
0.03168145726494693   -0.0006138340300702351   -0.002287151876271336
0.10858510066132103   0.027083194682931598   0.011836937851317893
0.10858510066132103   0.027083194682931598   0.011836937851317893
0.10858510066132103   0.027083194682931598   0.011836937851317893
0.10858510066132103   0.027083194682931598   0.011836937851317893
-0.03418119659320987   -0.02068097851099745   -0.010309969692620293
-0.03418119659320987   -0.02068097851099745   -0.010309969692620293
-0.03418119659320987   -0.02068097851099745   -0.010309969692620293
-0.03418119659320987   -0.02068097851099745   -0.010309969692620293
-0.02147949575629995   0.007120153209773715   0.0011435622108255878
-0.02147949575629995   0.007120153209773715   0.0011435622108255878
-0.02147949575629995   0.007120153209773715   0.0011435622108255878
-0.02147949575629995   0.007120153209773715   0.0011435622108255878
0.10838500534920163   0.01623175733193483   -0.005015976984726454
0.10838500534920163   0.01623175733193483   -0.005015976984726454
0.10838500534920163   0.01623175733193483   -0.005015976984726454
0.10838500534920163   0.01623175733193483   -0.005015976984726454
0.03941705636429526   0.007003129827049767   0.0017961851128628192
0.03941705636429526   0.007003129827049767   0.0017961851128628192
0.03941705636429526   0.007003129827049767   0.0017961851128628192
0.03941705636429526   0.007003129827049767   0.0017961851128628192
-0.03681637156394339   0.0025018697347705624   0.006387310856513867
-0.03681637156394339   0.0025018697347705624   0.006387310856513867
-0.03681637156394339   0.0025018697347705624   0.006387310856513867
-0.03681637156394339   0.0025018697347705624   0.006387310856513867
-0.1693434978905597   -0.029178922273694657   -0.0009100616485793044
-0.1693434978905597   -0.029178922273694657   -0.0009100616485793044
-0.1693434978905597   -0.029178922273694657   -0.0009100616485793044
-0.1693434978905597   -0.029178922273694657   -0.0009100616485793044
-0.16177758393101435   -0.01749163676519432   -0.003956028928831834
-0.16177758393101435   -0.01749163676519432   -0.003956028928831834
-0.16177758393101435   -0.01749163676519432   -0.003956028928831834
-0.16177758393101435   -0.01749163676519432   -0.003956028928831834
-0.031361476026233556   0.0048209940497955656   0.004196897223491768
-0.031361476026233556   0.0048209940497955656   0.004196897223491768
-0.031361476026233556   0.0048209940497955656   0.004196897223491768
-0.031361476026233556   0.0048209940497955656   0.004196897223491768
-0.09999433227462468   -0.008915413432196198   -0.0036191652113145285
-0.09999433227462468   -0.008915413432196198   -0.0036191652113145285
-0.09999433227462468   -0.008915413432196198   -0.0036191652113145285
-0.09999433227462468   -0.008915413432196198   -0.0036191652113145285
-0.03007121329050735   0.010612236782547763   0.004856968169371585
-0.03007121329050735   0.010612236782547763   0.004856968169371585
-0.03007121329050735   0.010612236782547763   0.004856968169371585
-0.03007121329050735   0.010612236782547763   0.004856968169371585
-0.16267731883379885   -0.022892351665004626   -0.003053988542943916
-0.16267731883379885   -0.022892351665004626   -0.003053988542943916
-0.16267731883379885   -0.022892351665004626   -0.003053988542943916
-0.16267731883379885   -0.022892351665004626   -0.003053988542943916
-0.15469234830974676   -0.008888412126655067   -0.005338848167703209
-0.15469234830974676   -0.008888412126655067   -0.005338848167703209
-0.15469234830974676   -0.008888412126655067   -0.005338848167703209
-0.15469234830974676   -0.008888412126655067   -0.005338848167703209
-0.02511765395662334   0.01190321188919095   0.002423553090123939
-0.02511765395662334   0.01190321188919095   0.002423553090123939
-0.02511765395662334   0.01190321188919095   0.002423553090123939
-0.02511765395662334   0.01190321188919095   0.002423553090123939
-0.09284102758802497   -0.0017234344369505515   -4.715837564995325e-05
-0.09284102758802497   -0.0017234344369505515   -4.715837564995325e-05
-0.09284102758802497   -0.0017234344369505515   -4.715837564995325e-05
-0.09284102758802497   -0.0017234344369505515   -4.715837564995325e-05
-0.023555213866938755   0.01902881456749562   0.003110150860242208
-0.023555213866938755   0.01902881456749562   0.003110150860242208
-0.023555213866938755   0.01902881456749562   0.003110150860242208
-0.023555213866938755   0.01902881456749562   0.003110150860242208
-0.1558949566193999   -0.01565418302492827   -0.004586118817695621
-0.1558949566193999   -0.01565418302492827   -0.004586118817695621
-0.1558949566193999   -0.01565418302492827   -0.004586118817695621
-0.1558949566193999   -0.01565418302492827   -0.004586118817695621
-0.14809137678884288   -0.00030158010504637706   -0.006975355675345777
-0.14809137678884288   -0.00030158010504637706   -0.006975355675345777
-0.14809137678884288   -0.00030158010504637706   -0.006975355675345777
-0.14809137678884288   -0.00030158010504637706   -0.006975355675345777
-0.019177128154156352   0.019123761444940456   0.0006517919863777985
-0.019177128154156352   0.019123761444940456   0.0006517919863777985
-0.019177128154156352   0.019123761444940456   0.0006517919863777985
-0.019177128154156352   0.019123761444940456   0.0006517919863777985
-0.08628126513681322   0.005444473683967461   0.0033460729428326334
-0.08628126513681322   0.005444473683967461   0.0033460729428326334
-0.08628126513681322   0.005444473683967461   0.0033460729428326334
-0.08628126513681322   0.005444473683967461   0.0033460729428326334
-0.16504316746638403   -0.006230427932106517   -0.002356903869288207
-0.16504316746638403   -0.006230427932106517   -0.002356903869288207
-0.16504316746638403   -0.006230427932106517   -0.002356903869288207
-0.16504316746638403   -0.006230427932106517   -0.002356903869288207
-0.2899210291650598   -0.023834675215841275   0.005275659314798694
-0.2899210291650598   -0.023834675215841275   0.005275659314798694
-0.2899210291650598   -0.023834675215841275   0.005275659314798694
-0.2899210291650598   -0.023834675215841275   0.005275659314798694
-0.28649097124640494   -0.024873798397031792   -0.011862039862596105
-0.28649097124640494   -0.024873798397031792   -0.011862039862596105
-0.28649097124640494   -0.024873798397031792   -0.011862039862596105
-0.28649097124640494   -0.024873798397031792   -0.011862039862596105
-0.15313456251032065   0.01133327627269673   0.010434165136746783
-0.15313456251032065   0.01133327627269673   0.010434165136746783
-0.15313456251032065   0.01133327627269673   0.010434165136746783
-0.15313456251032065   0.01133327627269673   0.010434165136746783
-0.22210195939794647   -0.009570371720890855   -0.0012764961352829552
-0.22210195939794647   -0.009570371720890855   -0.0012764961352829552
-0.22210195939794647   -0.009570371720890855   -0.0012764961352829552
-0.22210195939794647   -0.009570371720890855   -0.0012764961352829552
-0.15771613761791436   0.0025212412295671435   -0.003661675358092092
-0.15771613761791436   0.0025212412295671435   -0.003661675358092092
-0.15771613761791436   0.0025212412295671435   -0.003661675358092092
-0.15771613761791436   0.0025212412295671435   -0.003661675358092092
-0.2818488827936351   -0.016001250008725695   0.0024758540129491413
-0.2818488827936351   -0.016001250008725695   0.0024758540129491413
-0.2818488827936351   -0.016001250008725695   0.0024758540129491413
-0.2818488827936351   -0.016001250008725695   0.0024758540129491413
-0.2771835875286317   -0.01648952518336575   -0.013122829099605495
-0.2771835875286317   -0.01648952518336575   -0.013122829099605495
-0.2771835875286317   -0.01648952518336575   -0.013122829099605495
-0.2771835875286317   -0.01648952518336575   -0.013122829099605495
-0.1465624201792189   0.01806243236442455   0.008359947993857912
-0.1465624201792189   0.01806243236442455   0.008359947993857912
-0.1465624201792189   0.01806243236442455   0.008359947993857912
-0.1465624201792189   0.01806243236442455   0.008359947993857912
-0.21258182010897925   -0.0016333941925657028   0.0023238512494936324
-0.21258182010897925   -0.0016333941925657028   0.0023238512494936324
-0.21258182010897925   -0.0016333941925657028   0.0023238512494936324
-0.21258182010897925   -0.0016333941925657028   0.0023238512494936324
-0.1508646086549409   0.010317603339356538   -0.005406165359684802
-0.1508646086549409   0.010317603339356538   -0.005406165359684802
-0.1508646086549409   0.010317603339356538   -0.005406165359684802
-0.1508646086549409   0.010317603339356538   -0.005406165359684802
-0.27261227392343723   -0.00847557102882543   0.0017197847718264103
-0.27261227392343723   -0.00847557102882543   0.0017197847718264103
-0.27261227392343723   -0.00847557102882543   0.0017197847718264103
-0.27261227392343723   -0.00847557102882543   0.0017197847718264103
-0.2688662806349748   -0.007434230470846924   -0.013811124876950904
-0.2688662806349748   -0.007434230470846924   -0.013811124876950904
-0.2688662806349748   -0.007434230470846924   -0.013811124876950904
-0.2688662806349748   -0.007434230470846924   -0.013811124876950904
-0.14019784270422198   0.025422161726990133   0.006768572915723449
-0.14019784270422198   0.025422161726990133   0.006768572915723449
-0.14019784270422198   0.025422161726990133   0.006768572915723449
-0.14019784270422198   0.025422161726990133   0.006768572915723449
-0.20628506508006106   0.005121195896314414   0.005418545506103413
-0.20628506508006106   0.005121195896314414   0.005418545506103413
-0.20628506508006106   0.005121195896314414   0.005418545506103413
-0.20628506508006106   0.005121195896314414   0.005418545506103413
-0.29097363830422585   -0.013365206668432862   -0.01045685492843972
-0.29097363830422585   -0.013365206668432862   -0.01045685492843972
-0.29097363830422585   -0.013365206668432862   -0.01045685492843972
-0.29097363830422585   -0.013365206668432862   -0.01045685492843972
-0.4156913584326573   -0.015130376104640658   0.01806221516242672
-0.4156913584326573   -0.015130376104640658   0.01806221516242672
-0.4156913584326573   -0.015130376104640658   0.01806221516242672
-0.4156913584326573   -0.015130376104640658   0.01806221516242672
-0.40833597106572983   -0.029672089919669034   -0.014013469955832268
-0.40833597106572983   -0.029672089919669034   -0.014013469955832268
-0.40833597106572983   -0.029672089919669034   -0.014013469955832268
-0.40833597106572983   -0.029672089919669034   -0.014013469955832268
-0.2708715567516559   0.02292395447789157   0.018437279736225855
-0.2708715567516559   0.02292395447789157   0.018437279736225855
-0.2708715567516559   0.02292395447789157   0.018437279736225855
-0.2708715567516559   0.02292395447789157   0.018437279736225855
-0.33106490148416556   -0.004078242457131787   0.004045844069466186
-0.33106490148416556   -0.004078242457131787   0.004045844069466186
-0.33106490148416556   -0.004078242457131787   0.004045844069466186
-0.33106490148416556   -0.004078242457131787   0.004045844069466186
-0.28226822851402233   -0.003983560281419815   -0.011638564316293676
-0.28226822851402233   -0.003983560281419815   -0.011638564316293676
-0.28226822851402233   -0.003983560281419815   -0.011638564316293676
-0.28226822851402233   -0.003983560281419815   -0.011638564316293676
-0.39671754580098295   -0.0025428216579750224   0.016949388106204652
-0.39671754580098295   -0.0025428216579750224   0.016949388106204652
-0.39671754580098295   -0.0025428216579750224   0.016949388106204652
-0.39671754580098295   -0.0025428216579750224   0.016949388106204652
-0.39408770322182163   -0.02449039848517484   -0.016533074083020825
-0.39408770322182163   -0.02449039848517484   -0.016533074083020825
-0.39408770322182163   -0.02449039848517484   -0.016533074083020825
-0.39408770322182163   -0.02449039848517484   -0.016533074083020825
-0.2631086561789277   0.02611512760659393   0.014647174858954549
-0.2631086561789277   0.02611512760659393   0.014647174858954549
-0.2631086561789277   0.02611512760659393   0.014647174858954549
-0.2631086561789277   0.02611512760659393   0.014647174858954549
-0.324021682152229   0.0015914331541295318   0.006987579362387961
-0.324021682152229   0.0015914331541295318   0.006987579362387961
-0.324021682152229   0.0015914331541295318   0.006987579362387961
-0.324021682152229   0.0015914331541295318   0.006987579362387961
-0.2738782589911505   0.0002008023820420507   -0.013286513977607477
-0.2738782589911505   0.0002008023820420507   -0.013286513977607477
-0.2738782589911505   0.0002008023820420507   -0.013286513977607477
-0.2738782589911505   0.0002008023820420507   -0.013286513977607477
-0.38308995994405864   0.001652067204913718   0.012313176615699788
-0.38308995994405864   0.001652067204913718   0.012313176615699788
-0.38308995994405864   0.001652067204913718   0.012313176615699788
-0.38308995994405864   0.001652067204913718   0.012313176615699788
-0.37841939690585685   -0.01835089643305221   -0.01888619151340888
-0.37841939690585685   -0.01835089643305221   -0.01888619151340888
-0.37841939690585685   -0.01835089643305221   -0.01888619151340888
-0.37841939690585685   -0.01835089643305221   -0.01888619151340888
-0.2563319968595397   0.028962590949172348   0.012463472580205474
-0.2563319968595397   0.028962590949172348   0.012463472580205474
-0.2563319968595397   0.028962590949172348   0.012463472580205474
-0.2563319968595397   0.028962590949172348   0.012463472580205474
-0.30807568154678033   0.006266802410179018   0.011522506172658702
-0.30807568154678033   0.006266802410179018   0.011522506172658702
-0.30807568154678033   0.006266802410179018   0.011522506172658702
-0.30807568154678033   0.006266802410179018   0.011522506172658702
0.35945493547381036   0.027001854439217904   0.01862465847695933
0.35945493547381036   0.027001854439217904   0.01862465847695933
0.35945493547381036   0.027001854439217904   0.01862465847695933
0.35945493547381036   0.027001854439217904   0.01862465847695933
0.1578643933454624   -0.041544079420928345   -0.008737902663987485
0.1578643933454624   -0.041544079420928345   -0.008737902663987485
0.1578643933454624   -0.041544079420928345   -0.008737902663987485
0.1578643933454624   -0.041544079420928345   -0.008737902663987485
0.17543394606634222   -0.007642184986141963   0.012724462025453426
0.17543394606634222   -0.007642184986141963   0.012724462025453426
0.17543394606634222   -0.007642184986141963   0.012724462025453426
0.17543394606634222   -0.007642184986141963   0.012724462025453426
0.3630829946189052   0.00012733231858377825   -0.013571451821005644
0.3630829946189052   0.00012733231858377825   -0.013571451821005644
0.3630829946189052   0.00012733231858377825   -0.013571451821005644
0.3630829946189052   0.00012733231858377825   -0.013571451821005644
0.24853443163486327   -0.007215763817165821   -0.0191562024190285
0.24853443163486327   -0.007215763817165821   -0.0191562024190285
0.24853443163486327   -0.007215763817165821   -0.0191562024190285
0.24853443163486327   -0.007215763817165821   -0.0191562024190285
0.37547291516645587   0.03293484422987966   0.015570639005447931
0.37547291516645587   0.03293484422987966   0.015570639005447931
0.37547291516645587   0.03293484422987966   0.015570639005447931
0.37547291516645587   0.03293484422987966   0.015570639005447931
0.16424110832929595   -0.03925261408693377   -0.011629297558984106
0.16424110832929595   -0.03925261408693377   -0.011629297558984106
0.16424110832929595   -0.03925261408693377   -0.011629297558984106
0.16424110832929595   -0.03925261408693377   -0.011629297558984106
0.1821740280269437   -0.0038386550539890874   0.010258406438634977
0.1821740280269437   -0.0038386550539890874   0.010258406438634977
0.1821740280269437   -0.0038386550539890874   0.010258406438634977
0.1821740280269437   -0.0038386550539890874   0.010258406438634977
0.37505673829771546   0.004308400233184476   -0.016873558354961033
0.37505673829771546   0.004308400233184476   -0.016873558354961033
0.37505673829771546   0.004308400233184476   -0.016873558354961033
0.37505673829771546   0.004308400233184476   -0.016873558354961033
0.26370215411546966   -0.0027759146644808913   -0.013079939033463266
0.26370215411546966   -0.0027759146644808913   -0.013079939033463266
0.26370215411546966   -0.0027759146644808913   -0.013079939033463266
0.26370215411546966   -0.0027759146644808913   -0.013079939033463266
0.38736259589839744   0.03745016934075107   0.01151396054088201
0.38736259589839744   0.03745016934075107   0.01151396054088201
0.38736259589839744   0.03745016934075107   0.01151396054088201
0.38736259589839744   0.03745016934075107   0.01151396054088201
0.17090845338556904   -0.0359401412022484   -0.01396798061997893
0.17090845338556904   -0.0359401412022484   -0.01396798061997893
0.17090845338556904   -0.0359401412022484   -0.01396798061997893
0.17090845338556904   -0.0359401412022484   -0.01396798061997893
0.18829735486094412   0.006370458334588949   0.008994233118153058
0.18829735486094412   0.006370458334588949   0.008994233118153058
0.18829735486094412   0.006370458334588949   0.008994233118153058
0.18829735486094412   0.006370458334588949   0.008994233118153058
0.38985134554513634   0.016568972798580092   -0.017640759031980525
0.38985134554513634   0.016568972798580092   -0.017640759031980525
0.38985134554513634   0.016568972798580092   -0.017640759031980525
0.38985134554513634   0.016568972798580092   -0.017640759031980525
0.2691150542865238   0.003251007939585597   -0.008919465151686035
0.2691150542865238   0.003251007939585597   -0.008919465151686035
0.2691150542865238   0.003251007939585597   -0.008919465151686035
0.2691150542865238   0.003251007939585597   -0.008919465151686035
0.17458025627306722   0.01601264290756717   0.017284689645540256
0.17458025627306722   0.01601264290756717   0.017284689645540256
0.17458025627306722   0.01601264290756717   0.017284689645540256
0.17458025627306722   0.01601264290756717   0.017284689645540256
-0.02297197831033627   -0.05086875040582265   -0.005023264806558434
-0.02297197831033627   -0.05086875040582265   -0.005023264806558434
-0.02297197831033627   -0.05086875040582265   -0.005023264806558434
-0.02297197831033627   -0.05086875040582265   -0.005023264806558434
-0.007981048658412405   -0.018343664367266803   0.0042400510136435254
-0.007981048658412405   -0.018343664367266803   0.0042400510136435254
-0.007981048658412405   -0.018343664367266803   0.0042400510136435254
-0.007981048658412405   -0.018343664367266803   0.0042400510136435254
0.1729728089305729   -0.008180004147296166   0.0009565955077610547
0.1729728089305729   -0.008180004147296166   0.0009565955077610547
0.1729728089305729   -0.008180004147296166   0.0009565955077610547
0.1729728089305729   -0.008180004147296166   0.0009565955077610547
0.07699794067821567   -0.01382922998174331   -0.008979574411770767
0.07699794067821567   -0.01382922998174331   -0.008979574411770767
0.07699794067821567   -0.01382922998174331   -0.008979574411770767
0.07699794067821567   -0.01382922998174331   -0.008979574411770767
0.1818516193443472   0.021840823097019908   0.015329820332317477
0.1818516193443472   0.021840823097019908   0.015329820332317477
0.1818516193443472   0.021840823097019908   0.015329820332317477
0.1818516193443472   0.021840823097019908   0.015329820332317477
-0.01621454258140406   -0.04771917512080007   -0.007551907847781474
-0.01621454258140406   -0.04771917512080007   -0.007551907847781474
-0.01621454258140406   -0.04771917512080007   -0.007551907847781474
-0.01621454258140406   -0.04771917512080007   -0.007551907847781474
-0.0011156358135012575   -0.011497093279530909   0.002543895685003793
-0.0011156358135012575   -0.011497093279530909   0.002543895685003793
-0.0011156358135012575   -0.011497093279530909   0.002543895685003793
-0.0011156358135012575   -0.011497093279530909   0.002543895685003793
0.18004344500730138   -0.003012380256307845   -0.0012207834572578354
0.18004344500730138   -0.003012380256307845   -0.0012207834572578354
0.18004344500730138   -0.003012380256307845   -0.0012207834572578354
0.18004344500730138   -0.003012380256307845   -0.0012207834572578354
0.082908703502407   -0.009613278981355791   -0.005792661963445833
0.082908703502407   -0.009613278981355791   -0.005792661963445833
0.082908703502407   -0.009613278981355791   -0.005792661963445833
0.082908703502407   -0.009613278981355791   -0.005792661963445833
0.18939951006257583   0.028838824226037535   0.013708337336768921
0.18939951006257583   0.028838824226037535   0.013708337336768921
0.18939951006257583   0.028838824226037535   0.013708337336768921
0.18939951006257583   0.028838824226037535   0.013708337336768921
-0.010075089036044005   -0.04295168592914461   -0.010798777778096248
-0.010075089036044005   -0.04295168592914461   -0.010798777778096248
-0.010075089036044005   -0.04295168592914461   -0.010798777778096248
-0.010075089036044005   -0.04295168592914461   -0.010798777778096248
0.004281923292202081   -0.0034186392554036156   0.0008351221355808634
0.004281923292202081   -0.0034186392554036156   0.0008351221355808634
0.004281923292202081   -0.0034186392554036156   0.0008351221355808634
0.004281923292202081   -0.0034186392554036156   0.0008351221355808634
0.18531301642822373   0.0036183658834470084   -0.0031753665943089135
0.18531301642822373   0.0036183658834470084   -0.0031753665943089135
0.18531301642822373   0.0036183658834470084   -0.0031753665943089135
0.18531301642822373   0.0036183658834470084   -0.0031753665943089135
0.0902985097685165   -0.00328327480934483   -0.00233479857690472
0.0902985097685165   -0.00328327480934483   -0.00233479857690472
0.0902985097685165   -0.00328327480934483   -0.00233479857690472
0.0902985097685165   -0.00328327480934483   -0.00233479857690472
-0.009110421616256843   0.004777382468740045   0.008638385789276008
-0.009110421616256843   0.004777382468740045   0.008638385789276008
-0.009110421616256843   0.004777382468740045   0.008638385789276008
-0.009110421616256843   0.004777382468740045   0.008638385789276008
-0.2023496868481353   -0.06350920896708992   -0.003949749696717549
-0.2023496868481353   -0.06350920896708992   -0.003949749696717549
-0.2023496868481353   -0.06350920896708992   -0.003949749696717549
-0.2023496868481353   -0.06350920896708992   -0.003949749696717549
-0.1873599226798708   -0.02807665328746954   -0.0042928928091965045
-0.1873599226798708   -0.02807665328746954   -0.0042928928091965045
-0.1873599226798708   -0.02807665328746954   -0.0042928928091965045
-0.1873599226798708   -0.02807665328746954   -0.0042928928091965045
-0.008441247177369942   -0.02038436454134194   0.003979758592930975
-0.008441247177369942   -0.02038436454134194   0.003979758592930975
-0.008441247177369942   -0.02038436454134194   0.003979758592930975
-0.008441247177369942   -0.02038436454134194   0.003979758592930975
-0.10224916371207257   -0.02535635146472807   -0.007980301012518712
-0.10224916371207257   -0.02535635146472807   -0.007980301012518712
-0.10224916371207257   -0.02535635146472807   -0.007980301012518712
-0.10224916371207257   -0.02535635146472807   -0.007980301012518712
-0.001478042399111088   0.011367154099246083   0.007044263843637225
-0.001478042399111088   0.011367154099246083   0.007044263843637225
-0.001478042399111088   0.011367154099246083   0.007044263843637225
-0.001478042399111088   0.011367154099246083   0.007044263843637225
-0.1938515588893523   -0.059356603359282736   -0.005471123784790685
-0.1938515588893523   -0.059356603359282736   -0.005471123784790685
-0.1938515588893523   -0.059356603359282736   -0.005471123784790685
-0.1938515588893523   -0.059356603359282736   -0.005471123784790685
-0.17883147538752245   -0.020484930124115876   -0.005803335545511082
-0.17883147538752245   -0.020484930124115876   -0.005803335545511082
-0.17883147538752245   -0.020484930124115876   -0.005803335545511082
-0.17883147538752245   -0.020484930124115876   -0.005803335545511082
-0.0020580942878943584   -0.01540725566797758   0.0017417657014849623
-0.0020580942878943584   -0.01540725566797758   0.0017417657014849623
-0.0020580942878943584   -0.01540725566797758   0.0017417657014849623
-0.0020580942878943584   -0.01540725566797758   0.0017417657014849623
-0.09396983440652293   -0.019877132690795586   -0.004379767972821375
-0.09396983440652293   -0.019877132690795586   -0.004379767972821375
-0.09396983440652293   -0.019877132690795586   -0.004379767972821375
-0.09396983440652293   -0.019877132690795586   -0.004379767972821375
0.005501253392313518   0.01864044368988574   0.005490804744661022
0.005501253392313518   0.01864044368988574   0.005490804744661022
0.005501253392313518   0.01864044368988574   0.005490804744661022
0.005501253392313518   0.01864044368988574   0.005490804744661022
-0.18636169206660194   -0.05450349848085058   -0.00943585058417246
-0.18636169206660194   -0.05450349848085058   -0.00943585058417246
-0.18636169206660194   -0.05450349848085058   -0.00943585058417246
-0.18636169206660194   -0.05450349848085058   -0.00943585058417246
-0.17279735967612656   -0.01322687064743772   -0.007481136953542849
-0.17279735967612656   -0.01322687064743772   -0.007481136953542849
-0.17279735967612656   -0.01322687064743772   -0.007481136953542849
-0.17279735967612656   -0.01322687064743772   -0.007481136953542849
0.002114181739171413   -0.011376365373127343   -0.00204585951184971
0.002114181739171413   -0.011376365373127343   -0.00204585951184971
0.002114181739171413   -0.011376365373127343   -0.00204585951184971
0.002114181739171413   -0.011376365373127343   -0.00204585951184971
-0.0879053363307114   -0.014738962439286633   -0.0020867985053256363
-0.0879053363307114   -0.014738962439286633   -0.0020867985053256363
-0.0879053363307114   -0.014738962439286633   -0.0020867985053256363
-0.0879053363307114   -0.014738962439286633   -0.0020867985053256363
-0.18987298870083644   -0.004912743809516132   -0.00016272411779894892
-0.18987298870083644   -0.004912743809516132   -0.00016272411779894892
-0.18987298870083644   -0.004912743809516132   -0.00016272411779894892
-0.18987298870083644   -0.004912743809516132   -0.00016272411779894892
-0.3828661642672208   -0.06827984555755565   -0.0030891260432748782
-0.3828661642672208   -0.06827984555755565   -0.0030891260432748782
-0.3828661642672208   -0.06827984555755565   -0.0030891260432748782
-0.3828661642672208   -0.06827984555755565   -0.0030891260432748782
-0.3669469990138942   -0.03602975414346596   -0.012568550440493126
-0.3669469990138942   -0.03602975414346596   -0.012568550440493126
-0.3669469990138942   -0.03602975414346596   -0.012568550440493126
-0.3669469990138942   -0.03602975414346596   -0.012568550440493126
-0.18347634987303169   -0.021232034628494684   0.008280352566022223
-0.18347634987303169   -0.021232034628494684   0.008280352566022223
-0.18347634987303169   -0.021232034628494684   0.008280352566022223
-0.18347634987303169   -0.021232034628494684   0.008280352566022223
-0.2783785467405182   -0.030658052372139217   -0.005601861108355079
-0.2783785467405182   -0.030658052372139217   -0.005601861108355079
-0.2783785467405182   -0.030658052372139217   -0.005601861108355079
-0.2783785467405182   -0.030658052372139217   -0.005601861108355079
-0.18044743126053348   0.0035187097460904412   -0.0013257987460718323
-0.18044743126053348   0.0035187097460904412   -0.0013257987460718323
-0.18044743126053348   0.0035187097460904412   -0.0013257987460718323
-0.18044743126053348   0.0035187097460904412   -0.0013257987460718323
-0.3700715362519616   -0.060876117143619776   -0.0033448736306732865
-0.3700715362519616   -0.060876117143619776   -0.0033448736306732865
-0.3700715362519616   -0.060876117143619776   -0.0033448736306732865
-0.3700715362519616   -0.060876117143619776   -0.0033448736306732865
-0.3547061454338615   -0.02814309582077683   -0.014523967677506355
-0.3547061454338615   -0.02814309582077683   -0.014523967677506355
-0.3547061454338615   -0.02814309582077683   -0.014523967677506355
-0.3547061454338615   -0.02814309582077683   -0.014523967677506355
-0.17523103354204558   -0.015341965332307108   0.0070559088900657785
-0.17523103354204558   -0.015341965332307108   0.0070559088900657785
-0.17523103354204558   -0.015341965332307108   0.0070559088900657785
-0.17523103354204558   -0.015341965332307108   0.0070559088900657785
-0.26571705020924263   -0.023087927264355212   -0.0017276503065665888
-0.26571705020924263   -0.023087927264355212   -0.0017276503065665888
-0.26571705020924263   -0.023087927264355212   -0.0017276503065665888
-0.26571705020924263   -0.023087927264355212   -0.0017276503065665888
-0.1719079591949224   0.010822665017655587   -0.0024933497242833544
-0.1719079591949224   0.010822665017655587   -0.0024933497242833544
-0.1719079591949224   0.010822665017655587   -0.0024933497242833544
-0.1719079591949224   0.010822665017655587   -0.0024933497242833544
-0.3585744261493597   -0.054852932539114385   -0.007155534536656557
-0.3585744261493597   -0.054852932539114385   -0.007155534536656557
-0.3585744261493597   -0.054852932539114385   -0.007155534536656557
-0.3585744261493597   -0.054852932539114385   -0.007155534536656557
-0.34486076735596094   -0.019865726800296912   -0.015007945068972822
-0.34486076735596094   -0.019865726800296912   -0.015007945068972822
-0.34486076735596094   -0.019865726800296912   -0.015007945068972822
-0.34486076735596094   -0.019865726800296912   -0.015007945068972822
-0.17051207853384476   -0.011596978090098988   0.0023153762005292964
-0.17051207853384476   -0.011596978090098988   0.0023153762005292964
-0.17051207853384476   -0.011596978090098988   0.0023153762005292964
-0.17051207853384476   -0.011596978090098988   0.0023153762005292964
-0.2589599688405158   -0.018489904191314355   -0.0004380008812877416
-0.2589599688405158   -0.018489904191314355   -0.0004380008812877416
-0.2589599688405158   -0.018489904191314355   -0.0004380008812877416
-0.2589599688405158   -0.018489904191314355   -0.0004380008812877416
-0.3727631186243979   -0.011939933210681125   -0.008913810176034997
-0.3727631186243979   -0.011939933210681125   -0.008913810176034997
-0.3727631186243979   -0.011939933210681125   -0.008913810176034997
-0.3727631186243979   -0.011939933210681125   -0.008913810176034997
-0.562273991660044   -0.04694794034660292   0.020395729579617404
-0.562273991660044   -0.04694794034660292   0.020395729579617404
-0.562273991660044   -0.04694794034660292   0.020395729579617404
-0.562273991660044   -0.04694794034660292   0.020395729579617404
-0.5439887230986593   -0.0378137200507503   -0.0121339265599954
-0.5439887230986593   -0.0378137200507503   -0.0121339265599954
-0.5439887230986593   -0.0378137200507503   -0.0121339265599954
-0.5439887230986593   -0.0378137200507503   -0.0121339265599954
-0.35135344109709854   0.010416747748129854   0.01895273725188629
-0.35135344109709854   0.010416747748129854   0.01895273725188629
-0.35135344109709854   0.010416747748129854   0.01895273725188629
-0.35135344109709854   0.010416747748129854   0.01895273725188629
-0.4370298086215456   -0.014500346659863009   0.002568497297473382
-0.4370298086215456   -0.014500346659863009   0.002568497297473382
-0.4370298086215456   -0.014500346659863009   0.002568497297473382
-0.4370298086215456   -0.014500346659863009   0.002568497297473382
-0.35929240609277974   -0.00042728277771025835   -0.009898057200674756
-0.35929240609277974   -0.00042728277771025835   -0.009898057200674756
-0.35929240609277974   -0.00042728277771025835   -0.009898057200674756
-0.35929240609277974   -0.00042728277771025835   -0.009898057200674756
-0.534772840477415   -0.02569277189934631   0.02182453839482196
-0.534772840477415   -0.02569277189934631   0.02182453839482196
-0.534772840477415   -0.02569277189934631   0.02182453839482196
-0.534772840477415   -0.02569277189934631   0.02182453839482196
-0.524314104696997   -0.0319454884761369   -0.014450457036630348
-0.524314104696997   -0.0319454884761369   -0.014450457036630348
-0.524314104696997   -0.0319454884761369   -0.014450457036630348
-0.524314104696997   -0.0319454884761369   -0.014450457036630348
-0.33928710725784833   0.01620074315409127   0.01822738422769139
-0.33928710725784833   0.01620074315409127   0.01822738422769139
-0.33928710725784833   0.01620074315409127   0.01822738422769139
-0.33928710725784833   0.01620074315409127   0.01822738422769139
-0.42583994404387776   -0.005842994492104667   0.008836392372572836
-0.42583994404387776   -0.005842994492104667   0.008836392372572836
-0.42583994404387776   -0.005842994492104667   0.008836392372572836
-0.42583994404387776   -0.005842994492104667   0.008836392372572836
-0.34748504258443214   0.0041650879195603285   -0.010726637170693696
-0.34748504258443214   0.0041650879195603285   -0.010726637170693696
-0.34748504258443214   0.0041650879195603285   -0.010726637170693696
-0.34748504258443214   0.0041650879195603285   -0.010726637170693696
-0.5158292900050688   -0.01962295387626435   0.015651081823133735
-0.5158292900050688   -0.01962295387626435   0.015651081823133735
-0.5158292900050688   -0.01962295387626435   0.015651081823133735
-0.5158292900050688   -0.01962295387626435   0.015651081823133735
-0.503921648090364   -0.026546613233273342   -0.017492897101198692
-0.503921648090364   -0.026546613233273342   -0.017492897101198692
-0.503921648090364   -0.026546613233273342   -0.017492897101198692
-0.503921648090364   -0.026546613233273342   -0.017492897101198692
-0.33050634551710045   0.022891474356178734   0.014006962968853908
-0.33050634551710045   0.022891474356178734   0.014006962968853908
-0.33050634551710045   0.022891474356178734   0.014006962968853908
-0.33050634551710045   0.022891474356178734   0.014006962968853908
-0.40367466433452576   0.0015046798198526112   0.015255366034454577
-0.40367466433452576   0.0015046798198526112   0.015255366034454577
-0.40367466433452576   0.0015046798198526112   0.015255366034454577
-0.40367466433452576   0.0015046798198526112   0.015255366034454577
0.4875193501148184   0.029575586488158806   0.017205470112092208
0.4875193501148184   0.029575586488158806   0.017205470112092208
0.4875193501148184   0.029575586488158806   0.017205470112092208
0.4875193501148184   0.029575586488158806   0.017205470112092208
0.2314933822397536   -0.042805266966222014   0.003373007007149112
0.2314933822397536   -0.042805266966222014   0.003373007007149112
0.2314933822397536   -0.042805266966222014   0.003373007007149112
0.2314933822397536   -0.042805266966222014   0.003373007007149112
0.24384514614287195   -0.018388056517172638   0.013089452476245565
0.24384514614287195   -0.018388056517172638   0.013089452476245565
0.24384514614287195   -0.018388056517172638   0.013089452476245565
0.24384514614287195   -0.018388056517172638   0.013089452476245565
0.48983105266948707   0.005092382172902865   -0.004230343119900563
0.48983105266948707   0.005092382172902865   -0.004230343119900563
0.48983105266948707   0.005092382172902865   -0.004230343119900563
0.48983105266948707   0.005092382172902865   -0.004230343119900563
0.34222650560338636   -0.008925155420679662   -0.022424934632875905
0.34222650560338636   -0.008925155420679662   -0.022424934632875905
0.34222650560338636   -0.008925155420679662   -0.022424934632875905
0.34222650560338636   -0.008925155420679662   -0.022424934632875905
0.49892028253705817   0.03272559828715589   0.013582590103701976
0.49892028253705817   0.03272559828715589   0.013582590103701976
0.49892028253705817   0.03272559828715589   0.013582590103701976
0.49892028253705817   0.03272559828715589   0.013582590103701976
0.23690509555233302   -0.04387209335439343   0.0038732363607719457
0.23690509555233302   -0.04387209335439343   0.0038732363607719457
0.23690509555233302   -0.04387209335439343   0.0038732363607719457
0.23690509555233302   -0.04387209335439343   0.0038732363607719457
0.24842052642638973   -0.015659071556796036   0.009925294566462194
0.24842052642638973   -0.015659071556796036   0.009925294566462194
0.24842052642638973   -0.015659071556796036   0.009925294566462194
0.24842052642638973   -0.015659071556796036   0.009925294566462194
0.49808528688552156   0.008151386595284763   -0.0016739950416232129
0.49808528688552156   0.008151386595284763   -0.0016739950416232129
0.49808528688552156   0.008151386595284763   -0.0016739950416232129
0.49808528688552156   0.008151386595284763   -0.0016739950416232129
0.35601221695021495   -0.006989971833735564   -0.015412232947463356
0.35601221695021495   -0.006989971833735564   -0.015412232947463356
0.35601221695021495   -0.006989971833735564   -0.015412232947463356
0.35601221695021495   -0.006989971833735564   -0.015412232947463356
0.5058072710675187   0.03570890079238882   0.009378411671257674
0.5058072710675187   0.03570890079238882   0.009378411671257674
0.5058072710675187   0.03570890079238882   0.009378411671257674
0.5058072710675187   0.03570890079238882   0.009378411671257674
0.2421926352046027   -0.041722492793690134   0.004849259694421213
0.2421926352046027   -0.041722492793690134   0.004849259694421213
0.2421926352046027   -0.041722492793690134   0.004849259694421213
0.2421926352046027   -0.041722492793690134   0.004849259694421213
0.2552023900782096   -0.005017603642298259   0.009075314230539207
0.2552023900782096   -0.005017603642298259   0.009075314230539207
0.2552023900782096   -0.005017603642298259   0.009075314230539207
0.2552023900782096   -0.005017603642298259   0.009075314230539207
0.5067441391220396   0.015333280954357695   -0.0006897427880182168
0.5067441391220396   0.015333280954357695   -0.0006897427880182168
0.5067441391220396   0.015333280954357695   -0.0006897427880182168
0.5067441391220396   0.015333280954357695   -0.0006897427880182168
0.3574259940943915   -0.0030281936108803448   -0.011647754545679036
0.3574259940943915   -0.0030281936108803448   -0.011647754545679036
0.3574259940943915   -0.0030281936108803448   -0.011647754545679036
0.3574259940943915   -0.0030281936108803448   -0.011647754545679036
0.2445132415819272   0.007305294903586487   0.018361741848208442
0.2445132415819272   0.007305294903586487   0.018361741848208442
0.2445132415819272   0.007305294903586487   0.018361741848208442
0.2445132415819272   0.007305294903586487   0.018361741848208442
0.01063894669069542   -0.08395365231898051   0.008172452273762551
0.01063894669069542   -0.08395365231898051   0.008172452273762551
0.01063894669069542   -0.08395365231898051   0.008172452273762551
0.01063894669069542   -0.08395365231898051   0.008172452273762551
0.026553811425477886   -0.0360874938599068   0.007838144449787568
0.026553811425477886   -0.0360874938599068   0.007838144449787568
0.026553811425477886   -0.0360874938599068   0.007838144449787568
0.026553811425477886   -0.0360874938599068   0.007838144449787568
0.23836519146444715   -0.038338999731987525   0.005640622298934906
0.23836519146444715   -0.038338999731987525   0.005640622298934906
0.23836519146444715   -0.038338999731987525   0.005640622298934906
0.23836519146444715   -0.038338999731987525   0.005640622298934906
0.1258482012227261   -0.036946084486590265   -0.014010417555496313
0.1258482012227261   -0.036946084486590265   -0.014010417555496313
0.1258482012227261   -0.036946084486590265   -0.014010417555496313
0.1258482012227261   -0.036946084486590265   -0.014010417555496313
0.2500073851005025   0.010115091778819106   0.015397498968407782
0.2500073851005025   0.010115091778819106   0.015397498968407782
0.2500073851005025   0.010115091778819106   0.015397498968407782
0.2500073851005025   0.010115091778819106   0.015397498968407782
0.017989987016660085   -0.08146321614347782   0.010394744689270551
0.017989987016660085   -0.08146321614347782   0.010394744689270551
0.017989987016660085   -0.08146321614347782   0.010394744689270551
0.017989987016660085   -0.08146321614347782   0.010394744689270551
0.032887775617416806   -0.03108008258292151   0.0055963742995584105
0.032887775617416806   -0.03108008258292151   0.0055963742995584105
0.032887775617416806   -0.03108008258292151   0.0055963742995584105
0.032887775617416806   -0.03108008258292151   0.0055963742995584105
0.24381521196451397   -0.035658356344832845   0.006898007045120249
0.24381521196451397   -0.035658356344832845   0.006898007045120249
0.24381521196451397   -0.035658356344832845   0.006898007045120249
0.24381521196451397   -0.035658356344832845   0.006898007045120249
0.13117045608846212   -0.03498381174631391   -0.007012447425263135
0.13117045608846212   -0.03498381174631391   -0.007012447425263135
0.13117045608846212   -0.03498381174631391   -0.007012447425263135
0.13117045608846212   -0.03498381174631391   -0.007012447425263135
0.25514738102079626   0.01486055236181872   0.013039943619880121
0.25514738102079626   0.01486055236181872   0.013039943619880121
0.25514738102079626   0.01486055236181872   0.013039943619880121
0.25514738102079626   0.01486055236181872   0.013039943619880121
0.024511458391887373   -0.07864313945882007   0.01127784504781074
0.024511458391887373   -0.07864313945882007   0.01127784504781074
0.024511458391887373   -0.07864313945882007   0.01127784504781074
0.024511458391887373   -0.07864313945882007   0.01127784504781074
0.04265303610926932   -0.023553249973048015   0.0036265344421857366
0.04265303610926932   -0.023553249973048015   0.0036265344421857366
0.04265303610926932   -0.023553249973048015   0.0036265344421857366
0.04265303610926932   -0.023553249973048015   0.0036265344421857366
0.24974533580572944   -0.03160988262295281   0.008382321848794026
0.24974533580572944   -0.03160988262295281   0.008382321848794026
0.24974533580572944   -0.03160988262295281   0.008382321848794026
0.24974533580572944   -0.03160988262295281   0.008382321848794026
0.1407454832141635   -0.03030721809396362   0.0011584100257027198
0.1407454832141635   -0.03030721809396362   0.0011584100257027198
0.1407454832141635   -0.03030721809396362   0.0011584100257027198
0.1407454832141635   -0.03030721809396362   0.0011584100257027198
0.025187862799308347   -0.01484922749890695   0.011812607996753632
0.025187862799308347   -0.01484922749890695   0.011812607996753632
0.025187862799308347   -0.01484922749890695   0.011812607996753632
0.025187862799308347   -0.01484922749890695   0.011812607996753632
-0.21168372191471996   -0.14322688640662032   0.012169796206154205
-0.21168372191471996   -0.14322688640662032   0.012169796206154205
-0.21168372191471996   -0.14322688640662032   0.012169796206154205
-0.21168372191471996   -0.14322688640662032   0.012169796206154205
-0.1866988723431447   -0.056724364889107676   0.0005373820198770266
-0.1866988723431447   -0.056724364889107676   0.0005373820198770266
-0.1866988723431447   -0.056724364889107676   0.0005373820198770266
-0.1866988723431447   -0.056724364889107676   0.0005373820198770266
0.012842631181718217   -0.10184097522056654   0.005035724591649908
0.012842631181718217   -0.10184097522056654   0.005035724591649908
0.012842631181718217   -0.10184097522056654   0.005035724591649908
0.012842631181718217   -0.10184097522056654   0.005035724591649908
-0.09270552821663748   -0.07970540276949252   -0.016792902314332916
-0.09270552821663748   -0.07970540276949252   -0.016792902314332916
-0.09270552821663748   -0.07970540276949252   -0.016792902314332916
-0.09270552821663748   -0.07970540276949252   -0.016792902314332916
0.031821526138392044   -0.011258263971571023   0.009347488126023554
0.031821526138392044   -0.011258263971571023   0.009347488126023554
0.031821526138392044   -0.011258263971571023   0.009347488126023554
0.031821526138392044   -0.011258263971571023   0.009347488126023554
-0.20116878333758798   -0.14279809217587247   0.014261554334426392
-0.20116878333758798   -0.14279809217587247   0.014261554334426392
-0.20116878333758798   -0.14279809217587247   0.014261554334426392
-0.20116878333758798   -0.14279809217587247   0.014261554334426392
-0.17705083151579337   -0.050835508105731154   -0.0004067592593685835
-0.17705083151579337   -0.050835508105731154   -0.0004067592593685835
-0.17705083151579337   -0.050835508105731154   -0.0004067592593685835
-0.17705083151579337   -0.050835508105731154   -0.0004067592593685835
0.019537834767860494   -0.09935864166612493   0.0071252291349812105
0.019537834767860494   -0.09935864166612493   0.0071252291349812105
0.019537834767860494   -0.09935864166612493   0.0071252291349812105
0.019537834767860494   -0.09935864166612493   0.0071252291349812105
-0.0828867423971134   -0.07675027475142268   -0.00612194841479885
-0.0828867423971134   -0.07675027475142268   -0.00612194841479885
-0.0828867423971134   -0.07675027475142268   -0.00612194841479885
-0.0828867423971134   -0.07675027475142268   -0.00612194841479885
0.03788907121127853   -0.006551351476042246   0.006074121161988733
0.03788907121127853   -0.006551351476042246   0.006074121161988733
0.03788907121127853   -0.006551351476042246   0.006074121161988733
0.03788907121127853   -0.006551351476042246   0.006074121161988733
-0.19138145743893942   -0.13962218777553878   0.01672679079471178
-0.19138145743893942   -0.13962218777553878   0.01672679079471178
-0.19138145743893942   -0.13962218777553878   0.01672679079471178
-0.19138145743893942   -0.13962218777553878   0.01672679079471178
-0.16111676700322913   -0.0440735587440657   -0.002300877624140922
-0.16111676700322913   -0.0440735587440657   -0.002300877624140922
-0.16111676700322913   -0.0440735587440657   -0.002300877624140922
-0.16111676700322913   -0.0440735587440657   -0.002300877624140922
0.02997485830524375   -0.09284729789436347   0.009529693343373332
0.02997485830524375   -0.09284729789436347   0.009529693343373332
0.02997485830524375   -0.09284729789436347   0.009529693343373332
0.02997485830524375   -0.09284729789436347   0.009529693343373332
-0.07019764726838296   -0.0704874356962665   0.004905537358467518
-0.07019764726838296   -0.0704874356962665   0.004905537358467518
-0.07019764726838296   -0.0704874356962665   0.004905537358467518
-0.07019764726838296   -0.0704874356962665   0.004905537358467518
-0.18993221486878817   -0.027945951219482533   0.005646396248673361
-0.18993221486878817   -0.027945951219482533   0.005646396248673361
-0.18993221486878817   -0.027945951219482533   0.005646396248673361
-0.18993221486878817   -0.027945951219482533   0.005646396248673361
-0.46636698592171727   -0.22155112456794815   -0.009408020662540276
-0.46636698592171727   -0.22155112456794815   -0.009408020662540276
-0.46636698592171727   -0.22155112456794815   -0.009408020662540276
-0.46636698592171727   -0.22155112456794815   -0.009408020662540276
-0.4253231409231514   -0.07379413937949594   -0.012683380138849041
-0.4253231409231514   -0.07379413937949594   -0.012683380138849041
-0.4253231409231514   -0.07379413937949594   -0.012683380138849041
-0.4253231409231514   -0.07379413937949594   -0.012683380138849041
-0.2113392599974639   -0.18356082250979666   0.0041719013689699574
-0.2113392599974639   -0.18356082250979666   0.0041719013689699574
-0.2113392599974639   -0.18356082250979666   0.0041719013689699574
-0.2113392599974639   -0.18356082250979666   0.0041719013689699574
-0.32291436056065637   -0.1311379930362554   -0.017747095828638017
-0.32291436056065637   -0.1311379930362554   -0.017747095828638017
-0.32291436056065637   -0.1311379930362554   -0.017747095828638017
-0.32291436056065637   -0.1311379930362554   -0.017747095828638017
-0.1785745082164863   -0.020850641047981497   0.005285478812042759
-0.1785745082164863   -0.020850641047981497   0.005285478812042759
-0.1785745082164863   -0.020850641047981497   0.005285478812042759
-0.1785745082164863   -0.020850641047981497   0.005285478812042759
-0.4568224622280169   -0.2352388903651965   -0.008735235677476236
-0.4568224622280169   -0.2352388903651965   -0.008735235677476236
-0.4568224622280169   -0.2352388903651965   -0.008735235677476236
-0.4568224622280169   -0.2352388903651965   -0.008735235677476236
-0.41235567543937723   -0.06677434489341269   -0.012981347018115185
-0.41235567543937723   -0.06677434489341269   -0.012981347018115185
-0.41235567543937723   -0.06677434489341269   -0.012981347018115185
-0.41235567543937723   -0.06677434489341269   -0.012981347018115185
-0.20189996786158204   -0.18180240413236967   0.0063144550383279555
-0.20189996786158204   -0.18180240413236967   0.0063144550383279555
-0.20189996786158204   -0.18180240413236967   0.0063144550383279555
-0.20189996786158204   -0.18180240413236967   0.0063144550383279555
-0.30911432799369715   -0.12721509954418547   -0.01192473575983195
-0.30911432799369715   -0.12721509954418547   -0.01192473575983195
-0.30911432799369715   -0.12721509954418547   -0.01192473575983195
-0.30911432799369715   -0.12721509954418547   -0.01192473575983195
-0.16949424029102514   -0.015248042256975666   0.0017887310157178819
-0.16949424029102514   -0.015248042256975666   0.0017887310157178819
-0.16949424029102514   -0.015248042256975666   0.0017887310157178819
-0.16949424029102514   -0.015248042256975666   0.0017887310157178819
-0.44455220869928547   -0.23311951245815754   -0.007618845752907943
-0.44455220869928547   -0.23311951245815754   -0.007618845752907943
-0.44455220869928547   -0.23311951245815754   -0.007618845752907943
-0.44455220869928547   -0.23311951245815754   -0.007618845752907943
-0.39201299781919685   -0.059307051728995336   -0.01473407270860038
-0.39201299781919685   -0.059307051728995336   -0.01473407270860038
-0.39201299781919685   -0.059307051728995336   -0.01473407270860038
-0.39201299781919685   -0.059307051728995336   -0.01473407270860038
-0.18145972566762392   -0.1622706703285506   0.014181440638372511
-0.18145972566762392   -0.1622706703285506   0.014181440638372511
-0.18145972566762392   -0.1622706703285506   0.014181440638372511
-0.18145972566762392   -0.1622706703285506   0.014181440638372511
-0.29388514455823384   -0.11462317003805784   -0.005983963412344966
-0.29388514455823384   -0.11462317003805784   -0.005983963412344966
-0.29388514455823384   -0.11462317003805784   -0.005983963412344966
-0.29388514455823384   -0.11462317003805784   -0.005983963412344966
-0.4255924554198099   -0.024256731298891554   -0.0028297614220598663
-0.4255924554198099   -0.024256731298891554   -0.0028297614220598663
-0.4255924554198099   -0.024256731298891554   -0.0028297614220598663
-0.4255924554198099   -0.024256731298891554   -0.0028297614220598663
-0.7460088765754475   -0.14766421328456023   0.007687810152646329
-0.7460088765754475   -0.14766421328456023   0.007687810152646329
-0.7460088765754475   -0.14766421328456023   0.007687810152646329
-0.7460088765754475   -0.14766421328456023   0.007687810152646329
-0.7173682027629454   -0.06960776765598452   -0.015155078102838806
-0.7173682027629454   -0.06960776765598452   -0.015155078102838806
-0.7173682027629454   -0.06960776765598452   -0.015155078102838806
-0.7173682027629454   -0.06960776765598452   -0.015155078102838806
-0.4177597074007039   -0.07773667655113584   0.029076324645024687
-0.4177597074007039   -0.07773667655113584   0.029076324645024687
-0.4177597074007039   -0.07773667655113584   0.029076324645024687
-0.4177597074007039   -0.07773667655113584   0.029076324645024687
-0.5534373273123997   -0.08523230758237696   0.007262621973340772
-0.5534373273123997   -0.08523230758237696   0.007262621973340772
-0.5534373273123997   -0.08523230758237696   0.007262621973340772
-0.5534373273123997   -0.08523230758237696   0.007262621973340772
-0.4089913895867527   -0.004887618306204863   6.885546985148025e-05
-0.4089913895867527   -0.004887618306204863   6.885546985148025e-05
-0.4089913895867527   -0.004887618306204863   6.885546985148025e-05
-0.4089913895867527   -0.004887618306204863   6.885546985148025e-05
-0.7287172870228422   -0.14503759234685923   0.0035293252885461313
-0.7287172870228422   -0.14503759234685923   0.0035293252885461313
-0.7287172870228422   -0.14503759234685923   0.0035293252885461313
-0.7287172870228422   -0.14503759234685923   0.0035293252885461313
-0.702036684261433   -0.0638464419672775   -0.019258964375567848
-0.702036684261433   -0.0638464419672775   -0.019258964375567848
-0.702036684261433   -0.0638464419672775   -0.019258964375567848
-0.702036684261433   -0.0638464419672775   -0.019258964375567848
-0.4044280870519786   -0.0740909728377516   0.03397322286322062
-0.4044280870519786   -0.0740909728377516   0.03397322286322062
-0.4044280870519786   -0.0740909728377516   0.03397322286322062
-0.4044280870519786   -0.0740909728377516   0.03397322286322062
-0.5457187914098454   -0.07035830521909922   0.007135750023801993
-0.5457187914098454   -0.07035830521909922   0.007135750023801993
-0.5457187914098454   -0.07035830521909922   0.007135750023801993
-0.5457187914098454   -0.07035830521909922   0.007135750023801993
-0.3971320897964246   0.00021559755123791435   -0.0038533612479990827
-0.3971320897964246   0.00021559755123791435   -0.0038533612479990827
-0.3971320897964246   0.00021559755123791435   -0.0038533612479990827
-0.3971320897964246   0.00021559755123791435   -0.0038533612479990827
-0.7101496679727841   -0.1389699988120653   0.015299673912457568
-0.7101496679727841   -0.1389699988120653   0.015299673912457568
-0.7101496679727841   -0.1389699988120653   0.015299673912457568
-0.7101496679727841   -0.1389699988120653   0.015299673912457568
-0.6701543143917326   -0.052184769237820464   -0.02172628612650997
-0.6701543143917326   -0.052184769237820464   -0.02172628612650997
-0.6701543143917326   -0.052184769237820464   -0.02172628612650997
-0.6701543143917326   -0.052184769237820464   -0.02172628612650997
-0.3835843314578146   -0.069247020681416   0.03734922805073464
-0.3835843314578146   -0.069247020681416   0.03734922805073464
-0.3835843314578146   -0.069247020681416   0.03734922805073464
-0.3835843314578146   -0.069247020681416   0.03734922805073464
-0.5141830607942991   -0.05390557376365367   0.015262866817563005
-0.5141830607942991   -0.05390557376365367   0.015262866817563005
-0.5141830607942991   -0.05390557376365367   0.015262866817563005
-0.5141830607942991   -0.05390557376365367   0.015262866817563005
0.5340893233767492   0.018499882059522424   0.007302810998875767
0.5340893233767492   0.018499882059522424   0.007302810998875767
0.5340893233767492   0.018499882059522424   0.007302810998875767
0.5340893233767492   0.018499882059522424   0.007302810998875767
0.27119612434628554   -0.014908027411794408   0.004967001937748825
0.27119612434628554   -0.014908027411794408   0.004967001937748825
0.27119612434628554   -0.014908027411794408   0.004967001937748825
0.27119612434628554   -0.014908027411794408   0.004967001937748825
0.26107439181775494   -0.037752946781525715   0.01029967295968864
0.26107439181775494   -0.037752946781525715   0.01029967295968864
0.26107439181775494   -0.037752946781525715   0.01029967295968864
0.26107439181775494   -0.037752946781525715   0.01029967295968864
0.5302732619536218   0.029806184441082004   0.003446304248830665
0.5302732619536218   0.029806184441082004   0.003446304248830665
0.5302732619536218   0.029806184441082004   0.003446304248830665
0.5302732619536218   0.029806184441082004   0.003446304248830665
0.37789442424200337   -0.005105692562749314   -0.014043184939563698
0.37789442424200337   -0.005105692562749314   -0.014043184939563698
0.37789442424200337   -0.005105692562749314   -0.014043184939563698
0.37789442424200337   -0.005105692562749314   -0.014043184939563698
0.5276505464965995   0.014608443202721408   0.0055304682020796934
0.5276505464965995   0.014608443202721408   0.0055304682020796934
0.5276505464965995   0.014608443202721408   0.0055304682020796934
0.5276505464965995   0.014608443202721408   0.0055304682020796934
0.26289562024079977   -0.02335669257714265   0.0050095608705294815
0.26289562024079977   -0.02335669257714265   0.0050095608705294815
0.26289562024079977   -0.02335669257714265   0.0050095608705294815
0.26289562024079977   -0.02335669257714265   0.0050095608705294815
0.25454141300284916   -0.03852875569643158   0.00846916738246754
0.25454141300284916   -0.03852875569643158   0.00846916738246754
0.25454141300284916   -0.03852875569643158   0.00846916738246754
0.25454141300284916   -0.03852875569643158   0.00846916738246754
0.5243662903923458   0.028628487760773966   0.006228448339449789
0.5243662903923458   0.028628487760773966   0.006228448339449789
0.5243662903923458   0.028628487760773966   0.006228448339449789
0.5243662903923458   0.028628487760773966   0.006228448339449789
0.3771237776921488   -0.00702424755164327   -0.016023701908472972
0.3771237776921488   -0.00702424755164327   -0.016023701908472972
0.3771237776921488   -0.00702424755164327   -0.016023701908472972
0.3771237776921488   -0.00702424755164327   -0.016023701908472972
0.52037319836456   0.013268385909729105   0.0016230900515601283
0.52037319836456   0.013268385909729105   0.0016230900515601283
0.52037319836456   0.013268385909729105   0.0016230900515601283
0.52037319836456   0.013268385909729105   0.0016230900515601283
0.25706147254533745   -0.02464168633068517   0.007182395729162561
0.25706147254533745   -0.02464168633068517   0.007182395729162561
0.25706147254533745   -0.02464168633068517   0.007182395729162561
0.25706147254533745   -0.02464168633068517   0.007182395729162561
0.24769494837741868   -0.03487475464522751   0.007319269958676742
0.24769494837741868   -0.03487475464522751   0.007319269958676742
0.24769494837741868   -0.03487475464522751   0.007319269958676742
0.24769494837741868   -0.03487475464522751   0.007319269958676742
0.5153163707164338   0.029270685539054972   0.00916838039756435
0.5153163707164338   0.029270685539054972   0.00916838039756435
0.5153163707164338   0.029270685539054972   0.00916838039756435
0.5153163707164338   0.029270685539054972   0.00916838039756435
0.3632942718253725   -0.006953279492602243   -0.021426867943557734
0.3632942718253725   -0.006953279492602243   -0.021426867943557734
0.3632942718253725   -0.006953279492602243   -0.021426867943557734
0.3632942718253725   -0.006953279492602243   -0.021426867943557734
0.2696268804458192   -0.0311233375149864   0.013336092538609352
0.2696268804458192   -0.0311233375149864   0.013336092538609352
0.2696268804458192   -0.0311233375149864   0.013336092538609352
0.2696268804458192   -0.0311233375149864   0.013336092538609352
0.048751294786307846   -0.03203754752829288   0.002409113347143778
0.048751294786307846   -0.03203754752829288   0.002409113347143778
0.048751294786307846   -0.03203754752829288   0.002409113347143778
0.048751294786307846   -0.03203754752829288   0.002409113347143778
0.03125612870546657   -0.07819959678694588   0.013446699783123708
0.03125612870546657   -0.07819959678694588   0.013446699783123708
0.03125612870546657   -0.07819959678694588   0.013446699783123708
0.03125612870546657   -0.07819959678694588   0.013446699783123708
0.2708926090635853   0.01145825670312245   0.010179555704192156
0.2708926090635853   0.01145825670312245   0.010179555704192156
0.2708926090635853   0.01145825670312245   0.010179555704192156
0.2708926090635853   0.01145825670312245   0.010179555704192156
0.15273023503255703   -0.03261374995160004   -0.0006600427826551035
0.15273023503255703   -0.03261374995160004   -0.0006600427826551035
0.15273023503255703   -0.03261374995160004   -0.0006600427826551035
0.15273023503255703   -0.03261374995160004   -0.0006600427826551035
0.26232962771250284   -0.03242471317648593   0.01124761882838721
0.26232962771250284   -0.03242471317648593   0.01124761882838721
0.26232962771250284   -0.03242471317648593   0.01124761882838721
0.26232962771250284   -0.03242471317648593   0.01124761882838721
0.037647943727156664   -0.03648779323673003   0.0036939713413583763
0.037647943727156664   -0.03648779323673003   0.0036939713413583763
0.037647943727156664   -0.03648779323673003   0.0036939713413583763
0.037647943727156664   -0.03648779323673003   0.0036939713413583763
0.02335959327323384   -0.07872585381068412   0.01201613840714404
0.02335959327323384   -0.07872585381068412   0.01201613840714404
0.02335959327323384   -0.07872585381068412   0.01201613840714404
0.02335959327323384   -0.07872585381068412   0.01201613840714404
0.2648750761501232   0.009609947378819442   0.011998780043586586
0.2648750761501232   0.009609947378819442   0.011998780043586586
0.2648750761501232   0.009609947378819442   0.011998780043586586
0.2648750761501232   0.009609947378819442   0.011998780043586586
0.14194893792037452   -0.03470103992883404   -0.007141859593444964
0.14194893792037452   -0.03470103992883404   -0.007141859593444964
0.14194893792037452   -0.03470103992883404   -0.007141859593444964
0.14194893792037452   -0.03470103992883404   -0.007141859593444964
0.25587987603556905   -0.03274873297476601   0.009381459824399311
0.25587987603556905   -0.03274873297476601   0.009381459824399311
0.25587987603556905   -0.03274873297476601   0.009381459824399311
0.25587987603556905   -0.03274873297476601   0.009381459824399311
0.029988036902748302   -0.038733929942138666   0.0051664326861708965
0.029988036902748302   -0.038733929942138666   0.0051664326861708965
0.029988036902748302   -0.038733929942138666   0.0051664326861708965
0.029988036902748302   -0.038733929942138666   0.0051664326861708965
0.01453988387669114   -0.07846354767834607   0.0093194485008661
0.01453988387669114   -0.07846354767834607   0.0093194485008661
0.01453988387669114   -0.07846354767834607   0.0093194485008661
0.01453988387669114   -0.07846354767834607   0.0093194485008661
0.258045134090908   0.00990664881373611   0.01428879506716093
0.258045134090908   0.00990664881373611   0.01428879506716093
0.258045134090908   0.00990664881373611   0.01428879506716093
0.258045134090908   0.00990664881373611   0.01428879506716093
0.13547761584181248   -0.034248950076249604   -0.012605867711712824
0.13547761584181248   -0.034248950076249604   -0.012605867711712824
0.13547761584181248   -0.034248950076249604   -0.012605867711712824
0.13547761584181248   -0.034248950076249604   -0.012605867711712824
0.03839422739573996   -0.09327334167713089   0.011859570543141382
0.03839422739573996   -0.09327334167713089   0.011859570543141382
0.03839422739573996   -0.09327334167713089   0.011859570543141382
0.03839422739573996   -0.09327334167713089   0.011859570543141382
-0.1653565443872786   -0.049188357847072726   -0.0002021673038166208
-0.1653565443872786   -0.049188357847072726   -0.0002021673038166208
-0.1653565443872786   -0.049188357847072726   -0.0002021673038166208
-0.1653565443872786   -0.049188357847072726   -0.0002021673038166208
-0.19700364778819926   -0.14173660236492033   0.015403867839798337
-0.19700364778819926   -0.14173660236492033   0.015403867839798337
-0.19700364778819926   -0.14173660236492033   0.015403867839798337
-0.19700364778819926   -0.14173660236492033   0.015403867839798337
0.04415864171070362   -0.0067820201794319985   0.006541688201795109
0.04415864171070362   -0.0067820201794319985   0.006541688201795109
0.04415864171070362   -0.0067820201794319985   0.006541688201795109
0.04415864171070362   -0.0067820201794319985   0.006541688201795109
-0.06908725649494879   -0.07170756545206952   0.002779360710467471
-0.06908725649494879   -0.07170756545206952   0.002779360710467471
-0.06908725649494879   -0.07170756545206952   0.002779360710467471
-0.06908725649494879   -0.07170756545206952   0.002779360710467471
0.0262498823789772   -0.0984362463555821   0.008652117719313117
0.0262498823789772   -0.0984362463555821   0.008652117719313117
0.0262498823789772   -0.0984362463555821   0.008652117719313117
0.0262498823789772   -0.0984362463555821   0.008652117719313117
-0.18216754851320496   -0.05315503624550012   0.0010027980953476985
-0.18216754851320496   -0.05315503624550012   0.0010027980953476985
-0.18216754851320496   -0.05315503624550012   0.0010027980953476985
-0.18216754851320496   -0.05315503624550012   0.0010027980953476985
-0.20794201121106048   -0.14373578255200425   0.01271937068450553
-0.20794201121106048   -0.14373578255200425   0.01271937068450553
-0.20794201121106048   -0.14373578255200425   0.01271937068450553
-0.20794201121106048   -0.14373578255200425   0.01271937068450553
0.03674562843596813   -0.008825505433612742   0.009045965843744126
0.03674562843596813   -0.008825505433612742   0.009045965843744126
0.03674562843596813   -0.008825505433612742   0.009045965843744126
0.03674562843596813   -0.008825505433612742   0.009045965843744126
-0.08278774479388526   -0.07590797299896196   -0.006331606560818229
-0.08278774479388526   -0.07590797299896196   -0.006331606560818229
-0.08278774479388526   -0.07590797299896196   -0.006331606560818229
-0.08278774479388526   -0.07590797299896196   -0.006331606560818229
0.017838631175075607   -0.09998869449212049   0.005674168597788298
0.017838631175075607   -0.09998869449212049   0.005674168597788298
0.017838631175075607   -0.09998869449212049   0.005674168597788298
0.017838631175075607   -0.09998869449212049   0.005674168597788298
-0.1927411457819219   -0.056278725325250745   0.0012666406034441335
-0.1927411457819219   -0.056278725325250745   0.0012666406034441335
-0.1927411457819219   -0.056278725325250745   0.0012666406034441335
-0.1927411457819219   -0.056278725325250745   0.0012666406034441335
-0.21986763228649775   -0.1426363916722134   0.010426715045865186
-0.21986763228649775   -0.1426363916722134   0.010426715045865186
-0.21986763228649775   -0.1426363916722134   0.010426715045865186
-0.21986763228649775   -0.1426363916722134   0.010426715045865186
0.02851439377792577   -0.009908366434117443   0.010636816762810634
0.02851439377792577   -0.009908366434117443   0.010636816762810634
0.02851439377792577   -0.009908366434117443   0.010636816762810634
0.02851439377792577   -0.009908366434117443   0.010636816762810634
-0.09395750179235107   -0.07743813820823181   -0.015542628299523069
-0.09395750179235107   -0.07743813820823181   -0.015542628299523069
-0.09395750179235107   -0.07743813820823181   -0.015542628299523069
-0.09395750179235107   -0.07743813820823181   -0.015542628299523069
-0.1847661007802995   -0.16053083735862927   0.014092530242636313
-0.1847661007802995   -0.16053083735862927   0.014092530242636313
-0.1847661007802995   -0.16053083735862927   0.014092530242636313
-0.1847661007802995   -0.16053083735862927   0.014092530242636313
-0.40692948968875653   -0.06107683457465419   -0.009154635304579726
-0.40692948968875653   -0.06107683457465419   -0.009154635304579726
-0.40692948968875653   -0.06107683457465419   -0.009154635304579726
-0.40692948968875653   -0.06107683457465419   -0.009154635304579726
-0.4623868162320236   -0.236942777492401   -0.011690317309492118
-0.4623868162320236   -0.236942777492401   -0.011690317309492118
-0.4623868162320236   -0.236942777492401   -0.011690317309492118
-0.4623868162320236   -0.236942777492401   -0.011690317309492118
-0.17305074681980168   -0.012220744551857739   0.005652514868721759
-0.17305074681980168   -0.012220744551857739   0.005652514868721759
-0.17305074681980168   -0.012220744551857739   0.005652514868721759
-0.17305074681980168   -0.012220744551857739   0.005652514868721759
-0.3037488742497738   -0.11281522531636147   -0.008987422034548203
-0.3037488742497738   -0.11281522531636147   -0.008987422034548203
-0.3037488742497738   -0.11281522531636147   -0.008987422034548203
-0.3037488742497738   -0.11281522531636147   -0.008987422034548203
-0.2072280069110219   -0.18255321516179107   0.005098685022555893
-0.2072280069110219   -0.18255321516179107   0.005098685022555893
-0.2072280069110219   -0.18255321516179107   0.005098685022555893
-0.2072280069110219   -0.18255321516179107   0.005098685022555893
-0.4274690201873956   -0.06586977092905702   -0.008174343649696022
-0.4274690201873956   -0.06586977092905702   -0.008174343649696022
-0.4274690201873956   -0.06586977092905702   -0.008174343649696022
-0.4274690201873956   -0.06586977092905702   -0.008174343649696022
-0.4754655035778793   -0.2404808494356006   -0.013512235761529531
-0.4754655035778793   -0.2404808494356006   -0.013512235761529531
-0.4754655035778793   -0.2404808494356006   -0.013512235761529531
-0.4754655035778793   -0.2404808494356006   -0.013512235761529531
-0.18321075137771844   -0.015654397893612056   0.008294285192822614
-0.18321075137771844   -0.015654397893612056   0.008294285192822614
-0.18321075137771844   -0.015654397893612056   0.008294285192822614
-0.18321075137771844   -0.015654397893612056   0.008294285192822614
-0.3198088016665509   -0.12531156252613232   -0.013365710243724627
-0.3198088016665509   -0.12531156252613232   -0.013365710243724627
-0.3198088016665509   -0.12531156252613232   -0.013365710243724627
-0.3198088016665509   -0.12531156252613232   -0.013365710243724627
-0.2185313047445424   -0.18598678201967456   0.0020239024847638343
-0.2185313047445424   -0.18598678201967456   0.0020239024847638343
-0.2185313047445424   -0.18598678201967456   0.0020239024847638343
-0.2185313047445424   -0.18598678201967456   0.0020239024847638343
-0.4404231467949048   -0.0704266618933884   -0.00835463938887281
-0.4404231467949048   -0.0704266618933884   -0.00835463938887281
-0.4404231467949048   -0.0704266618933884   -0.00835463938887281
-0.4404231467949048   -0.0704266618933884   -0.00835463938887281
-0.48653708531637657   -0.22916751469053603   -0.015225421522801867
-0.48653708531637657   -0.22916751469053603   -0.015225421522801867
-0.48653708531637657   -0.22916751469053603   -0.015225421522801867
-0.48653708531637657   -0.22916751469053603   -0.015225421522801867
-0.19598005448667213   -0.0205386596289733   0.007766872001749757
-0.19598005448667213   -0.0205386596289733   0.007766872001749757
-0.19598005448667213   -0.0205386596289733   0.007766872001749757
-0.19598005448667213   -0.0205386596289733   0.007766872001749757
-0.3347671225724549   -0.12945348536614712   -0.01768651284383944
-0.3347671225724549   -0.12945348536614712   -0.01768651284383944
-0.3347671225724549   -0.12945348536614712   -0.01768651284383944
-0.3347671225724549   -0.12945348536614712   -0.01768651284383944
-0.40093255039340026   -0.07352988729930998   0.03328311389685039
-0.40093255039340026   -0.07352988729930998   0.03328311389685039
-0.40093255039340026   -0.07352988729930998   0.03328311389685039
-0.40093255039340026   -0.07352988729930998   0.03328311389685039
-0.6989071722946727   -0.051472288161610355   -0.01164029939806031
-0.6989071722946727   -0.051472288161610355   -0.01164029939806031
-0.6989071722946727   -0.051472288161610355   -0.01164029939806031
-0.6989071722946727   -0.051472288161610355   -0.01164029939806031
-0.740557995103326   -0.14630149291652986   0.009050530520676697
-0.740557995103326   -0.14630149291652986   0.009050530520676697
-0.740557995103326   -0.14630149291652986   0.009050530520676697
-0.740557995103326   -0.14630149291652986   0.009050530520676697
-0.4106042565550128   0.006628271121715046   0.003651432461442873
-0.4106042565550128   0.006628271121715046   0.003651432461442873
-0.4106042565550128   0.006628271121715046   0.003651432461442873
-0.4106042565550128   0.006628271121715046   0.003651432461442873
-0.5359652581444888   -0.051337420673147345   0.01060249432496046
-0.5359652581444888   -0.051337420673147345   0.01060249432496046
-0.5359652581444888   -0.051337420673147345   0.01060249432496046
-0.5359652581444888   -0.051337420673147345   0.01060249432496046
-0.42248993173483607   -0.07860643400846605   0.029457761692505843
-0.42248993173483607   -0.07860643400846605   0.029457761692505843
-0.42248993173483607   -0.07860643400846605   0.029457761692505843
-0.42248993173483607   -0.07860643400846605   0.029457761692505843
-0.726986876126003   -0.059381343988848256   -0.010014023520383476
-0.726986876126003   -0.059381343988848256   -0.010014023520383476
-0.726986876126003   -0.059381343988848256   -0.010014023520383476
-0.726986876126003   -0.059381343988848256   -0.010014023520383476
-0.7577680400111468   -0.15230028059393538   -0.003733362958530023
-0.7577680400111468   -0.15230028059393538   -0.003733362958530023
-0.7577680400111468   -0.15230028059393538   -0.003733362958530023
-0.7577680400111468   -0.15230028059393538   -0.003733362958530023
-0.42283672850475024   0.0026872677465561434   0.006463522421955293
-0.42283672850475024   0.0026872677465561434   0.006463522421955293
-0.42283672850475024   0.0026872677465561434   0.006463522421955293
-0.42283672850475024   0.0026872677465561434   0.006463522421955293
-0.5669404094903028   -0.06753003988616382   0.004202739048695656
-0.5669404094903028   -0.06753003988616382   0.004202739048695656
-0.5669404094903028   -0.06753003988616382   0.004202739048695656
-0.5669404094903028   -0.06753003988616382   0.004202739048695656
-0.43632001324311936   -0.08243094112774221   0.024165307604408243
-0.43632001324311936   -0.08243094112774221   0.024165307604408243
-0.43632001324311936   -0.08243094112774221   0.024165307604408243
-0.43632001324311936   -0.08243094112774221   0.024165307604408243
-0.7407516541812279   -0.06364897062808507   -0.007302743774773062
-0.7407516541812279   -0.06364897062808507   -0.007302743774773062
-0.7407516541812279   -0.06364897062808507   -0.007302743774773062
-0.7407516541812279   -0.06364897062808507   -0.007302743774773062
-0.772276930798686   -0.15450181451854078   -0.00023214179401789825
-0.772276930798686   -0.15450181451854078   -0.00023214179401789825
-0.772276930798686   -0.15450181451854078   -0.00023214179401789825
-0.772276930798686   -0.15450181451854078   -0.00023214179401789825
-0.44010833042179204   -0.015035681670702211   0.002786519930287175
-0.44010833042179204   -0.015035681670702211   0.002786519930287175
-0.44010833042179204   -0.015035681670702211   0.002786519930287175
-0.44010833042179204   -0.015035681670702211   0.002786519930287175
-0.5730889794753156   -0.0813077416413972   0.006577066665440825
-0.5730889794753156   -0.0813077416413972   0.006577066665440825
-0.5730889794753156   -0.0813077416413972   0.006577066665440825
-0.5730889794753156   -0.0813077416413972   0.006577066665440825
0.47191791968976443   0.022297636511375132   -0.009726473789882378
0.47191791968976443   0.022297636511375132   -0.009726473789882378
0.47191791968976443   0.022297636511375132   -0.009726473789882378
0.47191791968976443   0.022297636511375132   -0.009726473789882378
0.23634600946418066   -0.005504573497962094   0.00457023168101897
0.23634600946418066   -0.005504573497962094   0.00457023168101897
0.23634600946418066   -0.005504573497962094   0.00457023168101897
0.23634600946418066   -0.005504573497962094   0.00457023168101897
0.2219198447323037   -0.03430738495154741   -0.008768125492998238
0.2219198447323037   -0.03430738495154741   -0.008768125492998238
0.2219198447323037   -0.03430738495154741   -0.008768125492998238
0.2219198447323037   -0.03430738495154741   -0.008768125492998238
0.4666226370554546   0.03375578046428501   0.0053469910397006305
0.4666226370554546   0.03375578046428501   0.0053469910397006305
0.4666226370554546   0.03375578046428501   0.0053469910397006305
0.4666226370554546   0.03375578046428501   0.0053469910397006305
0.3309026260988702   0.0008264312668114226   -0.012763150259652963
0.3309026260988702   0.0008264312668114226   -0.012763150259652963
0.3309026260988702   0.0008264312668114226   -0.012763150259652963
0.3309026260988702   0.0008264312668114226   -0.012763150259652963
0.45941669303556787   0.012966850073846861   -0.009893798669291128
0.45941669303556787   0.012966850073846861   -0.009893798669291128
0.45941669303556787   0.012966850073846861   -0.009893798669291128
0.45941669303556787   0.012966850073846861   -0.009893798669291128
0.22874317920838658   -0.013901064104912722   0.00494222604077996
0.22874317920838658   -0.013901064104912722   0.00494222604077996
0.22874317920838658   -0.013901064104912722   0.00494222604077996
0.22874317920838658   -0.013901064104912722   0.00494222604077996
0.21412649149450727   -0.03612473641598314   -0.007297873646497113
0.21412649149450727   -0.03612473641598314   -0.007297873646497113
0.21412649149450727   -0.03612473641598314   -0.007297873646497113
0.21412649149450727   -0.03612473641598314   -0.007297873646497113
0.45584847492477654   0.031139709953518446   0.00795266262853965
0.45584847492477654   0.031139709953518446   0.00795266262853965
0.45584847492477654   0.031139709953518446   0.00795266262853965
0.45584847492477654   0.031139709953518446   0.00795266262853965
0.3269299432022625   -0.003115264922046182   -0.015034723255591978
0.3269299432022625   -0.003115264922046182   -0.015034723255591978
0.3269299432022625   -0.003115264922046182   -0.015034723255591978
0.3269299432022625   -0.003115264922046182   -0.015034723255591978
0.44857791966509486   0.010644202670136396   -0.007904606386486959
0.44857791966509486   0.010644202670136396   -0.007904606386486959
0.44857791966509486   0.010644202670136396   -0.007904606386486959
0.44857791966509486   0.010644202670136396   -0.007904606386486959
0.22084551603589342   -0.016180759850896675   0.006353272495347208
0.22084551603589342   -0.016180759850896675   0.006353272495347208
0.22084551603589342   -0.016180759850896675   0.006353272495347208
0.22084551603589342   -0.016180759850896675   0.006353272495347208
0.20661864724799056   -0.03531052254893802   -0.005039936573957387
0.20661864724799056   -0.03531052254893802   -0.005039936573957387
0.20661864724799056   -0.03531052254893802   -0.005039936573957387
0.20661864724799056   -0.03531052254893802   -0.005039936573957387
0.4425454582714566   0.029599073087367728   0.010476761313820998
0.4425454582714566   0.029599073087367728   0.010476761313820998
0.4425454582714566   0.029599073087367728   0.010476761313820998
0.4425454582714566   0.029599073087367728   0.010476761313820998
0.3112388875522004   -0.00538046693612719   -0.01961873008135272
0.3112388875522004   -0.00538046693612719   -0.01961873008135272
0.3112388875522004   -0.00538046693612719   -0.01961873008135272
0.3112388875522004   -0.00538046693612719   -0.01961873008135272
0.23821424019615164   0.005878817710690917   0.002527994132218927
0.23821424019615164   0.005878817710690917   0.002527994132218927
0.23821424019615164   0.005878817710690917   0.002527994132218927
0.23821424019615164   0.005878817710690917   0.002527994132218927
0.020728657381445567   -0.014679500249934729   -0.0007829788016063127
0.020728657381445567   -0.014679500249934729   -0.0007829788016063127
0.020728657381445567   -0.014679500249934729   -0.0007829788016063127
0.020728657381445567   -0.014679500249934729   -0.0007829788016063127
0.007128511443649283   -0.045033396588381236   -0.008514613133405607
0.007128511443649283   -0.045033396588381236   -0.008514613133405607
0.007128511443649283   -0.045033396588381236   -0.008514613133405607
0.007128511443649283   -0.045033396588381236   -0.008514613133405607
0.23838545920620072   0.027644604663268874   0.011607957261669175
0.23838545920620072   0.027644604663268874   0.011607957261669175
0.23838545920620072   0.027644604663268874   0.011607957261669175
0.23838545920620072   0.027644604663268874   0.011607957261669175
0.1238041996627599   -0.005987481683357807   -0.004738895427171305
0.1238041996627599   -0.005987481683357807   -0.004738895427171305
0.1238041996627599   -0.005987481683357807   -0.004738895427171305
0.1238041996627599   -0.005987481683357807   -0.004738895427171305
0.2318014962145056   0.002392226988136438   0.00394051997832647
0.2318014962145056   0.002392226988136438   0.00394051997832647
0.2318014962145056   0.002392226988136438   0.00394051997832647
0.2318014962145056   0.002392226988136438   0.00394051997832647
0.013977327564262166   -0.019516165784330963   0.00021223666560853983
0.013977327564262166   -0.019516165784330963   0.00021223666560853983
0.013977327564262166   -0.019516165784330963   0.00021223666560853983
0.013977327564262166   -0.019516165784330963   0.00021223666560853983
-0.0003872017880224756   -0.04704725420874297   -0.006024949956079848
-0.0003872017880224756   -0.04704725420874297   -0.006024949956079848
-0.0003872017880224756   -0.04704725420874297   -0.006024949956079848
-0.0003872017880224756   -0.04704725420874297   -0.006024949956079848
0.23014310286529102   0.023881685998579268   0.012778760792859249
0.23014310286529102   0.023881685998579268   0.012778760792859249
0.23014310286529102   0.023881685998579268   0.012778760792859249
0.23014310286529102   0.023881685998579268   0.012778760792859249
0.11508039562886929   -0.009484628708570718   -0.0067063500069399
0.11508039562886929   -0.009484628708570718   -0.0067063500069399
0.11508039562886929   -0.009484628708570718   -0.0067063500069399
0.11508039562886929   -0.009484628708570718   -0.0067063500069399
0.22393824129286707   0.00012504348709588275   0.005511095442224889
0.22393824129286707   0.00012504348709588275   0.005511095442224889
0.22393824129286707   0.00012504348709588275   0.005511095442224889
0.22393824129286707   0.00012504348709588275   0.005511095442224889
0.005791089830421257   -0.023317181651239475   0.0011364355786353114
0.005791089830421257   -0.023317181651239475   0.0011364355786353114
0.005791089830421257   -0.023317181651239475   0.0011364355786353114
0.005791089830421257   -0.023317181651239475   0.0011364355786353114
-0.008431663578296705   -0.047083972935269884   -0.004187516008664351
-0.008431663578296705   -0.047083972935269884   -0.004187516008664351
-0.008431663578296705   -0.047083972935269884   -0.004187516008664351
-0.008431663578296705   -0.047083972935269884   -0.004187516008664351
0.22182377847858373   0.0215751000633392   0.01410009696673254
0.22182377847858373   0.0215751000633392   0.01410009696673254
0.22182377847858373   0.0215751000633392   0.01410009696673254
0.22182377847858373   0.0215751000633392   0.01410009696673254
0.10839021212067483   -0.010759762193065507   -0.008347239322641342
0.10839021212067483   -0.010759762193065507   -0.008347239322641342
0.10839021212067483   -0.010759762193065507   -0.008347239322641342
0.10839021212067483   -0.010759762193065507   -0.008347239322641342
0.02174287809824976   -0.01150526248559235   0.001113887018072266
0.02174287809824976   -0.01150526248559235   0.001113887018072266
0.02174287809824976   -0.01150526248559235   0.001113887018072266
0.02174287809824976   -0.01150526248559235   0.001113887018072266
-0.1879429977292318   -0.02157475551385832   -0.005871528156232418
-0.1879429977292318   -0.02157475551385832   -0.005871528156232418
-0.1879429977292318   -0.02157475551385832   -0.005871528156232418
-0.1879429977292318   -0.02157475551385832   -0.005871528156232418
-0.2030654017489677   -0.05949627078445131   -0.00980552136363016
-0.2030654017489677   -0.05949627078445131   -0.00980552136363016
-0.2030654017489677   -0.05949627078445131   -0.00980552136363016
-0.2030654017489677   -0.05949627078445131   -0.00980552136363016
0.023282503989414036   0.020465218697552162   0.006756734309484759
0.023282503989414036   0.020465218697552162   0.006756734309484759
0.023282503989414036   0.020465218697552162   0.006756734309484759
0.023282503989414036   0.020465218697552162   0.006756734309484759
-0.08672254837865552   -0.01717260143936511   -0.0046516655289512605
-0.08672254837865552   -0.01717260143936511   -0.0046516655289512605
-0.08672254837865552   -0.01717260143936511   -0.0046516655289512605
-0.08672254837865552   -0.01717260143936511   -0.0046516655289512605
0.01608119684260225   -0.012885636115679746   0.004101053388657742
0.01608119684260225   -0.012885636115679746   0.004101053388657742
0.01608119684260225   -0.012885636115679746   0.004101053388657742
0.01608119684260225   -0.012885636115679746   0.004101053388657742
-0.1952991949530096   -0.025580516322070555   -0.004890241846220526
-0.1952991949530096   -0.025580516322070555   -0.004890241846220526
-0.1952991949530096   -0.025580516322070555   -0.004890241846220526
-0.1952991949530096   -0.025580516322070555   -0.004890241846220526
-0.2118611184576639   -0.061684405947892484   -0.006641789834022562
-0.2118611184576639   -0.061684405947892484   -0.006641789834022562
-0.2118611184576639   -0.061684405947892484   -0.006641789834022562
-0.2118611184576639   -0.061684405947892484   -0.006641789834022562
0.01504028404323344   0.01644763656098981   0.007617588430466948
0.01504028404323344   0.01644763656098981   0.007617588430466948
0.01504028404323344   0.01644763656098981   0.007617588430466948
0.01504028404323344   0.01644763656098981   0.007617588430466948
-0.0940173703134357   -0.01951909453154734   -0.005563109165882046
-0.0940173703134357   -0.01951909453154734   -0.005563109165882046
-0.0940173703134357   -0.01951909453154734   -0.005563109165882046
-0.0940173703134357   -0.01951909453154734   -0.005563109165882046
0.008289095328961701   -0.015220124116452701   0.005529405536550768
0.008289095328961701   -0.015220124116452701   0.005529405536550768
0.008289095328961701   -0.015220124116452701   0.005529405536550768
0.008289095328961701   -0.015220124116452701   0.005529405536550768
-0.20498152784693788   -0.029888243373996037   -0.004039999354290929
-0.20498152784693788   -0.029888243373996037   -0.004039999354290929
-0.20498152784693788   -0.029888243373996037   -0.004039999354290929
-0.20498152784693788   -0.029888243373996037   -0.004039999354290929
-0.22160048416339828   -0.06323812685052557   -0.0058971073779059266
-0.22160048416339828   -0.06323812685052557   -0.0058971073779059266
-0.22160048416339828   -0.06323812685052557   -0.0058971073779059266
-0.22160048416339828   -0.06323812685052557   -0.0058971073779059266
0.0061222534686429615   0.013026659711863791   0.008471436578900307
0.0061222534686429615   0.013026659711863791   0.008471436578900307
0.0061222534686429615   0.013026659711863791   0.008471436578900307
0.0061222534686429615   0.013026659711863791   0.008471436578900307
-0.10347148033668596   -0.02232603125861077   -0.00778419510232788
-0.10347148033668596   -0.02232603125861077   -0.00778419510232788
-0.10347148033668596   -0.02232603125861077   -0.00778419510232788
-0.10347148033668596   -0.02232603125861077   -0.00778419510232788
-0.18471337789271824   -0.01421860171002981   0.0029204172225038346
-0.18471337789271824   -0.01421860171002981   0.0029204172225038346
-0.18471337789271824   -0.01421860171002981   0.0029204172225038346
-0.18471337789271824   -0.01421860171002981   0.0029204172225038346
-0.39232852245642713   -0.02528970231773478   -0.010196374801143278
-0.39232852245642713   -0.02528970231773478   -0.010196374801143278
-0.39232852245642713   -0.02528970231773478   -0.010196374801143278
-0.39232852245642713   -0.02528970231773478   -0.010196374801143278
-0.4094550349418664   -0.06262602149798557   -0.00996958173986798
-0.4094550349418664   -0.06262602149798557   -0.00996958173986798
-0.4094550349418664   -0.06262602149798557   -0.00996958173986798
-0.4094550349418664   -0.06262602149798557   -0.00996958173986798
-0.18562790847507304   0.01581602785334843   0.0020696463680404883
-0.18562790847507304   0.01581602785334843   0.0020696463680404883
-0.18562790847507304   0.01581602785334843   0.0020696463680404883
-0.18562790847507304   0.01581602785334843   0.0020696463680404883
-0.29065118845440185   -0.020587797565075935   -0.0038030240754144858
-0.29065118845440185   -0.020587797565075935   -0.0038030240754144858
-0.29065118845440185   -0.020587797565075935   -0.0038030240754144858
-0.29065118845440185   -0.020587797565075935   -0.0038030240754144858
-0.19097054344220968   -0.01558392247744924   0.006756421863156932
-0.19097054344220968   -0.01558392247744924   0.006756421863156932
-0.19097054344220968   -0.01558392247744924   0.006756421863156932
-0.19097054344220968   -0.01558392247744924   0.006756421863156932
-0.4030291141674389   -0.03014278535989745   -0.010323214005823096
-0.4030291141674389   -0.03014278535989745   -0.010323214005823096
-0.4030291141674389   -0.03014278535989745   -0.010323214005823096
-0.4030291141674389   -0.03014278535989745   -0.010323214005823096
-0.42157488577595353   -0.06640666075848213   -0.007102894733292636
-0.42157488577595353   -0.06640666075848213   -0.007102894733292636
-0.42157488577595353   -0.06640666075848213   -0.007102894733292636
-0.42157488577595353   -0.06640666075848213   -0.007102894733292636
-0.19541715157633344   0.011409473776005402   0.002484164848729901
-0.19541715157633344   0.011409473776005402   0.002484164848729901
-0.19541715157633344   0.011409473776005402   0.002484164848729901
-0.19541715157633344   0.011409473776005402   0.002484164848729901
-0.29818588060390466   -0.022602040998404307   -0.0037628967388581014
-0.29818588060390466   -0.022602040998404307   -0.0037628967388581014
-0.29818588060390466   -0.022602040998404307   -0.0037628967388581014
-0.29818588060390466   -0.022602040998404307   -0.0037628967388581014
-0.20066222417691001   -0.019391578639703668   0.007059854261556112
-0.20066222417691001   -0.019391578639703668   0.007059854261556112
-0.20066222417691001   -0.019391578639703668   0.007059854261556112
-0.20066222417691001   -0.019391578639703668   0.007059854261556112
-0.41559899701221215   -0.034874792179608184   -0.008755319493459314
-0.41559899701221215   -0.034874792179608184   -0.008755319493459314
-0.41559899701221215   -0.034874792179608184   -0.008755319493459314
-0.41559899701221215   -0.034874792179608184   -0.008755319493459314
-0.43524895199935815   -0.0714507366063308   -0.00752461537235177
-0.43524895199935815   -0.0714507366063308   -0.00752461537235177
-0.43524895199935815   -0.0714507366063308   -0.00752461537235177
-0.43524895199935815   -0.0714507366063308   -0.00752461537235177
-0.20600540576816379   0.00592273667622846   0.0029174210715086947
-0.20600540576816379   0.00592273667622846   0.0029174210715086947
-0.20600540576816379   0.00592273667622846   0.0029174210715086947
-0.20600540576816379   0.00592273667622846   0.0029174210715086947
-0.3119415828639757   -0.027867663547534206   -0.006251692607001603
-0.3119415828639757   -0.027867663547534206   -0.006251692607001603
-0.3119415828639757   -0.027867663547534206   -0.006251692607001603
-0.3119415828639757   -0.027867663547534206   -0.006251692607001603
-0.37940038677932436   0.017156707561998788   0.011997893704637125
-0.37940038677932436   0.017156707561998788   0.011997893704637125
-0.37940038677932436   0.017156707561998788   0.011997893704637125
-0.37940038677932436   0.017156707561998788   0.011997893704637125
-0.5876286166195822   -0.029217363830148224   -0.007458654301511401
-0.5876286166195822   -0.029217363830148224   -0.007458654301511401
-0.5876286166195822   -0.029217363830148224   -0.007458654301511401
-0.5876286166195822   -0.029217363830148224   -0.007458654301511401
-0.6013048725207096   -0.029799182214481273   0.012214781746158108
-0.6013048725207096   -0.029799182214481273   0.012214781746158108
-0.6013048725207096   -0.029799182214481273   0.012214781746158108
-0.6013048725207096   -0.029799182214481273   0.012214781746158108
-0.39296146044042846   0.012614409336439869   -0.0027421400671082223
-0.39296146044042846   0.012614409336439869   -0.0027421400671082223
-0.39296146044042846   0.012614409336439869   -0.0027421400671082223
-0.39296146044042846   0.012614409336439869   -0.0027421400671082223
-0.4674295622766864   0.00016845425644902712   0.011961217247660843
-0.4674295622766864   0.00016845425644902712   0.011961217247660843
-0.4674295622766864   0.00016845425644902712   0.011961217247660843
-0.4674295622766864   0.00016845425644902712   0.011961217247660843
-0.3892309462953208   0.01323134556694891   0.015293494427920128
-0.3892309462953208   0.01323134556694891   0.015293494427920128
-0.3892309462953208   0.01323134556694891   0.015293494427920128
-0.3892309462953208   0.01323134556694891   0.015293494427920128
-0.6047667782072503   -0.030147509986426055   -0.004746418914600623
-0.6047667782072503   -0.030147509986426055   -0.004746418914600623
-0.6047667782072503   -0.030147509986426055   -0.004746418914600623
-0.6047667782072503   -0.030147509986426055   -0.004746418914600623
-0.6184816094222156   -0.03439765958093996   0.016683766701955483
-0.6184816094222156   -0.03439765958093996   0.016683766701955483
-0.6184816094222156   -0.03439765958093996   0.016683766701955483
-0.6184816094222156   -0.03439765958093996   0.016683766701955483
-0.4055584337555074   0.00947768788492459   -0.002904983274472382
-0.4055584337555074   0.00947768788492459   -0.002904983274472382
-0.4055584337555074   0.00947768788492459   -0.002904983274472382
-0.4055584337555074   0.00947768788492459   -0.002904983274472382
-0.4899858180259873   -0.005169978368800995   0.006865774798172242
-0.4899858180259873   -0.005169978368800995   0.006865774798172242
-0.4899858180259873   -0.005169978368800995   0.006865774798172242
-0.4899858180259873   -0.005169978368800995   0.006865774798172242
-0.4021429631662473   0.008552773201013483   0.01509728435573907
-0.4021429631662473   0.008552773201013483   0.01509728435573907
-0.4021429631662473   0.008552773201013483   0.01509728435573907
-0.4021429631662473   0.008552773201013483   0.01509728435573907
-0.6225411683295251   -0.034116833215075665   -0.0038948542004559675
-0.6225411683295251   -0.034116833215075665   -0.0038948542004559675
-0.6225411683295251   -0.034116833215075665   -0.0038948542004559675
-0.6225411683295251   -0.034116833215075665   -0.0038948542004559675
-0.6430036345138647   -0.0533090787690739   0.01431483853050134
-0.6430036345138647   -0.0533090787690739   0.01431483853050134
-0.6430036345138647   -0.0533090787690739   0.01431483853050134
-0.6430036345138647   -0.0533090787690739   0.01431483853050134
-0.42008760385990107   -0.0004087740452743821   -0.002759837236130453
-0.42008760385990107   -0.0004087740452743821   -0.002759837236130453
-0.42008760385990107   -0.0004087740452743821   -0.002759837236130453
-0.42008760385990107   -0.0004087740452743821   -0.002759837236130453
-0.49896317423172576   -0.012001424660698104   0.0025446553261545962
-0.49896317423172576   -0.012001424660698104   0.0025446553261545962
-0.49896317423172576   -0.012001424660698104   0.0025446553261545962
-0.49896317423172576   -0.012001424660698104   0.0025446553261545962
0.386881178354787   0.021060336026351455   -0.013140389588019686
0.386881178354787   0.021060336026351455   -0.013140389588019686
0.386881178354787   0.021060336026351455   -0.013140389588019686
0.386881178354787   0.021060336026351455   -0.013140389588019686
0.1907830668803439   -0.0009003397654125458   0.004577852266546237
0.1907830668803439   -0.0009003397654125458   0.004577852266546237
0.1907830668803439   -0.0009003397654125458   0.004577852266546237
0.1907830668803439   -0.0009003397654125458   0.004577852266546237
0.17507350212251957   -0.028062620570607467   -0.01219587920184213
0.17507350212251957   -0.028062620570607467   -0.01219587920184213
0.17507350212251957   -0.028062620570607467   -0.01219587920184213
0.17507350212251957   -0.028062620570607467   -0.01219587920184213
0.37994343521557894   0.030951745114270207   0.005764713822734101
0.37994343521557894   0.030951745114270207   0.005764713822734101
0.37994343521557894   0.030951745114270207   0.005764713822734101
0.37994343521557894   0.030951745114270207   0.005764713822734101
0.26853037650006817   0.002339436307759929   -0.0088559796993694
0.26853037650006817   0.002339436307759929   -0.0088559796993694
0.26853037650006817   0.002339436307759929   -0.0088559796993694
0.26853037650006817   0.002339436307759929   -0.0088559796993694
0.3723104039474576   0.011278496795023976   -0.012727194198622938
0.3723104039474576   0.011278496795023976   -0.012727194198622938
0.3723104039474576   0.011278496795023976   -0.012727194198622938
0.3723104039474576   0.011278496795023976   -0.012727194198622938
0.18239304826299343   -0.008702857379008729   0.005042088308924969
0.18239304826299343   -0.008702857379008729   0.005042088308924969
0.18239304826299343   -0.008702857379008729   0.005042088308924969
0.18239304826299343   -0.008702857379008729   0.005042088308924969
0.16722315079858935   -0.030304375793190882   -0.010642441978835113
0.16722315079858935   -0.030304375793190882   -0.010642441978835113
0.16722315079858935   -0.030304375793190882   -0.010642441978835113
0.16722315079858935   -0.030304375793190882   -0.010642441978835113
0.3682231581152908   0.02783650758889321   0.007981662953184861
0.3682231581152908   0.02783650758889321   0.007981662953184861
0.3682231581152908   0.02783650758889321   0.007981662953184861
0.3682231581152908   0.02783650758889321   0.007981662953184861
0.2626445076855924   -0.0017759401553285384   -0.011420501984647667
0.2626445076855924   -0.0017759401553285384   -0.011420501984647667
0.2626445076855924   -0.0017759401553285384   -0.011420501984647667
0.2626445076855924   -0.0017759401553285384   -0.011420501984647667
0.3607403981978917   0.00850703022787866   -0.010102659272789784
0.3607403981978917   0.00850703022787866   -0.010102659272789784
0.3607403981978917   0.00850703022787866   -0.010102659272789784
0.3607403981978917   0.00850703022787866   -0.010102659272789784
0.17441250698150967   -0.011268302166654295   0.0062682653092284955
0.17441250698150967   -0.011268302166654295   0.0062682653092284955
0.17441250698150967   -0.011268302166654295   0.0062682653092284955
0.17441250698150967   -0.011268302166654295   0.0062682653092284955
0.160087700444577   -0.030729435907627903   -0.008708025834262223
0.160087700444577   -0.030729435907627903   -0.008708025834262223
0.160087700444577   -0.030729435907627903   -0.008708025834262223
0.160087700444577   -0.030729435907627903   -0.008708025834262223
0.3550112731311492   0.025287950553433032   0.010027272164902618
0.3550112731311492   0.025287950553433032   0.010027272164902618
0.3550112731311492   0.025287950553433032   0.010027272164902618
0.3550112731311492   0.025287950553433032   0.010027272164902618
0.24809706207891444   -0.00453243695079128   -0.015409417187135697
0.24809706207891444   -0.00453243695079128   -0.015409417187135697
0.24809706207891444   -0.00453243695079128   -0.015409417187135697
0.24809706207891444   -0.00453243695079128   -0.015409417187135697
0.1944232127895401   0.020493045834526213   0.0013851962125885214
0.1944232127895401   0.020493045834526213   0.0013851962125885214
0.1944232127895401   0.020493045834526213   0.0013851962125885214
0.1944232127895401   0.020493045834526213   0.0013851962125885214
0.005169114041782115   -0.006877392576397209   -0.0009818315620639644
0.005169114041782115   -0.006877392576397209   -0.0009818315620639644
0.005169114041782115   -0.006877392576397209   -0.0009818315620639644
0.005169114041782115   -0.006877392576397209   -0.0009818315620639644
-0.006680906550134039   -0.02537089400824897   -0.008403170339585275
-0.006680906550134039   -0.02537089400824897   -0.008403170339585275
-0.006680906550134039   -0.02537089400824897   -0.008403170339585275
-0.006680906550134039   -0.02537089400824897   -0.008403170339585275
0.19083963596153578   0.028169112822300734   0.010403056600327264
0.19083963596153578   0.028169112822300734   0.010403056600327264
0.19083963596153578   0.028169112822300734   0.010403056600327264
0.19083963596153578   0.028169112822300734   0.010403056600327264
0.0944360604528559   0.004022477174728357   -0.0010029770512357643
0.0944360604528559   0.004022477174728357   -0.0010029770512357643
0.0944360604528559   0.004022477174728357   -0.0010029770512357643
0.0944360604528559   0.004022477174728357   -0.0010029770512357643
0.18670014797161666   0.0154674140488541   0.0024073154241793446
0.18670014797161666   0.0154674140488541   0.0024073154241793446
0.18670014797161666   0.0154674140488541   0.0024073154241793446
0.18670014797161666   0.0154674140488541   0.0024073154241793446
-0.002462718794214363   -0.012590495468801437   -9.263009943346256e-05
-0.002462718794214363   -0.012590495468801437   -9.263009943346256e-05
-0.002462718794214363   -0.012590495468801437   -9.263009943346256e-05
-0.002462718794214363   -0.012590495468801437   -9.263009943346256e-05
-0.014114839618010081   -0.02898567435359241   -0.007300098484698007
-0.014114839618010081   -0.02898567435359241   -0.007300098484698007
-0.014114839618010081   -0.02898567435359241   -0.007300098484698007
-0.014114839618010081   -0.02898567435359241   -0.007300098484698007
0.18241337324678986   0.02351464140624084   0.011489653062734168
0.18241337324678986   0.02351464140624084   0.011489653062734168
0.18241337324678986   0.02351464140624084   0.011489653062734168
0.18241337324678986   0.02351464140624084   0.011489653062734168
0.08528682203888767   -0.0005909678369709313   -0.003613854157567609
0.08528682203888767   -0.0005909678369709313   -0.003613854157567609
0.08528682203888767   -0.0005909678369709313   -0.003613854157567609
0.08528682203888767   -0.0005909678369709313   -0.003613854157567609
0.17843546998257648   0.011672802410872013   0.003441975737037554
0.17843546998257648   0.011672802410872013   0.003441975737037554
0.17843546998257648   0.011672802410872013   0.003441975737037554
0.17843546998257648   0.011672802410872013   0.003441975737037554
-0.010131638601871308   -0.017138537606297945   0.0007687698487013972
-0.010131638601871308   -0.017138537606297945   0.0007687698487013972
-0.010131638601871308   -0.017138537606297945   0.0007687698487013972
-0.010131638601871308   -0.017138537606297945   0.0007687698487013972
-0.02146286249756678   -0.03107544920477113   -0.005866008397668626
-0.02146286249756678   -0.03107544920477113   -0.005866008397668626
-0.02146286249756678   -0.03107544920477113   -0.005866008397668626
-0.02146286249756678   -0.03107544920477113   -0.005866008397668626
0.17439652338587297   0.019656603284296557   0.012450049680291321
0.17439652338587297   0.019656603284296557   0.012450049680291321
0.17439652338587297   0.019656603284296557   0.012450049680291321
0.17439652338587297   0.019656603284296557   0.012450049680291321
0.0786317055374152   -0.0034477497008436712   -0.005506697877170311
0.0786317055374152   -0.0034477497008436712   -0.005506697877170311
0.0786317055374152   -0.0034477497008436712   -0.005506697877170311
0.0786317055374152   -0.0034477497008436712   -0.005506697877170311
0.011710881920339842   0.02041687424847332   0.004432741005854151
0.011710881920339842   0.02041687424847332   0.004432741005854151
0.011710881920339842   0.02041687424847332   0.004432741005854151
0.011710881920339842   0.02041687424847332   0.004432741005854151
-0.17489117716272573   -0.011671860034318592   -0.00597068414207813
-0.17489117716272573   -0.011671860034318592   -0.00597068414207813
-0.17489117716272573   -0.011671860034318592   -0.00597068414207813
-0.17489117716272573   -0.011671860034318592   -0.00597068414207813
-0.1841323692435569   -0.0234666594606293   -0.005487783248451634
-0.1841323692435569   -0.0234666594606293   -0.005487783248451634
-0.1841323692435569   -0.0234666594606293   -0.005487783248451634
-0.1841323692435569   -0.0234666594606293   -0.005487783248451634
0.005718984522834446   0.023101474972986   0.005123916044023144
0.005718984522834446   0.023101474972986   0.005123916044023144
0.005718984522834446   0.023101474972986   0.005123916044023144
0.005718984522834446   0.023101474972986   0.005123916044023144
-0.0852863414230752   0.0024478158308184617   0.0003711875414161552
-0.0852863414230752   0.0024478158308184617   0.0003711875414161552
-0.0852863414230752   0.0024478158308184617   0.0003711875414161552
-0.0852863414230752   0.0024478158308184617   0.0003711875414161552
0.004464722395868316   0.016450942994484647   0.005503137387692892
0.004464722395868316   0.016450942994484647   0.005503137387692892
0.004464722395868316   0.016450942994484647   0.005503137387692892
0.004464722395868316   0.016450942994484647   0.005503137387692892
-0.18267202110408245   -0.016610041469619783   -0.005042660542088903
-0.18267202110408245   -0.016610041469619783   -0.005042660542088903
-0.18267202110408245   -0.016610041469619783   -0.005042660542088903
-0.18267202110408245   -0.016610041469619783   -0.005042660542088903
-0.1921038306296729   -0.027428872086575698   -0.004620840134454216
-0.1921038306296729   -0.027428872086575698   -0.004620840134454216
-0.1921038306296729   -0.027428872086575698   -0.004620840134454216
-0.1921038306296729   -0.027428872086575698   -0.004620840134454216
-0.001955855476349246   0.018318588510094935   0.006190559359918835
-0.001955855476349246   0.018318588510094935   0.006190559359918835
-0.001955855476349246   0.018318588510094935   0.006190559359918835
-0.001955855476349246   0.018318588510094935   0.006190559359918835
-0.09293006161465713   -0.00147004281993722   -0.0015701734045367784
-0.09293006161465713   -0.00147004281993722   -0.0015701734045367784
-0.09293006161465713   -0.00147004281993722   -0.0015701734045367784
-0.09293006161465713   -0.00147004281993722   -0.0015701734045367784
-0.0030202844978775337   0.012624504765957242   0.00656249799641509
-0.0030202844978775337   0.012624504765957242   0.00656249799641509
-0.0030202844978775337   0.012624504765957242   0.00656249799641509
-0.0030202844978775337   0.012624504765957242   0.00656249799641509
-0.1908675016801292   -0.021562888414422235   -0.0043051790588870854
-0.1908675016801292   -0.021562888414422235   -0.0043051790588870854
-0.1908675016801292   -0.021562888414422235   -0.0043051790588870854
-0.1908675016801292   -0.021562888414422235   -0.0043051790588870854
-0.20001196913620703   -0.03052933324203687   -0.0031743055857530156
-0.20001196913620703   -0.03052933324203687   -0.0031743055857530156
-0.20001196913620703   -0.03052933324203687   -0.0031743055857530156
-0.20001196913620703   -0.03052933324203687   -0.0031743055857530156
-0.009911309797529962   0.013813135639095895   0.007003170258648435
-0.009911309797529962   0.013813135639095895   0.007003170258648435
-0.009911309797529962   0.013813135639095895   0.007003170258648435
-0.009911309797529962   0.013813135639095895   0.007003170258648435
-0.10115815404201242   -0.005451690088709982   -0.003702701473333769
-0.10115815404201242   -0.005451690088709982   -0.003702701473333769
-0.10115815404201242   -0.005451690088709982   -0.003702701473333769
-0.10115815404201242   -0.005451690088709982   -0.003702701473333769
-0.16505649268989528   0.02375846186112663   0.007772416326631872
-0.16505649268989528   0.02375846186112663   0.007772416326631872
-0.16505649268989528   0.02375846186112663   0.007772416326631872
-0.16505649268989528   0.02375846186112663   0.007772416326631872
-0.349641122878603   -0.015939061863005637   -0.009701616761395403
-0.349641122878603   -0.015939061863005637   -0.009701616761395403
-0.349641122878603   -0.015939061863005637   -0.009701616761395403
-0.349641122878603   -0.015939061863005637   -0.009701616761395403
-0.3568253324802157   -0.019213484885165555   -0.001880493319386757
-0.3568253324802157   -0.019213484885165555   -0.001880493319386757
-0.3568253324802157   -0.019213484885165555   -0.001880493319386757
-0.3568253324802157   -0.019213484885165555   -0.001880493319386757
-0.17484558846239737   0.01758887965988938   -0.00010941846317076565
-0.17484558846239737   0.01758887965988938   -0.00010941846317076565
-0.17484558846239737   0.01758887965988938   -0.00010941846317076565
-0.17484558846239737   0.01758887965988938   -0.00010941846317076565
-0.2596941844069735   0.0022965952580390886   0.0019297403754829235
-0.2596941844069735   0.0022965952580390886   0.0019297403754829235
-0.2596941844069735   0.0022965952580390886   0.0019297403754829235
-0.2596941844069735   0.0022965952580390886   0.0019297403754829235
-0.1726534839231706   0.019737483557242773   0.00870250033560975
-0.1726534839231706   0.019737483557242773   0.00870250033560975
-0.1726534839231706   0.019737483557242773   0.00870250033560975
-0.1726534839231706   0.019737483557242773   0.00870250033560975
-0.3587522572769035   -0.02109690903998032   -0.009631693148013105
-0.3587522572769035   -0.02109690903998032   -0.009631693148013105
-0.3587522572769035   -0.02109690903998032   -0.009631693148013105
-0.3587522572769035   -0.02109690903998032   -0.009631693148013105
-0.36663134635123795   -0.02368043627379391   -0.001751190625362194
-0.36663134635123795   -0.02368043627379391   -0.001751190625362194
-0.36663134635123795   -0.02368043627379391   -0.001751190625362194
-0.36663134635123795   -0.02368043627379391   -0.001751190625362194
-0.18292196747093903   0.013025204245148074   0.0008343993274934468
-0.18292196747093903   0.013025204245148074   0.0008343993274934468
-0.18292196747093903   0.013025204245148074   0.0008343993274934468
-0.18292196747093903   0.013025204245148074   0.0008343993274934468
-0.26646768940106835   -0.0012335461589823155   0.00034633462982919076
-0.26646768940106835   -0.0012335461589823155   0.00034633462982919076
-0.26646768940106835   -0.0012335461589823155   0.00034633462982919076
-0.26646768940106835   -0.0012335461589823155   0.00034633462982919076
-0.18051264631401293   0.015895653108481435   0.01001055624878956
-0.18051264631401293   0.015895653108481435   0.01001055624878956
-0.18051264631401293   0.015895653108481435   0.01001055624878956
-0.18051264631401293   0.015895653108481435   0.01001055624878956
-0.36848144641744746   -0.025991664046411657   -0.008690463183796725
-0.36848144641744746   -0.025991664046411657   -0.008690463183796725
-0.36848144641744746   -0.025991664046411657   -0.008690463183796725
-0.36848144641744746   -0.025991664046411657   -0.008690463183796725
-0.37563876363406423   -0.028484460403789637   0.0005147935373339806
-0.37563876363406423   -0.028484460403789637   0.0005147935373339806
-0.37563876363406423   -0.028484460403789637   0.0005147935373339806
-0.37563876363406423   -0.028484460403789637   0.0005147935373339806
-0.19148255701400452   0.007549195188335987   0.0013942265948894902
-0.19148255701400452   0.007549195188335987   0.0013942265948894902
-0.19148255701400452   0.007549195188335987   0.0013942265948894902
-0.19148255701400452   0.007549195188335987   0.0013942265948894902
-0.27729169923213076   -0.006311676438907017   -0.0018274954290806566
-0.27729169923213076   -0.006311676438907017   -0.0018274954290806566
-0.27729169923213076   -0.006311676438907017   -0.0018274954290806566
-0.27729169923213076   -0.006311676438907017   -0.0018274954290806566
-0.3374790522519805   0.024448512337846923   0.010721162170862587
-0.3374790522519805   0.024448512337846923   0.010721162170862587
-0.3374790522519805   0.024448512337846923   0.010721162170862587
-0.3374790522519805   0.024448512337846923   0.010721162170862587
-0.5167350362667521   -0.023996258123246836   -0.008673915448467167
-0.5167350362667521   -0.023996258123246836   -0.008673915448467167
-0.5167350362667521   -0.023996258123246836   -0.008673915448467167
-0.5167350362667521   -0.023996258123246836   -0.008673915448467167
-0.5233819873490673   -0.011119207466817785   0.00901030282525769
-0.5233819873490673   -0.011119207466817785   0.00901030282525769
-0.5233819873490673   -0.011119207466817785   0.00901030282525769
-0.5233819873490673   -0.011119207466817785   0.00901030282525769
-0.3513571528506272   0.010919941938824687   -0.0046730219954341685
-0.3513571528506272   0.010919941938824687   -0.0046730219954341685
-0.3513571528506272   0.010919941938824687   -0.0046730219954341685
-0.3513571528506272   0.010919941938824687   -0.0046730219954341685
-0.4130627047013943   0.0049050988373470356   0.009668526260554953
-0.4130627047013943   0.0049050988373470356   0.009668526260554953
-0.4130627047013943   0.0049050988373470356   0.009668526260554953
-0.4130627047013943   0.0049050988373470356   0.009668526260554953
-0.34509995889434153   0.02520142967003229   0.01233146005478233
-0.34509995889434153   0.02520142967003229   0.01233146005478233
-0.34509995889434153   0.02520142967003229   0.01233146005478233
-0.34509995889434153   0.02520142967003229   0.01233146005478233
-0.5292719151581707   -0.02503342905084259   -0.006525114636226934
-0.5292719151581707   -0.02503342905084259   -0.006525114636226934
-0.5292719151581707   -0.02503342905084259   -0.006525114636226934
-0.5292719151581707   -0.02503342905084259   -0.006525114636226934
-0.5355777657631399   -0.013459379945214733   0.012429009582463534
-0.5355777657631399   -0.013459379945214733   0.012429009582463534
-0.5355777657631399   -0.013459379945214733   0.012429009582463534
-0.5355777657631399   -0.013459379945214733   0.012429009582463534
-0.36071369069723486   0.008301041162451936   -0.004144389791592824
-0.36071369069723486   0.008301041162451936   -0.004144389791592824
-0.36071369069723486   0.008301041162451936   -0.004144389791592824
-0.36071369069723486   0.008301041162451936   -0.004144389791592824
-0.4302101843162699   0.0024566907550388206   0.006410427786047536
-0.4302101843162699   0.0024566907550388206   0.006410427786047536
-0.4302101843162699   0.0024566907550388206   0.006410427786047536
-0.4302101843162699   0.0024566907550388206   0.006410427786047536
-0.35379729840272267   0.02346552848255004   0.015273084360870222
-0.35379729840272267   0.02346552848255004   0.015273084360870222
-0.35379729840272267   0.02346552848255004   0.015273084360870222
-0.35379729840272267   0.02346552848255004   0.015273084360870222
-0.542130901684246   -0.028260610891905236   -0.005535439076367506
-0.542130901684246   -0.028260610891905236   -0.005535439076367506
-0.542130901684246   -0.028260610891905236   -0.005535439076367506
-0.542130901684246   -0.028260610891905236   -0.005535439076367506
-0.5521332502940179   -0.02381657986972871   0.012246780075714763
-0.5521332502940179   -0.02381657986972871   0.012246780075714763
-0.5521332502940179   -0.02381657986972871   0.012246780075714763
-0.5521332502940179   -0.02381657986972871   0.012246780075714763
-0.3707890974100949   0.00019360402202858729   -0.003914939768637885
-0.3707890974100949   0.00019360402202858729   -0.003914939768637885
-0.3707890974100949   0.00019360402202858729   -0.003914939768637885
-0.3707890974100949   0.00019360402202858729   -0.003914939768637885
-0.4347062397441719   -0.0011806998140946184   0.005437600058774857
-0.4347062397441719   -0.0011806998140946184   0.005437600058774857
-0.4347062397441719   -0.0011806998140946184   0.005437600058774857
-0.4347062397441719   -0.0011806998140946184   0.005437600058774857
0.29751034143700494   0.016819889480670307   -0.013548276059700569
0.29751034143700494   0.016819889480670307   -0.013548276059700569
0.29751034143700494   0.016819889480670307   -0.013548276059700569
0.29751034143700494   0.016819889480670307   -0.013548276059700569
0.14080787846087378   0.0022107057603149363   0.005019197627860064
0.14080787846087378   0.0022107057603149363   0.005019197627860064
0.14080787846087378   0.0022107057603149363   0.005019197627860064
0.14080787846087378   0.0022107057603149363   0.005019197627860064
0.12582806956476755   -0.02361550690535023   -0.012956180624556668
0.12582806956476755   -0.02361550690535023   -0.012956180624556668
0.12582806956476755   -0.02361550690535023   -0.012956180624556668
0.12582806956476755   -0.02361550690535023   -0.012956180624556668
0.2914409770452932   0.027014663445536616   0.00622816120570616
0.2914409770452932   0.027014663445536616   0.00622816120570616
0.2914409770452932   0.027014663445536616   0.00622816120570616
0.2914409770452932   0.027014663445536616   0.00622816120570616
0.20284973372674422   0.0027184980391082927   -0.006015050335502025
0.20284973372674422   0.0027184980391082927   -0.006015050335502025
0.20284973372674422   0.0027184980391082927   -0.006015050335502025
0.20284973372674422   0.0027184980391082927   -0.006015050335502025
0.28381930377198095   0.008000723098280808   -0.012866264813599508
0.28381930377198095   0.008000723098280808   -0.012866264813599508
0.28381930377198095   0.008000723098280808   -0.012866264813599508
0.28381930377198095   0.008000723098280808   -0.012866264813599508
0.13330439996799667   -0.00474690942818036   0.005556873914417837
0.13330439996799667   -0.00474690942818036   0.005556873914417837
0.13330439996799667   -0.00474690942818036   0.005556873914417837
0.13330439996799667   -0.00474690942818036   0.005556873914417837
0.11885911240110829   -0.025851520439698253   -0.011094431475589864
0.11885911240110829   -0.025851520439698253   -0.011094431475589864
0.11885911240110829   -0.025851520439698253   -0.011094431475589864
0.11885911240110829   -0.025851520439698253   -0.011094431475589864
0.280597003639616   0.023797709747555816   0.008273624361335432
0.280597003639616   0.023797709747555816   0.008273624361335432
0.280597003639616   0.023797709747555816   0.008273624361335432
0.280597003639616   0.023797709747555816   0.008273624361335432
0.19681511490326814   -0.0012134060131200886   -0.00826997207679145
0.19681511490326814   -0.0012134060131200886   -0.00826997207679145
0.19681511490326814   -0.0012134060131200886   -0.00826997207679145
0.19681511490326814   -0.0012134060131200886   -0.00826997207679145
0.27313719946514825   0.0051478715962822025   -0.01037555835972755
0.27313719946514825   0.0051478715962822025   -0.01037555835972755
0.27313719946514825   0.0051478715962822025   -0.01037555835972755
0.27313719946514825   0.0051478715962822025   -0.01037555835972755
0.12612324003776013   -0.007397358826240388   0.006772045094210281
0.12612324003776013   -0.007397358826240388   0.006772045094210281
0.12612324003776013   -0.007397358826240388   0.006772045094210281
0.12612324003776013   -0.007397358826240388   0.006772045094210281
0.11260657437260456   -0.027048224778229924   -0.00924890573486756
0.11260657437260456   -0.027048224778229924   -0.00924890573486756
0.11260657437260456   -0.027048224778229924   -0.00924890573486756
0.11260657437260456   -0.027048224778229924   -0.00924890573486756
0.268343089826466   0.020445864378543108   0.009898408829120499
0.268343089826466   0.020445864378543108   0.009898408829120499
0.268343089826466   0.020445864378543108   0.009898408829120499
0.268343089826466   0.020445864378543108   0.009898408829120499
0.18426237781372298   -0.004121004404335833   -0.01171425694101188
0.18426237781372298   -0.004121004404335833   -0.01171425694101188
0.18426237781372298   -0.004121004404335833   -0.01171425694101188
0.18426237781372298   -0.004121004404335833   -0.01171425694101188
0.1434261246956034   0.020862168982620798   -0.0005410344207952005
0.1434261246956034   0.020862168982620798   -0.0005410344207952005
0.1434261246956034   0.020862168982620798   -0.0005410344207952005
0.1434261246956034   0.020862168982620798   -0.0005410344207952005
-0.010032633468115735   -0.0024772790380829844   -0.00024844643392487215
-0.010032633468115735   -0.0024772790380829844   -0.00024844643392487215
-0.010032633468115735   -0.0024772790380829844   -0.00024844643392487215
-0.010032633468115735   -0.0024772790380829844   -0.00024844643392487215
-0.02058995932673053   -0.01786359489532853   -0.008330886699552757
-0.02058995932673053   -0.01786359489532853   -0.008330886699552757
-0.02058995932673053   -0.01786359489532853   -0.008330886699552757
-0.02058995932673053   -0.01786359489532853   -0.008330886699552757
0.13993757864715242   0.02464405114080294   0.009331806741213393
0.13993757864715242   0.02464405114080294   0.009331806741213393
0.13993757864715242   0.02464405114080294   0.009331806741213393
0.13993757864715242   0.02464405114080294   0.009331806741213393
0.062202444818757585   0.00599996447626639   0.0004897729042345055
0.062202444818757585   0.00599996447626639   0.0004897729042345055
0.062202444818757585   0.00599996447626639   0.0004897729042345055
0.062202444818757585   0.00599996447626639   0.0004897729042345055
0.13633173686806987   0.015313542900719294   0.0006331060858859637
0.13633173686806987   0.015313542900719294   0.0006331060858859637
0.13633173686806987   0.015313542900719294   0.0006331060858859637
0.13633173686806987   0.015313542900719294   0.0006331060858859637
-0.016925665406511022   -0.008474634514107656   0.0006016225203238908
-0.016925665406511022   -0.008474634514107656   0.0006016225203238908
-0.016925665406511022   -0.008474634514107656   0.0006016225203238908
-0.016925665406511022   -0.008474634514107656   0.0006016225203238908
-0.02714786644574814   -0.022081092970843312   -0.006927779130148593
-0.02714786644574814   -0.022081092970843312   -0.006927779130148593
-0.02714786644574814   -0.022081092970843312   -0.006927779130148593
-0.02714786644574814   -0.022081092970843312   -0.006927779130148593
0.13219529107915254   0.019542089543872293   0.01019285193105954
0.13219529107915254   0.019542089543872293   0.01019285193105954
0.13219529107915254   0.019542089543872293   0.01019285193105954
0.13219529107915254   0.019542089543872293   0.01019285193105954
0.05406037023838839   0.0009346701034007986   -0.0020464870323653093
0.05406037023838839   0.0009346701034007986   -0.0020464870323653093
0.05406037023838839   0.0009346701034007986   -0.0020464870323653093
0.05406037023838839   0.0009346701034007986   -0.0020464870323653093
0.12871296434090476   0.010784408807713211   0.0015388989759811096
0.12871296434090476   0.010784408807713211   0.0015388989759811096
0.12871296434090476   0.010784408807713211   0.0015388989759811096
0.12871296434090476   0.010784408807713211   0.0015388989759811096
-0.02372307382234108   -0.013380946349524709   0.0014960373655681105
-0.02372307382234108   -0.013380946349524709   0.0014960373655681105
-0.02372307382234108   -0.013380946349524709   0.0014960373655681105
-0.02372307382234108   -0.013380946349524709   0.0014960373655681105
-0.03361136009650955   -0.02555716326461619   -0.0056108995818899
-0.03361136009650955   -0.02555716326461619   -0.0056108995818899
-0.03361136009650955   -0.02555716326461619   -0.0056108995818899
-0.03361136009650955   -0.02555716326461619   -0.0056108995818899
0.12504597279004293   0.014886498470148885   0.011013363103944693
0.12504597279004293   0.014886498470148885   0.011013363103944693
0.12504597279004293   0.014886498470148885   0.011013363103944693
0.12504597279004293   0.014886498470148885   0.011013363103944693
0.04790811418097632   -0.0028229912290446395   -0.004132031917049556
0.04790811418097632   -0.0028229912290446395   -0.004132031917049556
0.04790811418097632   -0.0028229912290446395   -0.004132031917049556
0.04790811418097632   -0.0028229912290446395   -0.004132031917049556
-0.0039137825342653925   0.024409551299364902   0.0034589778978789563
-0.0039137825342653925   0.024409551299364902   0.0034589778978789563
-0.0039137825342653925   0.024409551299364902   0.0034589778978789563
-0.0039137825342653925   0.024409551299364902   0.0034589778978789563
-0.15770394815649916   -0.007257644237459199   -0.005225493796270929
-0.15770394815649916   -0.007257644237459199   -0.005225493796270929
-0.15770394815649916   -0.007257644237459199   -0.005225493796270929
-0.15770394815649916   -0.007257644237459199   -0.005225493796270929
-0.16450030001347418   -0.012790408837659539   -0.004116218472895912
-0.16450030001347418   -0.012790408837659539   -0.004116218472895912
-0.16450030001347418   -0.012790408837659539   -0.004116218472895912
-0.16450030001347418   -0.012790408837659539   -0.004116218472895912
-0.010548718706561825   0.01988994098329969   0.00412178052266254
-0.010548718706561825   0.01988994098329969   0.00412178052266254
-0.010548718706561825   0.01988994098329969   0.00412178052266254
-0.010548718706561825   0.01988994098329969   0.00412178052266254
-0.08396439599426604   0.006084502576528039   0.0016384802324105625
-0.08396439599426604   0.006084502576528039   0.0016384802324105625
-0.08396439599426604   0.006084502576528039   0.0016384802324105625
-0.08396439599426604   0.006084502576528039   0.0016384802324105625
-0.010431484560621103   0.01980514699551697   0.004792745240148871
-0.010431484560621103   0.01980514699551697   0.004792745240148871
-0.010431484560621103   0.01980514699551697   0.004792745240148871
-0.010431484560621103   0.01980514699551697   0.004792745240148871
-0.1644944797207455   -0.012582560411209958   -0.004294965435702044
-0.1644944797207455   -0.012582560411209958   -0.004294965435702044
-0.1644944797207455   -0.012582560411209958   -0.004294965435702044
-0.1644944797207455   -0.012582560411209958   -0.004294965435702044
-0.17121991431848366   -0.017352480529713277   -0.0029007269969878423
-0.17121991431848366   -0.017352480529713277   -0.0029007269969878423
-0.17121991431848366   -0.017352480529713277   -0.0029007269969878423
-0.17121991431848366   -0.017352480529713277   -0.0029007269969878423
-0.017392165835391743   0.01463865134451734   0.005130979606272746
-0.017392165835391743   0.01463865134451734   0.005130979606272746
-0.017392165835391743   0.01463865134451734   0.005130979606272746
-0.017392165835391743   0.01463865134451734   0.005130979606272746
-0.09075354906323627   0.001550020509771221   -0.00040474880512842044
-0.09075354906323627   0.001550020509771221   -0.00040474880512842044
-0.09075354906323627   0.001550020509771221   -0.00040474880512842044
-0.09075354906323627   0.001550020509771221   -0.00040474880512842044
-0.017136087577356327   0.015212028888419321   0.005837993352547847
-0.017136087577356327   0.015212028888419321   0.005837993352547847
-0.017136087577356327   0.015212028888419321   0.005837993352547847
-0.017136087577356327   0.015212028888419321   0.005837993352547847
-0.1714461171136591   -0.017895982610755305   -0.003488238891823132
-0.1714461171136591   -0.017895982610755305   -0.003488238891823132
-0.1714461171136591   -0.017895982610755305   -0.003488238891823132
-0.1714461171136591   -0.017895982610755305   -0.003488238891823132
-0.17785004061333068   -0.021513610842002633   -0.001691831331043469
-0.17785004061333068   -0.021513610842002633   -0.001691831331043469
-0.17785004061333068   -0.021513610842002633   -0.001691831331043469
-0.17785004061333068   -0.021513610842002633   -0.001691831331043469
-0.024270781439981397   0.009560121103491397   0.005974709332643269
-0.024270781439981397   0.009560121103491397   0.005974709332643269
-0.024270781439981397   0.009560121103491397   0.005974709332643269
-0.024270781439981397   0.009560121103491397   0.005974709332643269
-0.09786142531173819   -0.0030181108189357743   -0.002686174487422196
-0.09786142531173819   -0.0030181108189357743   -0.002686174487422196
-0.09786142531173819   -0.0030181108189357743   -0.002686174487422196
-0.09786142531173819   -0.0030181108189357743   -0.002686174487422196
-0.14821052023241302   0.02773681861320946   0.007247182973490118
-0.14821052023241302   0.02773681861320946   0.007247182973490118
-0.14821052023241302   0.02773681861320946   0.007247182973490118
-0.14821052023241302   0.02773681861320946   0.007247182973490118
-0.30247613464353784   -0.012174554267938544   -0.009325121435271125
-0.30247613464353784   -0.012174554267938544   -0.009325121435271125
-0.30247613464353784   -0.012174554267938544   -0.009325121435271125
-0.30247613464353784   -0.012174554267938544   -0.009325121435271125
-0.3061696353667312   -0.008560361880861678   0.0004684207374077501
-0.3061696353667312   -0.008560361880861678   0.0004684207374077501
-0.3061696353667312   -0.008560361880861678   0.0004684207374077501
-0.3061696353667312   -0.008560361880861678   0.0004684207374077501
-0.15845920391296006   0.014353224410072939   -0.0010543712180566805
-0.15845920391296006   0.014353224410072939   -0.0010543712180566805
-0.15845920391296006   0.014353224410072939   -0.0010543712180566805
-0.15845920391296006   0.014353224410072939   -0.0010543712180566805
-0.22731768359518575   0.005601758424000902   0.002767330849284353
-0.22731768359518575   0.005601758424000902   0.002767330849284353
-0.22731768359518575   0.005601758424000902   0.002767330849284353
-0.22731768359518575   0.005601758424000902   0.002767330849284353
-0.15474507366327633   0.023337306000364655   0.008532198440069206
-0.15474507366327633   0.023337306000364655   0.008532198440069206
-0.15474507366327633   0.023337306000364655   0.008532198440069206
-0.15474507366327633   0.023337306000364655   0.008532198440069206
-0.3098614612544888   -0.017522139109224878   -0.00902893147301702
-0.3098614612544888   -0.017522139109224878   -0.00902893147301702
-0.3098614612544888   -0.017522139109224878   -0.00902893147301702
-0.3098614612544888   -0.017522139109224878   -0.00902893147301702
-0.31400173929728975   -0.013177157848374609   0.0009023606862307975
-0.31400173929728975   -0.013177157848374609   0.0009023606862307975
-0.31400173929728975   -0.013177157848374609   0.0009023606862307975
-0.31400173929728975   -0.013177157848374609   0.0009023606862307975
-0.16527961889151938   0.009486458996447483   -3.81893883253312e-05
-0.16527961889151938   0.009486458996447483   -3.81893883253312e-05
-0.16527961889151938   0.009486458996447483   -3.81893883253312e-05
-0.16527961889151938   0.009486458996447483   -3.81893883253312e-05
-0.23297717796484613   0.0016028674904737042   0.0008758016401120301
-0.23297717796484613   0.0016028674904737042   0.0008758016401120301
-0.23297717796484613   0.0016028674904737042   0.0008758016401120301
-0.23297717796484613   0.0016028674904737042   0.0008758016401120301
-0.16140374289408727   0.01910624934506342   0.009721400250218433
-0.16140374289408727   0.01910624934506342   0.009721400250218433
-0.16140374289408727   0.01910624934506342   0.009721400250218433
-0.16140374289408727   0.01910624934506342   0.009721400250218433
-0.31768307922917166   -0.022602412131440472   -0.008079084690112863
-0.31768307922917166   -0.022602412131440472   -0.008079084690112863
-0.31768307922917166   -0.022602412131440472   -0.008079084690112863
-0.31768307922917166   -0.022602412131440472   -0.008079084690112863
-0.32108210148674476   -0.018179178440484056   0.0023519029235295197
-0.32108210148674476   -0.018179178440484056   0.0023519029235295197
-0.32108210148674476   -0.018179178440484056   0.0023519029235295197
-0.32108210148674476   -0.018179178440484056   0.0023519029235295197
-0.17229498239387228   0.0038738869583020974   0.0006959619659458044
-0.17229498239387228   0.0038738869583020974   0.0006959619659458044
-0.17229498239387228   0.0038738869583020974   0.0006959619659458044
-0.17229498239387228   0.0038738869583020974   0.0006959619659458044
-0.24181309915524726   -0.003508531807829937   -0.001563497539639058
-0.24181309915524726   -0.003508531807829937   -0.001563497539639058
-0.24181309915524726   -0.003508531807829937   -0.001563497539639058
-0.24181309915524726   -0.003508531807829937   -0.001563497539639058
-0.29116801266801684   0.024883430434227305   0.01015750374016822
-0.29116801266801684   0.024883430434227305   0.01015750374016822
-0.29116801266801684   0.024883430434227305   0.01015750374016822
-0.29116801266801684   0.024883430434227305   0.01015750374016822
-0.4411125620611342   -0.02047836191333781   -0.010008756248867604
-0.4411125620611342   -0.02047836191333781   -0.010008756248867604
-0.4411125620611342   -0.02047836191333781   -0.010008756248867604
-0.4411125620611342   -0.02047836191333781   -0.010008756248867604
-0.4456950957062865   -0.00515247643288376   0.009302829001698366
-0.4456950957062865   -0.00515247643288376   0.009302829001698366
-0.4456950957062865   -0.00515247643288376   0.009302829001698366
-0.4456950957062865   -0.00515247643288376   0.009302829001698366
-0.30417547249417315   0.0075907928092890375   -0.005711919589952565
-0.30417547249417315   0.0075907928092890375   -0.005711919589952565
-0.30417547249417315   0.0075907928092890375   -0.005711919589952565
-0.30417547249417315   0.0075907928092890375   -0.005711919589952565
-0.35408158293641295   0.00540198796884768   0.008811814282040809
-0.35408158293641295   0.00540198796884768   0.008811814282040809
-0.35408158293641295   0.00540198796884768   0.008811814282040809
-0.35408158293641295   0.00540198796884768   0.008811814282040809
-0.29715024209132207   0.025080777947075403   0.011924247286514335
-0.29715024209132207   0.025080777947075403   0.011924247286514335
-0.29715024209132207   0.025080777947075403   0.011924247286514335
-0.29715024209132207   0.025080777947075403   0.011924247286514335
-0.45261384158992574   -0.022535977051455353   -0.007907399797921936
-0.45261384158992574   -0.022535977051455353   -0.007907399797921936
-0.45261384158992574   -0.022535977051455353   -0.007907399797921936
-0.45261384158992574   -0.022535977051455353   -0.007907399797921936
-0.45597704265793954   -0.007598585558930088   0.011620828562201709
-0.45597704265793954   -0.007598585558930088   0.011620828562201709
-0.45597704265793954   -0.007598585558930088   0.011620828562201709
-0.45597704265793954   -0.007598585558930088   0.011620828562201709
-0.31153662195891535   0.004925271101487702   -0.004874481571759827
-0.31153662195891535   0.004925271101487702   -0.004874481571759827
-0.31153662195891535   0.004925271101487702   -0.004874481571759827
-0.31153662195891535   0.004925271101487702   -0.004874481571759827
-0.36875263895515675   0.0026956210322738594   0.0055280018255578385
-0.36875263895515675   0.0026956210322738594   0.0055280018255578385
-0.36875263895515675   0.0026956210322738594   0.0055280018255578385
-0.36875263895515675   0.0026956210322738594   0.0055280018255578385
-0.3040861953584031   0.023263335579162284   0.014039586953127119
-0.3040861953584031   0.023263335579162284   0.014039586953127119
-0.3040861953584031   0.023263335579162284   0.014039586953127119
-0.3040861953584031   0.023263335579162284   0.014039586953127119
-0.4632386235143283   -0.025747804292480497   -0.006537856986187855
-0.4632386235143283   -0.025747804292480497   -0.006537856986187855
-0.4632386235143283   -0.025747804292480497   -0.006537856986187855
-0.4632386235143283   -0.025747804292480497   -0.006537856986187855
-0.46955561787021555   -0.01651079598260842   0.011329580668297683
-0.46955561787021555   -0.01651079598260842   0.011329580668297683
-0.46955561787021555   -0.01651079598260842   0.011329580668297683
-0.46955561787021555   -0.01651079598260842   0.011329580668297683
-0.31933899486047906   -0.0026849641629497906   -0.004426778222676207
-0.31933899486047906   -0.0026849641629497906   -0.004426778222676207
-0.31933899486047906   -0.0026849641629497906   -0.004426778222676207
-0.31933899486047906   -0.0026849641629497906   -0.004426778222676207
-0.37213101289965633   -0.0007466740835336133   0.004503790352920346
-0.37213101289965633   -0.0007466740835336133   0.004503790352920346
-0.37213101289965633   -0.0007466740835336133   0.004503790352920346
-0.37213101289965633   -0.0007466740835336133   0.004503790352920346
0.20839652947697887   0.012049858581827336   -0.013373689280698365
0.20839652947697887   0.012049858581827336   -0.013373689280698365
0.20839652947697887   0.012049858581827336   -0.013373689280698365
0.20839652947697887   0.012049858581827336   -0.013373689280698365
0.08897962644074595   0.005075578492824841   0.0056157962135860015
0.08897962644074595   0.005075578492824841   0.0056157962135860015
0.08897962644074595   0.005075578492824841   0.0056157962135860015
0.08897962644074595   0.005075578492824841   0.0056157962135860015
0.07528967930646192   -0.019965151056654102   -0.012519613566416118
0.07528967930646192   -0.019965151056654102   -0.012519613566416118
0.07528967930646192   -0.019965151056654102   -0.012519613566416118
0.07528967930646192   -0.019965151056654102   -0.012519613566416118
0.20385225523949974   0.023252238254816416   0.0068379050443368216
0.20385225523949974   0.023252238254816416   0.0068379050443368216
0.20385225523949974   0.023252238254816416   0.0068379050443368216
0.20385225523949974   0.023252238254816416   0.0068379050443368216
0.1365107876228068   0.0029928247674896914   -0.0037181524574352144
0.1365107876228068   0.0029928247674896914   -0.0037181524574352144
0.1365107876228068   0.0029928247674896914   -0.0037181524574352144
0.1365107876228068   0.0029928247674896914   -0.0037181524574352144
0.19617011772164328   0.004208958734699307   -0.012529503024830416
0.19617011772164328   0.004208958734699307   -0.012529503024830416
0.19617011772164328   0.004208958734699307   -0.012529503024830416
0.19617011772164328   0.004208958734699307   -0.012529503024830416
0.08282646152793124   -0.0010672268329242826   0.006266373317201839
0.08282646152793124   -0.0010672268329242826   0.006266373317201839
0.08282646152793124   -0.0010672268329242826   0.006266373317201839
0.08282646152793124   -0.0010672268329242826   0.006266373317201839
0.0694926772469761   -0.02221781057507218   -0.010699650859164639
0.0694926772469761   -0.02221781057507218   -0.010699650859164639
0.0694926772469761   -0.02221781057507218   -0.010699650859164639
0.0694926772469761   -0.02221781057507218   -0.010699650859164639
0.19429250554345903   0.020048706677397006   0.008884831964456563
0.19429250554345903   0.020048706677397006   0.008884831964456563
0.19429250554345903   0.020048706677397006   0.008884831964456563
0.19429250554345903   0.020048706677397006   0.008884831964456563
0.13067230805652402   -0.0007620750235099623   -0.005898467862388898
0.13067230805652402   -0.0007620750235099623   -0.005898467862388898
0.13067230805652402   -0.0007620750235099623   -0.005898467862388898
0.13067230805652402   -0.0007620750235099623   -0.005898467862388898
0.18671872038773302   0.0013168756646304083   -0.010252262801408634
0.18671872038773302   0.0013168756646304083   -0.010252262801408634
0.18671872038773302   0.0013168756646304083   -0.010252262801408634
0.18671872038773302   0.0013168756646304083   -0.010252262801408634
0.07684436934548068   -0.0037080726195271793   0.0075490716778139864
0.07684436934548068   -0.0037080726195271793   0.0075490716778139864
0.07684436934548068   -0.0037080726195271793   0.0075490716778139864
0.07684436934548068   -0.0037080726195271793   0.0075490716778139864
0.06433262816410489   -0.02412211544042474   -0.008931028603357639
0.06433262816410489   -0.02412211544042474   -0.008931028603357639
0.06433262816410489   -0.02412211544042474   -0.008931028603357639
0.06433262816410489   -0.02412211544042474   -0.008931028603357639
0.18309406141720747   0.015935116310635402   0.010198323414903634
0.18309406141720747   0.015935116310635402   0.010198323414903634
0.18309406141720747   0.015935116310635402   0.010198323414903634
0.18309406141720747   0.015935116310635402   0.010198323414903634
0.12034131201778245   -0.003787385669786772   -0.008969496702391548
0.12034131201778245   -0.003787385669786772   -0.008969496702391548
0.12034131201778245   -0.003787385669786772   -0.008969496702391548
0.12034131201778245   -0.003787385669786772   -0.008969496702391548
0.0898221732566122   0.01710349445899638   -0.0021993856732559687
0.0898221732566122   0.01710349445899638   -0.0021993856732559687
0.0898221732566122   0.01710349445899638   -0.0021993856732559687
0.0898221732566122   0.01710349445899638   -0.0021993856732559687
-0.02681888473731758   0.0010937153997470257   0.0006328957654488368
-0.02681888473731758   0.0010937153997470257   0.0006328957654488368
-0.02681888473731758   0.0010937153997470257   0.0006328957654488368
-0.02681888473731758   0.0010937153997470257   0.0006328957654488368
-0.03618044462143482   -0.014002526492241242   -0.007783058155420245
-0.03618044462143482   -0.014002526492241242   -0.007783058155420245
-0.03618044462143482   -0.014002526492241242   -0.007783058155420245
-0.03618044462143482   -0.014002526492241242   -0.007783058155420245
0.08756646482212642   0.020484262303296873   0.008414900651956502
0.08756646482212642   0.020484262303296873   0.008414900651956502
0.08756646482212642   0.020484262303296873   0.008414900651956502
0.08756646482212642   0.020484262303296873   0.008414900651956502
0.027977079778690378   0.005862951473063887   0.0010921979307842709
0.027977079778690378   0.005862951473063887   0.0010921979307842709
0.027977079778690378   0.005862951473063887   0.0010921979307842709
0.027977079778690378   0.005862951473063887   0.0010921979307842709
0.0838283552205244   0.011331306747235982   -0.0011226917999933458
0.0838283552205244   0.011331306747235982   -0.0011226917999933458
0.0838283552205244   0.011331306747235982   -0.0011226917999933458
0.0838283552205244   0.011331306747235982   -0.0011226917999933458
-0.03250410928250029   -0.004911345198846828   0.0015074372458570137
-0.03250410928250029   -0.004911345198846828   0.0015074372458570137
-0.03250410928250029   -0.004911345198846828   0.0015074372458570137
-0.03250410928250029   -0.004911345198846828   0.0015074372458570137
-0.04156431753604897   -0.018515248714512857   -0.00633423074566474
-0.04156431753604897   -0.018515248714512857   -0.00633423074566474
-0.04156431753604897   -0.018515248714512857   -0.00633423074566474
-0.04156431753604897   -0.018515248714512857   -0.00633423074566474
0.08095195428173807   0.015228338754188084   0.009150584985385679
0.08095195428173807   0.015228338754188084   0.009150584985385679
0.08095195428173807   0.015228338754188084   0.009150584985385679
0.08095195428173807   0.015228338754188084   0.009150584985385679
0.021290871770156344   0.0006934094513218183   -0.0013901457480738498
0.021290871770156344   0.0006934094513218183   -0.0013901457480738498
0.021290871770156344   0.0006934094513218183   -0.0013901457480738498
0.021290871770156344   0.0006934094513218183   -0.0013901457480738498
0.07733222442473077   0.006489133931402663   -0.0002088594768668837
0.07733222442473077   0.006489133931402663   -0.0002088594768668837
0.07733222442473077   0.006489133931402663   -0.0002088594768668837
0.07733222442473077   0.006489133931402663   -0.0002088594768668837
-0.0380932552330092   -0.009924711445696333   0.0024305435007185377
-0.0380932552330092   -0.009924711445696333   0.0024305435007185377
-0.0380932552330092   -0.009924711445696333   0.0024305435007185377
-0.0380932552330092   -0.009924711445696333   0.0024305435007185377
-0.046870280208747256   -0.02269882049870805   -0.004996978741549793
-0.046870280208747256   -0.02269882049870805   -0.004996978741549793
-0.046870280208747256   -0.02269882049870805   -0.004996978741549793
-0.046870280208747256   -0.02269882049870805   -0.004996978741549793
0.07498350101498677   0.01023558972917318   0.009965630481455275
0.07498350101498677   0.01023558972917318   0.009965630481455275
0.07498350101498677   0.01023558972917318   0.009965630481455275
0.07498350101498677   0.01023558972917318   0.009965630481455275
0.01599447628876344   -0.0035252967366949132   -0.0035607676790968008
0.01599447628876344   -0.0035252967366949132   -0.0035607676790968008
0.01599447628876344   -0.0035252967366949132   -0.0035607676790968008
0.01599447628876344   -0.0035252967366949132   -0.0035607676790968008
-0.022520846572504784   0.021222862697038186   0.001993939292221648
-0.022520846572504784   0.021222862697038186   0.001993939292221648
-0.022520846572504784   0.021222862697038186   0.001993939292221648
-0.022520846572504784   0.021222862697038186   0.001993939292221648
-0.14082949135868483   -0.003947806451229375   -0.004324351134909703
-0.14082949135868483   -0.003947806451229375   -0.004324351134909703
-0.14082949135868483   -0.003947806451229375   -0.004324351134909703
-0.14082949135868483   -0.003947806451229375   -0.004324351134909703
-0.14616937752307543   -0.00869995525932751   -0.003207041873959849
-0.14616937752307543   -0.00869995525932751   -0.003207041873959849
-0.14616937752307543   -0.00869995525932751   -0.003207041873959849
-0.14616937752307543   -0.00869995525932751   -0.003207041873959849
-0.02804536638990631   0.01560079179583192   0.0032890147141481658
-0.02804536638990631   0.01560079179583192   0.0032890147141481658
-0.02804536638990631   0.01560079179583192   0.0032890147141481658
-0.02804536638990631   0.01560079179583192   0.0032890147141481658
-0.08417981650564857   0.005932349123742613   0.001698034901451124
-0.08417981650564857   0.005932349123742613   0.001698034901451124
-0.08417981650564857   0.005932349123742613   0.001698034901451124
-0.08417981650564857   0.005932349123742613   0.001698034901451124
-0.027898972123078587   0.016266574803573138   0.003355203040546537
-0.027898972123078587   0.016266574803573138   0.003355203040546537
-0.027898972123078587   0.016266574803573138   0.003355203040546537
-0.027898972123078587   0.016266574803573138   0.003355203040546537
-0.14633880238264166   -0.009388768859808331   -0.0033653525713100855
-0.14633880238264166   -0.009388768859808331   -0.0033653525713100855
-0.14633880238264166   -0.009388768859808331   -0.0033653525713100855
-0.14633880238264166   -0.009388768859808331   -0.0033653525713100855
-0.1516137923274407   -0.013617013593861256   -0.0019257185935712458
-0.1516137923274407   -0.013617013593861256   -0.0019257185935712458
-0.1516137923274407   -0.013617013593861256   -0.0019257185935712458
-0.1516137923274407   -0.013617013593861256   -0.0019257185935712458
-0.033697886414145034   0.010193104408370585   0.004289571740971549
-0.033697886414145034   0.010193104408370585   0.004289571740971549
-0.033697886414145034   0.010193104408370585   0.004289571740971549
-0.033697886414145034   0.010193104408370585   0.004289571740971549
-0.0897747964339869   0.0011222402826183003   -0.0004244379193694813
-0.0897747964339869   0.0011222402826183003   -0.0004244379193694813
-0.0897747964339869   0.0011222402826183003   -0.0004244379193694813
-0.0897747964339869   0.0011222402826183003   -0.0004244379193694813
-0.03343609905160317   0.011301659477025657   0.004489953485025766
-0.03343609905160317   0.011301659477025657   0.004489953485025766
-0.03343609905160317   0.011301659477025657   0.004489953485025766
-0.03343609905160317   0.011301659477025657   0.004489953485025766
-0.15197367690519784   -0.01482366587773033   -0.0025184891984878595
-0.15197367690519784   -0.01482366587773033   -0.0025184891984878595
-0.15197367690519784   -0.01482366587773033   -0.0025184891984878595
-0.15197367690519784   -0.01482366587773033   -0.0025184891984878595
-0.1569568173036345   -0.018306525434688845   -0.0006724874946048252
-0.1569568173036345   -0.018306525434688845   -0.0006724874946048252
-0.1569568173036345   -0.018306525434688845   -0.0006724874946048252
-0.1569568173036345   -0.018306525434688845   -0.0006724874946048252
-0.03931071618143609   0.004941689413438066   0.005160331482859945
-0.03931071618143609   0.004941689413438066   0.005160331482859945
-0.03931071618143609   0.004941689413438066   0.005160331482859945
-0.03931071618143609   0.004941689413438066   0.005160331482859945
-0.09560876355671119   -0.0036897350748370354   -0.0027302014027936264
-0.09560876355671119   -0.0036897350748370354   -0.0027302014027936264
-0.09560876355671119   -0.0036897350748370354   -0.0027302014027936264
-0.09560876355671119   -0.0036897350748370354   -0.0027302014027936264
-0.1329854771487456   0.024815153508987962   0.0061327599545691214
-0.1329854771487456   0.024815153508987962   0.0061327599545691214
-0.1329854771487456   0.024815153508987962   0.0061327599545691214
-0.1329854771487456   0.024815153508987962   0.0061327599545691214
-0.25318447466383   -0.009008435115037391   -0.00868407867398615
-0.25318447466383   -0.009008435115037391   -0.00868407867398615
-0.25318447466383   -0.009008435115037391   -0.00868407867398615
-0.25318447466383   -0.009008435115037391   -0.00868407867398615
-0.2551647561254999   -0.004440207046290452   0.001684023712666188
-0.2551647561254999   -0.004440207046290452   0.001684023712666188
-0.2551647561254999   -0.004440207046290452   0.001684023712666188
-0.2551647561254999   -0.004440207046290452   0.001684023712666188
-0.14209602938171245   0.010206534185661746   -0.0017467906121370023
-0.14209602938171245   0.010206534185661746   -0.0017467906121370023
-0.14209602938171245   0.010206534185661746   -0.0017467906121370023
-0.14209602938171245   0.010206534185661746   -0.0017467906121370023
-0.19466289103109127   0.005435577093704305   0.0024409881149839233
-0.19466289103109127   0.005435577093704305   0.0024409881149839233
-0.19466289103109127   0.005435577093704305   0.0024409881149839233
-0.19466289103109127   0.005435577093704305   0.0024409881149839233
-0.13827098065519627   0.02009895062204895   0.007486036584059585
-0.13827098065519627   0.02009895062204895   0.007486036584059585
-0.13827098065519627   0.02009895062204895   0.007486036584059585
-0.13827098065519627   0.02009895062204895   0.007486036584059585
-0.2591691293989095   -0.014511948029571287   -0.008266101671105069
-0.2591691293989095   -0.014511948029571287   -0.008266101671105069
-0.2591691293989095   -0.014511948029571287   -0.008266101671105069
-0.2591691293989095   -0.014511948029571287   -0.008266101671105069
-0.26159647677062425   -0.009316225054779428   0.0022652482346449745
-0.26159647677062425   -0.009316225054779428   0.0022652482346449745
-0.26159647677062425   -0.009316225054779428   0.0022652482346449745
-0.26159647677062425   -0.009316225054779428   0.0022652482346449745
-0.1476017167919376   0.005214855976074191   -0.0006972104859928625
-0.1476017167919376   0.005214855976074191   -0.0006972104859928625
-0.1476017167919376   0.005214855976074191   -0.0006972104859928625
-0.1476017167919376   0.005214855976074191   -0.0006972104859928625
-0.19931376592301783   0.0011076372382125554   0.00032244098109158667
-0.19931376592301783   0.0011076372382125554   0.00032244098109158667
-0.19931376592301783   0.0011076372382125554   0.00032244098109158667
-0.19931376592301783   0.0011076372382125554   0.00032244098109158667
-0.14363632829287237   0.015576393825769821   0.00876819415963933
-0.14363632829287237   0.015576393825769821   0.00876819415963933
-0.14363632829287237   0.015576393825769821   0.00876819415963933
-0.14363632829287237   0.015576393825769821   0.00876819415963933
-0.2655840034993855   -0.019699901134171416   -0.007288709329772986
-0.2655840034993855   -0.019699901134171416   -0.007288709329772986
-0.2655840034993855   -0.019699901134171416   -0.007288709329772986
-0.2655840034993855   -0.019699901134171416   -0.007288709329772986
-0.2672995143301499   -0.014544364248902777   0.0036092378661990235
-0.2672995143301499   -0.014544364248902777   0.0036092378661990235
-0.2672995143301499   -0.014544364248902777   0.0036092378661990235
-0.2672995143301499   -0.014544364248902777   0.0036092378661990235
-0.15320831429791276   -0.00036317866600174553   0.00012668076531477737
-0.15320831429791276   -0.00036317866600174553   0.00012668076531477737
-0.15320831429791276   -0.00036317866600174553   0.00012668076531477737
-0.15320831429791276   -0.00036317866600174553   0.00012668076531477737
-0.20646176950245232   -0.003993198198044702   -0.0021671756355004512
-0.20646176950245232   -0.003993198198044702   -0.0021671756355004512
-0.20646176950245232   -0.003993198198044702   -0.0021671756355004512
-0.20646176950245232   -0.003993198198044702   -0.0021671756355004512
-0.24312026931344846   0.02303962539879141   0.009588887564092746
-0.24312026931344846   0.02303962539879141   0.009588887564092746
-0.24312026931344846   0.02303962539879141   0.009588887564092746
-0.24312026931344846   0.02303962539879141   0.009588887564092746
-0.35979214584328983   -0.01672022203015633   -0.011013697701750699
-0.35979214584328983   -0.01672022203015633   -0.011013697701750699
-0.35979214584328983   -0.01672022203015633   -0.011013697701750699
-0.35979214584328983   -0.01672022203015633   -0.011013697701750699
-0.3630398124917665   -0.0011452063153171016   0.009472424784610089
-0.3630398124917665   -0.0011452063153171016   0.009472424784610089
-0.3630398124917665   -0.0011452063153171016   0.009472424784610089
-0.3630398124917665   -0.0011452063153171016   0.009472424784610089
-0.255158189530325   0.003794820222103437   -0.006518170579856975
-0.255158189530325   0.003794820222103437   -0.006518170579856975
-0.255158189530325   0.003794820222103437   -0.006518170579856975
-0.255158189530325   0.003794820222103437   -0.006518170579856975
-0.29178357276420763   0.00515318709243727   0.007512772331772142
-0.29178357276420763   0.00515318709243727   0.007512772331772142
-0.29178357276420763   0.00515318709243727   0.007512772331772142
-0.29178357276420763   0.00515318709243727   0.007512772331772142
-0.24789944944701667   0.022252042790390947   0.011318307268400562
-0.24789944944701667   0.022252042790390947   0.011318307268400562
-0.24789944944701667   0.022252042790390947   0.011318307268400562
-0.24789944944701667   0.022252042790390947   0.011318307268400562
-0.37045561259239496   -0.01975948890092387   -0.008992293132923535
-0.37045561259239496   -0.01975948890092387   -0.008992293132923535
-0.37045561259239496   -0.01975948890092387   -0.008992293132923535
-0.37045561259239496   -0.01975948890092387   -0.008992293132923535
-0.3721665968268843   -0.0038416444216236023   0.011920915680652587
-0.3721665968268843   -0.0038416444216236023   0.011920915680652587
-0.3721665968268843   -0.0038416444216236023   0.011920915680652587
-0.3721665968268843   -0.0038416444216236023   0.011920915680652587
-0.2610810430116465   0.0010602389687408495   -0.005534046993990127
-0.2610810430116465   0.0010602389687408495   -0.005534046993990127
-0.2610810430116465   0.0010602389687408495   -0.005534046993990127
-0.2610810430116465   0.0010602389687408495   -0.005534046993990127
-0.3043228485196902   0.002075887029611867   0.004106749136936247
-0.3043228485196902   0.002075887029611867   0.004106749136936247
-0.3043228485196902   0.002075887029611867   0.004106749136936247
-0.3043228485196902   0.002075887029611867   0.004106749136936247
-0.2534887833990992   0.02017269427941755   0.013314795758073227
-0.2534887833990992   0.02017269427941755   0.013314795758073227
-0.2534887833990992   0.02017269427941755   0.013314795758073227
-0.2534887833990992   0.02017269427941755   0.013314795758073227
-0.3798704959471583   -0.02306573924002643   -0.00737448510231465
-0.3798704959471583   -0.02306573924002643   -0.00737448510231465
-0.3798704959471583   -0.02306573924002643   -0.00737448510231465
-0.3798704959471583   -0.02306573924002643   -0.00737448510231465
-0.38437493033545234   -0.012426986574783888   0.011899045193126578
-0.38437493033545234   -0.012426986574783888   0.011899045193126578
-0.38437493033545234   -0.012426986574783888   0.011899045193126578
-0.38437493033545234   -0.012426986574783888   0.011899045193126578
-0.26729812778165835   -0.00603053306738207   -0.004897660572869687
-0.26729812778165835   -0.00603053306738207   -0.004897660572869687
-0.26729812778165835   -0.00603053306738207   -0.004897660572869687
-0.26729812778165835   -0.00603053306738207   -0.004897660572869687
-0.3075508453175788   -0.0014944604319408333   0.002546129171141231
-0.3075508453175788   -0.0014944604319408333   0.002546129171141231
-0.3075508453175788   -0.0014944604319408333   0.002546129171141231
-0.3075508453175788   -0.0014944604319408333   0.002546129171141231
0.11911919213483793   0.007321355566056537   -0.013294884114347514
0.11911919213483793   0.007321355566056537   -0.013294884114347514
0.11911919213483793   0.007321355566056537   -0.013294884114347514
0.11911919213483793   0.007321355566056537   -0.013294884114347514
0.035986737375942365   0.0077752712941420036   0.006248687738833243
0.035986737375942365   0.0077752712941420036   0.006248687738833243
0.035986737375942365   0.0077752712941420036   0.006248687738833243
0.035986737375942365   0.0077752712941420036   0.006248687738833243
0.023677583916989996   -0.016502315225519718   -0.011760191034834097
0.023677583916989996   -0.016502315225519718   -0.011760191034834097
0.023677583916989996   -0.016502315225519718   -0.011760191034834097
0.023677583916989996   -0.016502315225519718   -0.011760191034834097
0.11614436494535706   0.019498650765625944   0.007513217980037044
0.11614436494535706   0.019498650765625944   0.007513217980037044
0.11614436494535706   0.019498650765625944   0.007513217980037044
0.11614436494535706   0.019498650765625944   0.007513217980037044
0.06948323601083854   0.003280620634657878   -0.0015647187205039925
0.06948323601083854   0.003280620634657878   -0.0015647187205039925
0.06948323601083854   0.003280620634657878   -0.0015647187205039925
0.06948323601083854   0.003280620634657878   -0.0015647187205039925
0.10836076680645362   0.00033761264130732424   -0.012243734590162501
0.10836076680645362   0.00033761264130732424   -0.012243734590162501
0.10836076680645362   0.00033761264130732424   -0.012243734590162501
0.10836076680645362   0.00033761264130732424   -0.012243734590162501
0.031219049886342543   0.0024165907292479204   0.007028232857161443
0.031219049886342543   0.0024165907292479204   0.007028232857161443
0.031219049886342543   0.0024165907292479204   0.007028232857161443
0.031219049886342543   0.0024165907292479204   0.007028232857161443
0.019046451613684918   -0.018784069959647542   -0.010032997290992078
0.019046451613684918   -0.018784069959647542   -0.010032997290992078
0.019046451613684918   -0.018784069959647542   -0.010032997290992078
0.019046451613684918   -0.018784069959647542   -0.010032997290992078
0.10781588411797988   0.016356208196129568   0.009715002107371999
0.10781588411797988   0.016356208196129568   0.009715002107371999
0.10781588411797988   0.016356208196129568   0.009715002107371999
0.10781588411797988   0.016356208196129568   0.009715002107371999
0.06380120131522213   -0.00030962869611690647   -0.0038550134309739024
0.06380120131522213   -0.00030962869611690647   -0.0038550134309739024
0.06380120131522213   -0.00030962869611690647   -0.0038550134309739024
0.06380120131522213   -0.00030962869611690647   -0.0038550134309739024
0.10005897090951886   -0.002598031491702686   -0.01011532424710175
0.10005897090951886   -0.002598031491702686   -0.01011532424710175
0.10005897090951886   -0.002598031491702686   -0.01011532424710175
0.10005897090951886   -0.002598031491702686   -0.01011532424710175
0.02647388786859342   -0.00015930722536791533   0.008479421249271032
0.02647388786859342   -0.00015930722536791533   0.008479421249271032
0.02647388786859342   -0.00015930722536791533   0.008479421249271032
0.02647388786859342   -0.00015930722536791533   0.008479421249271032
0.01491871518914923   -0.021415110983194104   -0.00837746682618569
0.01491871518914923   -0.021415110983194104   -0.00837746682618569
0.01491871518914923   -0.021415110983194104   -0.00837746682618569
0.01491871518914923   -0.021415110983194104   -0.00837746682618569
0.09746758642404056   0.011411291742901307   0.010837870239797072
0.09746758642404056   0.011411291742901307   0.010837870239797072
0.09746758642404056   0.011411291742901307   0.010837870239797072
0.09746758642404056   0.011411291742901307   0.010837870239797072
0.05562692300306224   -0.0034551250676299952   -0.006712026884103134
0.05562692300306224   -0.0034551250676299952   -0.006712026884103134
0.05562692300306224   -0.0034551250676299952   -0.006712026884103134
0.05562692300306224   -0.0034551250676299952   -0.006712026884103134
0.034962069638439446   0.012586209325750625   -0.0036855889802901876
0.034962069638439446   0.012586209325750625   -0.0036855889802901876
0.034962069638439446   0.012586209325750625   -0.0036855889802901876
0.034962069638439446   0.012586209325750625   -0.0036855889802901876
-0.04488250171505286   0.003705194484933583   0.0014268149201426645
-0.04488250171505286   0.003705194484933583   0.0014268149201426645
-0.04488250171505286   0.003705194484933583   0.0014268149201426645
-0.04488250171505286   0.003705194484933583   0.0014268149201426645
-0.05282580901400655   -0.0106610614877991   -0.006919444467398084
-0.05282580901400655   -0.0106610614877991   -0.006919444467398084
-0.05282580901400655   -0.0106610614877991   -0.006919444467398084
-0.05282580901400655   -0.0106610614877991   -0.006919444467398084
0.03392353928796853   0.015571897276774153   0.007395373317765145
0.03392353928796853   0.015571897276774153   0.007395373317765145
0.03392353928796853   0.015571897276774153   0.007395373317765145
0.03392353928796853   0.015571897276774153   0.007395373317765145
-0.007500482955737955   0.005069749357675079   0.0013730551598779798
-0.007500482955737955   0.005069749357675079   0.0013730551598779798
-0.007500482955737955   0.005069749357675079   0.0013730551598779798
-0.007500482955737955   0.005069749357675079   0.0013730551598779798
0.030145237850812513   0.006776824550330125   -0.0027010611415710256
0.030145237850812513   0.006776824550330125   -0.0027010611415710256
0.030145237850812513   0.006776824550330125   -0.0027010611415710256
0.030145237850812513   0.006776824550330125   -0.0027010611415710256
-0.04925967241483145   -0.002078153599336016   0.0023283306400142837
-0.04925967241483145   -0.002078153599336016   0.0023283306400142837
-0.04925967241483145   -0.002078153599336016   0.0023283306400142837
-0.04925967241483145   -0.002078153599336016   0.0023283306400142837
-0.056963761428419336   -0.015276423139201618   -0.005457508771397753
-0.056963761428419336   -0.015276423139201618   -0.005457508771397753
-0.056963761428419336   -0.015276423139201618   -0.005457508771397753
-0.056963761428419336   -0.015276423139201618   -0.005457508771397753
0.028495885380769605   0.010358183145488793   0.008071918439295271
0.028495885380769605   0.010358183145488793   0.008071918439295271
0.028495885380769605   0.010358183145488793   0.008071918439295271
0.028495885380769605   0.010358183145488793   0.008071918439295271
-0.012640008140370595   4.074158788471265e-05   -0.0010425481393723354
-0.012640008140370595   4.074158788471265e-05   -0.0010425481393723354
-0.012640008140370595   4.074158788471265e-05   -0.0010425481393723354
-0.012640008140370595   4.074158788471265e-05   -0.0010425481393723354
0.024824750969065668   0.0018230558331897993   -0.001748626306925669
0.024824750969065668   0.0018230558331897993   -0.001748626306925669
0.024824750969065668   0.0018230558331897993   -0.001748626306925669
0.024824750969065668   0.0018230558331897993   -0.001748626306925669
-0.05356806098936358   -0.007016729799549414   0.003261300084229747
-0.05356806098936358   -0.007016729799549414   0.003261300084229747
-0.05356806098936358   -0.007016729799549414   0.003261300084229747
-0.05356806098936358   -0.007016729799549414   0.003261300084229747
-0.06106679327580291   -0.01979524957189168   -0.004138271733079368
-0.06106679327580291   -0.01979524957189168   -0.004138271733079368
-0.06106679327580291   -0.01979524957189168   -0.004138271733079368
-0.06106679327580291   -0.01979524957189168   -0.004138271733079368
0.023742431664216128   0.005300844260404703   0.009025160305550338
0.023742431664216128   0.005300844260404703   0.009025160305550338
0.023742431664216128   0.005300844260404703   0.009025160305550338
0.023742431664216128   0.005300844260404703   0.009025160305550338
-0.017037138585303587   -0.004392155741511668   -0.003304334845005407
-0.017037138585303587   -0.004392155741511668   -0.003304334845005407
-0.017037138585303587   -0.004392155741511668   -0.003304334845005407
-0.017037138585303587   -0.004392155741511668   -0.003304334845005407
-0.042437422973283304   0.016722465063014738   0.0006349380509093313
-0.042437422973283304   0.016722465063014738   0.0006349380509093313
-0.042437422973283304   0.016722465063014738   0.0006349380509093313
-0.042437422973283304   0.016722465063014738   0.0006349380509093313
-0.12453010423967736   -0.0018061701627795496   -0.0035019014863040612
-0.12453010423967736   -0.0018061701627795496   -0.0035019014863040612
-0.12453010423967736   -0.0018061701627795496   -0.0035019014863040612
-0.12453010423967736   -0.0018061701627795496   -0.0035019014863040612
-0.128278818123883   -0.0055298255555559575   -0.0021306203088145553
-0.128278818123883   -0.0055298255555559575   -0.0021306203088145553
-0.128278818123883   -0.0055298255555559575   -0.0021306203088145553
-0.128278818123883   -0.0055298255555559575   -0.0021306203088145553
-0.04678263764585671   0.01027466837379655   0.0023606825117544394
-0.04678263764585671   0.01027466837379655   0.0023606825117544394
-0.04678263764585671   0.01027466837379655   0.0023606825117544394
-0.04678263764585671   0.01027466837379655   0.0023606825117544394
-0.0852956167342093   0.004794884042664958   0.0013996113740183435
-0.0852956167342093   0.004794884042664958   0.0013996113740183435
-0.0852956167342093   0.004794884042664958   0.0013996113740183435
-0.0852956167342093   0.004794884042664958   0.0013996113740183435
-0.046582289171877345   0.01163585245641487   0.002001240799033943
-0.046582289171877345   0.01163585245641487   0.002001240799033943
-0.046582289171877345   0.01163585245641487   0.002001240799033943
-0.046582289171877345   0.01163585245641487   0.002001240799033943
-0.12866712148288942   -0.00707896452320006   -0.0025229981362035886
-0.12866712148288942   -0.00707896452320006   -0.0025229981362035886
-0.12866712148288942   -0.00707896452320006   -0.0025229981362035886
-0.12866712148288942   -0.00707896452320006   -0.0025229981362035886
-0.1324031606432233   -0.010568707162427912   -0.0008142118839503309
-0.1324031606432233   -0.010568707162427912   -0.0008142118839503309
-0.1324031606432233   -0.010568707162427912   -0.0008142118839503309
-0.1324031606432233   -0.010568707162427912   -0.0008142118839503309
-0.05114691240032028   0.004986499889260199   0.0033638133406357126
-0.05114691240032028   0.004986499889260199   0.0033638133406357126
-0.05114691240032028   0.004986499889260199   0.0033638133406357126
-0.05114691240032028   0.004986499889260199   0.0033638133406357126
-0.0895935798356969   -3.437921859361648e-06   -0.0007579644322334971
-0.0895935798356969   -3.437921859361648e-06   -0.0007579644322334971
-0.0895935798356969   -3.437921859361648e-06   -0.0007579644322334971
-0.0895935798356969   -3.437921859361648e-06   -0.0007579644322334971
-0.050877498890481175   0.006532286433940878   0.00316509434515149
-0.050877498890481175   0.006532286433940878   0.00316509434515149
-0.050877498890481175   0.006532286433940878   0.00316509434515149
-0.050877498890481175   0.006532286433940878   0.00316509434515149
-0.1329388792471716   -0.012380798801219079   -0.0016807132649016721
-0.1329388792471716   -0.012380798801219079   -0.0016807132649016721
-0.1329388792471716   -0.012380798801219079   -0.0016807132649016721
-0.1329388792471716   -0.012380798801219079   -0.0016807132649016721
-0.13644049550623558   -0.015422663225755444   0.00046834761169957254
-0.13644049550623558   -0.015422663225755444   0.00046834761169957254
-0.13644049550623558   -0.015422663225755444   0.00046834761169957254
-0.13644049550623558   -0.015422663225755444   0.00046834761169957254
-0.05544607522848462   -9.914522057918873e-05   0.004269214152199585
-0.05544607522848462   -9.914522057918873e-05   0.004269214152199585
-0.05544607522848462   -9.914522057918873e-05   0.004269214152199585
-0.05544607522848462   -9.914522057918873e-05   0.004269214152199585
-0.09412251506813722   -0.004808898352776196   -0.0031041927343006936
-0.09412251506813722   -0.004808898352776196   -0.0031041927343006936
-0.09412251506813722   -0.004808898352776196   -0.0031041927343006936
-0.09412251506813722   -0.004808898352776196   -0.0031041927343006936
-0.11829932657217879   0.020728811313143296   0.005117005375266041
-0.11829932657217879   0.020728811313143296   0.005117005375266041
-0.11829932657217879   0.020728811313143296   0.005117005375266041
-0.11829932657217879   0.020728811313143296   0.005117005375266041
-0.2027447225090825   -0.006425270233452997   -0.0078656191293866
-0.2027447225090825   -0.006425270233452997   -0.0078656191293866
-0.2027447225090825   -0.006425270233452997   -0.0078656191293866
-0.2027447225090825   -0.006425270233452997   -0.0078656191293866
-0.2031045683087802   -0.0010615599513730534   0.002921277629756778
-0.2031045683087802   -0.0010615599513730534   0.002921277629756778
-0.2031045683087802   -0.0010615599513730534   0.002921277629756778
-0.2031045683087802   -0.0010615599513730534   0.002921277629756778
-0.12616181983520328   0.005326296793232807   -0.0024017512142067727
-0.12616181983520328   0.005326296793232807   -0.0024017512142067727
-0.12616181983520328   0.005326296793232807   -0.0024017512142067727
-0.12616181983520328   0.005326296793232807   -0.0024017512142067727
-0.16171029794315683   0.0046178785440003645   0.0017992814840458275
-0.16171029794315683   0.0046178785440003645   0.0017992814840458275
-0.16171029794315683   0.0046178785440003645   0.0017992814840458275
-0.16171029794315683   0.0046178785440003645   0.0017992814840458275
-0.12228657109511779   0.015814951517749323   0.00648583776170622
-0.12228657109511779   0.015814951517749323   0.00648583776170622
-0.12228657109511779   0.015814951517749323   0.00648583776170622
-0.12228657109511779   0.015814951517749323   0.00648583776170622
-0.20733671005400187   -0.011907107681025694   -0.00739388336670071
-0.20733671005400187   -0.011907107681025694   -0.00739388336670071
-0.20733671005400187   -0.011907107681025694   -0.00739388336670071
-0.20733671005400187   -0.011907107681025694   -0.00739388336670071
-0.20819086201556508   -0.006038690301206941   0.0036242033512366868
-0.20819086201556508   -0.006038690301206941   0.0036242033512366868
-0.20819086201556508   -0.006038690301206941   0.0036242033512366868
-0.20819086201556508   -0.006038690301206941   0.0036242033512366868
-0.13030782534011232   0.0004409195601523218   -0.0013471620909777425
-0.13030782534011232   0.0004409195601523218   -0.0013471620909777425
-0.13030782534011232   0.0004409195601523218   -0.0013471620909777425
-0.13030782534011232   0.0004409195601523218   -0.0013471620909777425
-0.16532559988701895   0.00016707582641502933   -0.0004563468574887049
-0.16532559988701895   0.00016707582641502933   -0.0004563468574887049
-0.16532559988701895   0.00016707582641502933   -0.0004563468574887049
-0.16532559988701895   0.00016707582641502933   -0.0004563468574887049
-0.126330746262787   0.011170268958551471   0.007808883897250667
-0.126330746262787   0.011170268958551471   0.007808883897250667
-0.126330746262787   0.011170268958551471   0.007808883897250667
-0.126330746262787   0.011170268958551471   0.007808883897250667
-0.21239168220018348   -0.016991780806899965   -0.006426807066168023
-0.21239168220018348   -0.016991780806899965   -0.006426807066168023
-0.21239168220018348   -0.016991780806899965   -0.006426807066168023
-0.21239168220018348   -0.016991780806899965   -0.006426807066168023
-0.21256492717501446   -0.011259187668850375   0.005003248628165624
-0.21256492717501446   -0.011259187668850375   0.005003248628165624
-0.21256492717501446   -0.011259187668850375   0.005003248628165624
-0.21256492717501446   -0.011259187668850375   0.005003248628165624
-0.1345104722199936   -0.004821105903022992   -0.0004830932798269034
-0.1345104722199936   -0.004821105903022992   -0.0004830932798269034
-0.1345104722199936   -0.004821105903022992   -0.0004830932798269034
-0.1345104722199936   -0.004821105903022992   -0.0004830932798269034
-0.17081307517764935   -0.0047453007869767555   -0.0029390512314226413
-0.17081307517764935   -0.0047453007869767555   -0.0029390512314226413
-0.17081307517764935   -0.0047453007869767555   -0.0029390512314226413
-0.17081307517764935   -0.0047453007869767555   -0.0029390512314226413
-0.19398631349595058   0.020453262600188683   0.009047893102635141
-0.19398631349595058   0.020453262600188683   0.009047893102635141
-0.19398631349595058   0.020453262600188683   0.009047893102635141
-0.19398631349595058   0.020453262600188683   0.009047893102635141
-0.27474052607507543   -0.012832900413092867   -0.0116715836366384
-0.27474052607507543   -0.012832900413092867   -0.0116715836366384
-0.27474052607507543   -0.012832900413092867   -0.0116715836366384
-0.27474052607507543   -0.012832900413092867   -0.0116715836366384
-0.27664783891531913   0.0027003813323447368   0.009499284356343656
-0.27664783891531913   0.0027003813323447368   0.009499284356343656
-0.27664783891531913   0.0027003813323447368   0.009499284356343656
-0.27664783891531913   0.0027003813323447368   0.009499284356343656
-0.2049506510354829   -0.0002907876392995515   -0.007079908315835992
-0.2049506510354829   -0.0002907876392995515   -0.007079908315835992
-0.2049506510354829   -0.0002907876392995515   -0.007079908315835992
-0.2049506510354829   -0.0002907876392995515   -0.007079908315835992
-0.22730199426785608   0.004711965288300597   0.00565047495238738
-0.22730199426785608   0.004711965288300597   0.00565047495238738
-0.22730199426785608   0.004711965288300597   0.00565047495238738
-0.22730199426785608   0.004711965288300597   0.00565047495238738
-0.1975849559219705   0.018753880818526164   0.010703898793902222
-0.1975849559219705   0.018753880818526164   0.010703898793902222
-0.1975849559219705   0.018753880818526164   0.010703898793902222
-0.1975849559219705   0.018753880818526164   0.010703898793902222
-0.2843966818811584   -0.016727434977807557   -0.009817114162700508
-0.2843966818811584   -0.016727434977807557   -0.009817114162700508
-0.2843966818811584   -0.016727434977807557   -0.009817114162700508
-0.2843966818811584   -0.016727434977807557   -0.009817114162700508
-0.2846065513934548   -0.0001168436785551688   0.012106048151338124
-0.2846065513934548   -0.0001168436785551688   0.012106048151338124
-0.2846065513934548   -0.0001168436785551688   0.012106048151338124
-0.2846065513934548   -0.0001168436785551688   0.012106048151338124
-0.20952170204163434   -0.00301602237691672   -0.006052664703405453
-0.20952170204163434   -0.00301602237691672   -0.006052664703405453
-0.20952170204163434   -0.00301602237691672   -0.006052664703405453
-0.20952170204163434   -0.00301602237691672   -0.006052664703405453
-0.23762675303120462   0.0014025549597675158   0.0022339749998233262
-0.23762675303120462   0.0014025549597675158   0.0022339749998233262
-0.23762675303120462   0.0014025549597675158   0.0022339749998233262
-0.23762675303120462   0.0014025549597675158   0.0022339749998233262
-0.20185570275985446   0.0165536485696779   0.012707660758903089
-0.20185570275985446   0.0165536485696779   0.012707660758903089
-0.20185570275985446   0.0165536485696779   0.012707660758903089
-0.20185570275985446   0.0165536485696779   0.012707660758903089
-0.2926287169902842   -0.020042680940198655   -0.008078942571165289
-0.2926287169902842   -0.020042680940198655   -0.008078942571165289
-0.2926287169902842   -0.020042680940198655   -0.008078942571165289
-0.2926287169902842   -0.020042680940198655   -0.008078942571165289
-0.2955811107539305   -0.008216968323330055   0.012453146119670194
-0.2955811107539305   -0.008216968323330055   0.012453146119670194
-0.2955811107539305   -0.008216968323330055   0.012453146119670194
-0.2955811107539305   -0.008216968323330055   0.012453146119670194
-0.214249612290299   -0.009399439745250142   -0.005279924871861165
-0.214249612290299   -0.009399439745250142   -0.005279924871861165
-0.214249612290299   -0.009399439745250142   -0.005279924871861165
-0.214249612290299   -0.009399439745250142   -0.005279924871861165
-0.2407645245410212   -0.002165092250545231   0.0002517918887098222
-0.2407645245410212   -0.002165092250545231   0.0002517918887098222
-0.2407645245410212   -0.002165092250545231   0.0002517918887098222
-0.2407645245410212   -0.002165092250545231   0.0002517918887098222
0.02841936752667198   0.0023184973387060156   -0.013467812189083984
0.02841936752667198   0.0023184973387060156   -0.013467812189083984
0.02841936752667198   0.0023184973387060156   -0.013467812189083984
0.02841936752667198   0.0023184973387060156   -0.013467812189083984
-0.017823970241543093   0.009929916325216689   0.006785918159765201
-0.017823970241543093   0.009929916325216689   0.006785918159765201
-0.017823970241543093   0.009929916325216689   0.006785918159765201
-0.017823970241543093   0.009929916325216689   0.006785918159765201
-0.028810321676376652   -0.013175089396689047   -0.010900796209796532
-0.028810321676376652   -0.013175089396689047   -0.010900796209796532
-0.028810321676376652   -0.013175089396689047   -0.010900796209796532
-0.028810321676376652   -0.013175089396689047   -0.010900796209796532
0.026756038285438398   0.014882098551469315   0.008275365173792792
0.026756038285438398   0.014882098551469315   0.008275365173792792
0.026756038285438398   0.014882098551469315   0.008275365173792792
0.026756038285438398   0.014882098551469315   0.008275365173792792
0.0013864349795614465   0.00327653656763665   0.001129987249891712
0.0013864349795614465   0.00327653656763665   0.001129987249891712
0.0013864349795614465   0.00327653656763665   0.001129987249891712
0.0013864349795614465   0.00327653656763665   0.001129987249891712
0.01892941666295545   -0.0038684261369115415   -0.012107218250241109
0.01892941666295545   -0.0038684261369115415   -0.012107218250241109
0.01892941666295545   -0.0038684261369115415   -0.012107218250241109
0.01892941666295545   -0.0038684261369115415   -0.012107218250241109
-0.021431912076582602   0.005127223269002909   0.0076889391234817705
-0.021431912076582602   0.005127223269002909   0.0076889391234817705
-0.021431912076582602   0.005127223269002909   0.0076889391234817705
-0.021431912076582602   0.005127223269002909   0.0076889391234817705
-0.032464034050126114   -0.015501162785587382   -0.009291934633099108
-0.032464034050126114   -0.015501162785587382   -0.009291934633099108
-0.032464034050126114   -0.015501162785587382   -0.009291934633099108
-0.032464034050126114   -0.015501162785587382   -0.009291934633099108
0.019315370468257348   0.011745872576550659   0.011413768436609713
0.019315370468257348   0.011745872576550659   0.011413768436609713
0.019315370468257348   0.011745872576550659   0.011413768436609713
0.019315370468257348   0.011745872576550659   0.011413768436609713
-0.004370943380850314   -0.00021691466669723249   -0.0015269603098974367
-0.004370943380850314   -0.00021691466669723249   -0.0015269603098974367
-0.004370943380850314   -0.00021691466669723249   -0.0015269603098974367
-0.004370943380850314   -0.00021691466669723249   -0.0015269603098974367
0.01129052628332481   -0.006903983145480333   -0.010060596766022454
0.01129052628332481   -0.006903983145480333   -0.010060596766022454
0.01129052628332481   -0.006903983145480333   -0.010060596766022454
0.01129052628332481   -0.006903983145480333   -0.010060596766022454
-0.025067808235591717   0.0025200745660466433   0.009667957087938698
-0.025067808235591717   0.0025200745660466433   0.009667957087938698
-0.025067808235591717   0.0025200745660466433   0.009667957087938698
-0.025067808235591717   0.0025200745660466433   0.009667957087938698
-0.03580651541702919   -0.018958398193570827   -0.0077364776014938325
-0.03580651541702919   -0.018958398193570827   -0.0077364776014938325
-0.03580651541702919   -0.018958398193570827   -0.0077364776014938325
-0.03580651541702919   -0.018958398193570827   -0.0077364776014938325
0.008978196643486112   0.0052512217724828445   0.013072248535541172
0.008978196643486112   0.0052512217724828445   0.013072248535541172
0.008978196643486112   0.0052512217724828445   0.013072248535541172
0.008978196643486112   0.0052512217724828445   0.013072248535541172
-0.0108103060145763   -0.0036842011338693633   -0.004639803196794706
-0.0108103060145763   -0.0036842011338693633   -0.004639803196794706
-0.0108103060145763   -0.0036842011338693633   -0.004639803196794706
-0.0108103060145763   -0.0036842011338693633   -0.004639803196794706
-0.020771091862618232   0.00719846562276101   -0.005218239243154835
-0.020771091862618232   0.00719846562276101   -0.005218239243154835
-0.020771091862618232   0.00719846562276101   -0.005218239243154835
-0.020771091862618232   0.00719846562276101   -0.005218239243154835
-0.0635169048375997   0.0026969365599896506   0.0017149203046973654
-0.0635169048375997   0.0026969365599896506   0.0017149203046973654
-0.0635169048375997   0.0026969365599896506   0.0017149203046973654
-0.0635169048375997   0.0026969365599896506   0.0017149203046973654
-0.06924961224084118   -0.007686809280147051   -0.005725007938031173
-0.06924961224084118   -0.007686809280147051   -0.005725007938031173
-0.06924961224084118   -0.007686809280147051   -0.005725007938031173
-0.06924961224084118   -0.007686809280147051   -0.005725007938031173
-0.021466639720142996   0.007142602646400673   0.005499921528282016
-0.021466639720142996   0.007142602646400673   0.005499921528282016
-0.021466639720142996   0.007142602646400673   0.005499921528282016
-0.021466639720142996   0.007142602646400673   0.005499921528282016
-0.0436859655203803   0.0021922747618281675   0.0012120357043567884
-0.0436859655203803   0.0021922747618281675   0.0012120357043567884
-0.0436859655203803   0.0021922747618281675   0.0012120357043567884
-0.0436859655203803   0.0021922747618281675   0.0012120357043567884
-0.024547599647402014   0.0015384497781871388   -0.004300725239799384
-0.024547599647402014   0.0015384497781871388   -0.004300725239799384
-0.024547599647402014   0.0015384497781871388   -0.004300725239799384
-0.024547599647402014   0.0015384497781871388   -0.004300725239799384
-0.06654665944702819   -0.0024606635453796686   0.002563610296265487
-0.06654665944702819   -0.0024606635453796686   0.002563610296265487
-0.06654665944702819   -0.0024606635453796686   0.002563610296265487
-0.06654665944702819   -0.0024606635453796686   0.002563610296265487
-0.07210923458751937   -0.012231682032247658   -0.004272287481105679
-0.07210923458751937   -0.012231682032247658   -0.004272287481105679
-0.07210923458751937   -0.012231682032247658   -0.004272287481105679
-0.07210923458751937   -0.012231682032247658   -0.004272287481105679
-0.025841956270693137   0.00211317153968264   0.00620411993879561
-0.025841956270693137   0.00211317153968264   0.00620411993879561
-0.025841956270693137   0.00211317153968264   0.00620411993879561
-0.025841956270693137   0.00211317153968264   0.00620411993879561
-0.047294873005283386   -0.0024068009074359117   -0.0011099737666798223
-0.047294873005283386   -0.0024068009074359117   -0.0011099737666798223
-0.047294873005283386   -0.0024068009074359117   -0.0011099737666798223
-0.047294873005283386   -0.0024068009074359117   -0.0011099737666798223
-0.02882236965651478   -0.0033640055332942558   -0.0032207699173355878
-0.02882236965651478   -0.0033640055332942558   -0.0032207699173355878
-0.02882236965651478   -0.0033640055332942558   -0.0032207699173355878
-0.02882236965651478   -0.0033640055332942558   -0.0032207699173355878
-0.06953678036419537   -0.007162464121769658   0.0035207657250363534
-0.06953678036419537   -0.007162464121769658   0.0035207657250363534
-0.06953678036419537   -0.007162464121769658   0.0035207657250363534
-0.06953678036419537   -0.007162464121769658   0.0035207657250363534
-0.07498761893944787   -0.016847969823555842   -0.002988859510588397
-0.07498761893944787   -0.016847969823555842   -0.002988859510588397
-0.07498761893944787   -0.016847969823555842   -0.002988859510588397
-0.07498761893944787   -0.016847969823555842   -0.002988859510588397
-0.029510636627191375   -0.0029090486185710525   0.007693566772695229
-0.029510636627191375   -0.0029090486185710525   0.007693566772695229
-0.029510636627191375   -0.0029090486185710525   0.007693566772695229
-0.029510636627191375   -0.0029090486185710525   0.007693566772695229
-0.05085749501767874   -0.0068816665907436665   -0.0034517977983153786
-0.05085749501767874   -0.0068816665907436665   -0.0034517977983153786
-0.05085749501767874   -0.0068816665907436665   -0.0034517977983153786
-0.05085749501767874   -0.0068816665907436665   -0.0034517977983153786
-0.06225961041487903   0.011239978912582362   -0.00054164993429286
-0.06225961041487903   0.011239978912582362   -0.00054164993429286
-0.06225961041487903   0.011239978912582362   -0.00054164993429286
-0.06225961041487903   0.011239978912582362   -0.00054164993429286
-0.10853493693341369   -0.003864454901557811   -0.003155558473087749
-0.10853493693341369   -0.003864454901557811   -0.003155558473087749
-0.10853493693341369   -0.003864454901557811   -0.003155558473087749
-0.10853493693341369   -0.003864454901557811   -0.003155558473087749
-0.10973104362500549   -0.0029409587401513573   -0.0007690470788439992
-0.10973104362500549   -0.0029409587401513573   -0.0007690470788439992
-0.10973104362500549   -0.0029409587401513573   -0.0007690470788439992
-0.10973104362500549   -0.0029409587401513573   -0.0007690470788439992
-0.0661782618657161   0.0010847275586416873   0.0008602070988044924
-0.0661782618657161   0.0010847275586416873   0.0008602070988044924
-0.0661782618657161   0.0010847275586416873   0.0008602070988044924
-0.0661782618657161   0.0010847275586416873   0.0008602070988044924
-0.08648510040614721   0.0012800643006495617   0.0004923151036341413
-0.08648510040614721   0.0012800643006495617   0.0004923151036341413
-0.08648510040614721   0.0012800643006495617   0.0004923151036341413
-0.08648510040614721   0.0012800643006495617   0.0004923151036341413
-0.06514278887370975   0.0062958012911434845   0.0008264983263344752
-0.06514278887370975   0.0062958012911434845   0.0008264983263344752
-0.06514278887370975   0.0062958012911434845   0.0008264983263344752
-0.06514278887370975   0.0062958012911434845   0.0008264983263344752
-0.11113369110660239   -0.008519206962243703   -0.0022040362647361665
-0.11113369110660239   -0.008519206962243703   -0.0022040362647361665
-0.11113369110660239   -0.008519206962243703   -0.0022040362647361665
-0.11113369110660239   -0.008519206962243703   -0.0022040362647361665
-0.11242087154812096   -0.007825672559740197   0.0005769102434420772
-0.11242087154812096   -0.007825672559740197   0.0005769102434420772
-0.11242087154812096   -0.007825672559740197   0.0005769102434420772
-0.11242087154812096   -0.007825672559740197   0.0005769102434420772
-0.06919754086661738   -0.003725889691889063   0.00178038878304577
-0.06919754086661738   -0.003725889691889063   0.00178038878304577
-0.06919754086661738   -0.003725889691889063   0.00178038878304577
-0.06919754086661738   -0.003725889691889063   0.00178038878304577
-0.08938887022472393   -0.00316319065488134   -0.0016380039324503555
-0.08938887022472393   -0.00316319065488134   -0.0016380039324503555
-0.08938887022472393   -0.00316319065488134   -0.0016380039324503555
-0.08938887022472393   -0.00316319065488134   -0.0016380039324503555
-0.0681423291100515   0.0013173045449866895   0.0020132533289993846
-0.0681423291100515   0.0013173045449866895   0.0020132533289993846
-0.0681423291100515   0.0013173045449866895   0.0020132533289993846
-0.0681423291100515   0.0013173045449866895   0.0020132533289993846
-0.11391998482130884   -0.013312768313235737   -0.0014315603690037934
-0.11391998482130884   -0.013312768313235737   -0.0014315603690037934
-0.11391998482130884   -0.013312768313235737   -0.0014315603690037934
-0.11391998482130884   -0.013312768313235737   -0.0014315603690037934
-0.11503662845402493   -0.0124957493388884   0.001876746786193843
-0.11503662845402493   -0.0124957493388884   0.001876746786193843
-0.11503662845402493   -0.0124957493388884   0.001876746786193843
-0.11503662845402493   -0.0124957493388884   0.001876746786193843
-0.07211122035708836   -0.008244339144298674   0.0027895027219519515
-0.07211122035708836   -0.008244339144298674   0.0027895027219519515
-0.07211122035708836   -0.008244339144298674   0.0027895027219519515
-0.07211122035708836   -0.008244339144298674   0.0027895027219519515
-0.092513246047316   -0.007625812781758248   -0.003954426252266085
-0.092513246047316   -0.007625812781758248   -0.003954426252266085
-0.092513246047316   -0.007625812781758248   -0.003954426252266085
-0.092513246047316   -0.007625812781758248   -0.003954426252266085
-0.10307266265153102   0.015950447642407134   0.004340910392362594
-0.10307266265153102   0.015950447642407134   0.004340910392362594
-0.10307266265153102   0.015950447642407134   0.004340910392362594
-0.10307266265153102   0.015950447642407134   0.004340910392362594
-0.15204343568776352   -0.006567944325262226   -0.007020846234376087
-0.15204343568776352   -0.006567944325262226   -0.007020846234376087
-0.15204343568776352   -0.006567944325262226   -0.007020846234376087
-0.15204343568776352   -0.006567944325262226   -0.007020846234376087
-0.1501371334878321   0.0018747654686049747   0.004315905815275224
-0.1501371334878321   0.0018747654686049747   0.004315905815275224
-0.1501371334878321   0.0018747654686049747   0.004315905815275224
-0.1501371334878321   0.0018747654686049747   0.004315905815275224
-0.10998095576666393   -0.0019064127232178533   -0.0030531538040697572
-0.10998095576666393   -0.0019064127232178533   -0.0030531538040697572
-0.10998095576666393   -0.0019064127232178533   -0.0030531538040697572
-0.10998095576666393   -0.0019064127232178533   -0.0030531538040697572
-0.1283199694758661   0.0023392533325574637   0.0007118700708669589
-0.1283199694758661   0.0023392533325574637   0.0007118700708669589
-0.1283199694758661   0.0023392533325574637   0.0007118700708669589
-0.1283199694758661   0.0023392533325574637   0.0007118700708669589
-0.10563637216019349   0.011053672393407543   0.005709679111657118
-0.10563637216019349   0.011053672393407543   0.005709679111657118
-0.10563637216019349   0.011053672393407543   0.005709679111657118
-0.10563637216019349   0.011053672393407543   0.005709679111657118
-0.15501915066376273   -0.011622753217483524   -0.006596661378291626
-0.15501915066376273   -0.011622753217483524   -0.006596661378291626
-0.15501915066376273   -0.011622753217483524   -0.006596661378291626
-0.15501915066376273   -0.011622753217483524   -0.006596661378291626
-0.15372587963338233   -0.002949289614144722   0.005119846330799387
-0.15372587963338233   -0.002949289614144722   0.005119846330799387
-0.15372587963338233   -0.002949289614144722   0.005119846330799387
-0.15372587963338233   -0.002949289614144722   0.005119846330799387
-0.11264597892366132   -0.006309705631917316   -0.0020645935620827267
-0.11264597892366132   -0.006309705631917316   -0.0020645935620827267
-0.11264597892366132   -0.006309705631917316   -0.0020645935620827267
-0.11264597892366132   -0.006309705631917316   -0.0020645935620827267
-0.13074724287878658   -0.001936506991554631   -0.0015961170995671395
-0.13074724287878658   -0.001936506991554631   -0.0015961170995671395
-0.13074724287878658   -0.001936506991554631   -0.0015961170995671395
-0.13074724287878658   -0.001936506991554631   -0.0015961170995671395
-0.10825814915230471   0.00652771429038802   0.007037135372393126
-0.10825814915230471   0.00652771429038802   0.007037135372393126
-0.10825814915230471   0.00652771429038802   0.007037135372393126
-0.10825814915230471   0.00652771429038802   0.007037135372393126
-0.15853815285933037   -0.016211152991043396   -0.005679656422044071
-0.15853815285933037   -0.016211152991043396   -0.005679656422044071
-0.15853815285933037   -0.016211152991043396   -0.005679656422044071
-0.15853815285933037   -0.016211152991043396   -0.005679656422044071
-0.15663828410984593   -0.007839170710804332   0.006554394571118715
-0.15663828410984593   -0.007839170710804332   0.006554394571118715
-0.15663828410984593   -0.007839170710804332   0.006554394571118715
-0.15663828410984593   -0.007839170710804332   0.006554394571118715
-0.11532632679966194   -0.010847682649043611   -0.0012198116318359624
-0.11532632679966194   -0.010847682649043611   -0.0012198116318359624
-0.11532632679966194   -0.010847682649043611   -0.0012198116318359624
-0.11532632679966194   -0.010847682649043611   -0.0012198116318359624
-0.13443897708193667   -0.006346311154372758   -0.00398042299102604
-0.13443897708193667   -0.006346311154372758   -0.00398042299102604
-0.13443897708193667   -0.006346311154372758   -0.00398042299102604
-0.13443897708193667   -0.006346311154372758   -0.00398042299102604
-0.14413466926527027   0.01734466332230119   0.008610378230526733
-0.14413466926527027   0.01734466332230119   0.008610378230526733
-0.14413466926527027   0.01734466332230119   0.008610378230526733
-0.14413466926527027   0.01734466332230119   0.008610378230526733
-0.18790789557266255   -0.00958717803724271   -0.011504717818220335
-0.18790789557266255   -0.00958717803724271   -0.011504717818220335
-0.18790789557266255   -0.00958717803724271   -0.011504717818220335
-0.18790789557266255   -0.00958717803724271   -0.011504717818220335
-0.1881312181097847   0.006387971059182221   0.009494452250874662
-0.1881312181097847   0.006387971059182221   0.009494452250874662
-0.1881312181097847   0.006387971059182221   0.009494452250874662
-0.1881312181097847   0.006387971059182221   0.009494452250874662
-0.15375590802730216   -0.004877874646865617   -0.007025326766604586
-0.15375590802730216   -0.004877874646865617   -0.007025326766604586
-0.15375590802730216   -0.004877874646865617   -0.007025326766604586
-0.15375590802730216   -0.004877874646865617   -0.007025326766604586
-0.16158616619550822   0.003927134252839901   0.0033075444447046715
-0.16158616619550822   0.003927134252839901   0.0033075444447046715
-0.16158616619550822   0.003927134252839901   0.0033075444447046715
-0.16158616619550822   0.003927134252839901   0.0033075444447046715
-0.14636968515754542   0.014872474822098206   0.010155438113215315
-0.14636968515754542   0.014872474822098206   0.010155438113215315
-0.14636968515754542   0.014872474822098206   0.010155438113215315
-0.14636968515754542   0.014872474822098206   0.010155438113215315
-0.1960827627531634   -0.013927700183402583   -0.009947599723428218
-0.1960827627531634   -0.013927700183402583   -0.009947599723428218
-0.1960827627531634   -0.013927700183402583   -0.009947599723428218
-0.1960827627531634   -0.013927700183402583   -0.009947599723428218
-0.19465060951138358   0.0036085901366434414   0.012199305334144565
-0.19465060951138358   0.0036085901366434414   0.012199305334144565
-0.19465060951138358   0.0036085901366434414   0.012199305334144565
-0.19465060951138358   0.0036085901366434414   0.012199305334144565
-0.15686797950920703   -0.007415055132154128   -0.006124887530314651
-0.15686797950920703   -0.007415055132154128   -0.006124887530314651
-0.15686797950920703   -0.007415055132154128   -0.006124887530314651
-0.15686797950920703   -0.007415055132154128   -0.006124887530314651
-0.1694256890711081   0.0005704292603145728   5.07196785623585e-05
-0.1694256890711081   0.0005704292603145728   5.07196785623585e-05
-0.1694256890711081   0.0005704292603145728   5.07196785623585e-05
-0.1694256890711081   0.0005704292603145728   5.07196785623585e-05
-0.1491920076109759   0.012690360679694555   0.012149556148992454
-0.1491920076109759   0.012690360679694555   0.012149556148992454
-0.1491920076109759   0.012690360679694555   0.012149556148992454
-0.1491920076109759   0.012690360679694555   0.012149556148992454
-0.2028934590170796   -0.01706370328267045   -0.00834264877501602
-0.2028934590170796   -0.01706370328267045   -0.00834264877501602
-0.2028934590170796   -0.01706370328267045   -0.00834264877501602
-0.2028934590170796   -0.01706370328267045   -0.00834264877501602
-0.20419386554902694   -0.003759367334998251   0.012864690438126193
-0.20419386554902694   -0.003759367334998251   0.012864690438126193
-0.20419386554902694   -0.003759367334998251   0.012864690438126193
-0.20419386554902694   -0.003759367334998251   0.012864690438126193
-0.159998551725061   -0.012797173848984426   -0.005288940366778393
-0.159998551725061   -0.012797173848984426   -0.005288940366778393
-0.159998551725061   -0.012797173848984426   -0.005288940366778393
-0.159998551725061   -0.012797173848984426   -0.005288940366778393
-0.17231319341955867   -0.0027945202410044334   -0.0022201507848253095
-0.17231319341955867   -0.0027945202410044334   -0.0022201507848253095
-0.17231319341955867   -0.0027945202410044334   -0.0022201507848253095
-0.17231319341955867   -0.0027945202410044334   -0.0022201507848253095
-0.06782724009825875   -0.004324440959091236   -0.014482598405058748
-0.06782724009825875   -0.004324440959091236   -0.014482598405058748
-0.06782724009825875   -0.004324440959091236   -0.014482598405058748
-0.06782724009825875   -0.004324440959091236   -0.014482598405058748
-0.07147091898508069   0.010804314900954189   0.006444660871244107
-0.07147091898508069   0.010804314900954189   0.006444660871244107
-0.07147091898508069   0.010804314900954189   0.006444660871244107
-0.07147091898508069   0.010804314900954189   0.006444660871244107
-0.08114639260764689   -0.010339969351673002   -0.009932543448833495
-0.08114639260764689   -0.010339969351673002   -0.009932543448833495
-0.08114639260764689   -0.010339969351673002   -0.009932543448833495
-0.08114639260764689   -0.010339969351673002   -0.009932543448833495
-0.06954063995222651   0.006415662894654586   0.009492588593300207
-0.06954063995222651   0.006415662894654586   0.009492588593300207
-0.06954063995222651   0.006415662894654586   0.009492588593300207
-0.06954063995222651   0.006415662894654586   0.009492588593300207
-0.0688358256806454   0.002003438967384835   0.006579608236161399
-0.0688358256806454   0.002003438967384835   0.006579608236161399
-0.0688358256806454   0.002003438967384835   0.006579608236161399
-0.0688358256806454   0.002003438967384835   0.006579608236161399
-0.07716995091999986   -0.010004860828799233   -0.012233442522111693
-0.07716995091999986   -0.010004860828799233   -0.012233442522111693
-0.07716995091999986   -0.010004860828799233   -0.012233442522111693
-0.07716995091999986   -0.010004860828799233   -0.012233442522111693
-0.07441783290607057   0.0051798031055839446   0.00819048260179106
-0.07441783290607057   0.0051798031055839446   0.00819048260179106
-0.07441783290607057   0.0051798031055839446   0.00819048260179106
-0.07441783290607057   0.0051798031055839446   0.00819048260179106
-0.08418109990766999   -0.012930670630483341   -0.008472477222632958
-0.08418109990766999   -0.012930670630483341   -0.008472477222632958
-0.08418109990766999   -0.012930670630483341   -0.008472477222632958
-0.08418109990766999   -0.012930670630483341   -0.008472477222632958
-0.07703894080313226   0.0029366388984505398   0.01785827947539479
-0.07703894080313226   0.0029366388984505398   0.01785827947539479
-0.07703894080313226   0.0029366388984505398   0.01785827947539479
-0.07703894080313226   0.0029366388984505398   0.01785827947539479
-0.07562026151120801   -0.0024279174018959626   0.0027150975170384672
-0.07562026151120801   -0.0024279174018959626   0.0027150975170384672
-0.07562026151120801   -0.0024279174018959626   0.0027150975170384672
-0.07562026151120801   -0.0024279174018959626   0.0027150975170384672
-0.08582369118435594   -0.013492050123123645   -0.00963678340914852
-0.08582369118435594   -0.013492050123123645   -0.00963678340914852
-0.08582369118435594   -0.013492050123123645   -0.00963678340914852
-0.08582369118435594   -0.013492050123123645   -0.00963678340914852
-0.07759609236827925   0.0012982755492580607   0.010223614294579388
-0.07759609236827925   0.0012982755492580607   0.010223614294579388
-0.07759609236827925   0.0012982755492580607   0.010223614294579388
-0.07759609236827925   0.0012982755492580607   0.010223614294579388
-0.0866911394401542   -0.017842958296447994   -0.006729315725472723
-0.0866911394401542   -0.017842958296447994   -0.006729315725472723
-0.0866911394401542   -0.017842958296447994   -0.006729315725472723
-0.0866911394401542   -0.017842958296447994   -0.006729315725472723
-0.08863521979471863   -0.00856401034714321   0.016676972116743554
-0.08863521979471863   -0.00856401034714321   0.016676972116743554
-0.08863521979471863   -0.00856401034714321   0.016676972116743554
-0.08863521979471863   -0.00856401034714321   0.016676972116743554
-0.0817683625187377   -0.007640889757644978   -0.0035166542709162327
-0.0817683625187377   -0.007640889757644978   -0.0035166542709162327
-0.0817683625187377   -0.007640889757644978   -0.0035166542709162327
-0.0817683625187377   -0.007640889757644978   -0.0035166542709162327
-0.07673910948568938   -0.0017574031472820592   -0.0073345735835638306
-0.07673910948568938   -0.0017574031472820592   -0.0073345735835638306
-0.07673910948568938   -0.0017574031472820592   -0.0073345735835638306
-0.07673910948568938   -0.0017574031472820592   -0.0073345735835638306
-0.08102191195652095   -0.010085983164048833   -0.00044749496580350216
-0.08102191195652095   -0.010085983164048833   -0.00044749496580350216
-0.08102191195652095   -0.010085983164048833   -0.00044749496580350216
-0.08102191195652095   -0.010085983164048833   -0.00044749496580350216
-0.08184883235285421   -0.006804156966531038   -0.003851683903657651
-0.08184883235285421   -0.006804156966531038   -0.003851683903657651
-0.08184883235285421   -0.006804156966531038   -0.003851683903657651
-0.08184883235285421   -0.006804156966531038   -0.003851683903657651
-0.07970789343385623   -0.013097016610709472   1.6999679156265912e-05
-0.07970789343385623   -0.013097016610709472   1.6999679156265912e-05
-0.07970789343385623   -0.013097016610709472   1.6999679156265912e-05
-0.07970789343385623   -0.013097016610709472   1.6999679156265912e-05
-0.07916244627582328   -0.008287409227501333   -8.07902017278695e-05
-0.07916244627582328   -0.008287409227501333   -8.07902017278695e-05
-0.07916244627582328   -0.008287409227501333   -8.07902017278695e-05
-0.07916244627582328   -0.008287409227501333   -8.07902017278695e-05
-0.07974492695011433   -0.006888396673182317   -0.006376787839661618
-0.07974492695011433   -0.006888396673182317   -0.006376787839661618
-0.07974492695011433   -0.006888396673182317   -0.006376787839661618
-0.07974492695011433   -0.006888396673182317   -0.006376787839661618
-0.08233296148279651   -0.013533939550257494   0.0004574530303564359
-0.08233296148279651   -0.013533939550257494   0.0004574530303564359
-0.08233296148279651   -0.013533939550257494   0.0004574530303564359
-0.08233296148279651   -0.013533939550257494   0.0004574530303564359
-0.08342764182329923   -0.011155083596436171   -0.002551470189200023
-0.08342764182329923   -0.011155083596436171   -0.002551470189200023
-0.08342764182329923   -0.011155083596436171   -0.002551470189200023
-0.08342764182329923   -0.011155083596436171   -0.002551470189200023
-0.08291770771778446   -0.017117278268350078   0.002031091364661483
-0.08291770771778446   -0.017117278268350078   0.002031091364661483
-0.08291770771778446   -0.017117278268350078   0.002031091364661483
-0.08291770771778446   -0.017117278268350078   0.002031091364661483
-0.08124101321857223   -0.011838722381094142   -0.002144858984158178
-0.08124101321857223   -0.011838722381094142   -0.002144858984158178
-0.08124101321857223   -0.011838722381094142   -0.002144858984158178
-0.08124101321857223   -0.011838722381094142   -0.002144858984158178
-0.0831621218667432   -0.011544447580817855   -0.0047638100676644845
-0.0831621218667432   -0.011544447580817855   -0.0047638100676644845
-0.0831621218667432   -0.011544447580817855   -0.0047638100676644845
-0.0831621218667432   -0.011544447580817855   -0.0047638100676644845
-0.08384666813506034   -0.0173913547446892   0.0015896694002455933
-0.08384666813506034   -0.0173913547446892   0.0015896694002455933
-0.08384666813506034   -0.0173913547446892   0.0015896694002455933
-0.08384666813506034   -0.0173913547446892   0.0015896694002455933
-0.08487421654008145   -0.015774295513380724   -0.0012690877884630495
-0.08487421654008145   -0.015774295513380724   -0.0012690877884630495
-0.08487421654008145   -0.015774295513380724   -0.0012690877884630495
-0.08487421654008145   -0.015774295513380724   -0.0012690877884630495
-0.0854046202077964   -0.02211827623079699   0.003978598370664944
-0.0854046202077964   -0.02211827623079699   0.003978598370664944
-0.0854046202077964   -0.02211827623079699   0.003978598370664944
-0.0854046202077964   -0.02211827623079699   0.003978598370664944
-0.08398704907763453   -0.016029705829211503   -0.00472645567489017
-0.08398704907763453   -0.016029705829211503   -0.00472645567489017
-0.08398704907763453   -0.016029705829211503   -0.00472645567489017
-0.08398704907763453   -0.016029705829211503   -0.00472645567489017
-0.0786967519950669   0.0024606317635107317   -0.0013683100860918326
-0.0786967519950669   0.0024606317635107317   -0.0013683100860918326
-0.0786967519950669   0.0024606317635107317   -0.0013683100860918326
-0.0786967519950669   0.0024606317635107317   -0.0013683100860918326
-0.09176917430108812   -0.017456685918661504   -0.004471018053642908
-0.09176917430108812   -0.017456685918661504   -0.004471018053642908
-0.09176917430108812   -0.017456685918661504   -0.004471018053642908
-0.09176917430108812   -0.017456685918661504   -0.004471018053642908
-0.0882388359180306   -0.003295956384918766   0.0010173614333167276
-0.0882388359180306   -0.003295956384918766   0.0010173614333167276
-0.0882388359180306   -0.003295956384918766   0.0010173614333167276
-0.0882388359180306   -0.003295956384918766   0.0010173614333167276
-0.08390918213062178   -0.01829153115934456   -0.0026660585996827997
-0.08390918213062178   -0.01829153115934456   -0.0026660585996827997
-0.08390918213062178   -0.01829153115934456   -0.0026660585996827997
-0.08390918213062178   -0.01829153115934456   -0.0026660585996827997
-0.08559176044708071   -0.009443803957969808   -0.00181674133598758
-0.08559176044708071   -0.009443803957969808   -0.00181674133598758
-0.08559176044708071   -0.009443803957969808   -0.00181674133598758
-0.08559176044708071   -0.009443803957969808   -0.00181674133598758
-0.08009923425235925   -0.0018775653433242244   -3.028502438958986e-05
-0.08009923425235925   -0.0018775653433242244   -3.028502438958986e-05
-0.08009923425235925   -0.0018775653433242244   -3.028502438958986e-05
-0.08009923425235925   -0.0018775653433242244   -3.028502438958986e-05
-0.09252652114276687   -0.020187659547412355   -0.0035293615278728535
-0.09252652114276687   -0.020187659547412355   -0.0035293615278728535
-0.09252652114276687   -0.020187659547412355   -0.0035293615278728535
-0.09252652114276687   -0.020187659547412355   -0.0035293615278728535
-0.0894316849578499   -0.007667453120054268   0.0023067157334522672
-0.0894316849578499   -0.007667453120054268   0.0023067157334522672
-0.0894316849578499   -0.007667453120054268   0.0023067157334522672
-0.0894316849578499   -0.007667453120054268   0.0023067157334522672
-0.08538878488963081   -0.02172112114694675   -0.0017911479703483014
-0.08538878488963081   -0.02172112114694675   -0.0017911479703483014
-0.08538878488963081   -0.02172112114694675   -0.0017911479703483014
-0.08538878488963081   -0.02172112114694675   -0.0017911479703483014
-0.08683733732761072   -0.01275600889532236   -0.003588224923217604
-0.08683733732761072   -0.01275600889532236   -0.003588224923217604
-0.08683733732761072   -0.01275600889532236   -0.003588224923217604
-0.08683733732761072   -0.01275600889532236   -0.003588224923217604
-0.08170199136600882   -0.006332098206843171   0.0012537967076590105
-0.08170199136600882   -0.006332098206843171   0.0012537967076590105
-0.08170199136600882   -0.006332098206843171   0.0012537967076590105
-0.08170199136600882   -0.006332098206843171   0.0012537967076590105
-0.09365241793523432   -0.023590415513918512   -0.002873986759607457
-0.09365241793523432   -0.023590415513918512   -0.002873986759607457
-0.09365241793523432   -0.023590415513918512   -0.002873986759607457
-0.09365241793523432   -0.023590415513918512   -0.002873986759607457
-0.09043832697145174   -0.011752287540457054   0.003576867355523413
-0.09043832697145174   -0.011752287540457054   0.003576867355523413
-0.09043832697145174   -0.011752287540457054   0.003576867355523413
-0.09043832697145174   -0.011752287540457054   0.003576867355523413
-0.08655130701389809   -0.024963206870285692   -0.00046562880064123825
-0.08655130701389809   -0.024963206870285692   -0.00046562880064123825
-0.08655130701389809   -0.024963206870285692   -0.00046562880064123825
-0.08655130701389809   -0.024963206870285692   -0.00046562880064123825
-0.08829477580306827   -0.016210651124063318   -0.005531732080831182
-0.08829477580306827   -0.016210651124063318   -0.005531732080831182
-0.08829477580306827   -0.016210651124063318   -0.005531732080831182
-0.08829477580306827   -0.016210651124063318   -0.005531732080831182
-0.08471258390928796   0.009144537395539484   0.004210710591156906
-0.08471258390928796   0.009144537395539484   0.004210710591156906
-0.08471258390928796   0.009144537395539484   0.004210710591156906
-0.08471258390928796   0.009144537395539484   0.004210710591156906
-0.10250447696838252   -0.013347905995999802   -0.00633688334327249
-0.10250447696838252   -0.013347905995999802   -0.00633688334327249
-0.10250447696838252   -0.013347905995999802   -0.00633688334327249
-0.10250447696838252   -0.013347905995999802   -0.00633688334327249
-0.0973042056620043   0.0023830060267626407   0.0057171898411807285
-0.0973042056620043   0.0023830060267626407   0.0057171898411807285
-0.0973042056620043   0.0023830060267626407   0.0057171898411807285
-0.0973042056620043   0.0023830060267626407   0.0057171898411807285
-0.09139179927271322   -0.014282671550649561   -0.0037607401743655865
-0.09139179927271322   -0.014282671550649561   -0.0037607401743655865
-0.09139179927271322   -0.014282671550649561   -0.0037607401743655865
-0.09139179927271322   -0.014282671550649561   -0.0037607401743655865
-0.09393080105009176   -0.003938135737928283   -0.0010820029668307182
-0.09393080105009176   -0.003938135737928283   -0.0010820029668307182
-0.09393080105009176   -0.003938135737928283   -0.0010820029668307182
-0.09393080105009176   -0.003938135737928283   -0.0010820029668307182
-0.08575153199191123   0.0046514064402867275   0.005506518238708102
-0.08575153199191123   0.0046514064402867275   0.005506518238708102
-0.08575153199191123   0.0046514064402867275   0.005506518238708102
-0.08575153199191123   0.0046514064402867275   0.005506518238708102
-0.10358485829581182   -0.017191457317178527   -0.0061116099839156664
-0.10358485829581182   -0.017191457317178527   -0.0061116099839156664
-0.10358485829581182   -0.017191457317178527   -0.0061116099839156664
-0.10358485829581182   -0.017191457317178527   -0.0061116099839156664
-0.0992377299787323   -0.0019148983854924279   0.006501193725112681
-0.0992377299787323   -0.0019148983854924279   0.006501193725112681
-0.0992377299787323   -0.0019148983854924279   0.006501193725112681
-0.0992377299787323   -0.0019148983854924279   0.006501193725112681
-0.09245446459127867   -0.01749768103804587   -0.0029769545157018957
-0.09245446459127867   -0.01749768103804587   -0.0029769545157018957
-0.09245446459127867   -0.01749768103804587   -0.0029769545157018957
-0.09245446459127867   -0.01749768103804587   -0.0029769545157018957
-0.09497892752512972   -0.007545878925777974   -0.003165870534818542
-0.09497892752512972   -0.007545878925777974   -0.003165870534818542
-0.09497892752512972   -0.007545878925777974   -0.003165870534818542
-0.09497892752512972   -0.007545878925777974   -0.003165870534818542
-0.08688631966638327   0.0006069689550838933   0.006759120115645269
-0.08688631966638327   0.0006069689550838933   0.006759120115645269
-0.08688631966638327   0.0006069689550838933   0.006759120115645269
-0.08688631966638327   0.0006069689550838933   0.006759120115645269
-0.10535954595221672   -0.020573219427211225   -0.00544956510059061
-0.10535954595221672   -0.020573219427211225   -0.00544956510059061
-0.10535954595221672   -0.020573219427211225   -0.00544956510059061
-0.10535954595221672   -0.020573219427211225   -0.00544956510059061
-0.1005656203647721   -0.0060626696882116575   0.007944546737433979
-0.1005656203647721   -0.0060626696882116575   0.007944546737433979
-0.1005656203647721   -0.0060626696882116575   0.007944546737433979
-0.1005656203647721   -0.0060626696882116575   0.007944546737433979
-0.09340111417643865   -0.020736427754002952   -0.0022529284558652257
-0.09340111417643865   -0.020736427754002952   -0.0022529284558652257
-0.09340111417643865   -0.020736427754002952   -0.0022529284558652257
-0.09340111417643865   -0.020736427754002952   -0.0022529284558652257
-0.096724682346041   -0.010984184189372559   -0.005199290439179934
-0.096724682346041   -0.010984184189372559   -0.005199290439179934
-0.096724682346041   -0.010984184189372559   -0.005199290439179934
-0.096724682346041   -0.010984184189372559   -0.005199290439179934
-0.09424258388693078   0.01314313589762113   0.008481540170367131
-0.09424258388693078   0.01314313589762113   0.008481540170367131
-0.09424258388693078   0.01314313589762113   0.008481540170367131
-0.09424258388693078   0.01314313589762113   0.008481540170367131
-0.10358646945175641   -0.008330562122550761   -0.009090566261102273
-0.10358646945175641   -0.008330562122550761   -0.009090566261102273
-0.10358646945175641   -0.008330562122550761   -0.009090566261102273
-0.10358646945175641   -0.008330562122550761   -0.009090566261102273
-0.10160574875469147   0.00884567915785616   0.009442282984393605
-0.10160574875469147   0.00884567915785616   0.009442282984393605
-0.10160574875469147   0.00884567915785616   0.009442282984393605
-0.10160574875469147   0.00884567915785616   0.009442282984393605
-0.10202748257214576   -0.00995357118161561   -0.005562617501148298
-0.10202748257214576   -0.00995357118161561   -0.005562617501148298
-0.10202748257214576   -0.00995357118161561   -0.005562617501148298
-0.10202748257214576   -0.00995357118161561   -0.005562617501148298
-0.09685924724331835   0.0021824812379954775   0.0006019825642260774
-0.09685924724331835   0.0021824812379954775   0.0006019825642260774
-0.09685924724331835   0.0021824812379954775   0.0006019825642260774
-0.09685924724331835   0.0021824812379954775   0.0006019825642260774
-0.09491302434236028   0.010255823280563327   0.009800279185598237
-0.09491302434236028   0.010255823280563327   0.009800279185598237
-0.09491302434236028   0.010255823280563327   0.009800279185598237
-0.09491302434236028   0.010255823280563327   0.009800279185598237
-0.10925590668700885   -0.011899415006854989   -0.008063412512482111
-0.10925590668700885   -0.011899415006854989   -0.008063412512482111
-0.10925590668700885   -0.011899415006854989   -0.008063412512482111
-0.10925590668700885   -0.011899415006854989   -0.008063412512482111
-0.10607197201052036   0.006392857881250803   0.012118670038031016
-0.10607197201052036   0.006392857881250803   0.012118670038031016
-0.10607197201052036   0.006392857881250803   0.012118670038031016
-0.10607197201052036   0.006392857881250803   0.012118670038031016
-0.10353553842280692   -0.01186607694572977   -0.005036669935024982
-0.10353553842280692   -0.01186607694572977   -0.005036669935024982
-0.10353553842280692   -0.01186607694572977   -0.005036669935024982
-0.10353553842280692   -0.01186607694572977   -0.005036669935024982
-0.10170331385961992   -0.0007685973573680095   -0.001921305942665162
-0.10170331385961992   -0.0007685973573680095   -0.001921305942665162
-0.10170331385961992   -0.0007685973573680095   -0.001921305942665162
-0.10170331385961992   -0.0007685973573680095   -0.001921305942665162
-0.09615728698967903   0.008291469112326432   0.011697041172560166
-0.09615728698967903   0.008291469112326432   0.011697041172560166
-0.09615728698967903   0.008291469112326432   0.011697041172560166
-0.09615728698967903   0.008291469112326432   0.011697041172560166
-0.11413130894930121   -0.014445773682456762   -0.007339383092165655
-0.11413130894930121   -0.014445773682456762   -0.007339383092165655
-0.11413130894930121   -0.014445773682456762   -0.007339383092165655
-0.11413130894930121   -0.014445773682456762   -0.007339383092165655
-0.11370999984345004   0.00010383473327315457   0.012927550662898564
-0.11370999984345004   0.00010383473327315457   0.012927550662898564
-0.11370999984345004   0.00010383473327315457   0.012927550662898564
-0.11370999984345004   0.00010383473327315457   0.012927550662898564
-0.10493189138670989   -0.015583406465349685   -0.004366071595116958
-0.10493189138670989   -0.015583406465349685   -0.004366071595116958
-0.10493189138670989   -0.015583406465349685   -0.004366071595116958
-0.10493189138670989   -0.015583406465349685   -0.004366071595116958
-0.10398445076945675   -0.0035223490060482913   -0.004154237564543938
-0.10398445076945675   -0.0035223490060482913   -0.004154237564543938
-0.10398445076945675   -0.0035223490060482913   -0.004154237564543938
-0.10398445076945675   -0.0035223490060482913   -0.004154237564543938
-0.18653736340778135   -0.01722487905539907   -0.01863486448782151
-0.18653736340778135   -0.01722487905539907   -0.01863486448782151
-0.18653736340778135   -0.01722487905539907   -0.01863486448782151
-0.18653736340778135   -0.01722487905539907   -0.01863486448782151
-0.12057840271925625   0.00944272586536895   0.004322378480729371
-0.12057840271925625   0.00944272586536895   0.004322378480729371
-0.12057840271925625   0.00944272586536895   0.004322378480729371
-0.12057840271925625   0.00944272586536895   0.004322378480729371
-0.12686351465485401   -0.008652472930324204   -0.008525215828966239
-0.12686351465485401   -0.008652472930324204   -0.008525215828966239
-0.12686351465485401   -0.008652472930324204   -0.008525215828966239
-0.12686351465485401   -0.008652472930324204   -0.008525215828966239
-0.19948448482476913   -0.023687817505716965   0.020374702540142255
-0.19948448482476913   -0.023687817505716965   0.020374702540142255
-0.19948448482476913   -0.023687817505716965   0.020374702540142255
-0.19948448482476913   -0.023687817505716965   0.020374702540142255
-0.1453114711349032   -0.005941685952985311   0.02002247391723215
-0.1453114711349032   -0.005941685952985311   0.02002247391723215
-0.1453114711349032   -0.005941685952985311   0.02002247391723215
-0.1453114711349032   -0.005941685952985311   0.02002247391723215
-0.20671762063995733   -0.02567834147487803   -0.01380045256663591
-0.20671762063995733   -0.02567834147487803   -0.01380045256663591
-0.20671762063995733   -0.02567834147487803   -0.01380045256663591
-0.20671762063995733   -0.02567834147487803   -0.01380045256663591
-0.1247502016881692   -0.011781771809665557   0.005170647883799337
-0.1247502016881692   -0.011781771809665557   0.005170647883799337
-0.1247502016881692   -0.011781771809665557   0.005170647883799337
-0.1247502016881692   -0.011781771809665557   0.005170647883799337
-0.12922631402368415   -0.012327006759696328   -0.006272575594787663
-0.12922631402368415   -0.012327006759696328   -0.006272575594787663
-0.12922631402368415   -0.012327006759696328   -0.006272575594787663
-0.12922631402368415   -0.012327006759696328   -0.006272575594787663
-0.20643111510758813   -0.03293732770764514   0.00017929527928150883
-0.20643111510758813   -0.03293732770764514   0.00017929527928150883
-0.20643111510758813   -0.03293732770764514   0.00017929527928150883
-0.20643111510758813   -0.03293732770764514   0.00017929527928150883
-0.16172115608684706   -0.019861978004750765   0.004740797389184507
-0.16172115608684706   -0.019861978004750765   0.004740797389184507
-0.16172115608684706   -0.019861978004750765   0.004740797389184507
-0.16172115608684706   -0.019861978004750765   0.004740797389184507
-0.2079523458829304   -0.029075446061335494   -0.01128874024373723
-0.2079523458829304   -0.029075446061335494   -0.01128874024373723
-0.2079523458829304   -0.029075446061335494   -0.01128874024373723
-0.2079523458829304   -0.029075446061335494   -0.01128874024373723
-0.12921483214528512   -0.017698637302949044   -0.0008435356595410341
-0.12921483214528512   -0.017698637302949044   -0.0008435356595410341
-0.12921483214528512   -0.017698637302949044   -0.0008435356595410341
-0.12921483214528512   -0.017698637302949044   -0.0008435356595410341
-0.12969756440126884   -0.02104493826684998   -0.004665322875240089
-0.12969756440126884   -0.02104493826684998   -0.004665322875240089
-0.12969756440126884   -0.02104493826684998   -0.004665322875240089
-0.12969756440126884   -0.02104493826684998   -0.004665322875240089
-0.21210304213312184   -0.050027674842929956   0.002812748360463961
-0.21210304213312184   -0.050027674842929956   0.002812748360463961
-0.21210304213312184   -0.050027674842929956   0.002812748360463961
-0.21210304213312184   -0.050027674842929956   0.002812748360463961
-0.16201697803833878   -0.027204380366001993   0.000495604512138467
-0.16201697803833878   -0.027204380366001993   0.000495604512138467
-0.16201697803833878   -0.027204380366001993   0.000495604512138467
-0.16201697803833878   -0.027204380366001993   0.000495604512138467
-0.13014994845706082   -0.022200513616317346   -0.011892110726606193
-0.13014994845706082   -0.022200513616317346   -0.011892110726606193
-0.13014994845706082   -0.022200513616317346   -0.011892110726606193
-0.13014994845706082   -0.022200513616317346   -0.011892110726606193
-0.09121908326475617   -0.06100099005585103   -0.01133858642671951
-0.09121908326475617   -0.06100099005585103   -0.01133858642671951
-0.09121908326475617   -0.06100099005585103   -0.01133858642671951
-0.09121908326475617   -0.06100099005585103   -0.01133858642671951
-0.08000635446850611   -0.013339110542238387   -0.0008950089438384339
-0.08000635446850611   -0.013339110542238387   -0.0008950089438384339
-0.08000635446850611   -0.013339110542238387   -0.0008950089438384339
-0.08000635446850611   -0.013339110542238387   -0.0008950089438384339
-0.13907595184748348   -0.06414516517037315   -0.014094709552064493
-0.13907595184748348   -0.06414516517037315   -0.014094709552064493
-0.13907595184748348   -0.06414516517037315   -0.014094709552064493
-0.13907595184748348   -0.06414516517037315   -0.014094709552064493
-0.10887958671500497   -0.042516524634521574   -0.0032277575364403318
-0.10887958671500497   -0.042516524634521574   -0.0032277575364403318
-0.10887958671500497   -0.042516524634521574   -0.0032277575364403318
-0.10887958671500497   -0.042516524634521574   -0.0032277575364403318
-0.13023129358607363   -0.025007011050051525   -0.009009572365336598
-0.13023129358607363   -0.025007011050051525   -0.009009572365336598
-0.13023129358607363   -0.025007011050051525   -0.009009572365336598
-0.13023129358607363   -0.025007011050051525   -0.009009572365336598
-0.08936926042068183   -0.052995512353326016   -0.008053136893630434
-0.08936926042068183   -0.052995512353326016   -0.008053136893630434
-0.08936926042068183   -0.052995512353326016   -0.008053136893630434
-0.08936926042068183   -0.052995512353326016   -0.008053136893630434
-0.08127806886713039   -0.017208880081711807   -6.655655280122808e-05
-0.08127806886713039   -0.017208880081711807   -6.655655280122808e-05
-0.08127806886713039   -0.017208880081711807   -6.655655280122808e-05
-0.08127806886713039   -0.017208880081711807   -6.655655280122808e-05
-0.13991659080595184   -0.06378724223999961   -0.008263724025824004
-0.13991659080595184   -0.06378724223999961   -0.008263724025824004
-0.13991659080595184   -0.06378724223999961   -0.008263724025824004
-0.13991659080595184   -0.06378724223999961   -0.008263724025824004
-0.10791627406562544   -0.039844324882564675   -0.0034335008995519277
-0.10791627406562544   -0.039844324882564675   -0.0034335008995519277
-0.10791627406562544   -0.039844324882564675   -0.0034335008995519277
-0.10791627406562544   -0.039844324882564675   -0.0034335008995519277
-0.13263399098624754   -0.028828622190362668   -0.00680934497693837
-0.13263399098624754   -0.028828622190362668   -0.00680934497693837
-0.13263399098624754   -0.028828622190362668   -0.00680934497693837
-0.13263399098624754   -0.028828622190362668   -0.00680934497693837
-0.089667810728216   -0.0532746421727302   -0.005949503767212797
-0.089667810728216   -0.0532746421727302   -0.005949503767212797
-0.089667810728216   -0.0532746421727302   -0.005949503767212797
-0.089667810728216   -0.0532746421727302   -0.005949503767212797
-0.08166068720897862   -0.021941856248215062   0.0011167652847567803
-0.08166068720897862   -0.021941856248215062   0.0011167652847567803
-0.08166068720897862   -0.021941856248215062   0.0011167652847567803
-0.08166068720897862   -0.021941856248215062   0.0011167652847567803
-0.1399469664494842   -0.06458919693614773   -0.012368074447020585
-0.1399469664494842   -0.06458919693614773   -0.012368074447020585
-0.1399469664494842   -0.06458919693614773   -0.012368074447020585
-0.1399469664494842   -0.06458919693614773   -0.012368074447020585
-0.10994420024644534   -0.04277601112219673   -0.006418279058129024
-0.10994420024644534   -0.04277601112219673   -0.006418279058129024
-0.10994420024644534   -0.04277601112219673   -0.006418279058129024
-0.10994420024644534   -0.04277601112219673   -0.006418279058129024
-0.07984423201732585   -0.014392131583553541   -0.001073188661865362
-0.07984423201732585   -0.014392131583553541   -0.001073188661865362
-0.07984423201732585   -0.014392131583553541   -0.001073188661865362
-0.07984423201732585   -0.014392131583553541   -0.001073188661865362
-0.0687946848729025   -0.047051894121708515   -0.008117749886788421
-0.0687946848729025   -0.047051894121708515   -0.008117749886788421
-0.0687946848729025   -0.047051894121708515   -0.008117749886788421
-0.0687946848729025   -0.047051894121708515   -0.008117749886788421
-0.05937195709993416   -0.01224054366584005   0.00305165383715215
-0.05937195709993416   -0.01224054366584005   0.00305165383715215
-0.05937195709993416   -0.01224054366584005   0.00305165383715215
-0.05937195709993416   -0.01224054366584005   0.00305165383715215
-0.08906594602617386   -0.05068693025548645   -0.008845147018930185
-0.08906594602617386   -0.05068693025548645   -0.008845147018930185
-0.08906594602617386   -0.05068693025548645   -0.008845147018930185
-0.08906594602617386   -0.05068693025548645   -0.008845147018930185
-0.07396671618885625   -0.03146330972708417   -0.0037118907332631514
-0.07396671618885625   -0.03146330972708417   -0.0037118907332631514
-0.07396671618885625   -0.03146330972708417   -0.0037118907332631514
-0.07396671618885625   -0.03146330972708417   -0.0037118907332631514
-0.08055104779485517   -0.017065174829849417   0.00010758871202630748
-0.08055104779485517   -0.017065174829849417   0.00010758871202630748
-0.08055104779485517   -0.017065174829849417   0.00010758871202630748
-0.08055104779485517   -0.017065174829849417   0.00010758871202630748
-0.06835984934914523   -0.046335293109369444   -0.00779305796537378
-0.06835984934914523   -0.046335293109369444   -0.00779305796537378
-0.06835984934914523   -0.046335293109369444   -0.00779305796537378
-0.06835984934914523   -0.046335293109369444   -0.00779305796537378
-0.0597281167794467   -0.015434570499984923   0.003980937154276713
-0.0597281167794467   -0.015434570499984923   0.003980937154276713
-0.0597281167794467   -0.015434570499984923   0.003980937154276713
-0.0597281167794467   -0.015434570499984923   0.003980937154276713
-0.08968261068229579   -0.05148453436254483   -0.007813611347797006
-0.08968261068229579   -0.05148453436254483   -0.007813611347797006
-0.08968261068229579   -0.05148453436254483   -0.007813611347797006
-0.08968261068229579   -0.05148453436254483   -0.007813611347797006
-0.07412109578990546   -0.0326190420587223   -0.004825302352006884
-0.07412109578990546   -0.0326190420587223   -0.004825302352006884
-0.07412109578990546   -0.0326190420587223   -0.004825302352006884
-0.07412109578990546   -0.0326190420587223   -0.004825302352006884
-0.08159438521101786   -0.020312846073286813   0.001455827719334583
-0.08159438521101786   -0.020312846073286813   0.001455827719334583
-0.08159438521101786   -0.020312846073286813   0.001455827719334583
-0.08159438521101786   -0.020312846073286813   0.001455827719334583
-0.0680815478194423   -0.046871464357959663   -0.006349324187724622
-0.0680815478194423   -0.046871464357959663   -0.006349324187724622
-0.0680815478194423   -0.046871464357959663   -0.006349324187724622
-0.0680815478194423   -0.046871464357959663   -0.006349324187724622
-0.05940437001667081   -0.01843953388055646   0.005005799150777654
-0.05940437001667081   -0.01843953388055646   0.005005799150777654
-0.05940437001667081   -0.01843953388055646   0.005005799150777654
-0.05940437001667081   -0.01843953388055646   0.005005799150777654
-0.08901759745186638   -0.05203759125041768   -0.005572050927480384
-0.08901759745186638   -0.05203759125041768   -0.005572050927480384
-0.08901759745186638   -0.05203759125041768   -0.005572050927480384
-0.08901759745186638   -0.05203759125041768   -0.005572050927480384
-0.07427352325645985   -0.034198294073195905   -0.0056490082719039296
-0.07427352325645985   -0.034198294073195905   -0.0056490082719039296
-0.07427352325645985   -0.034198294073195905   -0.0056490082719039296
-0.07427352325645985   -0.034198294073195905   -0.0056490082719039296
-0.05701347339671506   -0.0018625382821031381   0.005598951654543377
-0.05701347339671506   -0.0018625382821031381   0.005598951654543377
-0.05701347339671506   -0.0018625382821031381   0.005598951654543377
-0.05701347339671506   -0.0018625382821031381   0.005598951654543377
-0.055742487194235045   -0.025279832775476616   -0.00502799773335801
-0.055742487194235045   -0.025279832775476616   -0.00502799773335801
-0.055742487194235045   -0.025279832775476616   -0.00502799773335801
-0.055742487194235045   -0.025279832775476616   -0.00502799773335801
-0.048390820884719576   -0.003645043774630938   0.006426420317733873
-0.048390820884719576   -0.003645043774630938   0.006426420317733873
-0.048390820884719576   -0.003645043774630938   0.006426420317733873
-0.048390820884719576   -0.003645043774630938   0.006426420317733873
-0.06397992418031975   -0.02873692192223802   -0.003491803308377832
-0.06397992418031975   -0.02873692192223802   -0.003491803308377832
-0.06397992418031975   -0.02873692192223802   -0.003491803308377832
-0.06397992418031975   -0.02873692192223802   -0.003491803308377832
-0.05645476603974385   -0.014713405208847757   -0.00203351785340919
-0.05645476603974385   -0.014713405208847757   -0.00203351785340919
-0.05645476603974385   -0.014713405208847757   -0.00203351785340919
-0.05645476603974385   -0.014713405208847757   -0.00203351785340919
-0.05732650155218254   -0.005424821991380217   0.00646320990145044
-0.05732650155218254   -0.005424821991380217   0.00646320990145044
-0.05732650155218254   -0.005424821991380217   0.00646320990145044
-0.05732650155218254   -0.005424821991380217   0.00646320990145044
-0.055567063388657384   -0.027479963581289332   -0.005619872395296771
-0.055567063388657384   -0.027479963581289332   -0.005619872395296771
-0.055567063388657384   -0.027479963581289332   -0.005619872395296771
-0.055567063388657384   -0.027479963581289332   -0.005619872395296771
-0.04877987968636003   -0.0067810809517080085   0.006931461011068772
-0.04877987968636003   -0.0067810809517080085   0.006931461011068772
-0.04877987968636003   -0.0067810809517080085   0.006931461011068772
-0.04877987968636003   -0.0067810809517080085   0.006931461011068772
-0.06430310024865807   -0.0305115843069688   -0.0038169663847962545
-0.06430310024865807   -0.0305115843069688   -0.0038169663847962545
-0.06430310024865807   -0.0305115843069688   -0.0038169663847962545
-0.06430310024865807   -0.0305115843069688   -0.0038169663847962545
-0.05650352266254867   -0.017201816620234886   -0.003482027236688664
-0.05650352266254867   -0.017201816620234886   -0.003482027236688664
-0.05650352266254867   -0.017201816620234886   -0.003482027236688664
-0.05650352266254867   -0.017201816620234886   -0.003482027236688664
-0.05766288270212456   -0.008474555290744822   0.007347092331649231
-0.05766288270212456   -0.008474555290744822   0.007347092331649231
-0.05766288270212456   -0.008474555290744822   0.007347092331649231
-0.05766288270212456   -0.008474555290744822   0.007347092331649231
-0.055738236127905474   -0.029136248862943283   -0.005505153285421259
-0.055738236127905474   -0.029136248862943283   -0.005505153285421259
-0.055738236127905474   -0.029136248862943283   -0.005505153285421259
-0.055738236127905474   -0.029136248862943283   -0.005505153285421259
-0.048710040563664375   -0.009738157674753545   0.008047348327611373
-0.048710040563664375   -0.009738157674753545   0.008047348327611373
-0.048710040563664375   -0.009738157674753545   0.008047348327611373
-0.048710040563664375   -0.009738157674753545   0.008047348327611373
-0.06367875505462237   -0.03225932263030652   -0.0025463372892300593
-0.06367875505462237   -0.03225932263030652   -0.0025463372892300593
-0.06367875505462237   -0.03225932263030652   -0.0025463372892300593
-0.06367875505462237   -0.03225932263030652   -0.0025463372892300593
-0.05670047676221576   -0.019400958256069318   -0.0045338963948089485
-0.05670047676221576   -0.019400958256069318   -0.0045338963948089485
-0.05670047676221576   -0.019400958256069318   -0.0045338963948089485
-0.05670047676221576   -0.019400958256069318   -0.0045338963948089485
-0.04657923502784674   0.006658903399226857   0.008849526923879997
-0.04657923502784674   0.006658903399226857   0.008849526923879997
-0.04657923502784674   0.006658903399226857   0.008849526923879997
-0.04657923502784674   0.006658903399226857   0.008849526923879997
-0.033450874254209444   -0.008590396363718094   -0.0032154982393805855
-0.033450874254209444   -0.008590396363718094   -0.0032154982393805855
-0.033450874254209444   -0.008590396363718094   -0.0032154982393805855
-0.033450874254209444   -0.008590396363718094   -0.0032154982393805855
-0.029892120584109443   0.0073426123995924695   0.00878293841685577
-0.029892120584109443   0.0073426123995924695   0.00878293841685577
-0.029892120584109443   0.0073426123995924695   0.00878293841685577
-0.029892120584109443   0.0073426123995924695   0.00878293841685577
-0.05179257914747884   -0.012537804334818272   -0.0016896104358751244
-0.05179257914747884   -0.012537804334818272   -0.0016896104358751244
-0.05179257914747884   -0.012537804334818272   -0.0016896104358751244
-0.05179257914747884   -0.012537804334818272   -0.0016896104358751244
-0.03977102116403279   -0.000890260985114296   -0.0014549867431152457
-0.03977102116403279   -0.000890260985114296   -0.0014549867431152457
-0.03977102116403279   -0.000890260985114296   -0.0014549867431152457
-0.03977102116403279   -0.000890260985114296   -0.0014549867431152457
-0.04616118966712127   0.004265097854865181   0.009664434776231162
-0.04616118966712127   0.004265097854865181   0.009664434776231162
-0.04616118966712127   0.004265097854865181   0.009664434776231162
-0.04616118966712127   0.004265097854865181   0.009664434776231162
-0.03560109816519309   -0.009537877890816757   -0.0028814591981532953
-0.03560109816519309   -0.009537877890816757   -0.0028814591981532953
-0.03560109816519309   -0.009537877890816757   -0.0028814591981532953
-0.03560109816519309   -0.009537877890816757   -0.0028814591981532953
-0.03146717087122315   0.005760181335417902   0.011026253919129607
-0.03146717087122315   0.005760181335417902   0.011026253919129607
-0.03146717087122315   0.005760181335417902   0.011026253919129607
-0.03146717087122315   0.005760181335417902   0.011026253919129607
-0.051903647299081035   -0.013397717952600492   -0.00207074005164378
-0.051903647299081035   -0.013397717952600492   -0.00207074005164378
-0.051903647299081035   -0.013397717952600492   -0.00207074005164378
-0.051903647299081035   -0.013397717952600492   -0.00207074005164378
-0.0413130791969217   -0.0026088879486452594   -0.002246782323705436
-0.0413130791969217   -0.0026088879486452594   -0.002246782323705436
-0.0413130791969217   -0.0026088879486452594   -0.002246782323705436
-0.0413130791969217   -0.0026088879486452594   -0.002246782323705436
-0.046015130581054775   0.002866803105669226   0.01110732248021785
-0.046015130581054775   0.002866803105669226   0.01110732248021785
-0.046015130581054775   0.002866803105669226   0.01110732248021785
-0.046015130581054775   0.002866803105669226   0.01110732248021785
-0.037759229688224344   -0.010907881821826422   -0.0037659770086320475
-0.037759229688224344   -0.010907881821826422   -0.0037659770086320475
-0.037759229688224344   -0.010907881821826422   -0.0037659770086320475
-0.037759229688224344   -0.010907881821826422   -0.0037659770086320475
-0.03587911333883911   0.0013962558505536335   0.011479461936528846
-0.03587911333883911   0.0013962558505536335   0.011479461936528846
-0.03587911333883911   0.0013962558505536335   0.011479461936528846
-0.03587911333883911   0.0013962558505536335   0.011479461936528846
-0.05156792488594611   -0.014280324745091753   -0.001699906213459128
-0.05156792488594611   -0.014280324745091753   -0.001699906213459128
-0.05156792488594611   -0.014280324745091753   -0.001699906213459128
-0.05156792488594611   -0.014280324745091753   -0.001699906213459128
-0.04218829510153645   -0.003916280395165971   -0.0034096797720875637
-0.04218829510153645   -0.003916280395165971   -0.0034096797720875637
-0.04218829510153645   -0.003916280395165971   -0.0034096797720875637
-0.04218829510153645   -0.003916280395165971   -0.0034096797720875637
-0.45355674696624604   -0.0657894332891425   -0.03886007304483802
-0.45355674696624604   -0.0657894332891425   -0.03886007304483802
-0.45355674696624604   -0.0657894332891425   -0.03886007304483802
-0.45355674696624604   -0.0657894332891425   -0.03886007304483802
-0.1594862758055937   -0.26720378274428086   -0.030099270037872175
-0.1594862758055937   -0.26720378274428086   -0.030099270037872175
-0.1594862758055937   -0.26720378274428086   -0.030099270037872175
-0.1594862758055937   -0.26720378274428086   -0.030099270037872175
-0.120981399590141   -0.012074473104295496   -6.166068738044971e-05
-0.120981399590141   -0.012074473104295496   -6.166068738044971e-05
-0.120981399590141   -0.012074473104295496   -6.166068738044971e-05
-0.120981399590141   -0.012074473104295496   -6.166068738044971e-05
-0.4886760459683894   -0.3106209505603838   -0.15985939930575466
-0.4886760459683894   -0.3106209505603838   -0.15985939930575466
-0.4886760459683894   -0.3106209505603838   -0.15985939930575466
-0.4886760459683894   -0.3106209505603838   -0.15985939930575466
-0.29795116362067214   -0.1540398900174492   -0.02250845166933773
-0.29795116362067214   -0.1540398900174492   -0.02250845166933773
-0.29795116362067214   -0.1540398900174492   -0.02250845166933773
-0.29795116362067214   -0.1540398900174492   -0.02250845166933773
-0.42170355032975204   -0.08277512120777712   -0.05284275046517757
-0.42170355032975204   -0.08277512120777712   -0.05284275046517757
-0.42170355032975204   -0.08277512120777712   -0.05284275046517757
-0.42170355032975204   -0.08277512120777712   -0.05284275046517757
-0.17289657999895514   -0.22486298722707937   -0.046849048608666725
-0.17289657999895514   -0.22486298722707937   -0.046849048608666725
-0.17289657999895514   -0.22486298722707937   -0.046849048608666725
-0.17289657999895514   -0.22486298722707937   -0.046849048608666725
-0.12401334893160085   -0.015577873925932031   0.0045587980118597365
-0.12401334893160085   -0.015577873925932031   0.0045587980118597365
-0.12401334893160085   -0.015577873925932031   0.0045587980118597365
-0.12401334893160085   -0.015577873925932031   0.0045587980118597365
-0.45768352393630757   -0.2789682388682019   -0.14733035256090188
-0.45768352393630757   -0.2789682388682019   -0.14733035256090188
-0.45768352393630757   -0.2789682388682019   -0.14733035256090188
-0.45768352393630757   -0.2789682388682019   -0.14733035256090188
-0.28096156283637225   -0.13951563976691364   0.010897485951310133
-0.28096156283637225   -0.13951563976691364   0.010897485951310133
-0.28096156283637225   -0.13951563976691364   0.010897485951310133
-0.28096156283637225   -0.13951563976691364   0.010897485951310133
-0.39615091516340384   -0.07887021357298526   -0.039765333991603424
-0.39615091516340384   -0.07887021357298526   -0.039765333991603424
-0.39615091516340384   -0.07887021357298526   -0.039765333991603424
-0.39615091516340384   -0.07887021357298526   -0.039765333991603424
-0.16875270907799528   -0.19888265059463983   -0.035833226051403745
-0.16875270907799528   -0.19888265059463983   -0.035833226051403745
-0.16875270907799528   -0.19888265059463983   -0.035833226051403745
-0.16875270907799528   -0.19888265059463983   -0.035833226051403745
-0.14389885867576543   -0.03853907346308429   -0.007948428197664122
-0.14389885867576543   -0.03853907346308429   -0.007948428197664122
-0.14389885867576543   -0.03853907346308429   -0.007948428197664122
-0.14389885867576543   -0.03853907346308429   -0.007948428197664122
-0.41738402290583576   -0.23690754088083948   -0.13085831275733506
-0.41738402290583576   -0.23690754088083948   -0.13085831275733506
-0.41738402290583576   -0.23690754088083948   -0.13085831275733506
-0.41738402290583576   -0.23690754088083948   -0.13085831275733506
-0.260625504340155   -0.12141692206906904   0.04881228871783816
-0.260625504340155   -0.12141692206906904   0.04881228871783816
-0.260625504340155   -0.12141692206906904   0.04881228871783816
-0.260625504340155   -0.12141692206906904   0.04881228871783816
-0.11501183423963902   -0.06539832662996656   -0.009532518322414267
-0.11501183423963902   -0.06539832662996656   -0.009532518322414267
-0.11501183423963902   -0.06539832662996656   -0.009532518322414267
-0.11501183423963902   -0.06539832662996656   -0.009532518322414267
-0.05504208588031012   -0.0897643660923738   -0.01368846314557665
-0.05504208588031012   -0.0897643660923738   -0.01368846314557665
-0.05504208588031012   -0.0897643660923738   -0.01368846314557665
-0.05504208588031012   -0.0897643660923738   -0.01368846314557665
-0.047390467199984875   -0.0427746451781037   0.0010724057617841794
-0.047390467199984875   -0.0427746451781037   0.0010724057617841794
-0.047390467199984875   -0.0427746451781037   0.0010724057617841794
-0.047390467199984875   -0.0427746451781037   0.0010724057617841794
-0.14380576371279774   -0.1272796194454186   0.0010216650404594602
-0.14380576371279774   -0.1272796194454186   0.0010216650404594602
-0.14380576371279774   -0.1272796194454186   0.0010216650404594602
-0.14380576371279774   -0.1272796194454186   0.0010216650404594602
-0.07639712934785425   -0.06122948554233411   0.02513883944373989
-0.07639712934785425   -0.06122948554233411   0.02513883944373989
-0.07639712934785425   -0.06122948554233411   0.02513883944373989
-0.07639712934785425   -0.06122948554233411   0.02513883944373989
-0.13201407823175557   -0.061144794947303786   -0.006154732052445563
-0.13201407823175557   -0.061144794947303786   -0.006154732052445563
-0.13201407823175557   -0.061144794947303786   -0.006154732052445563
-0.13201407823175557   -0.061144794947303786   -0.006154732052445563
-0.06344699913399376   -0.11317431612918524   -0.00881058295717782
-0.06344699913399376   -0.11317431612918524   -0.00881058295717782
-0.06344699913399376   -0.11317431612918524   -0.00881058295717782
-0.06344699913399376   -0.11317431612918524   -0.00881058295717782
-0.051733558068042126   -0.04425340591431284   0.0012224248647001393
-0.051733558068042126   -0.04425340591431284   0.0012224248647001393
-0.051733558068042126   -0.04425340591431284   0.0012224248647001393
-0.051733558068042126   -0.04425340591431284   0.0012224248647001393
-0.15165799810779196   -0.12634465584167393   -0.02289766595335295
-0.15165799810779196   -0.12634465584167393   -0.02289766595335295
-0.15165799810779196   -0.12634465584167393   -0.02289766595335295
-0.15165799810779196   -0.12634465584167393   -0.02289766595335295
-0.09215591658004214   -0.07791106452500911   0.01097404258542722
-0.09215591658004214   -0.07791106452500911   0.01097404258542722
-0.09215591658004214   -0.07791106452500911   0.01097404258542722
-0.09215591658004214   -0.07791106452500911   0.01097404258542722
-0.1369028211218567   -0.06385419239257176   -0.011612244472779866
-0.1369028211218567   -0.06385419239257176   -0.011612244472779866
-0.1369028211218567   -0.06385419239257176   -0.011612244472779866
-0.1369028211218567   -0.06385419239257176   -0.011612244472779866
-0.06611921939825526   -0.1063743537076929   -0.008584933992984479
-0.06611921939825526   -0.1063743537076929   -0.008584933992984479
-0.06611921939825526   -0.1063743537076929   -0.008584933992984479
-0.06611921939825526   -0.1063743537076929   -0.008584933992984479
-0.058605239529415334   -0.04548296758469951   0.0018213453901535209
-0.058605239529415334   -0.04548296758469951   0.0018213453901535209
-0.058605239529415334   -0.04548296758469951   0.0018213453901535209
-0.058605239529415334   -0.04548296758469951   0.0018213453901535209
-0.16317390830325856   -0.12326817835057105   -0.01959457144764258
-0.16317390830325856   -0.12326817835057105   -0.01959457144764258
-0.16317390830325856   -0.12326817835057105   -0.01959457144764258
-0.16317390830325856   -0.12326817835057105   -0.01959457144764258
-0.09716563390562657   -0.07355084238859076   0.011509271727893837
-0.09716563390562657   -0.07355084238859076   0.011509271727893837
-0.09716563390562657   -0.07355084238859076   0.011509271727893837
-0.09716563390562657   -0.07355084238859076   0.011509271727893837
-0.04165834973979126   -0.03942325568733318   0.002889107151977044
-0.04165834973979126   -0.03942325568733318   0.002889107151977044
-0.04165834973979126   -0.03942325568733318   0.002889107151977044
-0.04165834973979126   -0.03942325568733318   0.002889107151977044
-0.02699343333299538   -0.030795029274612803   -0.00682364646428139
-0.02699343333299538   -0.030795029274612803   -0.00682364646428139
-0.02699343333299538   -0.030795029274612803   -0.00682364646428139
-0.02699343333299538   -0.030795029274612803   -0.00682364646428139
-0.025643038940691438   -0.03567575813521336   0.0027878064969527987
-0.025643038940691438   -0.03567575813521336   0.0027878064969527987
-0.025643038940691438   -0.03567575813521336   0.0027878064969527987
-0.025643038940691438   -0.03567575813521336   0.0027878064969527987
-0.047629508801357356   -0.04053697742655808   -0.0023604699966229253
-0.047629508801357356   -0.04053697742655808   -0.0023604699966229253
-0.047629508801357356   -0.04053697742655808   -0.0023604699966229253
-0.047629508801357356   -0.04053697742655808   -0.0023604699966229253
-0.02977962618188243   -0.030727426425739102   0.012729381008423728
-0.02977962618188243   -0.030727426425739102   0.012729381008423728
-0.02977962618188243   -0.030727426425739102   0.012729381008423728
-0.02977962618188243   -0.030727426425739102   0.012729381008423728
-0.04635693645893845   -0.039735846733725676   0.003201261022638272
-0.04635693645893845   -0.039735846733725676   0.003201261022638272
-0.04635693645893845   -0.039735846733725676   0.003201261022638272
-0.04635693645893845   -0.039735846733725676   0.003201261022638272
-0.02743929370906487   -0.037000571254000456   -0.004868654226127267
-0.02743929370906487   -0.037000571254000456   -0.004868654226127267
-0.02743929370906487   -0.037000571254000456   -0.004868654226127267
-0.02743929370906487   -0.037000571254000456   -0.004868654226127267
-0.026299719977039733   -0.036737529839322894   0.00253852056305664
-0.026299719977039733   -0.036737529839322894   0.00253852056305664
-0.026299719977039733   -0.036737529839322894   0.00253852056305664
-0.026299719977039733   -0.036737529839322894   0.00253852056305664
-0.05114101379806587   -0.04696144752964609   0.006893187829915633
-0.05114101379806587   -0.04696144752964609   0.006893187829915633
-0.05114101379806587   -0.04696144752964609   0.006893187829915633
-0.05114101379806587   -0.04696144752964609   0.006893187829915633
-0.0329978597836126   -0.03436234472963609   0.01041612226057983
-0.0329978597836126   -0.03436234472963609   0.01041612226057983
-0.0329978597836126   -0.03436234472963609   0.01041612226057983
-0.0329978597836126   -0.03436234472963609   0.01041612226057983
-0.05051548627111904   -0.04123042635312494   0.004289804288127648
-0.05051548627111904   -0.04123042635312494   0.004289804288127648
-0.05051548627111904   -0.04123042635312494   0.004289804288127648
-0.05051548627111904   -0.04123042635312494   0.004289804288127648
-0.02926039756452193   -0.0448037010763799   -0.004198696137297343
-0.02926039756452193   -0.0448037010763799   -0.004198696137297343
-0.02926039756452193   -0.0448037010763799   -0.004198696137297343
-0.02926039756452193   -0.0448037010763799   -0.004198696137297343
-0.027254972254696093   -0.037846457568879416   0.003620992283040655
-0.027254972254696093   -0.037846457568879416   0.003620992283040655
-0.027254972254696093   -0.037846457568879416   0.003620992283040655
-0.027254972254696093   -0.037846457568879416   0.003620992283040655
-0.06078671880709438   -0.05693787954143962   0.0023688609584984026
-0.06078671880709438   -0.05693787954143962   0.0023688609584984026
-0.06078671880709438   -0.05693787954143962   0.0023688609584984026
-0.06078671880709438   -0.05693787954143962   0.0023688609584984026
-0.037499787493785304   -0.038877586887163716   0.004409418178075945
-0.037499787493785304   -0.038877586887163716   0.004409418178075945
-0.037499787493785304   -0.038877586887163716   0.004409418178075945
-0.037499787493785304   -0.038877586887163716   0.004409418178075945
-0.021098045171858447   -0.015811409842476337   0.007669674909266791
-0.021098045171858447   -0.015811409842476337   0.007669674909266791
-0.021098045171858447   -0.015811409842476337   0.007669674909266791
-0.021098045171858447   -0.015811409842476337   0.007669674909266791
-0.015982600272851793   -0.0025726817084660886   -0.0016081886837335778
-0.015982600272851793   -0.0025726817084660886   -0.0016081886837335778
-0.015982600272851793   -0.0025726817084660886   -0.0016081886837335778
-0.015982600272851793   -0.0025726817084660886   -0.0016081886837335778
-0.015082827896224973   -0.01731996027862085   0.004695908625615156
-0.015082827896224973   -0.01731996027862085   0.004695908625615156
-0.015082827896224973   -0.01731996027862085   0.004695908625615156
-0.015082827896224973   -0.01731996027862085   0.004695908625615156
-0.02032316063228969   -0.005798311689195114   -0.0004902484070567084
-0.02032316063228969   -0.005798311689195114   -0.0004902484070567084
-0.02032316063228969   -0.005798311689195114   -0.0004902484070567084
-0.02032316063228969   -0.005798311689195114   -0.0004902484070567084
-0.01669390665426958   -0.009709080451350785   0.003797993126904359
-0.01669390665426958   -0.009709080451350785   0.003797993126904359
-0.01669390665426958   -0.009709080451350785   0.003797993126904359
-0.01669390665426958   -0.009709080451350785   0.003797993126904359
-0.021210666763979733   -0.018024939940196036   0.007298849185493999
-0.021210666763979733   -0.018024939940196036   0.007298849185493999
-0.021210666763979733   -0.018024939940196036   0.007298849185493999
-0.021210666763979733   -0.018024939940196036   0.007298849185493999
-0.01388332809976063   -0.004781338362845628   -0.001845214307838344
-0.01388332809976063   -0.004781338362845628   -0.001845214307838344
-0.01388332809976063   -0.004781338362845628   -0.001845214307838344
-0.01388332809976063   -0.004781338362845628   -0.001845214307838344
-0.014157849201957954   -0.018841196030218058   0.004389723952257347
-0.014157849201957954   -0.018841196030218058   0.004389723952257347
-0.014157849201957954   -0.018841196030218058   0.004389723952257347
-0.014157849201957954   -0.018841196030218058   0.004389723952257347
-0.02090452343829375   -0.009217867217802834   0.0019948406352664864
-0.02090452343829375   -0.009217867217802834   0.0019948406352664864
-0.02090452343829375   -0.009217867217802834   0.0019948406352664864
-0.02090452343829375   -0.009217867217802834   0.0019948406352664864
-0.015735273768245968   -0.011220359197487647   0.004249052551475462
-0.015735273768245968   -0.011220359197487647   0.004249052551475462
-0.015735273768245968   -0.011220359197487647   0.004249052551475462
-0.015735273768245968   -0.011220359197487647   0.004249052551475462
-0.021690545894352257   -0.019546923276428468   0.008393784413599597
-0.021690545894352257   -0.019546923276428468   0.008393784413599597
-0.021690545894352257   -0.019546923276428468   0.008393784413599597
-0.021690545894352257   -0.019546923276428468   0.008393784413599597
-0.01357877651517964   -0.008719089740872614   -0.0028370189031965256
-0.01357877651517964   -0.008719089740872614   -0.0028370189031965256
-0.01357877651517964   -0.008719089740872614   -0.0028370189031965256
-0.01357877651517964   -0.008719089740872614   -0.0028370189031965256
-0.012436681415472058   -0.020526207248645054   0.004877165979925034
-0.012436681415472058   -0.020526207248645054   0.004877165979925034
-0.012436681415472058   -0.020526207248645054   0.004877165979925034
-0.012436681415472058   -0.020526207248645054   0.004877165979925034
-0.02330604890424154   -0.017028135286333918   0.0025472867527679406
-0.02330604890424154   -0.017028135286333918   0.0025472867527679406
-0.02330604890424154   -0.017028135286333918   0.0025472867527679406
-0.02330604890424154   -0.017028135286333918   0.0025472867527679406
-0.015664026884520916   -0.013991198465832846   0.0033366244898470976
-0.015664026884520916   -0.013991198465832846   0.0033366244898470976
-0.015664026884520916   -0.013991198465832846   0.0033366244898470976
-0.015664026884520916   -0.013991198465832846   0.0033366244898470976
-0.01407398899501755   -0.002499568720507741   0.007861754717479288
-0.01407398899501755   -0.002499568720507741   0.007861754717479288
-0.01407398899501755   -0.002499568720507741   0.007861754717479288
-0.01407398899501755   -0.002499568720507741   0.007861754717479288
-0.0033415851719495295   0.0011760178674947179   -0.0001595443849686279
-0.0033415851719495295   0.0011760178674947179   -0.0001595443849686279
-0.0033415851719495295   0.0011760178674947179   -0.0001595443849686279
-0.0033415851719495295   0.0011760178674947179   -0.0001595443849686279
-0.00021341365482446394   -0.0008896192900666473   0.0049721492952267
-0.00021341365482446394   -0.0008896192900666473   0.0049721492952267
-0.00021341365482446394   -0.0008896192900666473   0.0049721492952267
-0.00021341365482446394   -0.0008896192900666473   0.0049721492952267
-0.012499675984803567   0.0005739794904433783   -0.0002822715863420392
-0.012499675984803567   0.0005739794904433783   -0.0002822715863420392
-0.012499675984803567   0.0005739794904433783   -0.0002822715863420392
-0.012499675984803567   0.0005739794904433783   -0.0002822715863420392
-0.007608331029949024   -0.0006691437175834426   -0.0005137675318811136
-0.007608331029949024   -0.0006691437175834426   -0.0005137675318811136
-0.007608331029949024   -0.0006691437175834426   -0.0005137675318811136
-0.007608331029949024   -0.0006691437175834426   -0.0005137675318811136
-0.011412195467208728   -0.0024816528443111245   0.00821076333638858
-0.011412195467208728   -0.0024816528443111245   0.00821076333638858
-0.011412195467208728   -0.0024816528443111245   0.00821076333638858
-0.011412195467208728   -0.0024816528443111245   0.00821076333638858
-0.0009019361055008377   0.0025649711116066407   -0.0019250533598284564
-0.0009019361055008377   0.0025649711116066407   -0.0019250533598284564
-0.0009019361055008377   0.0025649711116066407   -0.0019250533598284564
-0.0009019361055008377   0.0025649711116066407   -0.0019250533598284564
0.0011526086252765808   -0.0011426533435202264   0.006148327069399922
0.0011526086252765808   -0.0011426533435202264   0.006148327069399922
0.0011526086252765808   -0.0011426533435202264   0.006148327069399922
0.0011526086252765808   -0.0011426533435202264   0.006148327069399922
-0.011339603390820952   1.6632226004645485e-05   -0.00037687524828034153
-0.011339603390820952   1.6632226004645485e-05   -0.00037687524828034153
-0.011339603390820952   1.6632226004645485e-05   -0.00037687524828034153
-0.011339603390820952   1.6632226004645485e-05   -0.00037687524828034153
-0.005519132463056307   -0.00036964079063584864   0.0006820972873409543
-0.005519132463056307   -0.00036964079063584864   0.0006820972873409543
-0.005519132463056307   -0.00036964079063584864   0.0006820972873409543
-0.005519132463056307   -0.00036964079063584864   0.0006820972873409543
-0.010056476643102859   -0.0028358813898442885   0.008891272106159052
-0.010056476643102859   -0.0028358813898442885   0.008891272106159052
-0.010056476643102859   -0.0028358813898442885   0.008891272106159052
-0.010056476643102859   -0.0028358813898442885   0.008891272106159052
0.00018974401231521053   0.0020301224070854293   -0.001838771746012584
0.00018974401231521053   0.0020301224070854293   -0.001838771746012584
0.00018974401231521053   0.0020301224070854293   -0.001838771746012584
0.00018974401231521053   0.0020301224070854293   -0.001838771746012584
0.0023523182069769425   -0.0019465761425631455   0.006048593706260842
0.0023523182069769425   -0.0019465761425631455   0.006048593706260842
0.0023523182069769425   -0.0019465761425631455   0.006048593706260842
0.0023523182069769425   -0.0019465761425631455   0.006048593706260842
-0.009498349061929656   -0.0005668866971966656   -0.00039049280381135107
-0.009498349061929656   -0.0005668866971966656   -0.00039049280381135107
-0.009498349061929656   -0.0005668866971966656   -0.00039049280381135107
-0.009498349061929656   -0.0005668866971966656   -0.00039049280381135107
-0.0037309098400016916   -0.0003174308190162039   0.0016266556488378871
-0.0037309098400016916   -0.0003174308190162039   0.0016266556488378871
-0.0037309098400016916   -0.0003174308190162039   0.0016266556488378871
-0.0037309098400016916   -0.0003174308190162039   0.0016266556488378871
              </DataArray>   
             <DataArray type="Float64" NumberOfComponents="3" Name="Displacements" format="ascii">   
0.0   0.0   0.0
-0.0012764379319285815   -0.000847288527322249   -0.00042820432395453725
0.0   0.0   0.0
0.0   0.0   0.0
-0.0012764379319285815   -0.000847288527322249   -0.00042820432395453725
-0.0008112765137483363   -0.0007632067323966456   -0.00031471834524173626
0.0   0.0   0.0
-0.000794580171461092   -0.0008009323085241782   -0.0002638752789495522
0.0   0.0   0.0
0.0   0.0   0.0
-0.000794580171461092   -0.0008009323085241782   -0.0002638752789495522
0.0   0.0   0.0
0.0   0.0   0.0
-0.000794580171461092   -0.0008009323085241782   -0.0002638752789495522
-0.0013350465400415437   -0.0009021978842275523   -0.0003441022612232242
-0.0012764379319285815   -0.000847288527322249   -0.00042820432395453725
0.0   0.0   0.0
-0.000794580171461092   -0.0008009323085241782   -0.0002638752789495522
-0.0012764379319285815   -0.000847288527322249   -0.00042820432395453725
0.0   0.0   0.0
0.0   0.0   0.0
-0.0013350465400415437   -0.0009021978842275523   -0.0003441022612232242
0.0   0.0   0.0
0.0   0.0   0.0
-0.0013350465400415437   -0.0009021978842275523   -0.0003441022612232242
-0.000794580171461092   -0.0008009323085241782   -0.0002638752789495522
0.0   0.0   0.0
-0.0007961160905698156   -0.0008203465751509084   -0.0002131858212191698
0.0   0.0   0.0
0.0   0.0   0.0
-0.0007961160905698156   -0.0008203465751509084   -0.0002131858212191698
0.0   0.0   0.0
0.0   0.0   0.0
-0.0007961160905698156   -0.0008203465751509084   -0.0002131858212191698
-0.0013758831684198762   -0.0009289362856759548   -0.00026367195005793086
-0.0013350465400415437   -0.0009021978842275523   -0.0003441022612232242
0.0   0.0   0.0
-0.0007961160905698156   -0.0008203465751509084   -0.0002131858212191698
-0.0013350465400415437   -0.0009021978842275523   -0.0003441022612232242
0.0   0.0   0.0
0.0   0.0   0.0
-0.0013758831684198762   -0.0009289362856759548   -0.00026367195005793086
0.0   0.0   0.0
0.0   0.0   0.0
-0.0013758831684198762   -0.0009289362856759548   -0.00026367195005793086
-0.0007961160905698156   -0.0008203465751509084   -0.0002131858212191698
0.0   0.0   0.0
-0.0007949029728295242   -0.0008254464286451108   -0.0001608724684000496
0.0   0.0   0.0
0.0   0.0   0.0
-0.0007949029728295242   -0.0008254464286451108   -0.0001608724684000496
0.0   0.0   0.0
0.0   0.0   0.0
-0.0007949029728295242   -0.0008254464286451108   -0.0001608724684000496
-0.0014645560896721329   -0.0009494612270775562   -0.00017046059450693187
-0.0013758831684198762   -0.0009289362856759548   -0.00026367195005793086
0.0   0.0   0.0
-0.0007949029728295242   -0.0008254464286451108   -0.0001608724684000496
-0.0013758831684198762   -0.0009289362856759548   -0.00026367195005793086
0.0   0.0   0.0
0.0   0.0   0.0
-0.0008112765137483363   -0.0007632067323966456   -0.00031471834524173626
0.0   0.0   0.0
0.0   0.0   0.0
-0.0008112765137483363   -0.0007632067323966456   -0.00031471834524173626
-0.00037027492032707597   -0.0007325156876433872   -0.00023968362633724864
0.0   0.0   0.0
-0.0003554381208044445   -0.0007569870372858477   -0.00021559621959788965
0.0   0.0   0.0
0.0   0.0   0.0
-0.0003554381208044445   -0.0007569870372858477   -0.00021559621959788965
0.0   0.0   0.0
0.0   0.0   0.0
-0.0003554381208044445   -0.0007569870372858477   -0.00021559621959788965
-0.000794580171461092   -0.0008009323085241782   -0.0002638752789495522
-0.0008112765137483363   -0.0007632067323966456   -0.00031471834524173626
0.0   0.0   0.0
-0.0003554381208044445   -0.0007569870372858477   -0.00021559621959788965
-0.0008112765137483363   -0.0007632067323966456   -0.00031471834524173626
0.0   0.0   0.0
0.0   0.0   0.0
-0.000794580171461092   -0.0008009323085241782   -0.0002638752789495522
0.0   0.0   0.0
0.0   0.0   0.0
-0.000794580171461092   -0.0008009323085241782   -0.0002638752789495522
-0.0003554381208044445   -0.0007569870372858477   -0.00021559621959788965
0.0   0.0   0.0
-0.0003468171566193822   -0.0007663434846585499   -0.00019221701475523017
0.0   0.0   0.0
0.0   0.0   0.0
-0.0003468171566193822   -0.0007663434846585499   -0.00019221701475523017
0.0   0.0   0.0
0.0   0.0   0.0
-0.0003468171566193822   -0.0007663434846585499   -0.00019221701475523017
-0.0007961160905698156   -0.0008203465751509084   -0.0002131858212191698
-0.000794580171461092   -0.0008009323085241782   -0.0002638752789495522
0.0   0.0   0.0
-0.0003468171566193822   -0.0007663434846585499   -0.00019221701475523017
-0.000794580171461092   -0.0008009323085241782   -0.0002638752789495522
0.0   0.0   0.0
0.0   0.0   0.0
-0.0007961160905698156   -0.0008203465751509084   -0.0002131858212191698
0.0   0.0   0.0
0.0   0.0   0.0
-0.0007961160905698156   -0.0008203465751509084   -0.0002131858212191698
-0.0003468171566193822   -0.0007663434846585499   -0.00019221701475523017
0.0   0.0   0.0
-0.00033885064174032264   -0.0007625072039309864   -0.0001681297351971037
0.0   0.0   0.0
0.0   0.0   0.0
-0.00033885064174032264   -0.0007625072039309864   -0.0001681297351971037
0.0   0.0   0.0
0.0   0.0   0.0
-0.00033885064174032264   -0.0007625072039309864   -0.0001681297351971037
-0.0007949029728295242   -0.0008254464286451108   -0.0001608724684000496
-0.0007961160905698156   -0.0008203465751509084   -0.0002131858212191698
0.0   0.0   0.0
-0.00033885064174032264   -0.0007625072039309864   -0.0001681297351971037
-0.0007961160905698156   -0.0008203465751509084   -0.0002131858212191698
0.0   0.0   0.0
0.0   0.0   0.0
-0.00037027492032707597   -0.0007325156876433872   -0.00023968362633724864
0.0   0.0   0.0
0.0   0.0   0.0
-0.00037027492032707597   -0.0007325156876433872   -0.00023968362633724864
4.5786277731351146e-05   -0.0007365581891371027   -0.0001920754071242281
0.0   0.0   0.0
5.558336039185038e-05   -0.0007491476518938391   -0.00019520501151188143
0.0   0.0   0.0
0.0   0.0   0.0
5.558336039185038e-05   -0.0007491476518938391   -0.00019520501151188143
0.0   0.0   0.0
0.0   0.0   0.0
5.558336039185038e-05   -0.0007491476518938391   -0.00019520501151188143
-0.0003554381208044445   -0.0007569870372858477   -0.00021559621959788965
-0.00037027492032707597   -0.0007325156876433872   -0.00023968362633724864
0.0   0.0   0.0
5.558336039185038e-05   -0.0007491476518938391   -0.00019520501151188143
-0.00037027492032707597   -0.0007325156876433872   -0.00023968362633724864
0.0   0.0   0.0
0.0   0.0   0.0
-0.0003554381208044445   -0.0007569870372858477   -0.00021559621959788965
0.0   0.0   0.0
0.0   0.0   0.0
-0.0003554381208044445   -0.0007569870372858477   -0.00021559621959788965
5.558336039185038e-05   -0.0007491476518938391   -0.00019520501151188143
0.0   0.0   0.0
6.34090137159954e-05   -0.0007480217486929764   -0.0001981002320346484
0.0   0.0   0.0
0.0   0.0   0.0
6.34090137159954e-05   -0.0007480217486929764   -0.0001981002320346484
0.0   0.0   0.0
0.0   0.0   0.0
6.34090137159954e-05   -0.0007480217486929764   -0.0001981002320346484
-0.0003468171566193822   -0.0007663434846585499   -0.00019221701475523017
-0.0003554381208044445   -0.0007569870372858477   -0.00021559621959788965
0.0   0.0   0.0
6.34090137159954e-05   -0.0007480217486929764   -0.0001981002320346484
-0.0003554381208044445   -0.0007569870372858477   -0.00021559621959788965
0.0   0.0   0.0
0.0   0.0   0.0
-0.0003468171566193822   -0.0007663434846585499   -0.00019221701475523017
0.0   0.0   0.0
0.0   0.0   0.0
-0.0003468171566193822   -0.0007663434846585499   -0.00019221701475523017
6.34090137159954e-05   -0.0007480217486929764   -0.0001981002320346484
0.0   0.0   0.0
7.370445931891946e-05   -0.0007320693823026447   -0.00020115841081032467
0.0   0.0   0.0
0.0   0.0   0.0
7.370445931891946e-05   -0.0007320693823026447   -0.00020115841081032467
0.0   0.0   0.0
0.0   0.0   0.0
7.370445931891946e-05   -0.0007320693823026447   -0.00020115841081032467
-0.00033885064174032264   -0.0007625072039309864   -0.0001681297351971037
-0.0003468171566193822   -0.0007663434846585499   -0.00019221701475523017
0.0   0.0   0.0
7.370445931891946e-05   -0.0007320693823026447   -0.00020115841081032467
-0.0003468171566193822   -0.0007663434846585499   -0.00019221701475523017
0.0   0.0   0.0
0.0   0.0   0.0
4.5786277731351146e-05   -0.0007365581891371027   -0.0001920754071242281
0.0   0.0   0.0
0.0   0.0   0.0
4.5786277731351146e-05   -0.0007365581891371027   -0.0001920754071242281
0.0004980141563257306   -0.000771607601992094   -0.0001688015574375369
0.0   0.0   0.0
0.0004997776345328814   -0.0007754510501500237   -0.00020057596913507662
0.0   0.0   0.0
0.0   0.0   0.0
0.0004997776345328814   -0.0007754510501500237   -0.00020057596913507662
0.0   0.0   0.0
0.0   0.0   0.0
0.0004997776345328814   -0.0007754510501500237   -0.00020057596913507662
5.558336039185038e-05   -0.0007491476518938391   -0.00019520501151188143
4.5786277731351146e-05   -0.0007365581891371027   -0.0001920754071242281
0.0   0.0   0.0
0.0004997776345328814   -0.0007754510501500237   -0.00020057596913507662
4.5786277731351146e-05   -0.0007365581891371027   -0.0001920754071242281
0.0   0.0   0.0
0.0   0.0   0.0
5.558336039185038e-05   -0.0007491476518938391   -0.00019520501151188143
0.0   0.0   0.0
0.0   0.0   0.0
5.558336039185038e-05   -0.0007491476518938391   -0.00019520501151188143
0.0004997776345328814   -0.0007754510501500237   -0.00020057596913507662
0.0   0.0   0.0
0.0004983937387066451   -0.0007643841915157164   -0.00023115676665089147
0.0   0.0   0.0
0.0   0.0   0.0
0.0004983937387066451   -0.0007643841915157164   -0.00023115676665089147
0.0   0.0   0.0
0.0   0.0   0.0
0.0004983937387066451   -0.0007643841915157164   -0.00023115676665089147
6.34090137159954e-05   -0.0007480217486929764   -0.0001981002320346484
5.558336039185038e-05   -0.0007491476518938391   -0.00019520501151188143
0.0   0.0   0.0
0.0004983937387066451   -0.0007643841915157164   -0.00023115676665089147
5.558336039185038e-05   -0.0007491476518938391   -0.00019520501151188143
0.0   0.0   0.0
0.0   0.0   0.0
6.34090137159954e-05   -0.0007480217486929764   -0.0001981002320346484
0.0   0.0   0.0
0.0   0.0   0.0
6.34090137159954e-05   -0.0007480217486929764   -0.0001981002320346484
0.0004983937387066451   -0.0007643841915157164   -0.00023115676665089147
0.0   0.0   0.0
0.0005087730979834843   -0.0007351010634997303   -0.00026123364212259325
0.0   0.0   0.0
0.0   0.0   0.0
0.0005087730979834843   -0.0007351010634997303   -0.00026123364212259325
0.0   0.0   0.0
0.0   0.0   0.0
0.0005087730979834843   -0.0007351010634997303   -0.00026123364212259325
7.370445931891946e-05   -0.0007320693823026447   -0.00020115841081032467
6.34090137159954e-05   -0.0007480217486929764   -0.0001981002320346484
0.0   0.0   0.0
0.0005087730979834843   -0.0007351010634997303   -0.00026123364212259325
6.34090137159954e-05   -0.0007480217486929764   -0.0001981002320346484
0.0   0.0   0.0
0.0   0.0   0.0
0.0004980141563257306   -0.000771607601992094   -0.0001688015574375369
0.0   0.0   0.0
0.0   0.0   0.0
0.0004980141563257306   -0.000771607601992094   -0.0001688015574375369
0.0011289800047771398   -0.0008608120701881576   -0.00015995672974736296
0.0   0.0   0.0
0.0010614347787783992   -0.0008510716393990295   -0.00023227510564975763
0.0   0.0   0.0
0.0   0.0   0.0
0.0010614347787783992   -0.0008510716393990295   -0.00023227510564975763
0.0   0.0   0.0
0.0   0.0   0.0
0.0010614347787783992   -0.0008510716393990295   -0.00023227510564975763
0.0004997776345328814   -0.0007754510501500237   -0.00020057596913507662
0.0004980141563257306   -0.000771607601992094   -0.0001688015574375369
0.0   0.0   0.0
0.0010614347787783992   -0.0008510716393990295   -0.00023227510564975763
0.0004980141563257306   -0.000771607601992094   -0.0001688015574375369
0.0   0.0   0.0
0.0   0.0   0.0
0.0004997776345328814   -0.0007754510501500237   -0.00020057596913507662
0.0   0.0   0.0
0.0   0.0   0.0
0.0004997776345328814   -0.0007754510501500237   -0.00020057596913507662
0.0010614347787783992   -0.0008510716393990295   -0.00023227510564975763
0.0   0.0   0.0
0.001030628713529266   -0.0008333856878841666   -0.00029350792395004796
0.0   0.0   0.0
0.0   0.0   0.0
0.001030628713529266   -0.0008333856878841666   -0.00029350792395004796
0.0   0.0   0.0
0.0   0.0   0.0
0.001030628713529266   -0.0008333856878841666   -0.00029350792395004796
0.0004983937387066451   -0.0007643841915157164   -0.00023115676665089147
0.0004997776345328814   -0.0007754510501500237   -0.00020057596913507662
0.0   0.0   0.0
0.001030628713529266   -0.0008333856878841666   -0.00029350792395004796
0.0004997776345328814   -0.0007754510501500237   -0.00020057596913507662
0.0   0.0   0.0
0.0   0.0   0.0
0.0004983937387066451   -0.0007643841915157164   -0.00023115676665089147
0.0   0.0   0.0
0.0   0.0   0.0
0.0004983937387066451   -0.0007643841915157164   -0.00023115676665089147
0.001030628713529266   -0.0008333856878841666   -0.00029350792395004796
0.0   0.0   0.0
0.0009842383413049597   -0.0007884036717046832   -0.00035847868982897104
0.0   0.0   0.0
0.0   0.0   0.0
0.0009842383413049597   -0.0007884036717046832   -0.00035847868982897104
0.0   0.0   0.0
0.0   0.0   0.0
0.0009842383413049597   -0.0007884036717046832   -0.00035847868982897104
0.0005087730979834843   -0.0007351010634997303   -0.00026123364212259325
0.0004983937387066451   -0.0007643841915157164   -0.00023115676665089147
0.0   0.0   0.0
0.0009842383413049597   -0.0007884036717046832   -0.00035847868982897104
0.0004983937387066451   -0.0007643841915157164   -0.00023115676665089147
0.0   0.0   0.0
-0.0012764379319285815   -0.000847288527322249   -0.00042820432395453725
-0.0023768518861438295   -0.00235092911406699   -0.0005772577030830109
-0.0008112765137483363   -0.0007632067323966456   -0.00031471834524173626
-0.0013350465400415437   -0.0009021978842275523   -0.0003441022612232242
-0.0023768518861438295   -0.00235092911406699   -0.0005772577030830109
-0.0015167190591454712   -0.0022755728951999476   -0.00047589652609314806
-0.0008112765137483363   -0.0007632067323966456   -0.00031471834524173626
-0.0015173936094019943   -0.0023140281205004986   -0.00042906451493560945
-0.0013350465400415437   -0.0009021978842275523   -0.0003441022612232242
-0.000794580171461092   -0.0008009323085241782   -0.0002638752789495522
-0.0015173936094019943   -0.0023140281205004986   -0.00042906451493560945
-0.0008112765137483363   -0.0007632067323966456   -0.00031471834524173626
-0.0013350465400415437   -0.0009021978842275523   -0.0003441022612232242
-0.0015173936094019943   -0.0023140281205004986   -0.00042906451493560945
-0.0024465802356701443   -0.0024047066552050998   -0.0005013781245286192
-0.0023768518861438295   -0.00235092911406699   -0.0005772577030830109
-0.0013350465400415437   -0.0009021978842275523   -0.0003441022612232242
-0.0015173936094019943   -0.0023140281205004986   -0.00042906451493560945
-0.0023768518861438295   -0.00235092911406699   -0.0005772577030830109
-0.0008112765137483363   -0.0007632067323966456   -0.00031471834524173626
-0.0013350465400415437   -0.0009021978842275523   -0.0003441022612232242
-0.0024465802356701443   -0.0024047066552050998   -0.0005013781245286192
-0.000794580171461092   -0.0008009323085241782   -0.0002638752789495522
-0.0013758831684198762   -0.0009289362856759548   -0.00026367195005793086
-0.0024465802356701443   -0.0024047066552050998   -0.0005013781245286192
-0.0015173936094019943   -0.0023140281205004986   -0.00042906451493560945
-0.000794580171461092   -0.0008009323085241782   -0.0002638752789495522
-0.0015221689291057322   -0.002337573342195346   -0.00038413365922968076
-0.0013758831684198762   -0.0009289362856759548   -0.00026367195005793086
-0.0007961160905698156   -0.0008203465751509084   -0.0002131858212191698
-0.0015221689291057322   -0.002337573342195346   -0.00038413365922968076
-0.000794580171461092   -0.0008009323085241782   -0.0002638752789495522
-0.0013758831684198762   -0.0009289362856759548   -0.00026367195005793086
-0.0015221689291057322   -0.002337573342195346   -0.00038413365922968076
-0.002494555472172777   -0.0024351763084286887   -0.00042717959338017824
-0.0024465802356701443   -0.0024047066552050998   -0.0005013781245286192
-0.0013758831684198762   -0.0009289362856759548   -0.00026367195005793086
-0.0015221689291057322   -0.002337573342195346   -0.00038413365922968076
-0.0024465802356701443   -0.0024047066552050998   -0.0005013781245286192
-0.000794580171461092   -0.0008009323085241782   -0.0002638752789495522
-0.0013758831684198762   -0.0009289362856759548   -0.00026367195005793086
-0.002494555472172777   -0.0024351763084286887   -0.00042717959338017824
-0.0007961160905698156   -0.0008203465751509084   -0.0002131858212191698
-0.0014645560896721329   -0.0009494612270775562   -0.00017046059450693187
-0.002494555472172777   -0.0024351763084286887   -0.00042717959338017824
-0.0015221689291057322   -0.002337573342195346   -0.00038413365922968076
-0.0007961160905698156   -0.0008203465751509084   -0.0002131858212191698
-0.0015163883503077071   -0.002349962220276688   -0.0003421495401660018
-0.0014645560896721329   -0.0009494612270775562   -0.00017046059450693187
-0.0007949029728295242   -0.0008254464286451108   -0.0001608724684000496
-0.0015163883503077071   -0.002349962220276688   -0.0003421495401660018
-0.0007961160905698156   -0.0008203465751509084   -0.0002131858212191698
-0.0014645560896721329   -0.0009494612270775562   -0.00017046059450693187
-0.0015163883503077071   -0.002349962220276688   -0.0003421495401660018
-0.00255120909570604   -0.002453196839769937   -0.0003598341677589563
-0.002494555472172777   -0.0024351763084286887   -0.00042717959338017824
-0.0014645560896721329   -0.0009494612270775562   -0.00017046059450693187
-0.0015163883503077071   -0.002349962220276688   -0.0003421495401660018
-0.002494555472172777   -0.0024351763084286887   -0.00042717959338017824
-0.0007961160905698156   -0.0008203465751509084   -0.0002131858212191698
-0.0008112765137483363   -0.0007632067323966456   -0.00031471834524173626
-0.0015167190591454712   -0.0022755728951999476   -0.00047589652609314806
-0.00037027492032707597   -0.0007325156876433872   -0.00023968362633724864
-0.000794580171461092   -0.0008009323085241782   -0.0002638752789495522
-0.0015167190591454712   -0.0022755728951999476   -0.00047589652609314806
-0.000705689278256668   -0.002240500417671168   -0.0004068101850032377
-0.00037027492032707597   -0.0007325156876433872   -0.00023968362633724864
-0.0006984631543167402   -0.002264871281780469   -0.00038270622503698174
-0.000794580171461092   -0.0008009323085241782   -0.0002638752789495522
-0.0003554381208044445   -0.0007569870372858477   -0.00021559621959788965
-0.0006984631543167402   -0.002264871281780469   -0.00038270622503698174
-0.00037027492032707597   -0.0007325156876433872   -0.00023968362633724864
-0.000794580171461092   -0.0008009323085241782   -0.0002638752789495522
-0.0006984631543167402   -0.002264871281780469   -0.00038270622503698174
-0.0015173936094019943   -0.0023140281205004986   -0.00042906451493560945
-0.0015167190591454712   -0.0022755728951999476   -0.00047589652609314806
-0.000794580171461092   -0.0008009323085241782   -0.0002638752789495522
-0.0006984631543167402   -0.002264871281780469   -0.00038270622503698174
-0.0015167190591454712   -0.0022755728951999476   -0.00047589652609314806
-0.00037027492032707597   -0.0007325156876433872   -0.00023968362633724864
-0.000794580171461092   -0.0008009323085241782   -0.0002638752789495522
-0.0015173936094019943   -0.0023140281205004986   -0.00042906451493560945
-0.0003554381208044445   -0.0007569870372858477   -0.00021559621959788965
-0.0007961160905698156   -0.0008203465751509084   -0.0002131858212191698
-0.0015173936094019943   -0.0023140281205004986   -0.00042906451493560945
-0.0006984631543167402   -0.002264871281780469   -0.00038270622503698174
-0.0003554381208044445   -0.0007569870372858477   -0.00021559621959788965
-0.0006919314684824421   -0.0022767298827091583   -0.0003609042237433527
-0.0007961160905698156   -0.0008203465751509084   -0.0002131858212191698
-0.0003468171566193822   -0.0007663434846585499   -0.00019221701475523017
-0.0006919314684824421   -0.0022767298827091583   -0.0003609042237433527
-0.0003554381208044445   -0.0007569870372858477   -0.00021559621959788965
-0.0007961160905698156   -0.0008203465751509084   -0.0002131858212191698
-0.0006919314684824421   -0.0022767298827091583   -0.0003609042237433527
-0.0015221689291057322   -0.002337573342195346   -0.00038413365922968076
-0.0015173936094019943   -0.0023140281205004986   -0.00042906451493560945
-0.0007961160905698156   -0.0008203465751509084   -0.0002131858212191698
-0.0006919314684824421   -0.0022767298827091583   -0.0003609042237433527
-0.0015173936094019943   -0.0023140281205004986   -0.00042906451493560945
-0.0003554381208044445   -0.0007569870372858477   -0.00021559621959788965
-0.0007961160905698156   -0.0008203465751509084   -0.0002131858212191698
-0.0015221689291057322   -0.002337573342195346   -0.00038413365922968076
-0.0003468171566193822   -0.0007663434846585499   -0.00019221701475523017
-0.0007949029728295242   -0.0008254464286451108   -0.0001608724684000496
-0.0015221689291057322   -0.002337573342195346   -0.00038413365922968076
-0.0006919314684824421   -0.0022767298827091583   -0.0003609042237433527
-0.0003468171566193822   -0.0007663434846585499   -0.00019221701475523017
-0.0006827150921752671   -0.002276520337242437   -0.00034198074416397017
-0.0007949029728295242   -0.0008254464286451108   -0.0001608724684000496
-0.00033885064174032264   -0.0007625072039309864   -0.0001681297351971037
-0.0006827150921752671   -0.002276520337242437   -0.00034198074416397017
-0.0003468171566193822   -0.0007663434846585499   -0.00019221701475523017
-0.0007949029728295242   -0.0008254464286451108   -0.0001608724684000496
-0.0006827150921752671   -0.002276520337242437   -0.00034198074416397017
-0.0015163883503077071   -0.002349962220276688   -0.0003421495401660018
-0.0015221689291057322   -0.002337573342195346   -0.00038413365922968076
-0.0007949029728295242   -0.0008254464286451108   -0.0001608724684000496
-0.0006827150921752671   -0.002276520337242437   -0.00034198074416397017
-0.0015221689291057322   -0.002337573342195346   -0.00038413365922968076
-0.0003468171566193822   -0.0007663434846585499   -0.00019221701475523017
-0.00037027492032707597   -0.0007325156876433872   -0.00023968362633724864
-0.000705689278256668   -0.002240500417671168   -0.0004068101850032377
4.5786277731351146e-05   -0.0007365581891371027   -0.0001920754071242281
-0.0003554381208044445   -0.0007569870372858477   -0.00021559621959788965
-0.000705689278256668   -0.002240500417671168   -0.0004068101850032377
7.566341683749777e-05   -0.0022416129221085497   -0.00036338785561308706
4.5786277731351146e-05   -0.0007365581891371027   -0.0001920754071242281
8.434744254227772e-05   -0.002252994007103146   -0.0003615813297346915
-0.0003554381208044445   -0.0007569870372858477   -0.00021559621959788965
5.558336039185038e-05   -0.0007491476518938391   -0.00019520501151188143
8.434744254227772e-05   -0.002252994007103146   -0.0003615813297346915
4.5786277731351146e-05   -0.0007365581891371027   -0.0001920754071242281
-0.0003554381208044445   -0.0007569870372858477   -0.00021559621959788965
8.434744254227772e-05   -0.002252994007103146   -0.0003615813297346915
-0.0006984631543167402   -0.002264871281780469   -0.00038270622503698174
-0.000705689278256668   -0.002240500417671168   -0.0004068101850032377
-0.0003554381208044445   -0.0007569870372858477   -0.00021559621959788965
8.434744254227772e-05   -0.002252994007103146   -0.0003615813297346915
-0.000705689278256668   -0.002240500417671168   -0.0004068101850032377
4.5786277731351146e-05   -0.0007365581891371027   -0.0001920754071242281
-0.0003554381208044445   -0.0007569870372858477   -0.00021559621959788965
-0.0006984631543167402   -0.002264871281780469   -0.00038270622503698174
5.558336039185038e-05   -0.0007491476518938391   -0.00019520501151188143
-0.0003468171566193822   -0.0007663434846585499   -0.00019221701475523017
-0.0006984631543167402   -0.002264871281780469   -0.00038270622503698174
8.434744254227772e-05   -0.002252994007103146   -0.0003615813297346915
5.558336039185038e-05   -0.0007491476518938391   -0.00019520501151188143
9.055182328365897e-05   -0.002252152184318572   -0.0003623831567949232
-0.0003468171566193822   -0.0007663434846585499   -0.00019221701475523017
6.34090137159954e-05   -0.0007480217486929764   -0.0001981002320346484
9.055182328365897e-05   -0.002252152184318572   -0.0003623831567949232
5.558336039185038e-05   -0.0007491476518938391   -0.00019520501151188143
-0.0003468171566193822   -0.0007663434846585499   -0.00019221701475523017
9.055182328365897e-05   -0.002252152184318572   -0.0003623831567949232
-0.0006919314684824421   -0.0022767298827091583   -0.0003609042237433527
-0.0006984631543167402   -0.002264871281780469   -0.00038270622503698174
-0.0003468171566193822   -0.0007663434846585499   -0.00019221701475523017
9.055182328365897e-05   -0.002252152184318572   -0.0003623831567949232
-0.0006984631543167402   -0.002264871281780469   -0.00038270622503698174
5.558336039185038e-05   -0.0007491476518938391   -0.00019520501151188143
-0.0003468171566193822   -0.0007663434846585499   -0.00019221701475523017
-0.0006919314684824421   -0.0022767298827091583   -0.0003609042237433527
6.34090137159954e-05   -0.0007480217486929764   -0.0001981002320346484
-0.00033885064174032264   -0.0007625072039309864   -0.0001681297351971037
-0.0006919314684824421   -0.0022767298827091583   -0.0003609042237433527
9.055182328365897e-05   -0.002252152184318572   -0.0003623831567949232
6.34090137159954e-05   -0.0007480217486929764   -0.0001981002320346484
9.712340305289057e-05   -0.0022387200204729537   -0.0003658331465555721
-0.00033885064174032264   -0.0007625072039309864   -0.0001681297351971037
7.370445931891946e-05   -0.0007320693823026447   -0.00020115841081032467
9.712340305289057e-05   -0.0022387200204729537   -0.0003658331465555721
6.34090137159954e-05   -0.0007480217486929764   -0.0001981002320346484
-0.00033885064174032264   -0.0007625072039309864   -0.0001681297351971037
9.712340305289057e-05   -0.0022387200204729537   -0.0003658331465555721
-0.0006827150921752671   -0.002276520337242437   -0.00034198074416397017
-0.0006919314684824421   -0.0022767298827091583   -0.0003609042237433527
-0.00033885064174032264   -0.0007625072039309864   -0.0001681297351971037
9.712340305289057e-05   -0.0022387200204729537   -0.0003658331465555721
-0.0006919314684824421   -0.0022767298827091583   -0.0003609042237433527
6.34090137159954e-05   -0.0007480217486929764   -0.0001981002320346484
4.5786277731351146e-05   -0.0007365581891371027   -0.0001920754071242281
7.566341683749777e-05   -0.0022416129221085497   -0.00036338785561308706
0.0004980141563257306   -0.000771607601992094   -0.0001688015574375369
5.558336039185038e-05   -0.0007491476518938391   -0.00019520501151188143
7.566341683749777e-05   -0.0022416129221085497   -0.00036338785561308706
0.0009043104987574634   -0.002277626506108926   -0.00034353923840294584
0.0004980141563257306   -0.000771607601992094   -0.0001688015574375369
0.0009098755173169076   -0.0022771577543565223   -0.0003647452963428065
5.558336039185038e-05   -0.0007491476518938391   -0.00019520501151188143
0.0004997776345328814   -0.0007754510501500237   -0.00020057596913507662
0.0009098755173169076   -0.0022771577543565223   -0.0003647452963428065
0.0004980141563257306   -0.000771607601992094   -0.0001688015574375369
5.558336039185038e-05   -0.0007491476518938391   -0.00019520501151188143
0.0009098755173169076   -0.0022771577543565223   -0.0003647452963428065
8.434744254227772e-05   -0.002252994007103146   -0.0003615813297346915
7.566341683749777e-05   -0.0022416129221085497   -0.00036338785561308706
5.558336039185038e-05   -0.0007491476518938391   -0.00019520501151188143
0.0009098755173169076   -0.0022771577543565223   -0.0003647452963428065
7.566341683749777e-05   -0.0022416129221085497   -0.00036338785561308706
0.0004980141563257306   -0.000771607601992094   -0.0001688015574375369
5.558336039185038e-05   -0.0007491476518938391   -0.00019520501151188143
8.434744254227772e-05   -0.002252994007103146   -0.0003615813297346915
0.0004997776345328814   -0.0007754510501500237   -0.00020057596913507662
6.34090137159954e-05   -0.0007480217486929764   -0.0001981002320346484
8.434744254227772e-05   -0.002252994007103146   -0.0003615813297346915
0.0009098755173169076   -0.0022771577543565223   -0.0003647452963428065
0.0004997776345328814   -0.0007754510501500237   -0.00020057596913507662
0.0009069590460263037   -0.002264738026407305   -0.00038890145559693077
6.34090137159954e-05   -0.0007480217486929764   -0.0001981002320346484
0.0004983937387066451   -0.0007643841915157164   -0.00023115676665089147
0.0009069590460263037   -0.002264738026407305   -0.00038890145559693077
0.0004997776345328814   -0.0007754510501500237   -0.00020057596913507662
6.34090137159954e-05   -0.0007480217486929764   -0.0001981002320346484
0.0009069590460263037   -0.002264738026407305   -0.00038890145559693077
9.055182328365897e-05   -0.002252152184318572   -0.0003623831567949232
8.434744254227772e-05   -0.002252994007103146   -0.0003615813297346915
6.34090137159954e-05   -0.0007480217486929764   -0.0001981002320346484
0.0009069590460263037   -0.002264738026407305   -0.00038890145559693077
8.434744254227772e-05   -0.002252994007103146   -0.0003615813297346915
0.0004997776345328814   -0.0007754510501500237   -0.00020057596913507662
6.34090137159954e-05   -0.0007480217486929764   -0.0001981002320346484
9.055182328365897e-05   -0.002252152184318572   -0.0003623831567949232
0.0004983937387066451   -0.0007643841915157164   -0.00023115676665089147
7.370445931891946e-05   -0.0007320693823026447   -0.00020115841081032467
9.055182328365897e-05   -0.002252152184318572   -0.0003623831567949232
0.0009069590460263037   -0.002264738026407305   -0.00038890145559693077
0.0004983937387066451   -0.0007643841915157164   -0.00023115676665089147
0.0009057549225619897   -0.0022370223743227104   -0.0004151095704434944
7.370445931891946e-05   -0.0007320693823026447   -0.00020115841081032467
0.0005087730979834843   -0.0007351010634997303   -0.00026123364212259325
0.0009057549225619897   -0.0022370223743227104   -0.0004151095704434944
0.0004983937387066451   -0.0007643841915157164   -0.00023115676665089147
7.370445931891946e-05   -0.0007320693823026447   -0.00020115841081032467
0.0009057549225619897   -0.0022370223743227104   -0.0004151095704434944
9.712340305289057e-05   -0.0022387200204729537   -0.0003658331465555721
9.055182328365897e-05   -0.002252152184318572   -0.0003623831567949232
7.370445931891946e-05   -0.0007320693823026447   -0.00020115841081032467
0.0009057549225619897   -0.0022370223743227104   -0.0004151095704434944
9.055182328365897e-05   -0.002252152184318572   -0.0003623831567949232
0.0004983937387066451   -0.0007643841915157164   -0.00023115676665089147
0.0004980141563257306   -0.000771607601992094   -0.0001688015574375369
0.0009043104987574634   -0.002277626506108926   -0.00034353923840294584
0.0011289800047771398   -0.0008608120701881576   -0.00015995672974736296
0.0004997776345328814   -0.0007754510501500237   -0.00020057596913507662
0.0009043104987574634   -0.002277626506108926   -0.00034353923840294584
0.00190592252099454   -0.0023443389253430032   -0.0003390169302357525
0.0011289800047771398   -0.0008608120701881576   -0.00015995672974736296
0.0018690517772755187   -0.0023374558613117216   -0.00038689878525934013
0.0004997776345328814   -0.0007754510501500237   -0.00020057596913507662
0.0010614347787783992   -0.0008510716393990295   -0.00023227510564975763
0.0018690517772755187   -0.0023374558613117216   -0.00038689878525934013
0.0011289800047771398   -0.0008608120701881576   -0.00015995672974736296
0.0004997776345328814   -0.0007754510501500237   -0.00020057596913507662
0.0018690517772755187   -0.0023374558613117216   -0.00038689878525934013
0.0009098755173169076   -0.0022771577543565223   -0.0003647452963428065
0.0009043104987574634   -0.002277626506108926   -0.00034353923840294584
0.0004997776345328814   -0.0007754510501500237   -0.00020057596913507662
0.0018690517772755187   -0.0023374558613117216   -0.00038689878525934013
0.0009043104987574634   -0.002277626506108926   -0.00034353923840294584
0.0011289800047771398   -0.0008608120701881576   -0.00015995672974736296
0.0004997776345328814   -0.0007754510501500237   -0.00020057596913507662
0.0009098755173169076   -0.0022771577543565223   -0.0003647452963428065
0.0010614347787783992   -0.0008510716393990295   -0.00023227510564975763
0.0004983937387066451   -0.0007643841915157164   -0.00023115676665089147
0.0009098755173169076   -0.0022771577543565223   -0.0003647452963428065
0.0018690517772755187   -0.0023374558613117216   -0.00038689878525934013
0.0010614347787783992   -0.0008510716393990295   -0.00023227510564975763
0.0018359385109416434   -0.0023183794680959814   -0.00044097254361692955
0.0004983937387066451   -0.0007643841915157164   -0.00023115676665089147
0.001030628713529266   -0.0008333856878841666   -0.00029350792395004796
0.0018359385109416434   -0.0023183794680959814   -0.00044097254361692955
0.0010614347787783992   -0.0008510716393990295   -0.00023227510564975763
0.0004983937387066451   -0.0007643841915157164   -0.00023115676665089147
0.0018359385109416434   -0.0023183794680959814   -0.00044097254361692955
0.0009069590460263037   -0.002264738026407305   -0.00038890145559693077
0.0009098755173169076   -0.0022771577543565223   -0.0003647452963428065
0.0004983937387066451   -0.0007643841915157164   -0.00023115676665089147
0.0018359385109416434   -0.0023183794680959814   -0.00044097254361692955
0.0009098755173169076   -0.0022771577543565223   -0.0003647452963428065
0.0010614347787783992   -0.0008510716393990295   -0.00023227510564975763
0.0004983937387066451   -0.0007643841915157164   -0.00023115676665089147
0.0009069590460263037   -0.002264738026407305   -0.00038890145559693077
0.001030628713529266   -0.0008333856878841666   -0.00029350792395004796
0.0005087730979834843   -0.0007351010634997303   -0.00026123364212259325
0.0009069590460263037   -0.002264738026407305   -0.00038890145559693077
0.0018359385109416434   -0.0023183794680959814   -0.00044097254361692955
0.001030628713529266   -0.0008333856878841666   -0.00029350792395004796
0.0017855092294316985   -0.0022763592549908036   -0.0004973877088332606
0.0005087730979834843   -0.0007351010634997303   -0.00026123364212259325
0.0009842383413049597   -0.0007884036717046832   -0.00035847868982897104
0.0017855092294316985   -0.0022763592549908036   -0.0004973877088332606
0.001030628713529266   -0.0008333856878841666   -0.00029350792395004796
0.0005087730979834843   -0.0007351010634997303   -0.00026123364212259325
0.0017855092294316985   -0.0022763592549908036   -0.0004973877088332606
0.0009057549225619897   -0.0022370223743227104   -0.0004151095704434944
0.0009069590460263037   -0.002264738026407305   -0.00038890145559693077
0.0005087730979834843   -0.0007351010634997303   -0.00026123364212259325
0.0017855092294316985   -0.0022763592549908036   -0.0004973877088332606
0.0009069590460263037   -0.002264738026407305   -0.00038890145559693077
0.001030628713529266   -0.0008333856878841666   -0.00029350792395004796
-0.0023768518861438295   -0.00235092911406699   -0.0005772577030830109
-0.0032476095885074817   -0.004389870092703874   -0.000658562130106122
-0.0015167190591454712   -0.0022755728951999476   -0.00047589652609314806
-0.0024465802356701443   -0.0024047066552050998   -0.0005013781245286192
-0.0032476095885074817   -0.004389870092703874   -0.000658562130106122
-0.00208898624861016   -0.00433259339706661   -0.0005769117810884084
-0.0015167190591454712   -0.0022755728951999476   -0.00047589652609314806
-0.0020922023746422773   -0.004365587298295991   -0.000540764029150118
-0.0024465802356701443   -0.0024047066552050998   -0.0005013781245286192
-0.0015173936094019943   -0.0023140281205004986   -0.00042906451493560945
-0.0020922023746422773   -0.004365587298295991   -0.000540764029150118
-0.0015167190591454712   -0.0022755728951999476   -0.00047589652609314806
-0.0024465802356701443   -0.0024047066552050998   -0.0005013781245286192
-0.0020922023746422773   -0.004365587298295991   -0.000540764029150118
-0.0033034851587935236   -0.004435039818017249   -0.0006023966921622141
-0.0032476095885074817   -0.004389870092703874   -0.000658562130106122
-0.0024465802356701443   -0.0024047066552050998   -0.0005013781245286192
-0.0020922023746422773   -0.004365587298295991   -0.000540764029150118
-0.0032476095885074817   -0.004389870092703874   -0.000658562130106122
-0.0015167190591454712   -0.0022755728951999476   -0.00047589652609314806
-0.0024465802356701443   -0.0024047066552050998   -0.0005013781245286192
-0.0033034851587935236   -0.004435039818017249   -0.0006023966921622141
-0.0015173936094019943   -0.0023140281205004986   -0.00042906451493560945
-0.002494555472172777   -0.0024351763084286887   -0.00042717959338017824
-0.0033034851587935236   -0.004435039818017249   -0.0006023966921622141
-0.0020922023746422773   -0.004365587298295991   -0.000540764029150118
-0.0015173936094019943   -0.0023140281205004986   -0.00042906451493560945
-0.0020961559847619874   -0.004388659679501809   -0.000507281853862469
-0.002494555472172777   -0.0024351763084286887   -0.00042717959338017824
-0.0015221689291057322   -0.002337573342195346   -0.00038413365922968076
-0.0020961559847619874   -0.004388659679501809   -0.000507281853862469
-0.0015173936094019943   -0.0023140281205004986   -0.00042906451493560945
-0.002494555472172777   -0.0024351763084286887   -0.00042717959338017824
-0.0020961559847619874   -0.004388659679501809   -0.000507281853862469
-0.0033380839162636027   -0.004463490360001956   -0.0005501337910584006
-0.0033034851587935236   -0.004435039818017249   -0.0006023966921622141
-0.002494555472172777   -0.0024351763084286887   -0.00042717959338017824
-0.0020961559847619874   -0.004388659679501809   -0.000507281853862469
-0.0033034851587935236   -0.004435039818017249   -0.0006023966921622141
-0.0015173936094019943   -0.0023140281205004986   -0.00042906451493560945
-0.002494555472172777   -0.0024351763084286887   -0.00042717959338017824
-0.0033380839162636027   -0.004463490360001956   -0.0005501337910584006
-0.0015221689291057322   -0.002337573342195346   -0.00038413365922968076
-0.00255120909570604   -0.002453196839769937   -0.0003598341677589563
-0.0033380839162636027   -0.004463490360001956   -0.0005501337910584006
-0.0020961559847619874   -0.004388659679501809   -0.000507281853862469
-0.0015221689291057322   -0.002337573342195346   -0.00038413365922968076
-0.002090783732424723   -0.00440401011324782   -0.00047589400238792854
-0.00255120909570604   -0.002453196839769937   -0.0003598341677589563
-0.0015163883503077071   -0.002349962220276688   -0.0003421495401660018
-0.002090783732424723   -0.00440401011324782   -0.00047589400238792854
-0.0015221689291057322   -0.002337573342195346   -0.00038413365922968076
-0.00255120909570604   -0.002453196839769937   -0.0003598341677589563
-0.002090783732424723   -0.00440401011324782   -0.00047589400238792854
-0.003377449204727431   -0.004484228587468497   -0.0005021396092878638
-0.0033380839162636027   -0.004463490360001956   -0.0005501337910584006
-0.00255120909570604   -0.002453196839769937   -0.0003598341677589563
-0.002090783732424723   -0.00440401011324782   -0.00047589400238792854
-0.0033380839162636027   -0.004463490360001956   -0.0005501337910584006
-0.0015221689291057322   -0.002337573342195346   -0.00038413365922968076
-0.0015167190591454712   -0.0022755728951999476   -0.00047589652609314806
-0.00208898624861016   -0.00433259339706661   -0.0005769117810884084
-0.000705689278256668   -0.002240500417671168   -0.0004068101850032377
-0.0015173936094019943   -0.0023140281205004986   -0.00042906451493560945
-0.00208898624861016   -0.00433259339706661   -0.0005769117810884084
-0.0009984808528520595   -0.004303918890082088   -0.000520245003137424
-0.000705689278256668   -0.002240500417671168   -0.0004068101850032377
-0.0009946259296897254   -0.004324913551309676   -0.0004996835347633944
-0.0015173936094019943   -0.0023140281205004986   -0.00042906451493560945
-0.0006984631543167402   -0.002264871281780469   -0.00038270622503698174
-0.0009946259296897254   -0.004324913551309676   -0.0004996835347633944
-0.000705689278256668   -0.002240500417671168   -0.0004068101850032377
-0.0015173936094019943   -0.0023140281205004986   -0.00042906451493560945
-0.0009946259296897254   -0.004324913551309676   -0.0004996835347633944
-0.0020922023746422773   -0.004365587298295991   -0.000540764029150118
-0.00208898624861016   -0.00433259339706661   -0.0005769117810884084
-0.0015173936094019943   -0.0023140281205004986   -0.00042906451493560945
-0.0009946259296897254   -0.004324913551309676   -0.0004996835347633944
-0.00208898624861016   -0.00433259339706661   -0.0005769117810884084
-0.000705689278256668   -0.002240500417671168   -0.0004068101850032377
-0.0015173936094019943   -0.0023140281205004986   -0.00042906451493560945
-0.0020922023746422773   -0.004365587298295991   -0.000540764029150118
-0.0006984631543167402   -0.002264871281780469   -0.00038270622503698174
-0.0015221689291057322   -0.002337573342195346   -0.00038413365922968076
-0.0020922023746422773   -0.004365587298295991   -0.000540764029150118
-0.0009946259296897254   -0.004324913551309676   -0.0004996835347633944
-0.0006984631543167402   -0.002264871281780469   -0.00038270622503698174
-0.0009902166082311815   -0.0043372893418707655   -0.00048165186693775096
-0.0015221689291057322   -0.002337573342195346   -0.00038413365922968076
-0.0006919314684824421   -0.0022767298827091583   -0.0003609042237433527
-0.0009902166082311815   -0.0043372893418707655   -0.00048165186693775096
-0.0006984631543167402   -0.002264871281780469   -0.00038270622503698174
-0.0015221689291057322   -0.002337573342195346   -0.00038413365922968076
-0.0009902166082311815   -0.0043372893418707655   -0.00048165186693775096
-0.0020961559847619874   -0.004388659679501809   -0.000507281853862469
-0.0020922023746422773   -0.004365587298295991   -0.000540764029150118
-0.0015221689291057322   -0.002337573342195346   -0.00038413365922968076
-0.0009902166082311815   -0.0043372893418707655   -0.00048165186693775096
-0.0020922023746422773   -0.004365587298295991   -0.000540764029150118
-0.0006984631543167402   -0.002264871281780469   -0.00038270622503698174
-0.0015221689291057322   -0.002337573342195346   -0.00038413365922968076
-0.0020961559847619874   -0.004388659679501809   -0.000507281853862469
-0.0006919314684824421   -0.0022767298827091583   -0.0003609042237433527
-0.0015163883503077071   -0.002349962220276688   -0.0003421495401660018
-0.0020961559847619874   -0.004388659679501809   -0.000507281853862469
-0.0009902166082311815   -0.0043372893418707655   -0.00048165186693775096
-0.0006919314684824421   -0.0022767298827091583   -0.0003609042237433527
-0.000983815169191692   -0.004341222894868265   -0.00046614639632744685
-0.0015163883503077071   -0.002349962220276688   -0.0003421495401660018
-0.0006827150921752671   -0.002276520337242437   -0.00034198074416397017
-0.000983815169191692   -0.004341222894868265   -0.00046614639632744685
-0.0006919314684824421   -0.0022767298827091583   -0.0003609042237433527
-0.0015163883503077071   -0.002349962220276688   -0.0003421495401660018
-0.000983815169191692   -0.004341222894868265   -0.00046614639632744685
-0.002090783732424723   -0.00440401011324782   -0.00047589400238792854
-0.0020961559847619874   -0.004388659679501809   -0.000507281853862469
-0.0015163883503077071   -0.002349962220276688   -0.0003421495401660018
-0.000983815169191692   -0.004341222894868265   -0.00046614639632744685
-0.0020961559847619874   -0.004388659679501809   -0.000507281853862469
-0.0006919314684824421   -0.0022767298827091583   -0.0003609042237433527
-0.000705689278256668   -0.002240500417671168   -0.0004068101850032377
-0.0009984808528520595   -0.004303918890082088   -0.000520245003137424
7.566341683749777e-05   -0.0022416129221085497   -0.00036338785561308706
-0.0006984631543167402   -0.002264871281780469   -0.00038270622503698174
-0.0009984808528520595   -0.004303918890082088   -0.000520245003137424
5.941927704420163e-05   -0.004302369781258171   -0.00048538384056348414
7.566341683749777e-05   -0.0022416129221085497   -0.00036338785561308706
6.542173880934286e-05   -0.004311519688732797   -0.00048033388223666865
-0.0006984631543167402   -0.002264871281780469   -0.00038270622503698174
8.434744254227772e-05   -0.002252994007103146   -0.0003615813297346915
6.542173880934286e-05   -0.004311519688732797   -0.00048033388223666865
7.566341683749777e-05   -0.0022416129221085497   -0.00036338785561308706
-0.0006984631543167402   -0.002264871281780469   -0.00038270622503698174
6.542173880934286e-05   -0.004311519688732797   -0.00048033388223666865
-0.0009946259296897254   -0.004324913551309676   -0.0004996835347633944
-0.0009984808528520595   -0.004303918890082088   -0.000520245003137424
-0.0006984631543167402   -0.002264871281780469   -0.00038270622503698174
6.542173880934286e-05   -0.004311519688732797   -0.00048033388223666865
-0.0009984808528520595   -0.004303918890082088   -0.000520245003137424
7.566341683749777e-05   -0.0022416129221085497   -0.00036338785561308706
-0.0006984631543167402   -0.002264871281780469   -0.00038270622503698174
-0.0009946259296897254   -0.004324913551309676   -0.0004996835347633944
8.434744254227772e-05   -0.002252994007103146   -0.0003615813297346915
-0.0006919314684824421   -0.0022767298827091583   -0.0003609042237433527
-0.0009946259296897254   -0.004324913551309676   -0.0004996835347633944
6.542173880934286e-05   -0.004311519688732797   -0.00048033388223666865
8.434744254227772e-05   -0.002252994007103146   -0.0003615813297346915
6.975282513340913e-05   -0.004312082616991991   -0.00047775224293761356
-0.0006919314684824421   -0.0022767298827091583   -0.0003609042237433527
9.055182328365897e-05   -0.002252152184318572   -0.0003623831567949232
6.975282513340913e-05   -0.004312082616991991   -0.00047775224293761356
8.434744254227772e-05   -0.002252994007103146   -0.0003615813297346915
-0.0006919314684824421   -0.0022767298827091583   -0.0003609042237433527
6.975282513340913e-05   -0.004312082616991991   -0.00047775224293761356
-0.0009902166082311815   -0.0043372893418707655   -0.00048165186693775096
-0.0009946259296897254   -0.004324913551309676   -0.0004996835347633944
-0.0006919314684824421   -0.0022767298827091583   -0.0003609042237433527
6.975282513340913e-05   -0.004312082616991991   -0.00047775224293761356
-0.0009946259296897254   -0.004324913551309676   -0.0004996835347633944
8.434744254227772e-05   -0.002252994007103146   -0.0003615813297346915
-0.0006919314684824421   -0.0022767298827091583   -0.0003609042237433527
-0.0009902166082311815   -0.0043372893418707655   -0.00048165186693775096
9.055182328365897e-05   -0.002252152184318572   -0.0003623831567949232
-0.0006827150921752671   -0.002276520337242437   -0.00034198074416397017
-0.0009902166082311815   -0.0043372893418707655   -0.00048165186693775096
6.975282513340913e-05   -0.004312082616991991   -0.00047775224293761356
9.055182328365897e-05   -0.002252152184318572   -0.0003623831567949232
7.327566345226762e-05   -0.004303932378371519   -0.0004777837720906583
-0.0006827150921752671   -0.002276520337242437   -0.00034198074416397017
9.712340305289057e-05   -0.0022387200204729537   -0.0003658331465555721
7.327566345226762e-05   -0.004303932378371519   -0.0004777837720906583
9.055182328365897e-05   -0.002252152184318572   -0.0003623831567949232
-0.0006827150921752671   -0.002276520337242437   -0.00034198074416397017
7.327566345226762e-05   -0.004303932378371519   -0.0004777837720906583
-0.000983815169191692   -0.004341222894868265   -0.00046614639632744685
-0.0009902166082311815   -0.0043372893418707655   -0.00048165186693775096
-0.0006827150921752671   -0.002276520337242437   -0.00034198074416397017
7.327566345226762e-05   -0.004303932378371519   -0.0004777837720906583
-0.0009902166082311815   -0.0043372893418707655   -0.00048165186693775096
9.055182328365897e-05   -0.002252152184318572   -0.0003623831567949232
7.566341683749777e-05   -0.0022416129221085497   -0.00036338785561308706
5.941927704420163e-05   -0.004302369781258171   -0.00048538384056348414
0.0009043104987574634   -0.002277626506108926   -0.00034353923840294584
8.434744254227772e-05   -0.002252994007103146   -0.0003615813297346915
5.941927704420163e-05   -0.004302369781258171   -0.00048538384056348414
0.001162854455760761   -0.0043263214875217375   -0.0004717723364955258
0.0009043104987574634   -0.002277626506108926   -0.00034353923840294584
0.001168405045550396   -0.004324566926397545   -0.0004825450323188097
8.434744254227772e-05   -0.002252994007103146   -0.0003615813297346915
0.0009098755173169076   -0.0022771577543565223   -0.0003647452963428065
0.001168405045550396   -0.004324566926397545   -0.0004825450323188097
0.0009043104987574634   -0.002277626506108926   -0.00034353923840294584
8.434744254227772e-05   -0.002252994007103146   -0.0003615813297346915
0.001168405045550396   -0.004324566926397545   -0.0004825450323188097
6.542173880934286e-05   -0.004311519688732797   -0.00048033388223666865
5.941927704420163e-05   -0.004302369781258171   -0.00048538384056348414
8.434744254227772e-05   -0.002252994007103146   -0.0003615813297346915
0.001168405045550396   -0.004324566926397545   -0.0004825450323188097
5.941927704420163e-05   -0.004302369781258171   -0.00048538384056348414
0.0009043104987574634   -0.002277626506108926   -0.00034353923840294584
8.434744254227772e-05   -0.002252994007103146   -0.0003615813297346915
6.542173880934286e-05   -0.004311519688732797   -0.00048033388223666865
0.0009098755173169076   -0.0022771577543565223   -0.0003647452963428065
9.055182328365897e-05   -0.002252152184318572   -0.0003623831567949232
6.542173880934286e-05   -0.004311519688732797   -0.00048033388223666865
0.001168405045550396   -0.004324566926397545   -0.0004825450323188097
0.0009098755173169076   -0.0022771577543565223   -0.0003647452963428065
0.0011669858383645977   -0.004314455212075996   -0.0004956046962428774
9.055182328365897e-05   -0.002252152184318572   -0.0003623831567949232
0.0009069590460263037   -0.002264738026407305   -0.00038890145559693077
0.0011669858383645977   -0.004314455212075996   -0.0004956046962428774
0.0009098755173169076   -0.0022771577543565223   -0.0003647452963428065
9.055182328365897e-05   -0.002252152184318572   -0.0003623831567949232
0.0011669858383645977   -0.004314455212075996   -0.0004956046962428774
6.975282513340913e-05   -0.004312082616991991   -0.00047775224293761356
6.542173880934286e-05   -0.004311519688732797   -0.00048033388223666865
9.055182328365897e-05   -0.002252152184318572   -0.0003623831567949232
0.0011669858383645977   -0.004314455212075996   -0.0004956046962428774
6.542173880934286e-05   -0.004311519688732797   -0.00048033388223666865
0.0009098755173169076   -0.0022771577543565223   -0.0003647452963428065
9.055182328365897e-05   -0.002252152184318572   -0.0003623831567949232
6.975282513340913e-05   -0.004312082616991991   -0.00047775224293761356
0.0009069590460263037   -0.002264738026407305   -0.00038890145559693077
9.712340305289057e-05   -0.0022387200204729537   -0.0003658331465555721
6.975282513340913e-05   -0.004312082616991991   -0.00047775224293761356
0.0011669858383645977   -0.004314455212075996   -0.0004956046962428774
0.0009069590460263037   -0.002264738026407305   -0.00038890145559693077
0.0011639958648056528   -0.004293866223747946   -0.0005112264251929344
9.712340305289057e-05   -0.0022387200204729537   -0.0003658331465555721
0.0009057549225619897   -0.0022370223743227104   -0.0004151095704434944
0.0011639958648056528   -0.004293866223747946   -0.0005112264251929344
0.0009069590460263037   -0.002264738026407305   -0.00038890145559693077
9.712340305289057e-05   -0.0022387200204729537   -0.0003658331465555721
0.0011639958648056528   -0.004293866223747946   -0.0005112264251929344
7.327566345226762e-05   -0.004303932378371519   -0.0004777837720906583
6.975282513340913e-05   -0.004312082616991991   -0.00047775224293761356
9.712340305289057e-05   -0.0022387200204729537   -0.0003658331465555721
0.0011639958648056528   -0.004293866223747946   -0.0005112264251929344
6.975282513340913e-05   -0.004312082616991991   -0.00047775224293761356
0.0009069590460263037   -0.002264738026407305   -0.00038890145559693077
0.0009043104987574634   -0.002277626506108926   -0.00034353923840294584
0.001162854455760761   -0.0043263214875217375   -0.0004717723364955258
0.00190592252099454   -0.0023443389253430032   -0.0003390169302357525
0.0009098755173169076   -0.0022771577543565223   -0.0003647452963428065
0.001162854455760761   -0.0043263214875217375   -0.0004717723364955258
0.0024203008577421328   -0.004369460496248752   -0.0004731424483731281
0.00190592252099454   -0.0023443389253430032   -0.0003390169302357525
0.002401499908638695   -0.00436134767775889   -0.0005016253701631463
0.0009098755173169076   -0.0022771577543565223   -0.0003647452963428065
0.0018690517772755187   -0.0023374558613117216   -0.00038689878525934013
0.002401499908638695   -0.00436134767775889   -0.0005016253701631463
0.00190592252099454   -0.0023443389253430032   -0.0003390169302357525
0.0009098755173169076   -0.0022771577543565223   -0.0003647452963428065
0.002401499908638695   -0.00436134767775889   -0.0005016253701631463
0.001168405045550396   -0.004324566926397545   -0.0004825450323188097
0.001162854455760761   -0.0043263214875217375   -0.0004717723364955258
0.0009098755173169076   -0.0022771577543565223   -0.0003647452963428065
0.002401499908638695   -0.00436134767775889   -0.0005016253701631463
0.001162854455760761   -0.0043263214875217375   -0.0004717723364955258
0.00190592252099454   -0.0023443389253430032   -0.0003390169302357525
0.0009098755173169076   -0.0022771577543565223   -0.0003647452963428065
0.001168405045550396   -0.004324566926397545   -0.0004825450323188097
0.0018690517772755187   -0.0023374558613117216   -0.00038689878525934013
0.0009069590460263037   -0.002264738026407305   -0.00038890145559693077
0.001168405045550396   -0.004324566926397545   -0.0004825450323188097
0.002401499908638695   -0.00436134767775889   -0.0005016253701631463
0.0018690517772755187   -0.0023374558613117216   -0.00038689878525934013
0.0023824157735543917   -0.004345868438099404   -0.0005342334472185688
0.0009069590460263037   -0.002264738026407305   -0.00038890145559693077
0.0018359385109416434   -0.0023183794680959814   -0.00044097254361692955
0.0023824157735543917   -0.004345868438099404   -0.0005342334472185688
0.0018690517772755187   -0.0023374558613117216   -0.00038689878525934013
0.0009069590460263037   -0.002264738026407305   -0.00038890145559693077
0.0023824157735543917   -0.004345868438099404   -0.0005342334472185688
0.0011669858383645977   -0.004314455212075996   -0.0004956046962428774
0.001168405045550396   -0.004324566926397545   -0.0004825450323188097
0.0009069590460263037   -0.002264738026407305   -0.00038890145559693077
0.0023824157735543917   -0.004345868438099404   -0.0005342334472185688
0.001168405045550396   -0.004324566926397545   -0.0004825450323188097
0.0018690517772755187   -0.0023374558613117216   -0.00038689878525934013
0.0009069590460263037   -0.002264738026407305   -0.00038890145559693077
0.0011669858383645977   -0.004314455212075996   -0.0004956046962428774
0.0018359385109416434   -0.0023183794680959814   -0.00044097254361692955
0.0009057549225619897   -0.0022370223743227104   -0.0004151095704434944
0.0011669858383645977   -0.004314455212075996   -0.0004956046962428774
0.0023824157735543917   -0.004345868438099404   -0.0005342334472185688
0.0018359385109416434   -0.0023183794680959814   -0.00044097254361692955
0.0023470560905962798   -0.004313882720852072   -0.0005709716128886444
0.0009057549225619897   -0.0022370223743227104   -0.0004151095704434944
0.0017855092294316985   -0.0022763592549908036   -0.0004973877088332606
0.0023470560905962798   -0.004313882720852072   -0.0005709716128886444
0.0018359385109416434   -0.0023183794680959814   -0.00044097254361692955
0.0009057549225619897   -0.0022370223743227104   -0.0004151095704434944
0.0023470560905962798   -0.004313882720852072   -0.0005709716128886444
0.0011639958648056528   -0.004293866223747946   -0.0005112264251929344
0.0011669858383645977   -0.004314455212075996   -0.0004956046962428774
0.0009057549225619897   -0.0022370223743227104   -0.0004151095704434944
0.0023470560905962798   -0.004313882720852072   -0.0005709716128886444
0.0011669858383645977   -0.004314455212075996   -0.0004956046962428774
0.0018359385109416434   -0.0023183794680959814   -0.00044097254361692955
-0.0032476095885074817   -0.004389870092703874   -0.000658562130106122
-0.0038683748638119655   -0.006796414252914412   -0.0007038096406170162
-0.00208898624861016   -0.00433259339706661   -0.0005769117810884084
-0.0033034851587935236   -0.004435039818017249   -0.0006023966921622141
-0.0038683748638119655   -0.006796414252914412   -0.0007038096406170162
-0.002513601022570682   -0.006760263837919525   -0.0006377383661854673
-0.00208898624861016   -0.00433259339706661   -0.0005769117810884084
-0.0025152333834698483   -0.006788446795916363   -0.0006120116155797648
-0.0033034851587935236   -0.004435039818017249   -0.0006023966921622141
-0.0020922023746422773   -0.004365587298295991   -0.000540764029150118
-0.0025152333834698483   -0.006788446795916363   -0.0006120116155797648
-0.00208898624861016   -0.00433259339706661   -0.0005769117810884084
-0.0033034851587935236   -0.004435039818017249   -0.0006023966921622141
-0.0025152333834698483   -0.006788446795916363   -0.0006120116155797648
-0.003905220953731956   -0.006834610837559947   -0.0006668684349874661
-0.0038683748638119655   -0.006796414252914412   -0.0007038096406170162
-0.0033034851587935236   -0.004435039818017249   -0.0006023966921622141
-0.0025152333834698483   -0.006788446795916363   -0.0006120116155797648
-0.0038683748638119655   -0.006796414252914412   -0.0007038096406170162
-0.00208898624861016   -0.00433259339706661   -0.0005769117810884084
-0.0033034851587935236   -0.004435039818017249   -0.0006023966921622141
-0.003905220953731956   -0.006834610837559947   -0.0006668684349874661
-0.0020922023746422773   -0.004365587298295991   -0.000540764029150118
-0.0033380839162636027   -0.004463490360001956   -0.0005501337910584006
-0.003905220953731956   -0.006834610837559947   -0.0006668684349874661
-0.0025152333834698483   -0.006788446795916363   -0.0006120116155797648
-0.0020922023746422773   -0.004365587298295991   -0.000540764029150118
-0.0025159530587518047   -0.006810908372312269   -0.0005888729786827242
-0.0033380839162636027   -0.004463490360001956   -0.0005501337910584006
-0.0020961559847619874   -0.004388659679501809   -0.000507281853862469
-0.0025159530587518047   -0.006810908372312269   -0.0005888729786827242
-0.0020922023746422773   -0.004365587298295991   -0.000540764029150118
-0.0033380839162636027   -0.004463490360001956   -0.0005501337910584006
-0.0025159530587518047   -0.006810908372312269   -0.0005888729786827242
-0.0039256762219305906   -0.006861778194083909   -0.0006335313995791004
-0.003905220953731956   -0.006834610837559947   -0.0006668684349874661
-0.0033380839162636027   -0.004463490360001956   -0.0005501337910584006
-0.0025159530587518047   -0.006810908372312269   -0.0005888729786827242
-0.003905220953731956   -0.006834610837559947   -0.0006668684349874661
-0.0020922023746422773   -0.004365587298295991   -0.000540764029150118
-0.0033380839162636027   -0.004463490360001956   -0.0005501337910584006
-0.0039256762219305906   -0.006861778194083909   -0.0006335313995791004
-0.0020961559847619874   -0.004388659679501809   -0.000507281853862469
-0.003377449204727431   -0.004484228587468497   -0.0005021396092878638
-0.0039256762219305906   -0.006861778194083909   -0.0006335313995791004
-0.0025159530587518047   -0.006810908372312269   -0.0005888729786827242
-0.0020961559847619874   -0.004388659679501809   -0.000507281853862469
-0.0025093395128576493   -0.006829524243119144   -0.0005679696371303697
-0.003377449204727431   -0.004484228587468497   -0.0005021396092878638
-0.002090783732424723   -0.00440401011324782   -0.00047589400238792854
-0.0025093395128576493   -0.006829524243119144   -0.0005679696371303697
-0.0020961559847619874   -0.004388659679501809   -0.000507281853862469
-0.003377449204727431   -0.004484228587468497   -0.0005021396092878638
-0.0025093395128576493   -0.006829524243119144   -0.0005679696371303697
-0.003946630730669017   -0.006886373239270876   -0.0006042350140309538
-0.0039256762219305906   -0.006861778194083909   -0.0006335313995791004
-0.003377449204727431   -0.004484228587468497   -0.0005021396092878638
-0.0025093395128576493   -0.006829524243119144   -0.0005679696371303697
-0.0039256762219305906   -0.006861778194083909   -0.0006335313995791004
-0.0020961559847619874   -0.004388659679501809   -0.000507281853862469
-0.00208898624861016   -0.00433259339706661   -0.0005769117810884084
-0.002513601022570682   -0.006760263837919525   -0.0006377383661854673
-0.0009984808528520595   -0.004303918890082088   -0.000520245003137424
-0.0020922023746422773   -0.004365587298295991   -0.000540764029150118
-0.002513601022570682   -0.006760263837919525   -0.0006377383661854673
-0.0012447005701525058   -0.006741383064015082   -0.0005920315834169008
-0.0009984808528520595   -0.004303918890082088   -0.000520245003137424
-0.0012409839537688586   -0.006758966763478308   -0.0005748866814488694
-0.0020922023746422773   -0.004365587298295991   -0.000540764029150118
-0.0009946259296897254   -0.004324913551309676   -0.0004996835347633944
-0.0012409839537688586   -0.006758966763478308   -0.0005748866814488694
-0.0009984808528520595   -0.004303918890082088   -0.000520245003137424
-0.0020922023746422773   -0.004365587298295991   -0.000540764029150118
-0.0012409839537688586   -0.006758966763478308   -0.0005748866814488694
-0.0025152333834698483   -0.006788446795916363   -0.0006120116155797648
-0.002513601022570682   -0.006760263837919525   -0.0006377383661854673
-0.0020922023746422773   -0.004365587298295991   -0.000540764029150118
-0.0012409839537688586   -0.006758966763478308   -0.0005748866814488694
-0.002513601022570682   -0.006760263837919525   -0.0006377383661854673
-0.0009984808528520595   -0.004303918890082088   -0.000520245003137424
-0.0020922023746422773   -0.004365587298295991   -0.000540764029150118
-0.0025152333834698483   -0.006788446795916363   -0.0006120116155797648
-0.0009946259296897254   -0.004324913551309676   -0.0004996835347633944
-0.0020961559847619874   -0.004388659679501809   -0.000507281853862469
-0.0025152333834698483   -0.006788446795916363   -0.0006120116155797648
-0.0012409839537688586   -0.006758966763478308   -0.0005748866814488694
-0.0009946259296897254   -0.004324913551309676   -0.0004996835347633944
-0.0012364199919521351   -0.006771743579778857   -0.0005602839777541531
-0.0020961559847619874   -0.004388659679501809   -0.000507281853862469
-0.0009902166082311815   -0.0043372893418707655   -0.00048165186693775096
-0.0012364199919521351   -0.006771743579778857   -0.0005602839777541531
-0.0009946259296897254   -0.004324913551309676   -0.0004996835347633944
-0.0020961559847619874   -0.004388659679501809   -0.000507281853862469
-0.0012364199919521351   -0.006771743579778857   -0.0005602839777541531
-0.0025159530587518047   -0.006810908372312269   -0.0005888729786827242
-0.0025152333834698483   -0.006788446795916363   -0.0006120116155797648
-0.0020961559847619874   -0.004388659679501809   -0.000507281853862469
-0.0012364199919521351   -0.006771743579778857   -0.0005602839777541531
-0.0025152333834698483   -0.006788446795916363   -0.0006120116155797648
-0.0009946259296897254   -0.004324913551309676   -0.0004996835347633944
-0.0020961559847619874   -0.004388659679501809   -0.000507281853862469
-0.0025159530587518047   -0.006810908372312269   -0.0005888729786827242
-0.0009902166082311815   -0.0043372893418707655   -0.00048165186693775096
-0.002090783732424723   -0.00440401011324782   -0.00047589400238792854
-0.0025159530587518047   -0.006810908372312269   -0.0005888729786827242
-0.0012364199919521351   -0.006771743579778857   -0.0005602839777541531
-0.0009902166082311815   -0.0043372893418707655   -0.00048165186693775096
-0.00123025625372157   -0.006779798738110813   -0.0005482706873470617
-0.002090783732424723   -0.00440401011324782   -0.00047589400238792854
-0.000983815169191692   -0.004341222894868265   -0.00046614639632744685
-0.00123025625372157   -0.006779798738110813   -0.0005482706873470617
-0.0009902166082311815   -0.0043372893418707655   -0.00048165186693775096
-0.002090783732424723   -0.00440401011324782   -0.00047589400238792854
-0.00123025625372157   -0.006779798738110813   -0.0005482706873470617
-0.0025093395128576493   -0.006829524243119144   -0.0005679696371303697
-0.0025159530587518047   -0.006810908372312269   -0.0005888729786827242
-0.002090783732424723   -0.00440401011324782   -0.00047589400238792854
-0.00123025625372157   -0.006779798738110813   -0.0005482706873470617
-0.0025159530587518047   -0.006810908372312269   -0.0005888729786827242
-0.0009902166082311815   -0.0043372893418707655   -0.00048165186693775096
-0.0009984808528520595   -0.004303918890082088   -0.000520245003137424
-0.0012447005701525058   -0.006741383064015082   -0.0005920315834169008
5.941927704420163e-05   -0.004302369781258171   -0.00048538384056348414
-0.0009946259296897254   -0.004324913551309676   -0.0004996835347633944
-0.0012447005701525058   -0.006741383064015082   -0.0005920315834169008
-1.0591554194830974e-05   -0.006738013492635822   -0.000565701533819537
5.941927704420163e-05   -0.004302369781258171   -0.00048538384056348414
-4.753581568514616e-06   -0.006744898446817343   -0.0005572217790213655
-0.0009946259296897254   -0.004324913551309676   -0.0004996835347633944
6.542173880934286e-05   -0.004311519688732797   -0.00048033388223666865
-4.753581568514616e-06   -0.006744898446817343   -0.0005572217790213655
5.941927704420163e-05   -0.004302369781258171   -0.00048538384056348414
-0.0009946259296897254   -0.004324913551309676   -0.0004996835347633944
-4.753581568514616e-06   -0.006744898446817343   -0.0005572217790213655
-0.0012409839537688586   -0.006758966763478308   -0.0005748866814488694
-0.0012447005701525058   -0.006741383064015082   -0.0005920315834169008
-0.0009946259296897254   -0.004324913551309676   -0.0004996835347633944
-4.753581568514616e-06   -0.006744898446817343   -0.0005572217790213655
-0.0012447005701525058   -0.006741383064015082   -0.0005920315834169008
5.941927704420163e-05   -0.004302369781258171   -0.00048538384056348414
-0.0009946259296897254   -0.004324913551309676   -0.0004996835347633944
-0.0012409839537688586   -0.006758966763478308   -0.0005748866814488694
6.542173880934286e-05   -0.004311519688732797   -0.00048033388223666865
-0.0009902166082311815   -0.0043372893418707655   -0.00048165186693775096
-0.0012409839537688586   -0.006758966763478308   -0.0005748866814488694
-4.753581568514616e-06   -0.006744898446817343   -0.0005572217790213655
6.542173880934286e-05   -0.004311519688732797   -0.00048033388223666865
-2.1062244213443422e-07   -0.006746941654565792   -0.0005512568847657518
-0.0009902166082311815   -0.0043372893418707655   -0.00048165186693775096
6.975282513340913e-05   -0.004312082616991991   -0.00047775224293761356
-2.1062244213443422e-07   -0.006746941654565792   -0.0005512568847657518
6.542173880934286e-05   -0.004311519688732797   -0.00048033388223666865
-0.0009902166082311815   -0.0043372893418707655   -0.00048165186693775096
-2.1062244213443422e-07   -0.006746941654565792   -0.0005512568847657518
-0.0012364199919521351   -0.006771743579778857   -0.0005602839777541531
-0.0012409839537688586   -0.006758966763478308   -0.0005748866814488694
-0.0009902166082311815   -0.0043372893418707655   -0.00048165186693775096
-2.1062244213443422e-07   -0.006746941654565792   -0.0005512568847657518
-0.0012409839537688586   -0.006758966763478308   -0.0005748866814488694
6.542173880934286e-05   -0.004311519688732797   -0.00048033388223666865
-0.0009902166082311815   -0.0043372893418707655   -0.00048165186693775096
-0.0012364199919521351   -0.006771743579778857   -0.0005602839777541531
6.975282513340913e-05   -0.004312082616991991   -0.00047775224293761356
-0.000983815169191692   -0.004341222894868265   -0.00046614639632744685
-0.0012364199919521351   -0.006771743579778857   -0.0005602839777541531
-2.1062244213443422e-07   -0.006746941654565792   -0.0005512568847657518
6.975282513340913e-05   -0.004312082616991991   -0.00047775224293761356
3.191551986670057e-06   -0.006744075561748434   -0.0005479140152267371
-0.000983815169191692   -0.004341222894868265   -0.00046614639632744685
7.327566345226762e-05   -0.004303932378371519   -0.0004777837720906583
3.191551986670057e-06   -0.006744075561748434   -0.0005479140152267371
6.975282513340913e-05   -0.004312082616991991   -0.00047775224293761356
-0.000983815169191692   -0.004341222894868265   -0.00046614639632744685
3.191551986670057e-06   -0.006744075561748434   -0.0005479140152267371
-0.00123025625372157   -0.006779798738110813   -0.0005482706873470617
-0.0012364199919521351   -0.006771743579778857   -0.0005602839777541531
-0.000983815169191692   -0.004341222894868265   -0.00046614639632744685
3.191551986670057e-06   -0.006744075561748434   -0.0005479140152267371
-0.0012364199919521351   -0.006771743579778857   -0.0005602839777541531
6.975282513340913e-05   -0.004312082616991991   -0.00047775224293761356
5.941927704420163e-05   -0.004302369781258171   -0.00048538384056348414
-1.0591554194830974e-05   -0.006738013492635822   -0.000565701533819537
0.001162854455760761   -0.0043263214875217375   -0.0004717723364955258
6.542173880934286e-05   -0.004311519688732797   -0.00048033388223666865
-1.0591554194830974e-05   -0.006738013492635822   -0.000565701533819537
0.0012660351837980243   -0.006748796236277089   -0.0005586929214074015
0.001162854455760761   -0.0043263214875217375   -0.0004717723364955258
0.0012729836119718563   -0.006745561627288973   -0.000559050142385953
6.542173880934286e-05   -0.004311519688732797   -0.00048033388223666865
0.001168405045550396   -0.004324566926397545   -0.0004825450323188097
0.0012729836119718563   -0.006745561627288973   -0.000559050142385953
0.001162854455760761   -0.0043263214875217375   -0.0004717723364955258
6.542173880934286e-05   -0.004311519688732797   -0.00048033388223666865
0.0012729836119718563   -0.006745561627288973   -0.000559050142385953
-4.753581568514616e-06   -0.006744898446817343   -0.0005572217790213655
-1.0591554194830974e-05   -0.006738013492635822   -0.000565701533819537
6.542173880934286e-05   -0.004311519688732797   -0.00048033388223666865
0.0012729836119718563   -0.006745561627288973   -0.000559050142385953
-1.0591554194830974e-05   -0.006738013492635822   -0.000565701533819537
0.001162854455760761   -0.0043263214875217375   -0.0004717723364955258
6.542173880934286e-05   -0.004311519688732797   -0.00048033388223666865
-4.753581568514616e-06   -0.006744898446817343   -0.0005572217790213655
0.001168405045550396   -0.004324566926397545   -0.0004825450323188097
6.975282513340913e-05   -0.004312082616991991   -0.00047775224293761356
-4.753581568514616e-06   -0.006744898446817343   -0.0005572217790213655
0.0012729836119718563   -0.006745561627288973   -0.000559050142385953
0.001168405045550396   -0.004324566926397545   -0.0004825450323188097
0.0012749728477589753   -0.006737908709909607   -0.0005617831946228977
6.975282513340913e-05   -0.004312082616991991   -0.00047775224293761356
0.0011669858383645977   -0.004314455212075996   -0.0004956046962428774
0.0012749728477589753   -0.006737908709909607   -0.0005617831946228977
0.001168405045550396   -0.004324566926397545   -0.0004825450323188097
6.975282513340913e-05   -0.004312082616991991   -0.00047775224293761356
0.0012749728477589753   -0.006737908709909607   -0.0005617831946228977
-2.1062244213443422e-07   -0.006746941654565792   -0.0005512568847657518
-4.753581568514616e-06   -0.006744898446817343   -0.0005572217790213655
6.975282513340913e-05   -0.004312082616991991   -0.00047775224293761356
0.0012749728477589753   -0.006737908709909607   -0.0005617831946228977
-4.753581568514616e-06   -0.006744898446817343   -0.0005572217790213655
0.001168405045550396   -0.004324566926397545   -0.0004825450323188097
6.975282513340913e-05   -0.004312082616991991   -0.00047775224293761356
-2.1062244213443422e-07   -0.006746941654565792   -0.0005512568847657518
0.0011669858383645977   -0.004314455212075996   -0.0004956046962428774
7.327566345226762e-05   -0.004303932378371519   -0.0004777837720906583
-2.1062244213443422e-07   -0.006746941654565792   -0.0005512568847657518
0.0012749728477589753   -0.006737908709909607   -0.0005617831946228977
0.0011669858383645977   -0.004314455212075996   -0.0004956046962428774
0.0012736800212359437   -0.006723973416555642   -0.0005669873814781572
7.327566345226762e-05   -0.004303932378371519   -0.0004777837720906583
0.0011639958648056528   -0.004293866223747946   -0.0005112264251929344
0.0012736800212359437   -0.006723973416555642   -0.0005669873814781572
0.0011669858383645977   -0.004314455212075996   -0.0004956046962428774
7.327566345226762e-05   -0.004303932378371519   -0.0004777837720906583
0.0012736800212359437   -0.006723973416555642   -0.0005669873814781572
3.191551986670057e-06   -0.006744075561748434   -0.0005479140152267371
-2.1062244213443422e-07   -0.006746941654565792   -0.0005512568847657518
7.327566345226762e-05   -0.004303932378371519   -0.0004777837720906583
0.0012736800212359437   -0.006723973416555642   -0.0005669873814781572
-2.1062244213443422e-07   -0.006746941654565792   -0.0005512568847657518
0.0011669858383645977   -0.004314455212075996   -0.0004956046962428774
0.001162854455760761   -0.0043263214875217375   -0.0004717723364955258
0.0012660351837980243   -0.006748796236277089   -0.0005586929214074015
0.0024203008577421328   -0.004369460496248752   -0.0004731424483731281
0.001168405045550396   -0.004324566926397545   -0.0004825450323188097
0.0012660351837980243   -0.006748796236277089   -0.0005586929214074015
0.0026756014575984367   -0.0067683675875196084   -0.0005670349515571412
0.0024203008577421328   -0.004369460496248752   -0.0004731424483731281
0.002675473937266839   -0.006758223920784487   -0.0005767677636080159
0.001168405045550396   -0.004324566926397545   -0.0004825450323188097
0.002401499908638695   -0.00436134767775889   -0.0005016253701631463
0.002675473937266839   -0.006758223920784487   -0.0005767677636080159
0.0024203008577421328   -0.004369460496248752   -0.0004731424483731281
0.001168405045550396   -0.004324566926397545   -0.0004825450323188097
0.002675473937266839   -0.006758223920784487   -0.0005767677636080159
0.0012729836119718563   -0.006745561627288973   -0.000559050142385953
0.0012660351837980243   -0.006748796236277089   -0.0005586929214074015
0.001168405045550396   -0.004324566926397545   -0.0004825450323188097
0.002675473937266839   -0.006758223920784487   -0.0005767677636080159
0.0012660351837980243   -0.006748796236277089   -0.0005586929214074015
0.0024203008577421328   -0.004369460496248752   -0.0004731424483731281
0.001168405045550396   -0.004324566926397545   -0.0004825450323188097
0.0012729836119718563   -0.006745561627288973   -0.000559050142385953
0.002401499908638695   -0.00436134767775889   -0.0005016253701631463
0.0011669858383645977   -0.004314455212075996   -0.0004956046962428774
0.0012729836119718563   -0.006745561627288973   -0.000559050142385953
0.002675473937266839   -0.006758223920784487   -0.0005767677636080159
0.002401499908638695   -0.00436134767775889   -0.0005016253701631463
0.00267083680401168   -0.006745850101338354   -0.0005903650871867498
0.0011669858383645977   -0.004314455212075996   -0.0004956046962428774
0.0023824157735543917   -0.004345868438099404   -0.0005342334472185688
0.00267083680401168   -0.006745850101338354   -0.0005903650871867498
0.002401499908638695   -0.00436134767775889   -0.0005016253701631463
0.0011669858383645977   -0.004314455212075996   -0.0004956046962428774
0.00267083680401168   -0.006745850101338354   -0.0005903650871867498
0.0012749728477589753   -0.006737908709909607   -0.0005617831946228977
0.0012729836119718563   -0.006745561627288973   -0.000559050142385953
0.0011669858383645977   -0.004314455212075996   -0.0004956046962428774
0.00267083680401168   -0.006745850101338354   -0.0005903650871867498
0.0012729836119718563   -0.006745561627288973   -0.000559050142385953
0.002401499908638695   -0.00436134767775889   -0.0005016253701631463
0.0011669858383645977   -0.004314455212075996   -0.0004956046962428774
0.0012749728477589753   -0.006737908709909607   -0.0005617831946228977
0.0023824157735543917   -0.004345868438099404   -0.0005342334472185688
0.0011639958648056528   -0.004293866223747946   -0.0005112264251929344
0.0012749728477589753   -0.006737908709909607   -0.0005617831946228977
0.00267083680401168   -0.006745850101338354   -0.0005903650871867498
0.0023824157735543917   -0.004345868438099404   -0.0005342334472185688
0.0026547809309390258   -0.0067227268629759295   -0.0006077986897384823
0.0011639958648056528   -0.004293866223747946   -0.0005112264251929344
0.0023470560905962798   -0.004313882720852072   -0.0005709716128886444
0.0026547809309390258   -0.0067227268629759295   -0.0006077986897384823
0.0023824157735543917   -0.004345868438099404   -0.0005342334472185688
0.0011639958648056528   -0.004293866223747946   -0.0005112264251929344
0.0026547809309390258   -0.0067227268629759295   -0.0006077986897384823
0.0012736800212359437   -0.006723973416555642   -0.0005669873814781572
0.0012749728477589753   -0.006737908709909607   -0.0005617831946228977
0.0011639958648056528   -0.004293866223747946   -0.0005112264251929344
0.0026547809309390258   -0.0067227268629759295   -0.0006077986897384823
0.0012749728477589753   -0.006737908709909607   -0.0005617831946228977
0.0023824157735543917   -0.004345868438099404   -0.0005342334472185688
-0.0038683748638119655   -0.006796414252914412   -0.0007038096406170162
-0.004239732197614174   -0.009405335601814434   -0.0007183154003824912
-0.002513601022570682   -0.006760263837919525   -0.0006377383661854673
-0.003905220953731956   -0.006834610837559947   -0.0006668684349874661
-0.004239732197614174   -0.009405335601814434   -0.0007183154003824912
-0.0027904013944783142   -0.00939086717282072   -0.0006661297180569848
-0.002513601022570682   -0.006760263837919525   -0.0006377383661854673
-0.002788106739684828   -0.009414724025368498   -0.0006504526082307194
-0.003905220953731956   -0.006834610837559947   -0.0006668684349874661
-0.0025152333834698483   -0.006788446795916363   -0.0006120116155797648
-0.002788106739684828   -0.009414724025368498   -0.0006504526082307194
-0.002513601022570682   -0.006760263837919525   -0.0006377383661854673
-0.003905220953731956   -0.006834610837559947   -0.0006668684349874661
-0.002788106739684828   -0.009414724025368498   -0.0006504526082307194
-0.004256079295131214   -0.009437469065980792   -0.0006995871944740849
-0.004239732197614174   -0.009405335601814434   -0.0007183154003824912
-0.003905220953731956   -0.006834610837559947   -0.0006668684349874661
-0.002788106739684828   -0.009414724025368498   -0.0006504526082307194
-0.004239732197614174   -0.009405335601814434   -0.0007183154003824912
-0.002513601022570682   -0.006760263837919525   -0.0006377383661854673
-0.003905220953731956   -0.006834610837559947   -0.0006668684349874661
-0.004256079295131214   -0.009437469065980792   -0.0006995871944740849
-0.0025152333834698483   -0.006788446795916363   -0.0006120116155797648
-0.0039256762219305906   -0.006861778194083909   -0.0006335313995791004
-0.004256079295131214   -0.009437469065980792   -0.0006995871944740849
-0.002788106739684828   -0.009414724025368498   -0.0006504526082307194
-0.0025152333834698483   -0.006788446795916363   -0.0006120116155797648
-0.0027831773548483273   -0.009436870119088659   -0.0006373829757286624
-0.0039256762219305906   -0.006861778194083909   -0.0006335313995791004
-0.0025159530587518047   -0.006810908372312269   -0.0005888729786827242
-0.0027831773548483273   -0.009436870119088659   -0.0006373829757286624
-0.0025152333834698483   -0.006788446795916363   -0.0006120116155797648
-0.0039256762219305906   -0.006861778194083909   -0.0006335313995791004
-0.0027831773548483273   -0.009436870119088659   -0.0006373829757286624
-0.004260312500692944   -0.009463845632179495   -0.000684607823347544
-0.004256079295131214   -0.009437469065980792   -0.0006995871944740849
-0.0039256762219305906   -0.006861778194083909   -0.0006335313995791004
-0.0027831773548483273   -0.009436870119088659   -0.0006373829757286624
-0.004256079295131214   -0.009437469065980792   -0.0006995871944740849
-0.0025152333834698483   -0.006788446795916363   -0.0006120116155797648
-0.0039256762219305906   -0.006861778194083909   -0.0006335313995791004
-0.004260312500692944   -0.009463845632179495   -0.000684607823347544
-0.0025159530587518047   -0.006810908372312269   -0.0005888729786827242
-0.003946630730669017   -0.006886373239270876   -0.0006042350140309538
-0.004260312500692944   -0.009463845632179495   -0.000684607823347544
-0.0027831773548483273   -0.009436870119088659   -0.0006373829757286624
-0.0025159530587518047   -0.006810908372312269   -0.0005888729786827242
-0.002772831307166324   -0.009459006547535316   -0.0006267263037100462
-0.003946630730669017   -0.006886373239270876   -0.0006042350140309538
-0.0025093395128576493   -0.006829524243119144   -0.0005679696371303697
-0.002772831307166324   -0.009459006547535316   -0.0006267263037100462
-0.0025159530587518047   -0.006810908372312269   -0.0005888729786827242
-0.003946630730669017   -0.006886373239270876   -0.0006042350140309538
-0.002772831307166324   -0.009459006547535316   -0.0006267263037100462
-0.004260642081234353   -0.009492707278755041   -0.0006737125229835717
-0.004260312500692944   -0.009463845632179495   -0.000684607823347544
-0.003946630730669017   -0.006886373239270876   -0.0006042350140309538
-0.002772831307166324   -0.009459006547535316   -0.0006267263037100462
-0.004260312500692944   -0.009463845632179495   -0.000684607823347544
-0.0025159530587518047   -0.006810908372312269   -0.0005888729786827242
-0.002513601022570682   -0.006760263837919525   -0.0006377383661854673
-0.0027904013944783142   -0.00939086717282072   -0.0006661297180569848
-0.0012447005701525058   -0.006741383064015082   -0.0005920315834169008
-0.0025152333834698483   -0.006788446795916363   -0.0006120116155797648
-0.0027904013944783142   -0.00939086717282072   -0.0006661297180569848
-0.001444353497700373   -0.009382297774800076   -0.0006306432310711644
-0.0012447005701525058   -0.006741383064015082   -0.0005920315834169008
-0.001438164956027744   -0.009396637589909782   -0.0006167834725396982
-0.0025152333834698483   -0.006788446795916363   -0.0006120116155797648
-0.0012409839537688586   -0.006758966763478308   -0.0005748866814488694
-0.001438164956027744   -0.009396637589909782   -0.0006167834725396982
-0.0012447005701525058   -0.006741383064015082   -0.0005920315834169008
-0.0025152333834698483   -0.006788446795916363   -0.0006120116155797648
-0.001438164956027744   -0.009396637589909782   -0.0006167834725396982
-0.002788106739684828   -0.009414724025368498   -0.0006504526082307194
-0.0027904013944783142   -0.00939086717282072   -0.0006661297180569848
-0.0025152333834698483   -0.006788446795916363   -0.0006120116155797648
-0.001438164956027744   -0.009396637589909782   -0.0006167834725396982
-0.0027904013944783142   -0.00939086717282072   -0.0006661297180569848
-0.0012447005701525058   -0.006741383064015082   -0.0005920315834169008
-0.0025152333834698483   -0.006788446795916363   -0.0006120116155797648
-0.002788106739684828   -0.009414724025368498   -0.0006504526082307194
-0.0012409839537688586   -0.006758966763478308   -0.0005748866814488694
-0.0025159530587518047   -0.006810908372312269   -0.0005888729786827242
-0.002788106739684828   -0.009414724025368498   -0.0006504526082307194
-0.001438164956027744   -0.009396637589909782   -0.0006167834725396982
-0.0012409839537688586   -0.006758966763478308   -0.0005748866814488694
-0.0014308573969851975   -0.009409893422774474   -0.0006055270382962624
-0.0025159530587518047   -0.006810908372312269   -0.0005888729786827242
-0.0012364199919521351   -0.006771743579778857   -0.0005602839777541531
-0.0014308573969851975   -0.009409893422774474   -0.0006055270382962624
-0.0012409839537688586   -0.006758966763478308   -0.0005748866814488694
-0.0025159530587518047   -0.006810908372312269   -0.0005888729786827242
-0.0014308573969851975   -0.009409893422774474   -0.0006055270382962624
-0.0027831773548483273   -0.009436870119088659   -0.0006373829757286624
-0.002788106739684828   -0.009414724025368498   -0.0006504526082307194
-0.0025159530587518047   -0.006810908372312269   -0.0005888729786827242
-0.0014308573969851975   -0.009409893422774474   -0.0006055270382962624
-0.002788106739684828   -0.009414724025368498   -0.0006504526082307194
-0.0012409839537688586   -0.006758966763478308   -0.0005748866814488694
-0.0025159530587518047   -0.006810908372312269   -0.0005888729786827242
-0.0027831773548483273   -0.009436870119088659   -0.0006373829757286624
-0.0012364199919521351   -0.006771743579778857   -0.0005602839777541531
-0.0025093395128576493   -0.006829524243119144   -0.0005679696371303697
-0.0027831773548483273   -0.009436870119088659   -0.0006373829757286624
-0.0014308573969851975   -0.009409893422774474   -0.0006055270382962624
-0.0012364199919521351   -0.006771743579778857   -0.0005602839777541531
-0.0014222924373240825   -0.009422111198180542   -0.0005969425404499153
-0.0025093395128576493   -0.006829524243119144   -0.0005679696371303697
-0.00123025625372157   -0.006779798738110813   -0.0005482706873470617
-0.0014222924373240825   -0.009422111198180542   -0.0005969425404499153
-0.0012364199919521351   -0.006771743579778857   -0.0005602839777541531
-0.0025093395128576493   -0.006829524243119144   -0.0005679696371303697
-0.0014222924373240825   -0.009422111198180542   -0.0005969425404499153
-0.002772831307166324   -0.009459006547535316   -0.0006267263037100462
-0.0027831773548483273   -0.009436870119088659   -0.0006373829757286624
-0.0025093395128576493   -0.006829524243119144   -0.0005679696371303697
-0.0014222924373240825   -0.009422111198180542   -0.0005969425404499153
-0.0027831773548483273   -0.009436870119088659   -0.0006373829757286624
-0.0012364199919521351   -0.006771743579778857   -0.0005602839777541531
-0.0012447005701525058   -0.006741383064015082   -0.0005920315834169008
-0.001444353497700373   -0.009382297774800076   -0.0006306432310711644
-1.0591554194830974e-05   -0.006738013492635822   -0.000565701533819537
-0.0012409839537688586   -0.006758966763478308   -0.0005748866814488694
-0.001444353497700373   -0.009382297774800076   -0.0006306432310711644
-0.00013479690001582618   -0.009377212216847588   -0.0006126049687707304
-1.0591554194830974e-05   -0.006738013492635822   -0.000565701533819537
-0.00012657362892693334   -0.00938181283545285   -0.0006007152511792025
-0.0012409839537688586   -0.006758966763478308   -0.0005748866814488694
-4.753581568514616e-06   -0.006744898446817343   -0.0005572217790213655
-0.00012657362892693334   -0.00938181283545285   -0.0006007152511792025
-1.0591554194830974e-05   -0.006738013492635822   -0.000565701533819537
-0.0012409839537688586   -0.006758966763478308   -0.0005748866814488694
-0.00012657362892693334   -0.00938181283545285   -0.0006007152511792025
-0.001438164956027744   -0.009396637589909782   -0.0006167834725396982
-0.001444353497700373   -0.009382297774800076   -0.0006306432310711644
-0.0012409839537688586   -0.006758966763478308   -0.0005748866814488694
-0.00012657362892693334   -0.00938181283545285   -0.0006007152511792025
-0.001444353497700373   -0.009382297774800076   -0.0006306432310711644
-1.0591554194830974e-05   -0.006738013492635822   -0.000565701533819537
-0.0012409839537688586   -0.006758966763478308   -0.0005748866814488694
-0.001438164956027744   -0.009396637589909782   -0.0006167834725396982
-4.753581568514616e-06   -0.006744898446817343   -0.0005572217790213655
-0.0012364199919521351   -0.006771743579778857   -0.0005602839777541531
-0.001438164956027744   -0.009396637589909782   -0.0006167834725396982
-0.00012657362892693334   -0.00938181283545285   -0.0006007152511792025
-4.753581568514616e-06   -0.006744898446817343   -0.0005572217790213655
-0.00011930384918318038   -0.009385246253691809   -0.000591411570014877
-0.0012364199919521351   -0.006771743579778857   -0.0005602839777541531
-2.1062244213443422e-07   -0.006746941654565792   -0.0005512568847657518
-0.00011930384918318038   -0.009385246253691809   -0.000591411570014877
-4.753581568514616e-06   -0.006744898446817343   -0.0005572217790213655
-0.0012364199919521351   -0.006771743579778857   -0.0005602839777541531
-0.00011930384918318038   -0.009385246253691809   -0.000591411570014877
-0.0014308573969851975   -0.009409893422774474   -0.0006055270382962624
-0.001438164956027744   -0.009396637589909782   -0.0006167834725396982
-0.0012364199919521351   -0.006771743579778857   -0.0005602839777541531
-0.00011930384918318038   -0.009385246253691809   -0.000591411570014877
-0.001438164956027744   -0.009396637589909782   -0.0006167834725396982
-4.753581568514616e-06   -0.006744898446817343   -0.0005572217790213655
-0.0012364199919521351   -0.006771743579778857   -0.0005602839777541531
-0.0014308573969851975   -0.009409893422774474   -0.0006055270382962624
-2.1062244213443422e-07   -0.006746941654565792   -0.0005512568847657518
-0.00123025625372157   -0.006779798738110813   -0.0005482706873470617
-0.0014308573969851975   -0.009409893422774474   -0.0006055270382962624
-0.00011930384918318038   -0.009385246253691809   -0.000591411570014877
-2.1062244213443422e-07   -0.006746941654565792   -0.0005512568847657518
-0.00011346428051847794   -0.009387490940974987   -0.0005847849260542553
-0.00123025625372157   -0.006779798738110813   -0.0005482706873470617
3.191551986670057e-06   -0.006744075561748434   -0.0005479140152267371
-0.00011346428051847794   -0.009387490940974987   -0.0005847849260542553
-2.1062244213443422e-07   -0.006746941654565792   -0.0005512568847657518
-0.00123025625372157   -0.006779798738110813   -0.0005482706873470617
-0.00011346428051847794   -0.009387490940974987   -0.0005847849260542553
-0.0014222924373240825   -0.009422111198180542   -0.0005969425404499153
-0.0014308573969851975   -0.009409893422774474   -0.0006055270382962624
-0.00123025625372157   -0.006779798738110813   -0.0005482706873470617
-0.00011346428051847794   -0.009387490940974987   -0.0005847849260542553
-0.0014308573969851975   -0.009409893422774474   -0.0006055270382962624
-2.1062244213443422e-07   -0.006746941654565792   -0.0005512568847657518
-1.0591554194830974e-05   -0.006738013492635822   -0.000565701533819537
-0.00013479690001582618   -0.009377212216847588   -0.0006126049687707304
0.0012660351837980243   -0.006748796236277089   -0.0005586929214074015
-4.753581568514616e-06   -0.006744898446817343   -0.0005572217790213655
-0.00013479690001582618   -0.009377212216847588   -0.0006126049687707304
0.0012144704061295738   -0.009374725074112454   -0.0006122254889118159
0.0012660351837980243   -0.006748796236277089   -0.0005586929214074015
0.0012250863625955857   -0.009369856182263917   -0.0006023985693366565
-4.753581568514616e-06   -0.006744898446817343   -0.0005572217790213655
0.0012729836119718563   -0.006745561627288973   -0.000559050142385953
0.0012250863625955857   -0.009369856182263917   -0.0006023985693366565
0.0012660351837980243   -0.006748796236277089   -0.0005586929214074015
-4.753581568514616e-06   -0.006744898446817343   -0.0005572217790213655
0.0012250863625955857   -0.009369856182263917   -0.0006023985693366565
-0.00012657362892693334   -0.00938181283545285   -0.0006007152511792025
-0.00013479690001582618   -0.009377212216847588   -0.0006126049687707304
-4.753581568514616e-06   -0.006744898446817343   -0.0005572217790213655
0.0012250863625955857   -0.009369856182263917   -0.0006023985693366565
-0.00013479690001582618   -0.009377212216847588   -0.0006126049687707304
0.0012660351837980243   -0.006748796236277089   -0.0005586929214074015
-4.753581568514616e-06   -0.006744898446817343   -0.0005572217790213655
-0.00012657362892693334   -0.00938181283545285   -0.0006007152511792025
0.0012729836119718563   -0.006745561627288973   -0.000559050142385953
-2.1062244213443422e-07   -0.006746941654565792   -0.0005512568847657518
-0.00012657362892693334   -0.00938181283545285   -0.0006007152511792025
0.0012250863625955857   -0.009369856182263917   -0.0006023985693366565
0.0012729836119718563   -0.006745561627288973   -0.000559050142385953
0.001232688993988959   -0.009364401186791294   -0.0005950795048756623
-2.1062244213443422e-07   -0.006746941654565792   -0.0005512568847657518
0.0012749728477589753   -0.006737908709909607   -0.0005617831946228977
0.001232688993988959   -0.009364401186791294   -0.0005950795048756623
0.0012729836119718563   -0.006745561627288973   -0.000559050142385953
-2.1062244213443422e-07   -0.006746941654565792   -0.0005512568847657518
0.001232688993988959   -0.009364401186791294   -0.0005950795048756623
-0.00011930384918318038   -0.009385246253691809   -0.000591411570014877
-0.00012657362892693334   -0.00938181283545285   -0.0006007152511792025
-2.1062244213443422e-07   -0.006746941654565792   -0.0005512568847657518
0.001232688993988959   -0.009364401186791294   -0.0005950795048756623
-0.00012657362892693334   -0.00938181283545285   -0.0006007152511792025
0.0012729836119718563   -0.006745561627288973   -0.000559050142385953
-2.1062244213443422e-07   -0.006746941654565792   -0.0005512568847657518
-0.00011930384918318038   -0.009385246253691809   -0.000591411570014877
0.0012749728477589753   -0.006737908709909607   -0.0005617831946228977
3.191551986670057e-06   -0.006744075561748434   -0.0005479140152267371
-0.00011930384918318038   -0.009385246253691809   -0.000591411570014877
0.001232688993988959   -0.009364401186791294   -0.0005950795048756623
0.0012749728477589753   -0.006737908709909607   -0.0005617831946228977
0.0012352868881475747   -0.00935664026350564   -0.0005902198809206734
3.191551986670057e-06   -0.006744075561748434   -0.0005479140152267371
0.0012736800212359437   -0.006723973416555642   -0.0005669873814781572
0.0012352868881475747   -0.00935664026350564   -0.0005902198809206734
0.0012749728477589753   -0.006737908709909607   -0.0005617831946228977
3.191551986670057e-06   -0.006744075561748434   -0.0005479140152267371
0.0012352868881475747   -0.00935664026350564   -0.0005902198809206734
-0.00011346428051847794   -0.009387490940974987   -0.0005847849260542553
-0.00011930384918318038   -0.009385246253691809   -0.000591411570014877
3.191551986670057e-06   -0.006744075561748434   -0.0005479140152267371
0.0012352868881475747   -0.00935664026350564   -0.0005902198809206734
-0.00011930384918318038   -0.009385246253691809   -0.000591411570014877
0.0012749728477589753   -0.006737908709909607   -0.0005617831946228977
0.0012660351837980243   -0.006748796236277089   -0.0005586929214074015
0.0012144704061295738   -0.009374725074112454   -0.0006122254889118159
0.0026756014575984367   -0.0067683675875196084   -0.0005670349515571412
0.0012729836119718563   -0.006745561627288973   -0.000559050142385953
0.0012144704061295738   -0.009374725074112454   -0.0006122254889118159
0.0026756143004986327   -0.009370926079296599   -0.0006279390884951152
0.0026756014575984367   -0.0067683675875196084   -0.0005670349515571412
0.0026959291362146274   -0.00935852833845977   -0.000619419933277535
0.0012729836119718563   -0.006745561627288973   -0.000559050142385953
0.002675473937266839   -0.006758223920784487   -0.0005767677636080159
0.0026959291362146274   -0.00935852833845977   -0.000619419933277535
0.0026756014575984367   -0.0067683675875196084   -0.0005670349515571412
0.0012729836119718563   -0.006745561627288973   -0.000559050142385953
0.0026959291362146274   -0.00935852833845977   -0.000619419933277535
0.0012250863625955857   -0.009369856182263917   -0.0006023985693366565
0.0012144704061295738   -0.009374725074112454   -0.0006122254889118159
0.0012729836119718563   -0.006745561627288973   -0.000559050142385953
0.0026959291362146274   -0.00935852833845977   -0.000619419933277535
0.0012144704061295738   -0.009374725074112454   -0.0006122254889118159
0.0026756014575984367   -0.0067683675875196084   -0.0005670349515571412
0.0012729836119718563   -0.006745561627288973   -0.000559050142385953
0.0012250863625955857   -0.009369856182263917   -0.0006023985693366565
0.002675473937266839   -0.006758223920784487   -0.0005767677636080159
0.0012749728477589753   -0.006737908709909607   -0.0005617831946228977
0.0012250863625955857   -0.009369856182263917   -0.0006023985693366565
0.0026959291362146274   -0.00935852833845977   -0.000619419933277535
0.002675473937266839   -0.006758223920784487   -0.0005767677636080159
0.0027074584509463166   -0.009348862026385624   -0.0006147256110189245
0.0012749728477589753   -0.006737908709909607   -0.0005617831946228977
0.00267083680401168   -0.006745850101338354   -0.0005903650871867498
0.0027074584509463166   -0.009348862026385624   -0.0006147256110189245
0.002675473937266839   -0.006758223920784487   -0.0005767677636080159
0.0012749728477589753   -0.006737908709909607   -0.0005617831946228977
0.0027074584509463166   -0.009348862026385624   -0.0006147256110189245
0.001232688993988959   -0.009364401186791294   -0.0005950795048756623
0.0012250863625955857   -0.009369856182263917   -0.0006023985693366565
0.0012749728477589753   -0.006737908709909607   -0.0005617831946228977
0.0027074584509463166   -0.009348862026385624   -0.0006147256110189245
0.0012250863625955857   -0.009369856182263917   -0.0006023985693366565
0.002675473937266839   -0.006758223920784487   -0.0005767677636080159
0.0012749728477589753   -0.006737908709909607   -0.0005617831946228977
0.001232688993988959   -0.009364401186791294   -0.0005950795048756623
0.00267083680401168   -0.006745850101338354   -0.0005903650871867498
0.0012736800212359437   -0.006723973416555642   -0.0005669873814781572
0.001232688993988959   -0.009364401186791294   -0.0005950795048756623
0.0027074584509463166   -0.009348862026385624   -0.0006147256110189245
0.00267083680401168   -0.006745850101338354   -0.0005903650871867498
0.0027119554819241085   -0.00933373975024729   -0.0006139219277865506
0.0012736800212359437   -0.006723973416555642   -0.0005669873814781572
0.0026547809309390258   -0.0067227268629759295   -0.0006077986897384823
0.0027119554819241085   -0.00933373975024729   -0.0006139219277865506
0.00267083680401168   -0.006745850101338354   -0.0005903650871867498
0.0012736800212359437   -0.006723973416555642   -0.0005669873814781572
0.0027119554819241085   -0.00933373975024729   -0.0006139219277865506
0.0012352868881475747   -0.00935664026350564   -0.0005902198809206734
0.001232688993988959   -0.009364401186791294   -0.0005950795048756623
0.0012736800212359437   -0.006723973416555642   -0.0005669873814781572
0.0027119554819241085   -0.00933373975024729   -0.0006139219277865506
0.001232688993988959   -0.009364401186791294   -0.0005950795048756623
0.00267083680401168   -0.006745850101338354   -0.0005903650871867498
-0.004239732197614174   -0.009405335601814434   -0.0007183154003824912
-0.0043643975352204165   -0.012051222655743416   -0.0007077245105694503
-0.0027904013944783142   -0.00939086717282072   -0.0006661297180569848
-0.004256079295131214   -0.009437469065980792   -0.0006995871944740849
-0.0043643975352204165   -0.012051222655743416   -0.0007077245105694503
-0.002921277557661344   -0.0120583659580716   -0.0006695168245706828
-0.0027904013944783142   -0.00939086717282072   -0.0006661297180569848
-0.0029126915240621156   -0.01207787361656361   -0.0006636377868712069
-0.004256079295131214   -0.009437469065980792   -0.0006995871944740849
-0.002788106739684828   -0.009414724025368498   -0.0006504526082307194
-0.0029126915240621156   -0.01207787361656361   -0.0006636377868712069
-0.0027904013944783142   -0.00939086717282072   -0.0006661297180569848
-0.004256079295131214   -0.009437469065980792   -0.0006995871944740849
-0.0029126915240621156   -0.01207787361656361   -0.0006636377868712069
-0.004358167683804534   -0.012077372266572814   -0.0007069410765620544
-0.0043643975352204165   -0.012051222655743416   -0.0007077245105694503
-0.004256079295131214   -0.009437469065980792   -0.0006995871944740849
-0.0029126915240621156   -0.01207787361656361   -0.0006636377868712069
-0.0043643975352204165   -0.012051222655743416   -0.0007077245105694503
-0.0027904013944783142   -0.00939086717282072   -0.0006661297180569848
-0.004256079295131214   -0.009437469065980792   -0.0006995871944740849
-0.004358167683804534   -0.012077372266572814   -0.0007069410765620544
-0.002788106739684828   -0.009414724025368498   -0.0006504526082307194
-0.004260312500692944   -0.009463845632179495   -0.000684607823347544
-0.004358167683804534   -0.012077372266572814   -0.0007069410765620544
-0.0029126915240621156   -0.01207787361656361   -0.0006636377868712069
-0.002788106739684828   -0.009414724025368498   -0.0006504526082307194
-0.002899771140561815   -0.012099660678395484   -0.000660410487533019
-0.004260312500692944   -0.009463845632179495   -0.000684607823347544
-0.0027831773548483273   -0.009436870119088659   -0.0006373829757286624
-0.002899771140561815   -0.012099660678395484   -0.000660410487533019
-0.002788106739684828   -0.009414724025368498   -0.0006504526082307194
-0.004260312500692944   -0.009463845632179495   -0.000684607823347544
-0.002899771140561815   -0.012099660678395484   -0.000660410487533019
-0.004343884445789632   -0.012102972743668656   -0.0007101161317000222
-0.004358167683804534   -0.012077372266572814   -0.0007069410765620544
-0.004260312500692944   -0.009463845632179495   -0.000684607823347544
-0.002899771140561815   -0.012099660678395484   -0.000660410487533019
-0.004358167683804534   -0.012077372266572814   -0.0007069410765620544
-0.002788106739684828   -0.009414724025368498   -0.0006504526082307194
-0.004260312500692944   -0.009463845632179495   -0.000684607823347544
-0.004343884445789632   -0.012102972743668656   -0.0007101161317000222
-0.0027831773548483273   -0.009436870119088659   -0.0006373829757286624
-0.004260642081234353   -0.009492707278755041   -0.0006737125229835717
-0.004343884445789632   -0.012102972743668656   -0.0007101161317000222
-0.002899771140561815   -0.012099660678395484   -0.000660410487533019
-0.0027831773548483273   -0.009436870119088659   -0.0006373829757286624
-0.0028833195975093546   -0.012125239499724579   -0.0006597793356292832
-0.004260642081234353   -0.009492707278755041   -0.0006737125229835717
-0.002772831307166324   -0.009459006547535316   -0.0006267263037100462
-0.0028833195975093546   -0.012125239499724579   -0.0006597793356292832
-0.0027831773548483273   -0.009436870119088659   -0.0006373829757286624
-0.004260642081234353   -0.009492707278755041   -0.0006737125229835717
-0.0028833195975093546   -0.012125239499724579   -0.0006597793356292832
-0.004321351958916088   -0.01213613769887515   -0.000717465715996087
-0.004343884445789632   -0.012102972743668656   -0.0007101161317000222
-0.004260642081234353   -0.009492707278755041   -0.0006737125229835717
-0.0028833195975093546   -0.012125239499724579   -0.0006597793356292832
-0.004343884445789632   -0.012102972743668656   -0.0007101161317000222
-0.0027831773548483273   -0.009436870119088659   -0.0006373829757286624
-0.0027904013944783142   -0.00939086717282072   -0.0006661297180569848
-0.002921277557661344   -0.0120583659580716   -0.0006695168245706828
-0.001444353497700373   -0.009382297774800076   -0.0006306432310711644
-0.002788106739684828   -0.009414724025368498   -0.0006504526082307194
-0.002921277557661344   -0.0120583659580716   -0.0006695168245706828
-0.0015986621898054505   -0.012059730003470472   -0.0006441693498426592
-0.001444353497700373   -0.009382297774800076   -0.0006306432310711644
-0.0015874916364357068   -0.012070820648357192   -0.0006334701738746046
-0.002788106739684828   -0.009414724025368498   -0.0006504526082307194
-0.001438164956027744   -0.009396637589909782   -0.0006167834725396982
-0.0015874916364357068   -0.012070820648357192   -0.0006334701738746046
-0.001444353497700373   -0.009382297774800076   -0.0006306432310711644
-0.002788106739684828   -0.009414724025368498   -0.0006504526082307194
-0.0015874916364357068   -0.012070820648357192   -0.0006334701738746046
-0.0029126915240621156   -0.01207787361656361   -0.0006636377868712069
-0.002921277557661344   -0.0120583659580716   -0.0006695168245706828
-0.002788106739684828   -0.009414724025368498   -0.0006504526082307194
-0.0015874916364357068   -0.012070820648357192   -0.0006334701738746046
-0.002921277557661344   -0.0120583659580716   -0.0006695168245706828
-0.001444353497700373   -0.009382297774800076   -0.0006306432310711644
-0.002788106739684828   -0.009414724025368498   -0.0006504526082307194
-0.0029126915240621156   -0.01207787361656361   -0.0006636377868712069
-0.001438164956027744   -0.009396637589909782   -0.0006167834725396982
-0.0027831773548483273   -0.009436870119088659   -0.0006373829757286624
-0.0029126915240621156   -0.01207787361656361   -0.0006636377868712069
-0.0015874916364357068   -0.012070820648357192   -0.0006334701738746046
-0.001438164956027744   -0.009396637589909782   -0.0006167834725396982
-0.0015749936212079729   -0.0120844669734122   -0.0006254279655426569
-0.0027831773548483273   -0.009436870119088659   -0.0006373829757286624
-0.0014308573969851975   -0.009409893422774474   -0.0006055270382962624
-0.0015749936212079729   -0.0120844669734122   -0.0006254279655426569
-0.001438164956027744   -0.009396637589909782   -0.0006167834725396982
-0.0027831773548483273   -0.009436870119088659   -0.0006373829757286624
-0.0015749936212079729   -0.0120844669734122   -0.0006254279655426569
-0.002899771140561815   -0.012099660678395484   -0.000660410487533019
-0.0029126915240621156   -0.01207787361656361   -0.0006636377868712069
-0.0027831773548483273   -0.009436870119088659   -0.0006373829757286624
-0.0015749936212079729   -0.0120844669734122   -0.0006254279655426569
-0.0029126915240621156   -0.01207787361656361   -0.0006636377868712069
-0.001438164956027744   -0.009396637589909782   -0.0006167834725396982
-0.0027831773548483273   -0.009436870119088659   -0.0006373829757286624
-0.002899771140561815   -0.012099660678395484   -0.000660410487533019
-0.0014308573969851975   -0.009409893422774474   -0.0006055270382962624
-0.002772831307166324   -0.009459006547535316   -0.0006267263037100462
-0.002899771140561815   -0.012099660678395484   -0.000660410487533019
-0.0015749936212079729   -0.0120844669734122   -0.0006254279655426569
-0.0014308573969851975   -0.009409893422774474   -0.0006055270382962624
-0.0015615755868915154   -0.012100711892183392   -0.000620135498668539
-0.002772831307166324   -0.009459006547535316   -0.0006267263037100462
-0.0014222924373240825   -0.009422111198180542   -0.0005969425404499153
-0.0015615755868915154   -0.012100711892183392   -0.000620135498668539
-0.0014308573969851975   -0.009409893422774474   -0.0006055270382962624
-0.002772831307166324   -0.009459006547535316   -0.0006267263037100462
-0.0015615755868915154   -0.012100711892183392   -0.000620135498668539
-0.0028833195975093546   -0.012125239499724579   -0.0006597793356292832
-0.002899771140561815   -0.012099660678395484   -0.000660410487533019
-0.002772831307166324   -0.009459006547535316   -0.0006267263037100462
-0.0015615755868915154   -0.012100711892183392   -0.000620135498668539
-0.002899771140561815   -0.012099660678395484   -0.000660410487533019
-0.0014308573969851975   -0.009409893422774474   -0.0006055270382962624
-0.001444353497700373   -0.009382297774800076   -0.0006306432310711644
-0.0015986621898054505   -0.012059730003470472   -0.0006441693498426592
-0.00013479690001582618   -0.009377212216847588   -0.0006126049687707304
-0.001438164956027744   -0.009396637589909782   -0.0006167834725396982
-0.0015986621898054505   -0.012059730003470472   -0.0006441693498426592
-0.0003133015068690513   -0.012052495220815682   -0.0006341760143459337
-0.00013479690001582618   -0.009377212216847588   -0.0006126049687707304
-0.00030020603333502226   -0.01205483839795917   -0.0006188989455911399
-0.001438164956027744   -0.009396637589909782   -0.0006167834725396982
-0.00012657362892693334   -0.00938181283545285   -0.0006007152511792025
-0.00030020603333502226   -0.01205483839795917   -0.0006188989455911399
-0.00013479690001582618   -0.009377212216847588   -0.0006126049687707304
-0.001438164956027744   -0.009396637589909782   -0.0006167834725396982
-0.00030020603333502226   -0.01205483839795917   -0.0006188989455911399
-0.0015874916364357068   -0.012070820648357192   -0.0006334701738746046
-0.0015986621898054505   -0.012059730003470472   -0.0006441693498426592
-0.001438164956027744   -0.009396637589909782   -0.0006167834725396982
-0.00030020603333502226   -0.01205483839795917   -0.0006188989455911399
-0.0015986621898054505   -0.012059730003470472   -0.0006441693498426592
-0.00013479690001582618   -0.009377212216847588   -0.0006126049687707304
-0.001438164956027744   -0.009396637589909782   -0.0006167834725396982
-0.0015874916364357068   -0.012070820648357192   -0.0006334701738746046
-0.00012657362892693334   -0.00938181283545285   -0.0006007152511792025
-0.0014308573969851975   -0.009409893422774474   -0.0006055270382962624
-0.0015874916364357068   -0.012070820648357192   -0.0006334701738746046
-0.00030020603333502226   -0.01205483839795917   -0.0006188989455911399
-0.00012657362892693334   -0.00938181283545285   -0.0006007152511792025
-0.00028777565934923736   -0.012059552535322695   -0.0006062655075745352
-0.0014308573969851975   -0.009409893422774474   -0.0006055270382962624
-0.00011930384918318038   -0.009385246253691809   -0.000591411570014877
-0.00028777565934923736   -0.012059552535322695   -0.0006062655075745352
-0.00012657362892693334   -0.00938181283545285   -0.0006007152511792025
-0.0014308573969851975   -0.009409893422774474   -0.0006055270382962624
-0.00028777565934923736   -0.012059552535322695   -0.0006062655075745352
-0.0015749936212079729   -0.0120844669734122   -0.0006254279655426569
-0.0015874916364357068   -0.012070820648357192   -0.0006334701738746046
-0.0014308573969851975   -0.009409893422774474   -0.0006055270382962624
-0.00028777565934923736   -0.012059552535322695   -0.0006062655075745352
-0.0015874916364357068   -0.012070820648357192   -0.0006334701738746046
-0.00012657362892693334   -0.00938181283545285   -0.0006007152511792025
-0.0014308573969851975   -0.009409893422774474   -0.0006055270382962624
-0.0015749936212079729   -0.0120844669734122   -0.0006254279655426569
-0.00011930384918318038   -0.009385246253691809   -0.000591411570014877
-0.0014222924373240825   -0.009422111198180542   -0.0005969425404499153
-0.0015749936212079729   -0.0120844669734122   -0.0006254279655426569
-0.00028777565934923736   -0.012059552535322695   -0.0006062655075745352
-0.00011930384918318038   -0.009385246253691809   -0.000591411570014877
-0.00027707838235086255   -0.012066737973782443   -0.0005963650661272404
-0.0014222924373240825   -0.009422111198180542   -0.0005969425404499153
-0.00011346428051847794   -0.009387490940974987   -0.0005847849260542553
-0.00027707838235086255   -0.012066737973782443   -0.0005963650661272404
-0.00011930384918318038   -0.009385246253691809   -0.000591411570014877
-0.0014222924373240825   -0.009422111198180542   -0.0005969425404499153
-0.00027707838235086255   -0.012066737973782443   -0.0005963650661272404
-0.0015615755868915154   -0.012100711892183392   -0.000620135498668539
-0.0015749936212079729   -0.0120844669734122   -0.0006254279655426569
-0.0014222924373240825   -0.009422111198180542   -0.0005969425404499153
-0.00027707838235086255   -0.012066737973782443   -0.0005963650661272404
-0.0015749936212079729   -0.0120844669734122   -0.0006254279655426569
-0.00011930384918318038   -0.009385246253691809   -0.000591411570014877
-0.00013479690001582618   -0.009377212216847588   -0.0006126049687707304
-0.0003133015068690513   -0.012052495220815682   -0.0006341760143459337
0.0012144704061295738   -0.009374725074112454   -0.0006122254889118159
-0.00012657362892693334   -0.00938181283545285   -0.0006007152511792025
-0.0003133015068690513   -0.012052495220815682   -0.0006341760143459337
0.0010100784920602025   -0.0120365171950621   -0.0006400716303862747
0.0012144704061295738   -0.009374725074112454   -0.0006122254889118159
0.0010266605059405644   -0.012030058099011401   -0.000620276163010723
-0.00012657362892693334   -0.00938181283545285   -0.0006007152511792025
0.0012250863625955857   -0.009369856182263917   -0.0006023985693366565
0.0010266605059405644   -0.012030058099011401   -0.000620276163010723
0.0012144704061295738   -0.009374725074112454   -0.0006122254889118159
-0.00012657362892693334   -0.00938181283545285   -0.0006007152511792025
0.0010266605059405644   -0.012030058099011401   -0.000620276163010723
-0.00030020603333502226   -0.01205483839795917   -0.0006188989455911399
-0.0003133015068690513   -0.012052495220815682   -0.0006341760143459337
-0.00012657362892693334   -0.00938181283545285   -0.0006007152511792025
0.0010266605059405644   -0.012030058099011401   -0.000620276163010723
-0.0003133015068690513   -0.012052495220815682   -0.0006341760143459337
0.0012144704061295738   -0.009374725074112454   -0.0006122254889118159
-0.00012657362892693334   -0.00938181283545285   -0.0006007152511792025
-0.00030020603333502226   -0.01205483839795917   -0.0006188989455911399
0.0012250863625955857   -0.009369856182263917   -0.0006023985693366565
-0.00011930384918318038   -0.009385246253691809   -0.000591411570014877
-0.00030020603333502226   -0.01205483839795917   -0.0006188989455911399
0.0010266605059405644   -0.012030058099011401   -0.000620276163010723
0.0012250863625955857   -0.009369856182263917   -0.0006023985693366565
0.0010421357086076001   -0.01202668262071305   -0.0006031129427950498
-0.00011930384918318038   -0.009385246253691809   -0.000591411570014877
0.001232688993988959   -0.009364401186791294   -0.0005950795048756623
0.0010421357086076001   -0.01202668262071305   -0.0006031129427950498
0.0012250863625955857   -0.009369856182263917   -0.0006023985693366565
-0.00011930384918318038   -0.009385246253691809   -0.000591411570014877
0.0010421357086076001   -0.01202668262071305   -0.0006031129427950498
-0.00028777565934923736   -0.012059552535322695   -0.0006062655075745352
-0.00030020603333502226   -0.01205483839795917   -0.0006188989455911399
-0.00011930384918318038   -0.009385246253691809   -0.000591411570014877
0.0010421357086076001   -0.01202668262071305   -0.0006031129427950498
-0.00030020603333502226   -0.01205483839795917   -0.0006188989455911399
0.0012250863625955857   -0.009369856182263917   -0.0006023985693366565
-0.00011930384918318038   -0.009385246253691809   -0.000591411570014877
-0.00028777565934923736   -0.012059552535322695   -0.0006062655075745352
0.001232688993988959   -0.009364401186791294   -0.0005950795048756623
-0.00011346428051847794   -0.009387490940974987   -0.0005847849260542553
-0.00028777565934923736   -0.012059552535322695   -0.0006062655075745352
0.0010421357086076001   -0.01202668262071305   -0.0006031129427950498
0.001232688993988959   -0.009364401186791294   -0.0005950795048756623
0.0010508770350314328   -0.012024850237419869   -0.000588410051607178
-0.00011346428051847794   -0.009387490940974987   -0.0005847849260542553
0.0012352868881475747   -0.00935664026350564   -0.0005902198809206734
0.0010508770350314328   -0.012024850237419869   -0.000588410051607178
0.001232688993988959   -0.009364401186791294   -0.0005950795048756623
-0.00011346428051847794   -0.009387490940974987   -0.0005847849260542553
0.0010508770350314328   -0.012024850237419869   -0.000588410051607178
-0.00027707838235086255   -0.012066737973782443   -0.0005963650661272404
-0.00028777565934923736   -0.012059552535322695   -0.0006062655075745352
-0.00011346428051847794   -0.009387490940974987   -0.0005847849260542553
0.0010508770350314328   -0.012024850237419869   -0.000588410051607178
-0.00028777565934923736   -0.012059552535322695   -0.0006062655075745352
0.001232688993988959   -0.009364401186791294   -0.0005950795048756623
0.0012144704061295738   -0.009374725074112454   -0.0006122254889118159
0.0010100784920602025   -0.0120365171950621   -0.0006400716303862747
0.0026756143004986327   -0.009370926079296599   -0.0006279390884951152
0.0012250863625955857   -0.009369856182263917   -0.0006023985693366565
0.0010100784920602025   -0.0120365171950621   -0.0006400716303862747
0.002425042193075609   -0.01200947837010974   -0.0006628333289510092
0.0026756143004986327   -0.009370926079296599   -0.0006279390884951152
0.0024675915928621035   -0.011994996794638238   -0.0006366351014868953
0.0012250863625955857   -0.009369856182263917   -0.0006023985693366565
0.0026959291362146274   -0.00935852833845977   -0.000619419933277535
0.0024675915928621035   -0.011994996794638238   -0.0006366351014868953
0.0026756143004986327   -0.009370926079296599   -0.0006279390884951152
0.0012250863625955857   -0.009369856182263917   -0.0006023985693366565
0.0024675915928621035   -0.011994996794638238   -0.0006366351014868953
0.0010266605059405644   -0.012030058099011401   -0.000620276163010723
0.0010100784920602025   -0.0120365171950621   -0.0006400716303862747
0.0012250863625955857   -0.009369856182263917   -0.0006023985693366565
0.0024675915928621035   -0.011994996794638238   -0.0006366351014868953
0.0010100784920602025   -0.0120365171950621   -0.0006400716303862747
0.0026756143004986327   -0.009370926079296599   -0.0006279390884951152
0.0012250863625955857   -0.009369856182263917   -0.0006023985693366565
0.0010266605059405644   -0.012030058099011401   -0.000620276163010723
0.0026959291362146274   -0.00935852833845977   -0.000619419933277535
0.001232688993988959   -0.009364401186791294   -0.0005950795048756623
0.0010266605059405644   -0.012030058099011401   -0.000620276163010723
0.0024675915928621035   -0.011994996794638238   -0.0006366351014868953
0.0026959291362146274   -0.00935852833845977   -0.000619419933277535
0.002497205501180104   -0.011987951920841546   -0.0006142011504852904
0.001232688993988959   -0.009364401186791294   -0.0005950795048756623
0.0027074584509463166   -0.009348862026385624   -0.0006147256110189245
0.002497205501180104   -0.011987951920841546   -0.0006142011504852904
0.0026959291362146274   -0.00935852833845977   -0.000619419933277535
0.001232688993988959   -0.009364401186791294   -0.0005950795048756623
0.002497205501180104   -0.011987951920841546   -0.0006142011504852904
0.0010421357086076001   -0.01202668262071305   -0.0006031129427950498
0.0010266605059405644   -0.012030058099011401   -0.000620276163010723
0.001232688993988959   -0.009364401186791294   -0.0005950795048756623
0.002497205501180104   -0.011987951920841546   -0.0006142011504852904
0.0010266605059405644   -0.012030058099011401   -0.000620276163010723
0.0026959291362146274   -0.00935852833845977   -0.000619419933277535
0.001232688993988959   -0.009364401186791294   -0.0005950795048756623
0.0010421357086076001   -0.01202668262071305   -0.0006031129427950498
0.0027074584509463166   -0.009348862026385624   -0.0006147256110189245
0.0012352868881475747   -0.00935664026350564   -0.0005902198809206734
0.0010421357086076001   -0.01202668262071305   -0.0006031129427950498
0.002497205501180104   -0.011987951920841546   -0.0006142011504852904
0.0027074584509463166   -0.009348862026385624   -0.0006147256110189245
0.0025239971687887027   -0.011980551353634912   -0.0005956916020070251
0.0012352868881475747   -0.00935664026350564   -0.0005902198809206734
0.0027119554819241085   -0.00933373975024729   -0.0006139219277865506
0.0025239971687887027   -0.011980551353634912   -0.0005956916020070251
0.0027074584509463166   -0.009348862026385624   -0.0006147256110189245
0.0012352868881475747   -0.00935664026350564   -0.0005902198809206734
0.0025239971687887027   -0.011980551353634912   -0.0005956916020070251
0.0010508770350314328   -0.012024850237419869   -0.000588410051607178
0.0010421357086076001   -0.01202668262071305   -0.0006031129427950498
0.0012352868881475747   -0.00935664026350564   -0.0005902198809206734
0.0025239971687887027   -0.011980551353634912   -0.0005956916020070251
0.0010421357086076001   -0.01202668262071305   -0.0006031129427950498
0.0027074584509463166   -0.009348862026385624   -0.0006147256110189245
-0.0043643975352204165   -0.012051222655743416   -0.0007077245105694503
-0.004243096512062615   -0.014568824259457491   -0.0006779337913754285
-0.002921277557661344   -0.0120583659580716   -0.0006695168245706828
-0.004358167683804534   -0.012077372266572814   -0.0007069410765620544
-0.004243096512062615   -0.014568824259457491   -0.0006779337913754285
-0.0029079954857717076   -0.014597713185727104   -0.0006552110590178232
-0.002921277557661344   -0.0120583659580716   -0.0006695168245706828
-0.002890847017373745   -0.014612174779363092   -0.0006587797773189422
-0.004358167683804534   -0.012077372266572814   -0.0007069410765620544
-0.0029126915240621156   -0.01207787361656361   -0.0006636377868712069
-0.002890847017373745   -0.014612174779363092   -0.0006587797773189422
-0.002921277557661344   -0.0120583659580716   -0.0006695168245706828
-0.004358167683804534   -0.012077372266572814   -0.0007069410765620544
-0.002890847017373745   -0.014612174779363092   -0.0006587797773189422
-0.004212083328525566   -0.014588367239607256   -0.0006949379619411872
-0.004243096512062615   -0.014568824259457491   -0.0006779337913754285
-0.004358167683804534   -0.012077372266572814   -0.0007069410765620544
-0.002890847017373745   -0.014612174779363092   -0.0006587797773189422
-0.004243096512062615   -0.014568824259457491   -0.0006779337913754285
-0.002921277557661344   -0.0120583659580716   -0.0006695168245706828
-0.004358167683804534   -0.012077372266572814   -0.0007069410765620544
-0.004212083328525566   -0.014588367239607256   -0.0006949379619411872
-0.0029126915240621156   -0.01207787361656361   -0.0006636377868712069
-0.004343884445789632   -0.012102972743668656   -0.0007101161317000222
-0.004212083328525566   -0.014588367239607256   -0.0006949379619411872
-0.002890847017373745   -0.014612174779363092   -0.0006587797773189422
-0.0029126915240621156   -0.01207787361656361   -0.0006636377868712069
-0.0028677844285556696   -0.014632980902814773   -0.0006650342996527259
-0.004343884445789632   -0.012102972743668656   -0.0007101161317000222
-0.002899771140561815   -0.012099660678395484   -0.000660410487533019
-0.0028677844285556696   -0.014632980902814773   -0.0006650342996527259
-0.0029126915240621156   -0.01207787361656361   -0.0006636377868712069
-0.004343884445789632   -0.012102972743668656   -0.0007101161317000222
-0.0028677844285556696   -0.014632980902814773   -0.0006650342996527259
-0.004177013507552045   -0.014612626198767555   -0.0007161603588587692
-0.004212083328525566   -0.014588367239607256   -0.0006949379619411872
-0.004343884445789632   -0.012102972743668656   -0.0007101161317000222
-0.0028677844285556696   -0.014632980902814773   -0.0006650342996527259
-0.004212083328525566   -0.014588367239607256   -0.0006949379619411872
-0.0029126915240621156   -0.01207787361656361   -0.0006636377868712069
-0.004343884445789632   -0.012102972743668656   -0.0007101161317000222
-0.004177013507552045   -0.014612626198767555   -0.0007161603588587692
-0.002899771140561815   -0.012099660678395484   -0.000660410487533019
-0.004321351958916088   -0.01213613769887515   -0.000717465715996087
-0.004177013507552045   -0.014612626198767555   -0.0007161603588587692
-0.0028677844285556696   -0.014632980902814773   -0.0006650342996527259
-0.002899771140561815   -0.012099660678395484   -0.000660410487533019
-0.00284310852707384   -0.014661411312739656   -0.0006740429693921444
-0.004321351958916088   -0.01213613769887515   -0.000717465715996087
-0.0028833195975093546   -0.012125239499724579   -0.0006597793356292832
-0.00284310852707384   -0.014661411312739656   -0.0006740429693921444
-0.002899771140561815   -0.012099660678395484   -0.000660410487533019
-0.004321351958916088   -0.01213613769887515   -0.000717465715996087
-0.00284310852707384   -0.014661411312739656   -0.0006740429693921444
-0.004129497124162846   -0.014649693286537948   -0.0007416955679040689
-0.004177013507552045   -0.014612626198767555   -0.0007161603588587692
-0.004321351958916088   -0.01213613769887515   -0.000717465715996087
-0.00284310852707384   -0.014661411312739656   -0.0006740429693921444
-0.004177013507552045   -0.014612626198767555   -0.0007161603588587692
-0.002899771140561815   -0.012099660678395484   -0.000660410487533019
-0.002921277557661344   -0.0120583659580716   -0.0006695168245706828
-0.0029079954857717076   -0.014597713185727104   -0.0006552110590178232
-0.0015986621898054505   -0.012059730003470472   -0.0006441693498426592
-0.0029126915240621156   -0.01207787361656361   -0.0006636377868712069
-0.0029079954857717076   -0.014597713185727104   -0.0006552110590178232
-0.0017094263821381104   -0.014608872222006956   -0.0006407346989991907
-0.0015986621898054505   -0.012059730003470472   -0.0006441693498426592
-0.0016908387606341018   -0.01461629600574283   -0.0006329312766067594
-0.0029126915240621156   -0.01207787361656361   -0.0006636377868712069
-0.0015874916364357068   -0.012070820648357192   -0.0006334701738746046
-0.0016908387606341018   -0.01461629600574283   -0.0006329312766067594
-0.0015986621898054505   -0.012059730003470472   -0.0006441693498426592
-0.0029126915240621156   -0.01207787361656361   -0.0006636377868712069
-0.0016908387606341018   -0.01461629600574283   -0.0006329312766067594
-0.002890847017373745   -0.014612174779363092   -0.0006587797773189422
-0.0029079954857717076   -0.014597713185727104   -0.0006552110590178232
-0.0029126915240621156   -0.01207787361656361   -0.0006636377868712069
-0.0016908387606341018   -0.01461629600574283   -0.0006329312766067594
-0.0029079954857717076   -0.014597713185727104   -0.0006552110590178232
-0.0015986621898054505   -0.012059730003470472   -0.0006441693498426592
-0.0029126915240621156   -0.01207787361656361   -0.0006636377868712069
-0.002890847017373745   -0.014612174779363092   -0.0006587797773189422
-0.0015874916364357068   -0.012070820648357192   -0.0006334701738746046
-0.002899771140561815   -0.012099660678395484   -0.000660410487533019
-0.002890847017373745   -0.014612174779363092   -0.0006587797773189422
-0.0016908387606341018   -0.01461629600574283   -0.0006329312766067594
-0.0015874916364357068   -0.012070820648357192   -0.0006334701738746046
-0.001670877435594047   -0.014629801976687135   -0.0006277788835143192
-0.002899771140561815   -0.012099660678395484   -0.000660410487533019
-0.0015749936212079729   -0.0120844669734122   -0.0006254279655426569
-0.001670877435594047   -0.014629801976687135   -0.0006277788835143192
-0.0015874916364357068   -0.012070820648357192   -0.0006334701738746046
-0.002899771140561815   -0.012099660678395484   -0.000660410487533019
-0.001670877435594047   -0.014629801976687135   -0.0006277788835143192
-0.0028677844285556696   -0.014632980902814773   -0.0006650342996527259
-0.002890847017373745   -0.014612174779363092   -0.0006587797773189422
-0.002899771140561815   -0.012099660678395484   -0.000660410487533019
-0.001670877435594047   -0.014629801976687135   -0.0006277788835143192
-0.002890847017373745   -0.014612174779363092   -0.0006587797773189422
-0.0015874916364357068   -0.012070820648357192   -0.0006334701738746046
-0.002899771140561815   -0.012099660678395484   -0.000660410487533019
-0.0028677844285556696   -0.014632980902814773   -0.0006650342996527259
-0.0015749936212079729   -0.0120844669734122   -0.0006254279655426569
-0.0028833195975093546   -0.012125239499724579   -0.0006597793356292832
-0.0028677844285556696   -0.014632980902814773   -0.0006650342996527259
-0.001670877435594047   -0.014629801976687135   -0.0006277788835143192
-0.0015749936212079729   -0.0120844669734122   -0.0006254279655426569
-0.0016503613372242777   -0.014649551941800924   -0.0006254140833257851
-0.0028833195975093546   -0.012125239499724579   -0.0006597793356292832
-0.0015615755868915154   -0.012100711892183392   -0.000620135498668539
-0.0016503613372242777   -0.014649551941800924   -0.0006254140833257851
-0.0015749936212079729   -0.0120844669734122   -0.0006254279655426569
-0.0028833195975093546   -0.012125239499724579   -0.0006597793356292832
-0.0016503613372242777   -0.014649551941800924   -0.0006254140833257851
-0.00284310852707384   -0.014661411312739656   -0.0006740429693921444
-0.0028677844285556696   -0.014632980902814773   -0.0006650342996527259
-0.0028833195975093546   -0.012125239499724579   -0.0006597793356292832
-0.0016503613372242777   -0.014649551941800924   -0.0006254140833257851
-0.0028677844285556696   -0.014632980902814773   -0.0006650342996527259
-0.0015749936212079729   -0.0120844669734122   -0.0006254279655426569
-0.0015986621898054505   -0.012059730003470472   -0.0006441693498426592
-0.0017094263821381104   -0.014608872222006956   -0.0006407346989991907
-0.0003133015068690513   -0.012052495220815682   -0.0006341760143459337
-0.0015874916364357068   -0.012070820648357192   -0.0006334701738746046
-0.0017094263821381104   -0.014608872222006956   -0.0006407346989991907
-0.0005468621166443779   -0.014599768672314812   -0.0006388098882182105
-0.0003133015068690513   -0.012052495220815682   -0.0006341760143459337
-0.0005263179131923759   -0.014599700508421161   -0.0006200243668928808
-0.0015874916364357068   -0.012070820648357192   -0.0006334701738746046
-0.00030020603333502226   -0.01205483839795917   -0.0006188989455911399
-0.0005263179131923759   -0.014599700508421161   -0.0006200243668928808
-0.0003133015068690513   -0.012052495220815682   -0.0006341760143459337
-0.0015874916364357068   -0.012070820648357192   -0.0006334701738746046
-0.0005263179131923759   -0.014599700508421161   -0.0006200243668928808
-0.0016908387606341018   -0.01461629600574283   -0.0006329312766067594
-0.0017094263821381104   -0.014608872222006956   -0.0006407346989991907
-0.0015874916364357068   -0.012070820648357192   -0.0006334701738746046
-0.0005263179131923759   -0.014599700508421161   -0.0006200243668928808
-0.0017094263821381104   -0.014608872222006956   -0.0006407346989991907
-0.0003133015068690513   -0.012052495220815682   -0.0006341760143459337
-0.0015874916364357068   -0.012070820648357192   -0.0006334701738746046
-0.0016908387606341018   -0.01461629600574283   -0.0006329312766067594
-0.00030020603333502226   -0.01205483839795917   -0.0006188989455911399
-0.0015749936212079729   -0.0120844669734122   -0.0006254279655426569
-0.0016908387606341018   -0.01461629600574283   -0.0006329312766067594
-0.0005263179131923759   -0.014599700508421161   -0.0006200243668928808
-0.00030020603333502226   -0.01205483839795917   -0.0006188989455911399
-0.0005062892162781929   -0.014605295446119467   -0.0006039011019225762
-0.0015749936212079729   -0.0120844669734122   -0.0006254279655426569
-0.00028777565934923736   -0.012059552535322695   -0.0006062655075745352
-0.0005062892162781929   -0.014605295446119467   -0.0006039011019225762
-0.00030020603333502226   -0.01205483839795917   -0.0006188989455911399
-0.0015749936212079729   -0.0120844669734122   -0.0006254279655426569
-0.0005062892162781929   -0.014605295446119467   -0.0006039011019225762
-0.001670877435594047   -0.014629801976687135   -0.0006277788835143192
-0.0016908387606341018   -0.01461629600574283   -0.0006329312766067594
-0.0015749936212079729   -0.0120844669734122   -0.0006254279655426569
-0.0005062892162781929   -0.014605295446119467   -0.0006039011019225762
-0.0016908387606341018   -0.01461629600574283   -0.0006329312766067594
-0.00030020603333502226   -0.01205483839795917   -0.0006188989455911399
-0.0015749936212079729   -0.0120844669734122   -0.0006254279655426569
-0.001670877435594047   -0.014629801976687135   -0.0006277788835143192
-0.00028777565934923736   -0.012059552535322695   -0.0006062655075745352
-0.0015615755868915154   -0.012100711892183392   -0.000620135498668539
-0.001670877435594047   -0.014629801976687135   -0.0006277788835143192
-0.0005062892162781929   -0.014605295446119467   -0.0006039011019225762
-0.00028777565934923736   -0.012059552535322695   -0.0006062655075745352
-0.0004883521856453419   -0.014616995298987013   -0.0005905305273033582
-0.0015615755868915154   -0.012100711892183392   -0.000620135498668539
-0.00027707838235086255   -0.012066737973782443   -0.0005963650661272404
-0.0004883521856453419   -0.014616995298987013   -0.0005905305273033582
-0.00028777565934923736   -0.012059552535322695   -0.0006062655075745352
-0.0015615755868915154   -0.012100711892183392   -0.000620135498668539
-0.0004883521856453419   -0.014616995298987013   -0.0005905305273033582
-0.0016503613372242777   -0.014649551941800924   -0.0006254140833257851
-0.001670877435594047   -0.014629801976687135   -0.0006277788835143192
-0.0015615755868915154   -0.012100711892183392   -0.000620135498668539
-0.0004883521856453419   -0.014616995298987013   -0.0005905305273033582
-0.001670877435594047   -0.014629801976687135   -0.0006277788835143192
-0.00028777565934923736   -0.012059552535322695   -0.0006062655075745352
-0.0003133015068690513   -0.012052495220815682   -0.0006341760143459337
-0.0005468621166443779   -0.014599768672314812   -0.0006388098882182105
0.0010100784920602025   -0.0120365171950621   -0.0006400716303862747
-0.00030020603333502226   -0.01205483839795917   -0.0006188989455911399
-0.0005468621166443779   -0.014599768672314812   -0.0006388098882182105
0.0006545140164915808   -0.014570882185033864   -0.0006504130147352099
0.0010100784920602025   -0.0120365171950621   -0.0006400716303862747
0.0006796595150799107   -0.014562813437228827   -0.0006207246083358629
-0.00030020603333502226   -0.01205483839795917   -0.0006188989455911399
0.0010266605059405644   -0.012030058099011401   -0.000620276163010723
0.0006796595150799107   -0.014562813437228827   -0.0006207246083358629
0.0010100784920602025   -0.0120365171950621   -0.0006400716303862747
-0.00030020603333502226   -0.01205483839795917   -0.0006188989455911399
0.0006796595150799107   -0.014562813437228827   -0.0006207246083358629
-0.0005263179131923759   -0.014599700508421161   -0.0006200243668928808
-0.0005468621166443779   -0.014599768672314812   -0.0006388098882182105
-0.00030020603333502226   -0.01205483839795917   -0.0006188989455911399
0.0006796595150799107   -0.014562813437228827   -0.0006207246083358629
-0.0005468621166443779   -0.014599768672314812   -0.0006388098882182105
0.0010100784920602025   -0.0120365171950621   -0.0006400716303862747
-0.00030020603333502226   -0.01205483839795917   -0.0006188989455911399
-0.0005263179131923759   -0.014599700508421161   -0.0006200243668928808
0.0010266605059405644   -0.012030058099011401   -0.000620276163010723
-0.00028777565934923736   -0.012059552535322695   -0.0006062655075745352
-0.0005263179131923759   -0.014599700508421161   -0.0006200243668928808
0.0006796595150799107   -0.014562813437228827   -0.0006207246083358629
0.0010266605059405644   -0.012030058099011401   -0.000620276163010723
0.0007055351102688588   -0.01456122644455521   -0.0005938625391704955
-0.00028777565934923736   -0.012059552535322695   -0.0006062655075745352
0.0010421357086076001   -0.01202668262071305   -0.0006031129427950498
0.0007055351102688588   -0.01456122644455521   -0.0005938625391704955
0.0010266605059405644   -0.012030058099011401   -0.000620276163010723
-0.00028777565934923736   -0.012059552535322695   -0.0006062655075745352
0.0007055351102688588   -0.01456122644455521   -0.0005938625391704955
-0.0005062892162781929   -0.014605295446119467   -0.0006039011019225762
-0.0005263179131923759   -0.014599700508421161   -0.0006200243668928808
-0.00028777565934923736   -0.012059552535322695   -0.0006062655075745352
0.0007055351102688588   -0.01456122644455521   -0.0005938625391704955
-0.0005263179131923759   -0.014599700508421161   -0.0006200243668928808
0.0010266605059405644   -0.012030058099011401   -0.000620276163010723
-0.00028777565934923736   -0.012059552535322695   -0.0006062655075745352
-0.0005062892162781929   -0.014605295446119467   -0.0006039011019225762
0.0010421357086076001   -0.01202668262071305   -0.0006031129427950498
-0.00027707838235086255   -0.012066737973782443   -0.0005963650661272404
-0.0005062892162781929   -0.014605295446119467   -0.0006039011019225762
0.0007055351102688588   -0.01456122644455521   -0.0005938625391704955
0.0010421357086076001   -0.01202668262071305   -0.0006031129427950498
0.0007229033760522424   -0.014564944503264534   -0.0005694520695920423
-0.00027707838235086255   -0.012066737973782443   -0.0005963650661272404
0.0010508770350314328   -0.012024850237419869   -0.000588410051607178
0.0007229033760522424   -0.014564944503264534   -0.0005694520695920423
0.0010421357086076001   -0.01202668262071305   -0.0006031129427950498
-0.00027707838235086255   -0.012066737973782443   -0.0005963650661272404
0.0007229033760522424   -0.014564944503264534   -0.0005694520695920423
-0.0004883521856453419   -0.014616995298987013   -0.0005905305273033582
-0.0005062892162781929   -0.014605295446119467   -0.0006039011019225762
-0.00027707838235086255   -0.012066737973782443   -0.0005963650661272404
0.0007229033760522424   -0.014564944503264534   -0.0005694520695920423
-0.0005062892162781929   -0.014605295446119467   -0.0006039011019225762
0.0010421357086076001   -0.01202668262071305   -0.0006031129427950498
0.0010100784920602025   -0.0120365171950621   -0.0006400716303862747
0.0006545140164915808   -0.014570882185033864   -0.0006504130147352099
0.002425042193075609   -0.01200947837010974   -0.0006628333289510092
0.0010266605059405644   -0.012030058099011401   -0.000620276163010723
0.0006545140164915808   -0.014570882185033864   -0.0006504130147352099
0.0019297008850809939   -0.01452114272357298   -0.0006795048387882836
0.002425042193075609   -0.01200947837010974   -0.0006628333289510092
0.0019967037007403757   -0.014504723898411185   -0.0006361667102598692
0.0010266605059405644   -0.012030058099011401   -0.000620276163010723
0.0024675915928621035   -0.011994996794638238   -0.0006366351014868953
0.0019967037007403757   -0.014504723898411185   -0.0006361667102598692
0.002425042193075609   -0.01200947837010974   -0.0006628333289510092
0.0010266605059405644   -0.012030058099011401   -0.000620276163010723
0.0019967037007403757   -0.014504723898411185   -0.0006361667102598692
0.0006796595150799107   -0.014562813437228827   -0.0006207246083358629
0.0006545140164915808   -0.014570882185033864   -0.0006504130147352099
0.0010266605059405644   -0.012030058099011401   -0.000620276163010723
0.0019967037007403757   -0.014504723898411185   -0.0006361667102598692
0.0006545140164915808   -0.014570882185033864   -0.0006504130147352099
0.002425042193075609   -0.01200947837010974   -0.0006628333289510092
0.0010266605059405644   -0.012030058099011401   -0.000620276163010723
0.0006796595150799107   -0.014562813437228827   -0.0006207246083358629
0.0024675915928621035   -0.011994996794638238   -0.0006366351014868953
0.0010421357086076001   -0.01202668262071305   -0.0006031129427950498
0.0006796595150799107   -0.014562813437228827   -0.0006207246083358629
0.0019967037007403757   -0.014504723898411185   -0.0006361667102598692
0.0024675915928621035   -0.011994996794638238   -0.0006366351014868953
0.002046522481426847   -0.014500130589103839   -0.0005966010175281976
0.0010421357086076001   -0.01202668262071305   -0.0006031129427950498
0.002497205501180104   -0.011987951920841546   -0.0006142011504852904
0.002046522481426847   -0.014500130589103839   -0.0005966010175281976
0.0024675915928621035   -0.011994996794638238   -0.0006366351014868953
0.0010421357086076001   -0.01202668262071305   -0.0006031129427950498
0.002046522481426847   -0.014500130589103839   -0.0005966010175281976
0.0007055351102688588   -0.01456122644455521   -0.0005938625391704955
0.0006796595150799107   -0.014562813437228827   -0.0006207246083358629
0.0010421357086076001   -0.01202668262071305   -0.0006031129427950498
0.002046522481426847   -0.014500130589103839   -0.0005966010175281976
0.0006796595150799107   -0.014562813437228827   -0.0006207246083358629
0.0024675915928621035   -0.011994996794638238   -0.0006366351014868953
0.0010421357086076001   -0.01202668262071305   -0.0006031129427950498
0.0007055351102688588   -0.01456122644455521   -0.0005938625391704955
0.002497205501180104   -0.011987951920841546   -0.0006142011504852904
0.0010508770350314328   -0.012024850237419869   -0.000588410051607178
0.0007055351102688588   -0.01456122644455521   -0.0005938625391704955
0.002046522481426847   -0.014500130589103839   -0.0005966010175281976
0.002497205501180104   -0.011987951920841546   -0.0006142011504852904
0.002097399597849639   -0.014500163349995134   -0.0005609897883442325
0.0010508770350314328   -0.012024850237419869   -0.000588410051607178
0.0025239971687887027   -0.011980551353634912   -0.0005956916020070251
0.002097399597849639   -0.014500163349995134   -0.0005609897883442325
0.002497205501180104   -0.011987951920841546   -0.0006142011504852904
0.0010508770350314328   -0.012024850237419869   -0.000588410051607178
0.002097399597849639   -0.014500163349995134   -0.0005609897883442325
0.0007229033760522424   -0.014564944503264534   -0.0005694520695920423
0.0007055351102688588   -0.01456122644455521   -0.0005938625391704955
0.0010508770350314328   -0.012024850237419869   -0.000588410051607178
0.002097399597849639   -0.014500163349995134   -0.0005609897883442325
0.0007055351102688588   -0.01456122644455521   -0.0005938625391704955
0.002497205501180104   -0.011987951920841546   -0.0006142011504852904
-0.004243096512062615   -0.014568824259457491   -0.0006779337913754285
-0.0038737540331268403   -0.01678953083094834   -0.0006331690022730258
-0.0029079954857717076   -0.014597713185727104   -0.0006552110590178232
-0.004212083328525566   -0.014588367239607256   -0.0006949379619411872
-0.0038737540331268403   -0.01678953083094834   -0.0006331690022730258
-0.0027518526299006416   -0.016841065174783253   -0.0006297101805020228
-0.0029079954857717076   -0.014597713185727104   -0.0006552110590178232
-0.002724307033021668   -0.01684848037300088   -0.0006419798449252188
-0.004212083328525566   -0.014588367239607256   -0.0006949379619411872
-0.002890847017373745   -0.014612174779363092   -0.0006587797773189422
-0.002724307033021668   -0.01684848037300088   -0.0006419798449252188
-0.0029079954857717076   -0.014597713185727104   -0.0006552110590178232
-0.004212083328525566   -0.014588367239607256   -0.0006949379619411872
-0.002724307033021668   -0.01684848037300088   -0.0006419798449252188
-0.0038159443482887684   -0.016800486874833563   -0.0006677194731244075
-0.0038737540331268403   -0.01678953083094834   -0.0006331690022730258
-0.004212083328525566   -0.014588367239607256   -0.0006949379619411872
-0.002724307033021668   -0.01684848037300088   -0.0006419798449252188
-0.0038737540331268403   -0.01678953083094834   -0.0006331690022730258
-0.0029079954857717076   -0.014597713185727104   -0.0006552110590178232
-0.004212083328525566   -0.014588367239607256   -0.0006949379619411872
-0.0038159443482887684   -0.016800486874833563   -0.0006677194731244075
-0.002890847017373745   -0.014612174779363092   -0.0006587797773189422
-0.004177013507552045   -0.014612626198767555   -0.0007161603588587692
-0.0038159443482887684   -0.016800486874833563   -0.0006677194731244075
-0.002724307033021668   -0.01684848037300088   -0.0006419798449252188
-0.002890847017373745   -0.014612174779363092   -0.0006587797773189422
-0.0026896906579647315   -0.016866440158724877   -0.0006569437248757228
-0.004177013507552045   -0.014612626198767555   -0.0007161603588587692
-0.0028677844285556696   -0.014632980902814773   -0.0006650342996527259
-0.0026896906579647315   -0.016866440158724877   -0.0006569437248757228
-0.002890847017373745   -0.014612174779363092   -0.0006587797773189422
-0.004177013507552045   -0.014612626198767555   -0.0007161603588587692
-0.0026896906579647315   -0.016866440158724877   -0.0006569437248757228
-0.003758509516413302   -0.016821572517084837   -0.000706654050788612
-0.0038159443482887684   -0.016800486874833563   -0.0006677194731244075
-0.004177013507552045   -0.014612626198767555   -0.0007161603588587692
-0.0026896906579647315   -0.016866440158724877   -0.0006569437248757228
-0.0038159443482887684   -0.016800486874833563   -0.0006677194731244075
-0.002890847017373745   -0.014612174779363092   -0.0006587797773189422
-0.004177013507552045   -0.014612626198767555   -0.0007161603588587692
-0.003758509516413302   -0.016821572517084837   -0.000706654050788612
-0.0028677844285556696   -0.014632980902814773   -0.0006650342996527259
-0.004129497124162846   -0.014649693286537948   -0.0007416955679040689
-0.003758509516413302   -0.016821572517084837   -0.000706654050788612
-0.0026896906579647315   -0.016866440158724877   -0.0006569437248757228
-0.0028677844285556696   -0.014632980902814773   -0.0006650342996527259
-0.0026555787580283276   -0.01689596856396022   -0.0006745758388456602
-0.004129497124162846   -0.014649693286537948   -0.0007416955679040689
-0.00284310852707384   -0.014661411312739656   -0.0006740429693921444
-0.0026555787580283276   -0.01689596856396022   -0.0006745758388456602
-0.0028677844285556696   -0.014632980902814773   -0.0006650342996527259
-0.004129497124162846   -0.014649693286537948   -0.0007416955679040689
-0.0026555787580283276   -0.01689596856396022   -0.0006745758388456602
-0.0036850041623522007   -0.016860893094778704   -0.0007499099945500652
-0.003758509516413302   -0.016821572517084837   -0.000706654050788612
-0.004129497124162846   -0.014649693286537948   -0.0007416955679040689
-0.0026555787580283276   -0.01689596856396022   -0.0006745758388456602
-0.003758509516413302   -0.016821572517084837   -0.000706654050788612
-0.0028677844285556696   -0.014632980902814773   -0.0006650342996527259
-0.0029079954857717076   -0.014597713185727104   -0.0006552110590178232
-0.0027518526299006416   -0.016841065174783253   -0.0006297101805020228
-0.0017094263821381104   -0.014608872222006956   -0.0006407346989991907
-0.002890847017373745   -0.014612174779363092   -0.0006587797773189422
-0.0027518526299006416   -0.016841065174783253   -0.0006297101805020228
-0.0017776140282197363   -0.01686476872207246   -0.0006284709256300661
-0.0017094263821381104   -0.014608872222006956   -0.0006407346989991907
-0.0017494342628971604   -0.01686713280922524   -0.0006228731673151195
-0.002890847017373745   -0.014612174779363092   -0.0006587797773189422
-0.0016908387606341018   -0.01461629600574283   -0.0006329312766067594
-0.0017494342628971604   -0.01686713280922524   -0.0006228731673151195
-0.0017094263821381104   -0.014608872222006956   -0.0006407346989991907
-0.002890847017373745   -0.014612174779363092   -0.0006587797773189422
-0.0017494342628971604   -0.01686713280922524   -0.0006228731673151195
-0.002724307033021668   -0.01684848037300088   -0.0006419798449252188
-0.0027518526299006416   -0.016841065174783253   -0.0006297101805020228
-0.002890847017373745   -0.014612174779363092   -0.0006587797773189422
-0.0017494342628971604   -0.01686713280922524   -0.0006228731673151195
-0.0027518526299006416   -0.016841065174783253   -0.0006297101805020228
-0.0017094263821381104   -0.014608872222006956   -0.0006407346989991907
-0.002890847017373745   -0.014612174779363092   -0.0006587797773189422
-0.002724307033021668   -0.01684848037300088   -0.0006419798449252188
-0.0016908387606341018   -0.01461629600574283   -0.0006329312766067594
-0.0028677844285556696   -0.014632980902814773   -0.0006650342996527259
-0.002724307033021668   -0.01684848037300088   -0.0006419798449252188
-0.0017494342628971604   -0.01686713280922524   -0.0006228731673151195
-0.0016908387606341018   -0.01461629600574283   -0.0006329312766067594
-0.0017203173772062136   -0.016878930701396785   -0.0006198893972894361
-0.0028677844285556696   -0.014632980902814773   -0.0006650342996527259
-0.001670877435594047   -0.014629801976687135   -0.0006277788835143192
-0.0017203173772062136   -0.016878930701396785   -0.0006198893972894361
-0.0016908387606341018   -0.01461629600574283   -0.0006329312766067594
-0.0028677844285556696   -0.014632980902814773   -0.0006650342996527259
-0.0017203173772062136   -0.016878930701396785   -0.0006198893972894361
-0.0026896906579647315   -0.016866440158724877   -0.0006569437248757228
-0.002724307033021668   -0.01684848037300088   -0.0006419798449252188
-0.0028677844285556696   -0.014632980902814773   -0.0006650342996527259
-0.0017203173772062136   -0.016878930701396785   -0.0006198893972894361
-0.002724307033021668   -0.01684848037300088   -0.0006419798449252188
-0.0016908387606341018   -0.01461629600574283   -0.0006329312766067594
-0.0028677844285556696   -0.014632980902814773   -0.0006650342996527259
-0.0026896906579647315   -0.016866440158724877   -0.0006569437248757228
-0.001670877435594047   -0.014629801976687135   -0.0006277788835143192
-0.00284310852707384   -0.014661411312739656   -0.0006740429693921444
-0.0026896906579647315   -0.016866440158724877   -0.0006569437248757228
-0.0017203173772062136   -0.016878930701396785   -0.0006198893972894361
-0.001670877435594047   -0.014629801976687135   -0.0006277788835143192
-0.0016912310171543481   -0.016900677449127315   -0.0006194992528087405
-0.00284310852707384   -0.014661411312739656   -0.0006740429693921444
-0.0016503613372242777   -0.014649551941800924   -0.0006254140833257851
-0.0016912310171543481   -0.016900677449127315   -0.0006194992528087405
-0.001670877435594047   -0.014629801976687135   -0.0006277788835143192
-0.00284310852707384   -0.014661411312739656   -0.0006740429693921444
-0.0016912310171543481   -0.016900677449127315   -0.0006194992528087405
-0.0026555787580283276   -0.01689596856396022   -0.0006745758388456602
-0.0026896906579647315   -0.016866440158724877   -0.0006569437248757228
-0.00284310852707384   -0.014661411312739656   -0.0006740429693921444
-0.0016912310171543481   -0.016900677449127315   -0.0006194992528087405
-0.0026896906579647315   -0.016866440158724877   -0.0006569437248757228
-0.001670877435594047   -0.014629801976687135   -0.0006277788835143192
-0.0017094263821381104   -0.014608872222006956   -0.0006407346989991907
-0.0017776140282197363   -0.01686476872207246   -0.0006284709256300661
-0.0005468621166443779   -0.014599768672314812   -0.0006388098882182105
-0.0016908387606341018   -0.01461629600574283   -0.0006329312766067594
-0.0017776140282197363   -0.01686476872207246   -0.0006284709256300661
-0.0008354234260191215   -0.01685960428076419   -0.0006358035151709466
-0.0005468621166443779   -0.014599768672314812   -0.0006388098882182105
-0.0008045653527545828   -0.01685626294016834   -0.0006129563877361577
-0.0016908387606341018   -0.01461629600574283   -0.0006329312766067594
-0.0005263179131923759   -0.014599700508421161   -0.0006200243668928808
-0.0008045653527545828   -0.01685626294016834   -0.0006129563877361577
-0.0005468621166443779   -0.014599768672314812   -0.0006388098882182105
-0.0016908387606341018   -0.01461629600574283   -0.0006329312766067594
-0.0008045653527545828   -0.01685626294016834   -0.0006129563877361577
-0.0017494342628971604   -0.01686713280922524   -0.0006228731673151195
-0.0017776140282197363   -0.01686476872207246   -0.0006284709256300661
-0.0016908387606341018   -0.01461629600574283   -0.0006329312766067594
-0.0008045653527545828   -0.01685626294016834   -0.0006129563877361577
-0.0017776140282197363   -0.01686476872207246   -0.0006284709256300661
-0.0005468621166443779   -0.014599768672314812   -0.0006388098882182105
-0.0016908387606341018   -0.01461629600574283   -0.0006329312766067594
-0.0017494342628971604   -0.01686713280922524   -0.0006228731673151195
-0.0005263179131923759   -0.014599700508421161   -0.0006200243668928808
-0.001670877435594047   -0.014629801976687135   -0.0006277788835143192
-0.0017494342628971604   -0.01686713280922524   -0.0006228731673151195
-0.0008045653527545828   -0.01685626294016834   -0.0006129563877361577
-0.0005263179131923759   -0.014599700508421161   -0.0006200243668928808
-0.0007745699517037674   -0.01686150098542948   -0.0005928975269842044
-0.001670877435594047   -0.014629801976687135   -0.0006277788835143192
-0.0005062892162781929   -0.014605295446119467   -0.0006039011019225762
-0.0007745699517037674   -0.01686150098542948   -0.0005928975269842044
-0.0005263179131923759   -0.014599700508421161   -0.0006200243668928808
-0.001670877435594047   -0.014629801976687135   -0.0006277788835143192
-0.0007745699517037674   -0.01686150098542948   -0.0005928975269842044
-0.0017203173772062136   -0.016878930701396785   -0.0006198893972894361
-0.0017494342628971604   -0.01686713280922524   -0.0006228731673151195
-0.001670877435594047   -0.014629801976687135   -0.0006277788835143192
-0.0007745699517037674   -0.01686150098542948   -0.0005928975269842044
-0.0017494342628971604   -0.01686713280922524   -0.0006228731673151195
-0.0005263179131923759   -0.014599700508421161   -0.0006200243668928808
-0.001670877435594047   -0.014629801976687135   -0.0006277788835143192
-0.0017203173772062136   -0.016878930701396785   -0.0006198893972894361
-0.0005062892162781929   -0.014605295446119467   -0.0006039011019225762
-0.0016503613372242777   -0.014649551941800924   -0.0006254140833257851
-0.0017203173772062136   -0.016878930701396785   -0.0006198893972894361
-0.0007745699517037674   -0.01686150098542948   -0.0005928975269842044
-0.0005062892162781929   -0.014605295446119467   -0.0006039011019225762
-0.0007474263722756679   -0.016876477277383325   -0.0005753923979434683
-0.0016503613372242777   -0.014649551941800924   -0.0006254140833257851
-0.0004883521856453419   -0.014616995298987013   -0.0005905305273033582
-0.0007474263722756679   -0.016876477277383325   -0.0005753923979434683
-0.0005062892162781929   -0.014605295446119467   -0.0006039011019225762
-0.0016503613372242777   -0.014649551941800924   -0.0006254140833257851
-0.0007474263722756679   -0.016876477277383325   -0.0005753923979434683
-0.0016912310171543481   -0.016900677449127315   -0.0006194992528087405
-0.0017203173772062136   -0.016878930701396785   -0.0006198893972894361
-0.0016503613372242777   -0.014649551941800924   -0.0006254140833257851
-0.0007474263722756679   -0.016876477277383325   -0.0005753923979434683
-0.0017203173772062136   -0.016878930701396785   -0.0006198893972894361
-0.0005062892162781929   -0.014605295446119467   -0.0006039011019225762
-0.0005468621166443779   -0.014599768672314812   -0.0006388098882182105
-0.0008354234260191215   -0.01685960428076419   -0.0006358035151709466
0.0006545140164915808   -0.014570882185033864   -0.0006504130147352099
-0.0005263179131923759   -0.014599700508421161   -0.0006200243668928808
-0.0008354234260191215   -0.01685960428076419   -0.0006358035151709466
0.0001488440059176393   -0.01682452187925796   -0.0006531832466493227
0.0006545140164915808   -0.014570882185033864   -0.0006504130147352099
0.00018647258293418725   -0.016813994365171083   -0.0006131203490103482
-0.0005263179131923759   -0.014599700508421161   -0.0006200243668928808
0.0006796595150799107   -0.014562813437228827   -0.0006207246083358629
0.00018647258293418725   -0.016813994365171083   -0.0006131203490103482
0.0006545140164915808   -0.014570882185033864   -0.0006504130147352099
-0.0005263179131923759   -0.014599700508421161   -0.0006200243668928808
0.00018647258293418725   -0.016813994365171083   -0.0006131203490103482
-0.0008045653527545828   -0.01685626294016834   -0.0006129563877361577
-0.0008354234260191215   -0.01685960428076419   -0.0006358035151709466
-0.0005263179131923759   -0.014599700508421161   -0.0006200243668928808
0.00018647258293418725   -0.016813994365171083   -0.0006131203490103482
-0.0008354234260191215   -0.01685960428076419   -0.0006358035151709466
0.0006545140164915808   -0.014570882185033864   -0.0006504130147352099
-0.0005263179131923759   -0.014599700508421161   -0.0006200243668928808
-0.0008045653527545828   -0.01685626294016834   -0.0006129563877361577
0.0006796595150799107   -0.014562813437228827   -0.0006207246083358629
-0.0005062892162781929   -0.014605295446119467   -0.0006039011019225762
-0.0008045653527545828   -0.01685626294016834   -0.0006129563877361577
0.00018647258293418725   -0.016813994365171083   -0.0006131203490103482
0.0006796595150799107   -0.014562813437228827   -0.0006207246083358629
0.00022627518682003005   -0.016813052653131072   -0.0005765797833016194
-0.0005062892162781929   -0.014605295446119467   -0.0006039011019225762
0.0007055351102688588   -0.01456122644455521   -0.0005938625391704955
0.00022627518682003005   -0.016813052653131072   -0.0005765797833016194
0.0006796595150799107   -0.014562813437228827   -0.0006207246083358629
-0.0005062892162781929   -0.014605295446119467   -0.0006039011019225762
0.00022627518682003005   -0.016813052653131072   -0.0005765797833016194
-0.0007745699517037674   -0.01686150098542948   -0.0005928975269842044
-0.0008045653527545828   -0.01685626294016834   -0.0006129563877361577
-0.0005062892162781929   -0.014605295446119467   -0.0006039011019225762
0.00022627518682003005   -0.016813052653131072   -0.0005765797833016194
-0.0008045653527545828   -0.01685626294016834   -0.0006129563877361577
0.0006796595150799107   -0.014562813437228827   -0.0006207246083358629
-0.0005062892162781929   -0.014605295446119467   -0.0006039011019225762
-0.0007745699517037674   -0.01686150098542948   -0.0005928975269842044
0.0007055351102688588   -0.01456122644455521   -0.0005938625391704955
-0.0004883521856453419   -0.014616995298987013   -0.0005905305273033582
-0.0007745699517037674   -0.01686150098542948   -0.0005928975269842044
0.00022627518682003005   -0.016813052653131072   -0.0005765797833016194
0.0007055351102688588   -0.01456122644455521   -0.0005938625391704955
0.00025538180438189806   -0.016821239098212277   -0.0005424588446901478
-0.0004883521856453419   -0.014616995298987013   -0.0005905305273033582
0.0007229033760522424   -0.014564944503264534   -0.0005694520695920423
0.00025538180438189806   -0.016821239098212277   -0.0005424588446901478
0.0007055351102688588   -0.01456122644455521   -0.0005938625391704955
-0.0004883521856453419   -0.014616995298987013   -0.0005905305273033582
0.00025538180438189806   -0.016821239098212277   -0.0005424588446901478
-0.0007474263722756679   -0.016876477277383325   -0.0005753923979434683
-0.0007745699517037674   -0.01686150098542948   -0.0005928975269842044
-0.0004883521856453419   -0.014616995298987013   -0.0005905305273033582
0.00025538180438189806   -0.016821239098212277   -0.0005424588446901478
-0.0007745699517037674   -0.01686150098542948   -0.0005928975269842044
0.0007055351102688588   -0.01456122644455521   -0.0005938625391704955
0.0006545140164915808   -0.014570882185033864   -0.0006504130147352099
0.0001488440059176393   -0.01682452187925796   -0.0006531832466493227
0.0019297008850809939   -0.01452114272357298   -0.0006795048387882836
0.0006796595150799107   -0.014562813437228827   -0.0006207246083358629
0.0001488440059176393   -0.01682452187925796   -0.0006531832466493227
0.001194227870515242   -0.016756258148640214   -0.0006896299178287364
0.0019297008850809939   -0.01452114272357298   -0.0006795048387882836
0.0012906986493435035   -0.016736173718654143   -0.0006282479613682613
0.0006796595150799107   -0.014562813437228827   -0.0006207246083358629
0.0019967037007403757   -0.014504723898411185   -0.0006361667102598692
0.0012906986493435035   -0.016736173718654143   -0.0006282479613682613
0.0019297008850809939   -0.01452114272357298   -0.0006795048387882836
0.0006796595150799107   -0.014562813437228827   -0.0006207246083358629
0.0012906986493435035   -0.016736173718654143   -0.0006282479613682613
0.00018647258293418725   -0.016813994365171083   -0.0006131203490103482
0.0001488440059176393   -0.01682452187925796   -0.0006531832466493227
0.0006796595150799107   -0.014562813437228827   -0.0006207246083358629
0.0012906986493435035   -0.016736173718654143   -0.0006282479613682613
0.0001488440059176393   -0.01682452187925796   -0.0006531832466493227
0.0019297008850809939   -0.01452114272357298   -0.0006795048387882836
0.0006796595150799107   -0.014562813437228827   -0.0006207246083358629
0.00018647258293418725   -0.016813994365171083   -0.0006131203490103482
0.0019967037007403757   -0.014504723898411185   -0.0006361667102598692
0.0007055351102688588   -0.01456122644455521   -0.0005938625391704955
0.00018647258293418725   -0.016813994365171083   -0.0006131203490103482
0.0012906986493435035   -0.016736173718654143   -0.0006282479613682613
0.0019967037007403757   -0.014504723898411185   -0.0006361667102598692
0.0013647503812357126   -0.016732691426413135   -0.0005712388555979454
0.0007055351102688588   -0.01456122644455521   -0.0005938625391704955
0.002046522481426847   -0.014500130589103839   -0.0005966010175281976
0.0013647503812357126   -0.016732691426413135   -0.0005712388555979454
0.0019967037007403757   -0.014504723898411185   -0.0006361667102598692
0.0007055351102688588   -0.01456122644455521   -0.0005938625391704955
0.0013647503812357126   -0.016732691426413135   -0.0005712388555979454
0.00022627518682003005   -0.016813052653131072   -0.0005765797833016194
0.00018647258293418725   -0.016813994365171083   -0.0006131203490103482
0.0007055351102688588   -0.01456122644455521   -0.0005938625391704955
0.0013647503812357126   -0.016732691426413135   -0.0005712388555979454
0.00018647258293418725   -0.016813994365171083   -0.0006131203490103482
0.0019967037007403757   -0.014504723898411185   -0.0006361667102598692
0.0007055351102688588   -0.01456122644455521   -0.0005938625391704955
0.00022627518682003005   -0.016813052653131072   -0.0005765797833016194
0.002046522481426847   -0.014500130589103839   -0.0005966010175281976
0.0007229033760522424   -0.014564944503264534   -0.0005694520695920423
0.00022627518682003005   -0.016813052653131072   -0.0005765797833016194
0.0013647503812357126   -0.016732691426413135   -0.0005712388555979454
0.002046522481426847   -0.014500130589103839   -0.0005966010175281976
0.0014419720725553562   -0.016738833130927784   -0.0005190593767030521
0.0007229033760522424   -0.014564944503264534   -0.0005694520695920423
0.002097399597849639   -0.014500163349995134   -0.0005609897883442325
0.0014419720725553562   -0.016738833130927784   -0.0005190593767030521
0.002046522481426847   -0.014500130589103839   -0.0005966010175281976
0.0007229033760522424   -0.014564944503264534   -0.0005694520695920423
0.0014419720725553562   -0.016738833130927784   -0.0005190593767030521
0.00025538180438189806   -0.016821239098212277   -0.0005424588446901478
0.00022627518682003005   -0.016813052653131072   -0.0005765797833016194
0.0007229033760522424   -0.014564944503264534   -0.0005694520695920423
0.0014419720725553562   -0.016738833130927784   -0.0005190593767030521
0.00022627518682003005   -0.016813052653131072   -0.0005765797833016194
0.002046522481426847   -0.014500130589103839   -0.0005966010175281976
-0.0038737540331268403   -0.01678953083094834   -0.0006331690022730258
-0.00325479708455692   -0.018529485779631615   -0.000575293113952493
-0.0027518526299006416   -0.016841065174783253   -0.0006297101805020228
-0.0038159443482887684   -0.016800486874833563   -0.0006677194731244075
-0.00325479708455692   -0.018529485779631615   -0.000575293113952493
-0.0024551727893309494   -0.018605142363614536   -0.000597847959443325
-0.0027518526299006416   -0.016841065174783253   -0.0006297101805020228
-0.0024161489223176397   -0.018601468772248005   -0.0006166948177760072
-0.0038159443482887684   -0.016800486874833563   -0.0006677194731244075
-0.002724307033021668   -0.01684848037300088   -0.0006419798449252188
-0.0024161489223176397   -0.018601468772248005   -0.0006166948177760072
-0.0027518526299006416   -0.016841065174783253   -0.0006297101805020228
-0.0038159443482887684   -0.016800486874833563   -0.0006677194731244075
-0.0024161489223176397   -0.018601468772248005   -0.0006166948177760072
-0.003169704386240376   -0.01852750236633882   -0.0006260666812130957
-0.00325479708455692   -0.018529485779631615   -0.000575293113952493
-0.0038159443482887684   -0.016800486874833563   -0.0006677194731244075
-0.0024161489223176397   -0.018601468772248005   -0.0006166948177760072
-0.00325479708455692   -0.018529485779631615   -0.000575293113952493
-0.0027518526299006416   -0.016841065174783253   -0.0006297101805020228
-0.0038159443482887684   -0.016800486874833563   -0.0006677194731244075
-0.003169704386240376   -0.01852750236633882   -0.0006260666812130957
-0.002724307033021668   -0.01684848037300088   -0.0006419798449252188
-0.003758509516413302   -0.016821572517084837   -0.000706654050788612
-0.003169704386240376   -0.01852750236633882   -0.0006260666812130957
-0.0024161489223176397   -0.018601468772248005   -0.0006166948177760072
-0.002724307033021668   -0.01684848037300088   -0.0006419798449252188
-0.002370096881021243   -0.01861275074578861   -0.000638265487038349
-0.003758509516413302   -0.016821572517084837   -0.000706654050788612
-0.0026896906579647315   -0.016866440158724877   -0.0006569437248757228
-0.002370096881021243   -0.01861275074578861   -0.000638265487038349
-0.002724307033021668   -0.01684848037300088   -0.0006419798449252188
-0.003758509516413302   -0.016821572517084837   -0.000706654050788612
-0.002370096881021243   -0.01861275074578861   -0.000638265487038349
-0.0030914251172576997   -0.018541378057708714   -0.0006806877566319066
-0.003169704386240376   -0.01852750236633882   -0.0006260666812130957
-0.003758509516413302   -0.016821572517084837   -0.000706654050788612
-0.002370096881021243   -0.01861275074578861   -0.000638265487038349
-0.003169704386240376   -0.01852750236633882   -0.0006260666812130957
-0.002724307033021668   -0.01684848037300088   -0.0006419798449252188
-0.003758509516413302   -0.016821572517084837   -0.000706654050788612
-0.0030914251172576997   -0.018541378057708714   -0.0006806877566319066
-0.0026896906579647315   -0.016866440158724877   -0.0006569437248757228
-0.0036850041623522007   -0.016860893094778704   -0.0007499099945500652
-0.0030914251172576997   -0.018541378057708714   -0.0006806877566319066
-0.002370096881021243   -0.01861275074578861   -0.000638265487038349
-0.0026896906579647315   -0.016866440158724877   -0.0006569437248757228
-0.0023283271386460025   -0.018639268682569696   -0.0006623889517360186
-0.0036850041623522007   -0.016860893094778704   -0.0007499099945500652
-0.0026555787580283276   -0.01689596856396022   -0.0006745758388456602
-0.0023283271386460025   -0.018639268682569696   -0.0006623889517360186
-0.0026896906579647315   -0.016866440158724877   -0.0006569437248757228
-0.0036850041623522007   -0.016860893094778704   -0.0007499099945500652
-0.0023283271386460025   -0.018639268682569696   -0.0006623889517360186
-0.002995842143285386   -0.018577919059420526   -0.0007389473695298593
-0.0030914251172576997   -0.018541378057708714   -0.0006806877566319066
-0.0036850041623522007   -0.016860893094778704   -0.0007499099945500652
-0.0023283271386460025   -0.018639268682569696   -0.0006623889517360186
-0.0030914251172576997   -0.018541378057708714   -0.0006806877566319066
-0.0026896906579647315   -0.016866440158724877   -0.0006569437248757228
-0.0027518526299006416   -0.016841065174783253   -0.0006297101805020228
-0.0024551727893309494   -0.018605142363614536   -0.000597847959443325
-0.0017776140282197363   -0.01686476872207246   -0.0006284709256300661
-0.002724307033021668   -0.01684848037300088   -0.0006419798449252188
-0.0024551727893309494   -0.018605142363614536   -0.000597847959443325
-0.0017984507336399837   -0.018653131446776137   -0.0006155354559542989
-0.0017776140282197363   -0.01686476872207246   -0.0006284709256300661
-0.00175855144662099   -0.01864701564684337   -0.0006097964212448328
-0.002724307033021668   -0.01684848037300088   -0.0006419798449252188
-0.0017494342628971604   -0.01686713280922524   -0.0006228731673151195
-0.00175855144662099   -0.01864701564684337   -0.0006097964212448328
-0.0017776140282197363   -0.01686476872207246   -0.0006284709256300661
-0.002724307033021668   -0.01684848037300088   -0.0006419798449252188
-0.00175855144662099   -0.01864701564684337   -0.0006097964212448328
-0.0024161489223176397   -0.018601468772248005   -0.0006166948177760072
-0.0024551727893309494   -0.018605142363614536   -0.000597847959443325
-0.002724307033021668   -0.01684848037300088   -0.0006419798449252188
-0.00175855144662099   -0.01864701564684337   -0.0006097964212448328
-0.0024551727893309494   -0.018605142363614536   -0.000597847959443325
-0.0017776140282197363   -0.01686476872207246   -0.0006284709256300661
-0.002724307033021668   -0.01684848037300088   -0.0006419798449252188
-0.0024161489223176397   -0.018601468772248005   -0.0006166948177760072
-0.0017494342628971604   -0.01686713280922524   -0.0006228731673151195
-0.0026896906579647315   -0.016866440158724877   -0.0006569437248757228
-0.0024161489223176397   -0.018601468772248005   -0.0006166948177760072
-0.00175855144662099   -0.01864701564684337   -0.0006097964212448328
-0.0017494342628971604   -0.01686713280922524   -0.0006228731673151195
-0.0017191247911542628   -0.018653857013526752   -0.0006067134791407932
-0.0026896906579647315   -0.016866440158724877   -0.0006569437248757228
-0.0017203173772062136   -0.016878930701396785   -0.0006198893972894361
-0.0017191247911542628   -0.018653857013526752   -0.0006067134791407932
-0.0017494342628971604   -0.01686713280922524   -0.0006228731673151195
-0.0026896906579647315   -0.016866440158724877   -0.0006569437248757228
-0.0017191247911542628   -0.018653857013526752   -0.0006067134791407932
-0.002370096881021243   -0.01861275074578861   -0.000638265487038349
-0.0024161489223176397   -0.018601468772248005   -0.0006166948177760072
-0.0026896906579647315   -0.016866440158724877   -0.0006569437248757228
-0.0017191247911542628   -0.018653857013526752   -0.0006067134791407932
-0.0024161489223176397   -0.018601468772248005   -0.0006166948177760072
-0.0017494342628971604   -0.01686713280922524   -0.0006228731673151195
-0.0026896906579647315   -0.016866440158724877   -0.0006569437248757228
-0.002370096881021243   -0.01861275074578861   -0.000638265487038349
-0.0017203173772062136   -0.016878930701396785   -0.0006198893972894361
-0.0026555787580283276   -0.01689596856396022   -0.0006745758388456602
-0.002370096881021243   -0.01861275074578861   -0.000638265487038349
-0.0017191247911542628   -0.018653857013526752   -0.0006067134791407932
-0.0017203173772062136   -0.016878930701396785   -0.0006198893972894361
-0.0016827528780798487   -0.018674048715166872   -0.0006068273912639136
-0.0026555787580283276   -0.01689596856396022   -0.0006745758388456602
-0.0016912310171543481   -0.016900677449127315   -0.0006194992528087405
-0.0016827528780798487   -0.018674048715166872   -0.0006068273912639136
-0.0017203173772062136   -0.016878930701396785   -0.0006198893972894361
-0.0026555787580283276   -0.01689596856396022   -0.0006745758388456602
-0.0016827528780798487   -0.018674048715166872   -0.0006068273912639136
-0.0023283271386460025   -0.018639268682569696   -0.0006623889517360186
-0.002370096881021243   -0.01861275074578861   -0.000638265487038349
-0.0026555787580283276   -0.01689596856396022   -0.0006745758388456602
-0.0016827528780798487   -0.018674048715166872   -0.0006068273912639136
-0.002370096881021243   -0.01861275074578861   -0.000638265487038349
-0.0017203173772062136   -0.016878930701396785   -0.0006198893972894361
-0.0017776140282197363   -0.01686476872207246   -0.0006284709256300661
-0.0017984507336399837   -0.018653131446776137   -0.0006155354559542989
-0.0008354234260191215   -0.01685960428076419   -0.0006358035151709466
-0.0017494342628971604   -0.01686713280922524   -0.0006228731673151195
-0.0017984507336399837   -0.018653131446776137   -0.0006155354559542989
-0.001169094618802467   -0.018676717300123966   -0.0006367934984041434
-0.0008354234260191215   -0.01685960428076419   -0.0006358035151709466
-0.0011241519489746134   -0.018667678615208516   -0.000607805259613609
-0.0017494342628971604   -0.01686713280922524   -0.0006228731673151195
-0.0008045653527545828   -0.01685626294016834   -0.0006129563877361577
-0.0011241519489746134   -0.018667678615208516   -0.000607805259613609
-0.0008354234260191215   -0.01685960428076419   -0.0006358035151709466
-0.0017494342628971604   -0.01686713280922524   -0.0006228731673151195
-0.0011241519489746134   -0.018667678615208516   -0.000607805259613609
-0.00175855144662099   -0.01864701564684337   -0.0006097964212448328
-0.0017984507336399837   -0.018653131446776137   -0.0006155354559542989
-0.0017494342628971604   -0.01686713280922524   -0.0006228731673151195
-0.0011241519489746134   -0.018667678615208516   -0.000607805259613609
-0.0017984507336399837   -0.018653131446776137   -0.0006155354559542989
-0.0008354234260191215   -0.01685960428076419   -0.0006358035151709466
-0.0017494342628971604   -0.01686713280922524   -0.0006228731673151195
-0.00175855144662099   -0.01864701564684337   -0.0006097964212448328
-0.0008045653527545828   -0.01685626294016834   -0.0006129563877361577
-0.0017203173772062136   -0.016878930701396785   -0.0006198893972894361
-0.00175855144662099   -0.01864701564684337   -0.0006097964212448328
-0.0011241519489746134   -0.018667678615208516   -0.000607805259613609
-0.0008045653527545828   -0.01685626294016834   -0.0006129563877361577
-0.0010812374821871544   -0.018670122727255406   -0.0005812030754764263
-0.0017203173772062136   -0.016878930701396785   -0.0006198893972894361
-0.0007745699517037674   -0.01686150098542948   -0.0005928975269842044
-0.0010812374821871544   -0.018670122727255406   -0.0005812030754764263
-0.0008045653527545828   -0.01685626294016834   -0.0006129563877361577
-0.0017203173772062136   -0.016878930701396785   -0.0006198893972894361
-0.0010812374821871544   -0.018670122727255406   -0.0005812030754764263
-0.0017191247911542628   -0.018653857013526752   -0.0006067134791407932
-0.00175855144662099   -0.01864701564684337   -0.0006097964212448328
-0.0017203173772062136   -0.016878930701396785   -0.0006198893972894361
-0.0010812374821871544   -0.018670122727255406   -0.0005812030754764263
-0.00175855144662099   -0.01864701564684337   -0.0006097964212448328
-0.0008045653527545828   -0.01685626294016834   -0.0006129563877361577
-0.0017203173772062136   -0.016878930701396785   -0.0006198893972894361
-0.0017191247911542628   -0.018653857013526752   -0.0006067134791407932
-0.0007745699517037674   -0.01686150098542948   -0.0005928975269842044
-0.0016912310171543481   -0.016900677449127315   -0.0006194992528087405
-0.0017191247911542628   -0.018653857013526752   -0.0006067134791407932
-0.0010812374821871544   -0.018670122727255406   -0.0005812030754764263
-0.0007745699517037674   -0.01686150098542948   -0.0005928975269842044
-0.0010454047435758985   -0.018686122951723682   -0.0005583896552612802
-0.0016912310171543481   -0.016900677449127315   -0.0006194992528087405
-0.0007474263722756679   -0.016876477277383325   -0.0005753923979434683
-0.0010454047435758985   -0.018686122951723682   -0.0005583896552612802
-0.0007745699517037674   -0.01686150098542948   -0.0005928975269842044
-0.0016912310171543481   -0.016900677449127315   -0.0006194992528087405
-0.0010454047435758985   -0.018686122951723682   -0.0005583896552612802
-0.0016827528780798487   -0.018674048715166872   -0.0006068273912639136
-0.0017191247911542628   -0.018653857013526752   -0.0006067134791407932
-0.0016912310171543481   -0.016900677449127315   -0.0006194992528087405
-0.0010454047435758985   -0.018686122951723682   -0.0005583896552612802
-0.0017191247911542628   -0.018653857013526752   -0.0006067134791407932
-0.0007745699517037674   -0.01686150098542948   -0.0005928975269842044
-0.0008354234260191215   -0.01685960428076419   -0.0006358035151709466
-0.001169094618802467   -0.018676717300123966   -0.0006367934984041434
0.0001488440059176393   -0.01682452187925796   -0.0006531832466493227
-0.0008045653527545828   -0.01685626294016834   -0.0006129563877361577
-0.001169094618802467   -0.018676717300123966   -0.0006367934984041434
-0.0005023792625400537   -0.018667270785101484   -0.0006621376473604932
0.0001488440059176393   -0.01682452187925796   -0.0006531832466493227
-0.0004446711239511529   -0.01865304204471427   -0.0006108184035903634
-0.0008045653527545828   -0.01685626294016834   -0.0006129563877361577
0.00018647258293418725   -0.016813994365171083   -0.0006131203490103482
-0.0004446711239511529   -0.01865304204471427   -0.0006108184035903634
0.0001488440059176393   -0.01682452187925796   -0.0006531832466493227
-0.0008045653527545828   -0.01685626294016834   -0.0006129563877361577
-0.0004446711239511529   -0.01865304204471427   -0.0006108184035903634
-0.0011241519489746134   -0.018667678615208516   -0.000607805259613609
-0.001169094618802467   -0.018676717300123966   -0.0006367934984041434
-0.0008045653527545828   -0.01685626294016834   -0.0006129563877361577
-0.0004446711239511529   -0.01865304204471427   -0.0006108184035903634
-0.001169094618802467   -0.018676717300123966   -0.0006367934984041434
0.0001488440059176393   -0.01682452187925796   -0.0006531832466493227
-0.0008045653527545828   -0.01685626294016834   -0.0006129563877361577
-0.0011241519489746134   -0.018667678615208516   -0.000607805259613609
0.00018647258293418725   -0.016813994365171083   -0.0006131203490103482
-0.0007745699517037674   -0.01686150098542948   -0.0005928975269842044
-0.0011241519489746134   -0.018667678615208516   -0.000607805259613609
-0.0004446711239511529   -0.01865304204471427   -0.0006108184035903634
0.00018647258293418725   -0.016813994365171083   -0.0006131203490103482
-0.00038533741518386567   -0.0186507307912857   -0.0005620288529140131
-0.0007745699517037674   -0.01686150098542948   -0.0005928975269842044
0.00022627518682003005   -0.016813052653131072   -0.0005765797833016194
-0.00038533741518386567   -0.0186507307912857   -0.0005620288529140131
0.00018647258293418725   -0.016813994365171083   -0.0006131203490103482
-0.0007745699517037674   -0.01686150098542948   -0.0005928975269842044
-0.00038533741518386567   -0.0186507307912857   -0.0005620288529140131
-0.0010812374821871544   -0.018670122727255406   -0.0005812030754764263
-0.0011241519489746134   -0.018667678615208516   -0.000607805259613609
-0.0007745699517037674   -0.01686150098542948   -0.0005928975269842044
-0.00038533741518386567   -0.0186507307912857   -0.0005620288529140131
-0.0011241519489746134   -0.018667678615208516   -0.000607805259613609
0.00018647258293418725   -0.016813994365171083   -0.0006131203490103482
-0.0007745699517037674   -0.01686150098542948   -0.0005928975269842044
-0.0010812374821871544   -0.018670122727255406   -0.0005812030754764263
0.00022627518682003005   -0.016813052653131072   -0.0005765797833016194
-0.0007474263722756679   -0.016876477277383325   -0.0005753923979434683
-0.0010812374821871544   -0.018670122727255406   -0.0005812030754764263
-0.00038533741518386567   -0.0186507307912857   -0.0005620288529140131
0.00022627518682003005   -0.016813052653131072   -0.0005765797833016194
-0.0003415899853391392   -0.0186627564898404   -0.0005175471466707632
-0.0007474263722756679   -0.016876477277383325   -0.0005753923979434683
0.00025538180438189806   -0.016821239098212277   -0.0005424588446901478
-0.0003415899853391392   -0.0186627564898404   -0.0005175471466707632
0.00022627518682003005   -0.016813052653131072   -0.0005765797833016194
-0.0007474263722756679   -0.016876477277383325   -0.0005753923979434683
-0.0003415899853391392   -0.0186627564898404   -0.0005175471466707632
-0.0010454047435758985   -0.018686122951723682   -0.0005583896552612802
-0.0010812374821871544   -0.018670122727255406   -0.0005812030754764263
-0.0007474263722756679   -0.016876477277383325   -0.0005753923979434683
-0.0003415899853391392   -0.0186627564898404   -0.0005175471466707632
-0.0010812374821871544   -0.018670122727255406   -0.0005812030754764263
0.00022627518682003005   -0.016813052653131072   -0.0005765797833016194
0.0001488440059176393   -0.01682452187925796   -0.0006531832466493227
-0.0005023792625400537   -0.018667270785101484   -0.0006621376473604932
0.001194227870515242   -0.016756258148640214   -0.0006896299178287364
0.00018647258293418725   -0.016813994365171083   -0.0006131203490103482
-0.0005023792625400537   -0.018667270785101484   -0.0006621376473604932
0.00021019333075084632   -0.018602153069126767   -0.0007130235761750174
0.001194227870515242   -0.016756258148640214   -0.0006896299178287364
0.0003472371762401267   -0.018571525908476983   -0.0006292543677056729
0.00018647258293418725   -0.016813994365171083   -0.0006131203490103482
0.0012906986493435035   -0.016736173718654143   -0.0006282479613682613
0.0003472371762401267   -0.018571525908476983   -0.0006292543677056729
0.001194227870515242   -0.016756258148640214   -0.0006896299178287364
0.00018647258293418725   -0.016813994365171083   -0.0006131203490103482
0.0003472371762401267   -0.018571525908476983   -0.0006292543677056729
-0.0004446711239511529   -0.01865304204471427   -0.0006108184035903634
-0.0005023792625400537   -0.018667270785101484   -0.0006621376473604932
0.00018647258293418725   -0.016813994365171083   -0.0006131203490103482
0.0003472371762401267   -0.018571525908476983   -0.0006292543677056729
-0.0005023792625400537   -0.018667270785101484   -0.0006621376473604932
0.001194227870515242   -0.016756258148640214   -0.0006896299178287364
0.00018647258293418725   -0.016813994365171083   -0.0006131203490103482
-0.0004446711239511529   -0.01865304204471427   -0.0006108184035903634
0.0012906986493435035   -0.016736173718654143   -0.0006282479613682613
0.00022627518682003005   -0.016813052653131072   -0.0005765797833016194
-0.0004446711239511529   -0.01865304204471427   -0.0006108184035903634
0.0003472371762401267   -0.018571525908476983   -0.0006292543677056729
0.0012906986493435035   -0.016736173718654143   -0.0006282479613682613
0.00045479469997344456   -0.01856548765938451   -0.0005503864873345455
0.00022627518682003005   -0.016813052653131072   -0.0005765797833016194
0.0013647503812357126   -0.016732691426413135   -0.0005712388555979454
0.00045479469997344456   -0.01856548765938451   -0.0005503864873345455
0.0012906986493435035   -0.016736173718654143   -0.0006282479613682613
0.00022627518682003005   -0.016813052653131072   -0.0005765797833016194
0.00045479469997344456   -0.01856548765938451   -0.0005503864873345455
-0.00038533741518386567   -0.0186507307912857   -0.0005620288529140131
-0.0004446711239511529   -0.01865304204471427   -0.0006108184035903634
0.00022627518682003005   -0.016813052653131072   -0.0005765797833016194
0.00045479469997344456   -0.01856548765938451   -0.0005503864873345455
-0.0004446711239511529   -0.01865304204471427   -0.0006108184035903634
0.0012906986493435035   -0.016736173718654143   -0.0006282479613682613
0.00022627518682003005   -0.016813052653131072   -0.0005765797833016194
-0.00038533741518386567   -0.0186507307912857   -0.0005620288529140131
0.0013647503812357126   -0.016732691426413135   -0.0005712388555979454
0.00025538180438189806   -0.016821239098212277   -0.0005424588446901478
-0.00038533741518386567   -0.0186507307912857   -0.0005620288529140131
0.00045479469997344456   -0.01856548765938451   -0.0005503864873345455
0.0013647503812357126   -0.016732691426413135   -0.0005712388555979454
0.000567212803962652   -0.018571387566661077   -0.0004781005446965003
0.00025538180438189806   -0.016821239098212277   -0.0005424588446901478
0.0014419720725553562   -0.016738833130927784   -0.0005190593767030521
0.000567212803962652   -0.018571387566661077   -0.0004781005446965003
0.0013647503812357126   -0.016732691426413135   -0.0005712388555979454
0.00025538180438189806   -0.016821239098212277   -0.0005424588446901478
0.000567212803962652   -0.018571387566661077   -0.0004781005446965003
-0.0003415899853391392   -0.0186627564898404   -0.0005175471466707632
-0.00038533741518386567   -0.0186507307912857   -0.0005620288529140131
0.00025538180438189806   -0.016821239098212277   -0.0005424588446901478
0.000567212803962652   -0.018571387566661077   -0.0004781005446965003
-0.00038533741518386567   -0.0186507307912857   -0.0005620288529140131
0.0013647503812357126   -0.016732691426413135   -0.0005712388555979454
-0.00325479708455692   -0.018529485779631615   -0.000575293113952493
-0.0024099858852728766   -0.019568323638045785   -0.0005070123057793604
-0.0024551727893309494   -0.018605142363614536   -0.000597847959443325
-0.003169704386240376   -0.01852750236633882   -0.0006260666812130957
-0.0024099858852728766   -0.019568323638045785   -0.0005070123057793604
-0.0020322402200172243   -0.01966349524032381   -0.0005634848639220028
-0.0024551727893309494   -0.018605142363614536   -0.000597847959443325
-0.00198345481109669   -0.019645211138186573   -0.0005837231537026607
-0.003169704386240376   -0.01852750236633882   -0.0006260666812130957
-0.0024161489223176397   -0.018601468772248005   -0.0006166948177760072
-0.00198345481109669   -0.019645211138186573   -0.0005837231537026607
-0.0024551727893309494   -0.018605142363614536   -0.000597847959443325
-0.003169704386240376   -0.01852750236633882   -0.0006260666812130957
-0.00198345481109669   -0.019645211138186573   -0.0005837231537026607
-0.002304583105570964   -0.019547655209136733   -0.0005677985425805256
-0.0024099858852728766   -0.019568323638045785   -0.0005070123057793604
-0.003169704386240376   -0.01852750236633882   -0.0006260666812130957
-0.00198345481109669   -0.019645211138186573   -0.0005837231537026607
-0.0024099858852728766   -0.019568323638045785   -0.0005070123057793604
-0.0024551727893309494   -0.018605142363614536   -0.000597847959443325
-0.003169704386240376   -0.01852750236633882   -0.0006260666812130957
-0.002304583105570964   -0.019547655209136733   -0.0005677985425805256
-0.0024161489223176397   -0.018601468772248005   -0.0006166948177760072
-0.0030914251172576997   -0.018541378057708714   -0.0006806877566319066
-0.002304583105570964   -0.019547655209136733   -0.0005677985425805256
-0.00198345481109669   -0.019645211138186573   -0.0005837231537026607
-0.0024161489223176397   -0.018601468772248005   -0.0006166948177760072
-0.0019291652876918142   -0.019646808244352117   -0.0006041786095794664
-0.0030914251172576997   -0.018541378057708714   -0.0006806877566319066
-0.002370096881021243   -0.01861275074578861   -0.000638265487038349
-0.0019291652876918142   -0.019646808244352117   -0.0006041786095794664
-0.0024161489223176397   -0.018601468772248005   -0.0006166948177760072
-0.0030914251172576997   -0.018541378057708714   -0.0006806877566319066
-0.0019291652876918142   -0.019646808244352117   -0.0006041786095794664
-0.0022137046074082486   -0.019550203079927917   -0.0006284118109773363
-0.002304583105570964   -0.019547655209136733   -0.0005677985425805256
-0.0030914251172576997   -0.018541378057708714   -0.0006806877566319066
-0.0019291652876918142   -0.019646808244352117   -0.0006041786095794664
-0.002304583105570964   -0.019547655209136733   -0.0005677985425805256
-0.0024161489223176397   -0.018601468772248005   -0.0006166948177760072
-0.0030914251172576997   -0.018541378057708714   -0.0006806877566319066
-0.0022137046074082486   -0.019550203079927917   -0.0006284118109773363
-0.002370096881021243   -0.01861275074578861   -0.000638265487038349
-0.002995842143285386   -0.018577919059420526   -0.0007389473695298593
-0.0022137046074082486   -0.019550203079927917   -0.0006284118109773363
-0.0019291652876918142   -0.019646808244352117   -0.0006041786095794664
-0.002370096881021243   -0.01861275074578861   -0.000638265487038349
-0.0018788733436626791   -0.019668411340246668   -0.000624935246085804
-0.002995842143285386   -0.018577919059420526   -0.0007389473695298593
-0.0023283271386460025   -0.018639268682569696   -0.0006623889517360186
-0.0018788733436626791   -0.019668411340246668   -0.000624935246085804
-0.002370096881021243   -0.01861275074578861   -0.000638265487038349
-0.002995842143285386   -0.018577919059420526   -0.0007389473695298593
-0.0018788733436626791   -0.019668411340246668   -0.000624935246085804
-0.002105708872103812   -0.019577375016947254   -0.000690311237834402
-0.0022137046074082486   -0.019550203079927917   -0.0006284118109773363
-0.002995842143285386   -0.018577919059420526   -0.0007389473695298593
-0.0018788733436626791   -0.019668411340246668   -0.000624935246085804
-0.0022137046074082486   -0.019550203079927917   -0.0006284118109773363
-0.002370096881021243   -0.01861275074578861   -0.000638265487038349
-0.0024551727893309494   -0.018605142363614536   -0.000597847959443325
-0.0020322402200172243   -0.01966349524032381   -0.0005634848639220028
-0.0017984507336399837   -0.018653131446776137   -0.0006155354559542989
-0.0024161489223176397   -0.018601468772248005   -0.0006166948177760072
-0.0020322402200172243   -0.01966349524032381   -0.0005634848639220028
-0.0017528761988347913   -0.019756480327368195   -0.0006132189503952682
-0.0017984507336399837   -0.018653131446776137   -0.0006155354559542989
-0.0017016544831801746   -0.019737585868735686   -0.0005997705443885429
-0.0024161489223176397   -0.018601468772248005   -0.0006166948177760072
-0.00175855144662099   -0.01864701564684337   -0.0006097964212448328
-0.0017016544831801746   -0.019737585868735686   -0.0005997705443885429
-0.0017984507336399837   -0.018653131446776137   -0.0006155354559542989
-0.0024161489223176397   -0.018601468772248005   -0.0006166948177760072
-0.0017016544831801746   -0.019737585868735686   -0.0005997705443885429
-0.00198345481109669   -0.019645211138186573   -0.0005837231537026607
-0.0020322402200172243   -0.01966349524032381   -0.0005634848639220028
-0.0024161489223176397   -0.018601468772248005   -0.0006166948177760072
-0.0017016544831801746   -0.019737585868735686   -0.0005997705443885429
-0.0020322402200172243   -0.01966349524032381   -0.0005634848639220028
-0.0017984507336399837   -0.018653131446776137   -0.0006155354559542989
-0.0024161489223176397   -0.018601468772248005   -0.0006166948177760072
-0.00198345481109669   -0.019645211138186573   -0.0005837231537026607
-0.00175855144662099   -0.01864701564684337   -0.0006097964212448328
-0.002370096881021243   -0.01861275074578861   -0.000638265487038349
-0.00198345481109669   -0.019645211138186573   -0.0005837231537026607
-0.0017016544831801746   -0.019737585868735686   -0.0005997705443885429
-0.00175855144662099   -0.01864701564684337   -0.0006097964212448328
-0.0016520143366064019   -0.019737763368182604   -0.0005861725523304545
-0.002370096881021243   -0.01861275074578861   -0.000638265487038349
-0.0017191247911542628   -0.018653857013526752   -0.0006067134791407932
-0.0016520143366064019   -0.019737763368182604   -0.0005861725523304545
-0.00175855144662099   -0.01864701564684337   -0.0006097964212448328
-0.002370096881021243   -0.01861275074578861   -0.000638265487038349
-0.0016520143366064019   -0.019737763368182604   -0.0005861725523304545
-0.0019291652876918142   -0.019646808244352117   -0.0006041786095794664
-0.00198345481109669   -0.019645211138186573   -0.0005837231537026607
-0.002370096881021243   -0.01861275074578861   -0.000638265487038349
-0.0016520143366064019   -0.019737763368182604   -0.0005861725523304545
-0.00198345481109669   -0.019645211138186573   -0.0005837231537026607
-0.00175855144662099   -0.01864701564684337   -0.0006097964212448328
-0.002370096881021243   -0.01861275074578861   -0.000638265487038349
-0.0019291652876918142   -0.019646808244352117   -0.0006041786095794664
-0.0017191247911542628   -0.018653857013526752   -0.0006067134791407932
-0.0023283271386460025   -0.018639268682569696   -0.0006623889517360186
-0.0019291652876918142   -0.019646808244352117   -0.0006041786095794664
-0.0016520143366064019   -0.019737763368182604   -0.0005861725523304545
-0.0017191247911542628   -0.018653857013526752   -0.0006067134791407932
-0.001600352914801683   -0.01975664676161118   -0.0005731547777361099
-0.0023283271386460025   -0.018639268682569696   -0.0006623889517360186
-0.0016827528780798487   -0.018674048715166872   -0.0006068273912639136
-0.001600352914801683   -0.01975664676161118   -0.0005731547777361099
-0.0017191247911542628   -0.018653857013526752   -0.0006067134791407932
-0.0023283271386460025   -0.018639268682569696   -0.0006623889517360186
-0.001600352914801683   -0.01975664676161118   -0.0005731547777361099
-0.0018788733436626791   -0.019668411340246668   -0.000624935246085804
-0.0019291652876918142   -0.019646808244352117   -0.0006041786095794664
-0.0023283271386460025   -0.018639268682569696   -0.0006623889517360186
-0.001600352914801683   -0.01975664676161118   -0.0005731547777361099
-0.0019291652876918142   -0.019646808244352117   -0.0006041786095794664
-0.0017191247911542628   -0.018653857013526752   -0.0006067134791407932
-0.0017984507336399837   -0.018653131446776137   -0.0006155354559542989
-0.0017528761988347913   -0.019756480327368195   -0.0006132189503952682
-0.001169094618802467   -0.018676717300123966   -0.0006367934984041434
-0.00175855144662099   -0.01864701564684337   -0.0006097964212448328
-0.0017528761988347913   -0.019756480327368195   -0.0006132189503952682
-0.0014967842016198282   -0.019866011176765622   -0.0006683510982875813
-0.001169094618802467   -0.018676717300123966   -0.0006367934984041434
-0.0014341545563408653   -0.019849334963833114   -0.00061938059306354
-0.00175855144662099   -0.01864701564684337   -0.0006097964212448328
-0.0011241519489746134   -0.018667678615208516   -0.000607805259613609
-0.0014341545563408653   -0.019849334963833114   -0.00061938059306354
-0.001169094618802467   -0.018676717300123966   -0.0006367934984041434
-0.00175855144662099   -0.01864701564684337   -0.0006097964212448328
-0.0014341545563408653   -0.019849334963833114   -0.00061938059306354
-0.0017016544831801746   -0.019737585868735686   -0.0005997705443885429
-0.0017528761988347913   -0.019756480327368195   -0.0006132189503952682
-0.00175855144662099   -0.01864701564684337   -0.0006097964212448328
-0.0014341545563408653   -0.019849334963833114   -0.00061938059306354
-0.0017528761988347913   -0.019756480327368195   -0.0006132189503952682
-0.001169094618802467   -0.018676717300123966   -0.0006367934984041434
-0.00175855144662099   -0.01864701564684337   -0.0006097964212448328
-0.0017016544831801746   -0.019737585868735686   -0.0005997705443885429
-0.0011241519489746134   -0.018667678615208516   -0.000607805259613609
-0.0017191247911542628   -0.018653857013526752   -0.0006067134791407932
-0.0017016544831801746   -0.019737585868735686   -0.0005997705443885429
-0.0014341545563408653   -0.019849334963833114   -0.00061938059306354
-0.0011241519489746134   -0.018667678615208516   -0.000607805259613609
-0.0013759413303192636   -0.019848743496571324   -0.0005704672070581699
-0.0017191247911542628   -0.018653857013526752   -0.0006067134791407932
-0.0010812374821871544   -0.018670122727255406   -0.0005812030754764263
-0.0013759413303192636   -0.019848743496571324   -0.0005704672070581699
-0.0011241519489746134   -0.018667678615208516   -0.000607805259613609
-0.0017191247911542628   -0.018653857013526752   -0.0006067134791407932
-0.0013759413303192636   -0.019848743496571324   -0.0005704672070581699
-0.0016520143366064019   -0.019737763368182604   -0.0005861725523304545
-0.0017016544831801746   -0.019737585868735686   -0.0005997705443885429
-0.0017191247911542628   -0.018653857013526752   -0.0006067134791407932
-0.0013759413303192636   -0.019848743496571324   -0.0005704672070581699
-0.0017016544831801746   -0.019737585868735686   -0.0005997705443885429
-0.0011241519489746134   -0.018667678615208516   -0.000607805259613609
-0.0017191247911542628   -0.018653857013526752   -0.0006067134791407932
-0.0016520143366064019   -0.019737763368182604   -0.0005861725523304545
-0.0010812374821871544   -0.018670122727255406   -0.0005812030754764263
-0.0016827528780798487   -0.018674048715166872   -0.0006068273912639136
-0.0016520143366064019   -0.019737763368182604   -0.0005861725523304545
-0.0013759413303192636   -0.019848743496571324   -0.0005704672070581699
-0.0010812374821871544   -0.018670122727255406   -0.0005812030754764263
-0.0013136766158896584   -0.01986344698234343   -0.0005216288561526297
-0.0016827528780798487   -0.018674048715166872   -0.0006068273912639136
-0.0010454047435758985   -0.018686122951723682   -0.0005583896552612802
-0.0013136766158896584   -0.01986344698234343   -0.0005216288561526297
-0.0010812374821871544   -0.018670122727255406   -0.0005812030754764263
-0.0016827528780798487   -0.018674048715166872   -0.0006068273912639136
-0.0013136766158896584   -0.01986344698234343   -0.0005216288561526297
-0.001600352914801683   -0.01975664676161118   -0.0005731547777361099
-0.0016520143366064019   -0.019737763368182604   -0.0005861725523304545
-0.0016827528780798487   -0.018674048715166872   -0.0006068273912639136
-0.0013136766158896584   -0.01986344698234343   -0.0005216288561526297
-0.0016520143366064019   -0.019737763368182604   -0.0005861725523304545
-0.0010812374821871544   -0.018670122727255406   -0.0005812030754764263
-0.001169094618802467   -0.018676717300123966   -0.0006367934984041434
-0.0014967842016198282   -0.019866011176765622   -0.0006683510982875813
-0.0005023792625400537   -0.018667270785101484   -0.0006621376473604932
-0.0011241519489746134   -0.018667678615208516   -0.000607805259613609
-0.0014967842016198282   -0.019866011176765622   -0.0006683510982875813
-0.0012447381969492746   -0.02   -0.0007121115494348788
-0.0005023792625400537   -0.018667270785101484   -0.0006621376473604932
-0.0011655680091445836   -0.02   -0.0006366253295082635
-0.0011241519489746134   -0.018667678615208516   -0.000607805259613609
-0.0004446711239511529   -0.01865304204471427   -0.0006108184035903634
-0.0011655680091445836   -0.02   -0.0006366253295082635
-0.0005023792625400537   -0.018667270785101484   -0.0006621376473604932
-0.0011241519489746134   -0.018667678615208516   -0.000607805259613609
-0.0011655680091445836   -0.02   -0.0006366253295082635
-0.0014341545563408653   -0.019849334963833114   -0.00061938059306354
-0.0014967842016198282   -0.019866011176765622   -0.0006683510982875813
-0.0011241519489746134   -0.018667678615208516   -0.000607805259613609
-0.0011655680091445836   -0.02   -0.0006366253295082635
-0.0014967842016198282   -0.019866011176765622   -0.0006683510982875813
-0.0005023792625400537   -0.018667270785101484   -0.0006621376473604932
-0.0011241519489746134   -0.018667678615208516   -0.000607805259613609
-0.0014341545563408653   -0.019849334963833114   -0.00061938059306354
-0.0004446711239511529   -0.01865304204471427   -0.0006108184035903634
-0.0010812374821871544   -0.018670122727255406   -0.0005812030754764263
-0.0014341545563408653   -0.019849334963833114   -0.00061938059306354
-0.0011655680091445836   -0.02   -0.0006366253295082635
-0.0004446711239511529   -0.01865304204471427   -0.0006108184035903634
-0.0010856987880762186   -0.02   -0.0005602548731824883
-0.0010812374821871544   -0.018670122727255406   -0.0005812030754764263
-0.00038533741518386567   -0.0186507307912857   -0.0005620288529140131
-0.0010856987880762186   -0.02   -0.0005602548731824883
-0.0004446711239511529   -0.01865304204471427   -0.0006108184035903634
-0.0010812374821871544   -0.018670122727255406   -0.0005812030754764263
-0.0010856987880762186   -0.02   -0.0005602548731824883
-0.0013759413303192636   -0.019848743496571324   -0.0005704672070581699
-0.0014341545563408653   -0.019849334963833114   -0.00061938059306354
-0.0010812374821871544   -0.018670122727255406   -0.0005812030754764263
-0.0010856987880762186   -0.02   -0.0005602548731824883
-0.0014341545563408653   -0.019849334963833114   -0.00061938059306354
-0.0004446711239511529   -0.01865304204471427   -0.0006108184035903634
-0.0010812374821871544   -0.018670122727255406   -0.0005812030754764263
-0.0013759413303192636   -0.019848743496571324   -0.0005704672070581699
-0.00038533741518386567   -0.0186507307912857   -0.0005620288529140131
-0.0010454047435758985   -0.018686122951723682   -0.0005583896552612802
-0.0013759413303192636   -0.019848743496571324   -0.0005704672070581699
-0.0010856987880762186   -0.02   -0.0005602548731824883
-0.00038533741518386567   -0.0186507307912857   -0.0005620288529140131
-0.0010080295134869798   -0.02   -0.0004849218352092371
-0.0010454047435758985   -0.018686122951723682   -0.0005583896552612802
-0.0003415899853391392   -0.0186627564898404   -0.0005175471466707632
-0.0010080295134869798   -0.02   -0.0004849218352092371
-0.00038533741518386567   -0.0186507307912857   -0.0005620288529140131
-0.0010454047435758985   -0.018686122951723682   -0.0005583896552612802
-0.0010080295134869798   -0.02   -0.0004849218352092371
-0.0013136766158896584   -0.01986344698234343   -0.0005216288561526297
-0.0013759413303192636   -0.019848743496571324   -0.0005704672070581699
-0.0010454047435758985   -0.018686122951723682   -0.0005583896552612802
-0.0010080295134869798   -0.02   -0.0004849218352092371
-0.0013759413303192636   -0.019848743496571324   -0.0005704672070581699
-0.00038533741518386567   -0.0186507307912857   -0.0005620288529140131
-0.0005023792625400537   -0.018667270785101484   -0.0006621376473604932
-0.0012447381969492746   -0.02   -0.0007121115494348788
0.00021019333075084632   -0.018602153069126767   -0.0007130235761750174
-0.0004446711239511529   -0.01865304204471427   -0.0006108184035903634
-0.0012447381969492746   -0.02   -0.0007121115494348788
-0.0010583819271096947   -0.02   -0.0007650996020077878
0.00021019333075084632   -0.018602153069126767   -0.0007130235761750174
-0.0008902462753697338   -0.02   -0.0006553101861511045
-0.0004446711239511529   -0.01865304204471427   -0.0006108184035903634
0.0003472371762401267   -0.018571525908476983   -0.0006292543677056729
-0.0008902462753697338   -0.02   -0.0006553101861511045
0.00021019333075084632   -0.018602153069126767   -0.0007130235761750174
-0.0004446711239511529   -0.01865304204471427   -0.0006108184035903634
-0.0008902462753697338   -0.02   -0.0006553101861511045
-0.0011655680091445836   -0.02   -0.0006366253295082635
-0.0012447381969492746   -0.02   -0.0007121115494348788
-0.0004446711239511529   -0.01865304204471427   -0.0006108184035903634
-0.0008902462753697338   -0.02   -0.0006553101861511045
-0.0012447381969492746   -0.02   -0.0007121115494348788
0.00021019333075084632   -0.018602153069126767   -0.0007130235761750174
-0.0004446711239511529   -0.01865304204471427   -0.0006108184035903634
-0.0011655680091445836   -0.02   -0.0006366253295082635
0.0003472371762401267   -0.018571525908476983   -0.0006292543677056729
-0.00038533741518386567   -0.0186507307912857   -0.0005620288529140131
-0.0011655680091445836   -0.02   -0.0006366253295082635
-0.0008902462753697338   -0.02   -0.0006553101861511045
0.0003472371762401267   -0.018571525908476983   -0.0006292543677056729
-0.0007561869307559971   -0.02   -0.0005503158980695458
-0.00038533741518386567   -0.0186507307912857   -0.0005620288529140131
0.00045479469997344456   -0.01856548765938451   -0.0005503864873345455
-0.0007561869307559971   -0.02   -0.0005503158980695458
0.0003472371762401267   -0.018571525908476983   -0.0006292543677056729
-0.00038533741518386567   -0.0186507307912857   -0.0005620288529140131
-0.0007561869307559971   -0.02   -0.0005503158980695458
-0.0010856987880762186   -0.02   -0.0005602548731824883
-0.0011655680091445836   -0.02   -0.0006366253295082635
-0.00038533741518386567   -0.0186507307912857   -0.0005620288529140131
-0.0007561869307559971   -0.02   -0.0005503158980695458
-0.0011655680091445836   -0.02   -0.0006366253295082635
0.0003472371762401267   -0.018571525908476983   -0.0006292543677056729
-0.00038533741518386567   -0.0186507307912857   -0.0005620288529140131
-0.0010856987880762186   -0.02   -0.0005602548731824883
0.00045479469997344456   -0.01856548765938451   -0.0005503864873345455
-0.0003415899853391392   -0.0186627564898404   -0.0005175471466707632
-0.0010856987880762186   -0.02   -0.0005602548731824883
-0.0007561869307559971   -0.02   -0.0005503158980695458
0.00045479469997344456   -0.01856548765938451   -0.0005503864873345455
-0.0005906884386501867   -0.02   -0.0004412913943773033
-0.0003415899853391392   -0.0186627564898404   -0.0005175471466707632
0.000567212803962652   -0.018571387566661077   -0.0004781005446965003
-0.0005906884386501867   -0.02   -0.0004412913943773033
0.00045479469997344456   -0.01856548765938451   -0.0005503864873345455
-0.0003415899853391392   -0.0186627564898404   -0.0005175471466707632
-0.0005906884386501867   -0.02   -0.0004412913943773033
-0.0010080295134869798   -0.02   -0.0004849218352092371
-0.0010856987880762186   -0.02   -0.0005602548731824883
-0.0003415899853391392   -0.0186627564898404   -0.0005175471466707632
-0.0005906884386501867   -0.02   -0.0004412913943773033
-0.0010856987880762186   -0.02   -0.0005602548731824883
0.00045479469997344456   -0.01856548765938451   -0.0005503864873345455
-0.0024099858852728766   -0.019568323638045785   -0.0005070123057793604
-0.0014754827319777004   -0.019643467039548775   -0.0004344504349093145
-0.0020322402200172243   -0.01966349524032381   -0.0005634848639220028
-0.002304583105570964   -0.019547655209136733   -0.0005677985425805256
-0.0014754827319777004   -0.019643467039548775   -0.0004344504349093145
-0.0015495823941495662   -0.019717821088314075   -0.0005072340737429469
-0.0020322402200172243   -0.01966349524032381   -0.0005634848639220028
-0.0015124918312696188   -0.019692735009259024   -0.0005344959214750726
-0.002304583105570964   -0.019547655209136733   -0.0005677985425805256
-0.00198345481109669   -0.019645211138186573   -0.0005837231537026607
-0.0015124918312696188   -0.019692735009259024   -0.0005344959214750726
-0.0020322402200172243   -0.01966349524032381   -0.0005634848639220028
-0.002304583105570964   -0.019547655209136733   -0.0005677985425805256
-0.0015124918312696188   -0.019692735009259024   -0.0005344959214750726
-0.001379454546886089   -0.019611175579436327   -0.0004983901198504866
-0.0014754827319777004   -0.019643467039548775   -0.0004344504349093145
-0.002304583105570964   -0.019547655209136733   -0.0005677985425805256
-0.0015124918312696188   -0.019692735009259024   -0.0005344959214750726
-0.0014754827319777004   -0.019643467039548775   -0.0004344504349093145
-0.0020322402200172243   -0.01966349524032381   -0.0005634848639220028
-0.002304583105570964   -0.019547655209136733   -0.0005677985425805256
-0.001379454546886089   -0.019611175579436327   -0.0004983901198504866
-0.00198345481109669   -0.019645211138186573   -0.0005837231537026607
-0.0022137046074082486   -0.019550203079927917   -0.0006284118109773363
-0.001379454546886089   -0.019611175579436327   -0.0004983901198504866
-0.0015124918312696188   -0.019692735009259024   -0.0005344959214750726
-0.00198345481109669   -0.019645211138186573   -0.0005837231537026607
-0.0014688237140776056   -0.01968417655872194   -0.0005597598935965108
-0.0022137046074082486   -0.019550203079927917   -0.0006284118109773363
-0.0019291652876918142   -0.019646808244352117   -0.0006041786095794664
-0.0014688237140776056   -0.01968417655872194   -0.0005597598935965108
-0.00198345481109669   -0.019645211138186573   -0.0005837231537026607
-0.0022137046074082486   -0.019550203079927917   -0.0006284118109773363
-0.0014688237140776056   -0.01968417655872194   -0.0005597598935965108
-0.0012995793367858082   -0.019602031194779625   -0.0005598568497039459
-0.001379454546886089   -0.019611175579436327   -0.0004983901198504866
-0.0022137046074082486   -0.019550203079927917   -0.0006284118109773363
-0.0014688237140776056   -0.01968417655872194   -0.0005597598935965108
-0.001379454546886089   -0.019611175579436327   -0.0004983901198504866
-0.00198345481109669   -0.019645211138186573   -0.0005837231537026607
-0.0022137046074082486   -0.019550203079927917   -0.0006284118109773363
-0.0012995793367858082   -0.019602031194779625   -0.0005598568497039459
-0.0019291652876918142   -0.019646808244352117   -0.0006041786095794664
-0.002105708872103812   -0.019577375016947254   -0.000690311237834402
-0.0012995793367858082   -0.019602031194779625   -0.0005598568497039459
-0.0014688237140776056   -0.01968417655872194   -0.0005597598935965108
-0.0019291652876918142   -0.019646808244352117   -0.0006041786095794664
-0.0014315128395730528   -0.01969230134603688   -0.0005829056895410148
-0.002105708872103812   -0.019577375016947254   -0.000690311237834402
-0.0018788733436626791   -0.019668411340246668   -0.000624935246085804
-0.0014315128395730528   -0.01969230134603688   -0.0005829056895410148
-0.0019291652876918142   -0.019646808244352117   -0.0006041786095794664
-0.002105708872103812   -0.019577375016947254   -0.000690311237834402
-0.0014315128395730528   -0.01969230134603688   -0.0005829056895410148
-0.00120883862911952   -0.019612132160859764   -0.0006186018619851786
-0.0012995793367858082   -0.019602031194779625   -0.0005598568497039459
-0.002105708872103812   -0.019577375016947254   -0.000690311237834402
-0.0014315128395730528   -0.01969230134603688   -0.0005829056895410148
-0.0012995793367858082   -0.019602031194779625   -0.0005598568497039459
-0.0019291652876918142   -0.019646808244352117   -0.0006041786095794664
-0.0020322402200172243   -0.01966349524032381   -0.0005634848639220028
-0.0015495823941495662   -0.019717821088314075   -0.0005072340737429469
-0.0017528761988347913   -0.019756480327368195   -0.0006132189503952682
-0.00198345481109669   -0.019645211138186573   -0.0005837231537026607
-0.0015495823941495662   -0.019717821088314075   -0.0005072340737429469
-0.0016562737578055726   -0.0197626298824713   -0.0005652534531759755
-0.0017528761988347913   -0.019756480327368195   -0.0006132189503952682
-0.001623550758610862   -0.019740179719065134   -0.0005658032977604627
-0.00198345481109669   -0.019645211138186573   -0.0005837231537026607
-0.0017016544831801746   -0.019737585868735686   -0.0005997705443885429
-0.001623550758610862   -0.019740179719065134   -0.0005658032977604627
-0.0017528761988347913   -0.019756480327368195   -0.0006132189503952682
-0.00198345481109669   -0.019645211138186573   -0.0005837231537026607
-0.001623550758610862   -0.019740179719065134   -0.0005658032977604627
-0.0015124918312696188   -0.019692735009259024   -0.0005344959214750726
-0.0015495823941495662   -0.019717821088314075   -0.0005072340737429469
-0.00198345481109669   -0.019645211138186573   -0.0005837231537026607
-0.001623550758610862   -0.019740179719065134   -0.0005658032977604627
-0.0015495823941495662   -0.019717821088314075   -0.0005072340737429469
-0.0017528761988347913   -0.019756480327368195   -0.0006132189503952682
-0.00198345481109669   -0.019645211138186573   -0.0005837231537026607
-0.0015124918312696188   -0.019692735009259024   -0.0005344959214750726
-0.0017016544831801746   -0.019737585868735686   -0.0005997705443885429
-0.0019291652876918142   -0.019646808244352117   -0.0006041786095794664
-0.0015124918312696188   -0.019692735009259024   -0.0005344959214750726
-0.001623550758610862   -0.019740179719065134   -0.0005658032977604627
-0.0017016544831801746   -0.019737585868735686   -0.0005997705443885429
-0.0015871706328008507   -0.01973269050627663   -0.0005637644631060027
-0.0019291652876918142   -0.019646808244352117   -0.0006041786095794664
-0.0016520143366064019   -0.019737763368182604   -0.0005861725523304545
-0.0015871706328008507   -0.01973269050627663   -0.0005637644631060027
-0.0017016544831801746   -0.019737585868735686   -0.0005997705443885429
-0.0019291652876918142   -0.019646808244352117   -0.0006041786095794664
-0.0015871706328008507   -0.01973269050627663   -0.0005637644631060027
-0.0014688237140776056   -0.01968417655872194   -0.0005597598935965108
-0.0015124918312696188   -0.019692735009259024   -0.0005344959214750726
-0.0019291652876918142   -0.019646808244352117   -0.0006041786095794664
-0.0015871706328008507   -0.01973269050627663   -0.0005637644631060027
-0.0015124918312696188   -0.019692735009259024   -0.0005344959214750726
-0.0017016544831801746   -0.019737585868735686   -0.0005997705443885429
-0.0019291652876918142   -0.019646808244352117   -0.0006041786095794664
-0.0014688237140776056   -0.01968417655872194   -0.0005597598935965108
-0.0016520143366064019   -0.019737763368182604   -0.0005861725523304545
-0.0018788733436626791   -0.019668411340246668   -0.000624935246085804
-0.0014688237140776056   -0.01968417655872194   -0.0005597598935965108
-0.0015871706328008507   -0.01973269050627663   -0.0005637644631060027
-0.0016520143366064019   -0.019737763368182604   -0.0005861725523304545
-0.0015502315301511758   -0.01973953824040212   -0.0005596916649351847
-0.0018788733436626791   -0.019668411340246668   -0.000624935246085804
-0.001600352914801683   -0.01975664676161118   -0.0005731547777361099
-0.0015502315301511758   -0.01973953824040212   -0.0005596916649351847
-0.0016520143366064019   -0.019737763368182604   -0.0005861725523304545
-0.0018788733436626791   -0.019668411340246668   -0.000624935246085804
-0.0015502315301511758   -0.01973953824040212   -0.0005596916649351847
-0.0014315128395730528   -0.01969230134603688   -0.0005829056895410148
-0.0014688237140776056   -0.01968417655872194   -0.0005597598935965108
-0.0018788733436626791   -0.019668411340246668   -0.000624935246085804
-0.0015502315301511758   -0.01973953824040212   -0.0005596916649351847
-0.0014688237140776056   -0.01968417655872194   -0.0005597598935965108
-0.0016520143366064019   -0.019737763368182604   -0.0005861725523304545
-0.0017528761988347913   -0.019756480327368195   -0.0006132189503952682
-0.0016562737578055726   -0.0197626298824713   -0.0005652534531759755
-0.0014967842016198282   -0.019866011176765622   -0.0006683510982875813
-0.0017016544831801746   -0.019737585868735686   -0.0005997705443885429
-0.0016562737578055726   -0.0197626298824713   -0.0005652534531759755
-0.0017714810909433276   -0.01977967223106726   -0.0006225443503867389
-0.0014967842016198282   -0.019866011176765622   -0.0006683510982875813
-0.0017375769960637885   -0.01975811832630393   -0.0005973931058973081
-0.0017016544831801746   -0.019737585868735686   -0.0005997705443885429
-0.0014341545563408653   -0.019849334963833114   -0.00061938059306354
-0.0017375769960637885   -0.01975811832630393   -0.0005973931058973081
-0.0014967842016198282   -0.019866011176765622   -0.0006683510982875813
-0.0017016544831801746   -0.019737585868735686   -0.0005997705443885429
-0.0017375769960637885   -0.01975811832630393   -0.0005973931058973081
-0.001623550758610862   -0.019740179719065134   -0.0005658032977604627
-0.0016562737578055726   -0.0197626298824713   -0.0005652534531759755
-0.0017016544831801746   -0.019737585868735686   -0.0005997705443885429
-0.0017375769960637885   -0.01975811832630393   -0.0005973931058973081
-0.0016562737578055726   -0.0197626298824713   -0.0005652534531759755
-0.0014967842016198282   -0.019866011176765622   -0.0006683510982875813
-0.0017016544831801746   -0.019737585868735686   -0.0005997705443885429
-0.001623550758610862   -0.019740179719065134   -0.0005658032977604627
-0.0014341545563408653   -0.019849334963833114   -0.00061938059306354
-0.0016520143366064019   -0.019737763368182604   -0.0005861725523304545
-0.001623550758610862   -0.019740179719065134   -0.0005658032977604627
-0.0017375769960637885   -0.01975811832630393   -0.0005973931058973081
-0.0014341545563408653   -0.019849334963833114   -0.00061938059306354
-0.0016970344908096532   -0.019751754630965204   -0.0005690849109343583
-0.0016520143366064019   -0.019737763368182604   -0.0005861725523304545
-0.0013759413303192636   -0.019848743496571324   -0.0005704672070581699
-0.0016970344908096532   -0.019751754630965204   -0.0005690849109343583
-0.0014341545563408653   -0.019849334963833114   -0.00061938059306354
-0.0016520143366064019   -0.019737763368182604   -0.0005861725523304545
-0.0016970344908096532   -0.019751754630965204   -0.0005690849109343583
-0.0015871706328008507   -0.01973269050627663   -0.0005637644631060027
-0.001623550758610862   -0.019740179719065134   -0.0005658032977604627
-0.0016520143366064019   -0.019737763368182604   -0.0005861725523304545
-0.0016970344908096532   -0.019751754630965204   -0.0005690849109343583
-0.001623550758610862   -0.019740179719065134   -0.0005658032977604627
-0.0014341545563408653   -0.019849334963833114   -0.00061938059306354
-0.0016520143366064019   -0.019737763368182604   -0.0005861725523304545
-0.0015871706328008507   -0.01973269050627663   -0.0005637644631060027
-0.0013759413303192636   -0.019848743496571324   -0.0005704672070581699
-0.001600352914801683   -0.01975664676161118   -0.0005731547777361099
-0.0015871706328008507   -0.01973269050627663   -0.0005637644631060027
-0.0016970344908096532   -0.019751754630965204   -0.0005690849109343583
-0.0013759413303192636   -0.019848743496571324   -0.0005704672070581699
-0.001655418129955432   -0.019758342419068833   -0.0005390079881870799
-0.001600352914801683   -0.01975664676161118   -0.0005731547777361099
-0.0013136766158896584   -0.01986344698234343   -0.0005216288561526297
-0.001655418129955432   -0.019758342419068833   -0.0005390079881870799
-0.0013759413303192636   -0.019848743496571324   -0.0005704672070581699
-0.001600352914801683   -0.01975664676161118   -0.0005731547777361099
-0.001655418129955432   -0.019758342419068833   -0.0005390079881870799
-0.0015502315301511758   -0.01973953824040212   -0.0005596916649351847
-0.0015871706328008507   -0.01973269050627663   -0.0005637644631060027
-0.001600352914801683   -0.01975664676161118   -0.0005731547777361099
-0.001655418129955432   -0.019758342419068833   -0.0005390079881870799
-0.0015871706328008507   -0.01973269050627663   -0.0005637644631060027
-0.0013759413303192636   -0.019848743496571324   -0.0005704672070581699
-0.0014967842016198282   -0.019866011176765622   -0.0006683510982875813
-0.0017714810909433276   -0.01977967223106726   -0.0006225443503867389
-0.0012447381969492746   -0.02   -0.0007121115494348788
-0.0014341545563408653   -0.019849334963833114   -0.00061938059306354
-0.0017714810909433276   -0.01977967223106726   -0.0006225443503867389
-0.001938878118703531   -0.019756202276554172   -0.0006774636658810145
-0.0012447381969492746   -0.02   -0.0007121115494348788
-0.0018946496297658636   -0.019735582387959378   -0.0006277306685028623
-0.0014341545563408653   -0.019849334963833114   -0.00061938059306354
-0.0011655680091445836   -0.02   -0.0006366253295082635
-0.0018946496297658636   -0.019735582387959378   -0.0006277306685028623
-0.0012447381969492746   -0.02   -0.0007121115494348788
-0.0014341545563408653   -0.019849334963833114   -0.00061938059306354
-0.0018946496297658636   -0.019735582387959378   -0.0006277306685028623
-0.0017375769960637885   -0.01975811832630393   -0.0005973931058973081
-0.0017714810909433276   -0.01977967223106726   -0.0006225443503867389
-0.0014341545563408653   -0.019849334963833114   -0.00061938059306354
-0.0018946496297658636   -0.019735582387959378   -0.0006277306685028623
-0.0017714810909433276   -0.01977967223106726   -0.0006225443503867389
-0.0012447381969492746   -0.02   -0.0007121115494348788
-0.0014341545563408653   -0.019849334963833114   -0.00061938059306354
-0.0017375769960637885   -0.01975811832630393   -0.0005973931058973081
-0.0011655680091445836   -0.02   -0.0006366253295082635
-0.0013759413303192636   -0.019848743496571324   -0.0005704672070581699
-0.0017375769960637885   -0.01975811832630393   -0.0005973931058973081
-0.0018946496297658636   -0.019735582387959378   -0.0006277306685028623
-0.0011655680091445836   -0.02   -0.0006366253295082635
-0.0018359936406176544   -0.019731264635901562   -0.00057443654920157
-0.0013759413303192636   -0.019848743496571324   -0.0005704672070581699
-0.0010856987880762186   -0.02   -0.0005602548731824883
-0.0018359936406176544   -0.019731264635901562   -0.00057443654920157
-0.0011655680091445836   -0.02   -0.0006366253295082635
-0.0013759413303192636   -0.019848743496571324   -0.0005704672070581699
-0.0018359936406176544   -0.019731264635901562   -0.00057443654920157
-0.0016970344908096532   -0.019751754630965204   -0.0005690849109343583
-0.0017375769960637885   -0.01975811832630393   -0.0005973931058973081
-0.0013759413303192636   -0.019848743496571324   -0.0005704672070581699
-0.0018359936406176544   -0.019731264635901562   -0.00057443654920157
-0.0017375769960637885   -0.01975811832630393   -0.0005973931058973081
-0.0011655680091445836   -0.02   -0.0006366253295082635
-0.0013759413303192636   -0.019848743496571324   -0.0005704672070581699
-0.0016970344908096532   -0.019751754630965204   -0.0005690849109343583
-0.0010856987880762186   -0.02   -0.0005602548731824883
-0.0013136766158896584   -0.01986344698234343   -0.0005216288561526297
-0.0016970344908096532   -0.019751754630965204   -0.0005690849109343583
-0.0018359936406176544   -0.019731264635901562   -0.00057443654920157
-0.0010856987880762186   -0.02   -0.0005602548731824883
-0.0017812777432991854   -0.019740210994827125   -0.0005191860648972202
-0.0013136766158896584   -0.01986344698234343   -0.0005216288561526297
-0.0010080295134869798   -0.02   -0.0004849218352092371
-0.0017812777432991854   -0.019740210994827125   -0.0005191860648972202
-0.0010856987880762186   -0.02   -0.0005602548731824883
-0.0013136766158896584   -0.01986344698234343   -0.0005216288561526297
-0.0017812777432991854   -0.019740210994827125   -0.0005191860648972202
-0.001655418129955432   -0.019758342419068833   -0.0005390079881870799
-0.0016970344908096532   -0.019751754630965204   -0.0005690849109343583
-0.0013136766158896584   -0.01986344698234343   -0.0005216288561526297
-0.0017812777432991854   -0.019740210994827125   -0.0005191860648972202
-0.0016970344908096532   -0.019751754630965204   -0.0005690849109343583
-0.0010856987880762186   -0.02   -0.0005602548731824883
-0.0012447381969492746   -0.02   -0.0007121115494348788
-0.001938878118703531   -0.019756202276554172   -0.0006774636658810145
-0.0010583819271096947   -0.02   -0.0007650996020077878
-0.0011655680091445836   -0.02   -0.0006366253295082635
-0.001938878118703531   -0.019756202276554172   -0.0006774636658810145
-0.00227089898502973   -0.019660120432550353   -0.0007366267090025766
-0.0010583819271096947   -0.02   -0.0007650996020077878
-0.002150154053857643   -0.01964227620145009   -0.0006550980913976316
-0.0011655680091445836   -0.02   -0.0006366253295082635
-0.0008902462753697338   -0.02   -0.0006553101861511045
-0.002150154053857643   -0.01964227620145009   -0.0006550980913976316
-0.0010583819271096947   -0.02   -0.0007650996020077878
-0.0011655680091445836   -0.02   -0.0006366253295082635
-0.002150154053857643   -0.01964227620145009   -0.0006550980913976316
-0.0018946496297658636   -0.019735582387959378   -0.0006277306685028623
-0.001938878118703531   -0.019756202276554172   -0.0006774636658810145
-0.0011655680091445836   -0.02   -0.0006366253295082635
-0.002150154053857643   -0.01964227620145009   -0.0006550980913976316
-0.001938878118703531   -0.019756202276554172   -0.0006774636658810145
-0.0010583819271096947   -0.02   -0.0007650996020077878
-0.0011655680091445836   -0.02   -0.0006366253295082635
-0.0018946496297658636   -0.019735582387959378   -0.0006277306685028623
-0.0008902462753697338   -0.02   -0.0006553101861511045
-0.0010856987880762186   -0.02   -0.0005602548731824883
-0.0018946496297658636   -0.019735582387959378   -0.0006277306685028623
-0.002150154053857643   -0.01964227620145009   -0.0006550980913976316
-0.0008902462753697338   -0.02   -0.0006553101861511045
-0.0020398641592023845   -0.01964013893735409   -0.0005683727554125981
-0.0010856987880762186   -0.02   -0.0005602548731824883
-0.0007561869307559971   -0.02   -0.0005503158980695458
-0.0020398641592023845   -0.01964013893735409   -0.0005683727554125981
-0.0008902462753697338   -0.02   -0.0006553101861511045
-0.0010856987880762186   -0.02   -0.0005602548731824883
-0.0020398641592023845   -0.01964013893735409   -0.0005683727554125981
-0.0018359936406176544   -0.019731264635901562   -0.00057443654920157
-0.0018946496297658636   -0.019735582387959378   -0.0006277306685028623
-0.0010856987880762186   -0.02   -0.0005602548731824883
-0.0020398641592023845   -0.01964013893735409   -0.0005683727554125981
-0.0018946496297658636   -0.019735582387959378   -0.0006277306685028623
-0.0008902462753697338   -0.02   -0.0006553101861511045
-0.0010856987880762186   -0.02   -0.0005602548731824883
-0.0018359936406176544   -0.019731264635901562   -0.00057443654920157
-0.0007561869307559971   -0.02   -0.0005503158980695458
-0.0010080295134869798   -0.02   -0.0004849218352092371
-0.0018359936406176544   -0.019731264635901562   -0.00057443654920157
-0.0020398641592023845   -0.01964013893735409   -0.0005683727554125981
-0.0007561869307559971   -0.02   -0.0005503158980695458
-0.001900459003201734   -0.01966343147493921   -0.0004779267123106609
-0.0010080295134869798   -0.02   -0.0004849218352092371
-0.0005906884386501867   -0.02   -0.0004412913943773033
-0.001900459003201734   -0.01966343147493921   -0.0004779267123106609
-0.0007561869307559971   -0.02   -0.0005503158980695458
-0.0010080295134869798   -0.02   -0.0004849218352092371
-0.001900459003201734   -0.01966343147493921   -0.0004779267123106609
-0.0017812777432991854   -0.019740210994827125   -0.0005191860648972202
-0.0018359936406176544   -0.019731264635901562   -0.00057443654920157
-0.0010080295134869798   -0.02   -0.0004849218352092371
-0.001900459003201734   -0.01966343147493921   -0.0004779267123106609
-0.0018359936406176544   -0.019731264635901562   -0.00057443654920157
-0.0007561869307559971   -0.02   -0.0005503158980695458
-0.0014754827319777004   -0.019643467039548775   -0.0004344504349093145
-0.0006461475956782907   -0.01893765393732537   -0.0003740973842090779
-0.0015495823941495662   -0.019717821088314075   -0.0005072340737429469
-0.001379454546886089   -0.019611175579436327   -0.0004983901198504866
-0.0006461475956782907   -0.01893765393732537   -0.0003740973842090779
-0.0011316797831467933   -0.01899456682254834   -0.00045162206127783615
-0.0015495823941495662   -0.019717821088314075   -0.0005072340737429469
-0.0011051862715148251   -0.018964156408449815   -0.00047612032718609567
-0.001379454546886089   -0.019611175579436327   -0.0004983901198504866
-0.0015124918312696188   -0.019692735009259024   -0.0005344959214750726
-0.0011051862715148251   -0.018964156408449815   -0.00047612032718609567
-0.0015495823941495662   -0.019717821088314075   -0.0005072340737429469
-0.001379454546886089   -0.019611175579436327   -0.0004983901198504866
-0.0011051862715148251   -0.018964156408449815   -0.00047612032718609567
-0.000568850160393761   -0.018899875689204503   -0.00042988577788649087
-0.0006461475956782907   -0.01893765393732537   -0.0003740973842090779
-0.001379454546886089   -0.019611175579436327   -0.0004983901198504866
-0.0011051862715148251   -0.018964156408449815   -0.00047612032718609567
-0.0006461475956782907   -0.01893765393732537   -0.0003740973842090779
-0.0015495823941495662   -0.019717821088314075   -0.0005072340737429469
-0.001379454546886089   -0.019611175579436327   -0.0004983901198504866
-0.000568850160393761   -0.018899875689204503   -0.00042988577788649087
-0.0015124918312696188   -0.019692735009259024   -0.0005344959214750726
-0.0012995793367858082   -0.019602031194779625   -0.0005598568497039459
-0.000568850160393761   -0.018899875689204503   -0.00042988577788649087
-0.0011051862715148251   -0.018964156408449815   -0.00047612032718609567
-0.0015124918312696188   -0.019692735009259024   -0.0005344959214750726
-0.0010751646796129354   -0.018948029066763367   -0.0004985150250541256
-0.0012995793367858082   -0.019602031194779625   -0.0005598568497039459
-0.0014688237140776056   -0.01968417655872194   -0.0005597598935965108
-0.0010751646796129354   -0.018948029066763367   -0.0004985150250541256
-0.0015124918312696188   -0.019692735009259024   -0.0005344959214750726
-0.0012995793367858082   -0.019602031194779625   -0.0005598568497039459
-0.0010751646796129354   -0.018948029066763367   -0.0004985150250541256
-0.0005080068979017709   -0.018882706963345902   -0.0004825624412240169
-0.000568850160393761   -0.018899875689204503   -0.00042988577788649087
-0.0012995793367858082   -0.019602031194779625   -0.0005598568497039459
-0.0010751646796129354   -0.018948029066763367   -0.0004985150250541256
-0.000568850160393761   -0.018899875689204503   -0.00042988577788649087
-0.0015124918312696188   -0.019692735009259024   -0.0005344959214750726
-0.0012995793367858082   -0.019602031194779625   -0.0005598568497039459
-0.0005080068979017709   -0.018882706963345902   -0.0004825624412240169
-0.0014688237140776056   -0.01968417655872194   -0.0005597598935965108
-0.00120883862911952   -0.019612132160859764   -0.0006186018619851786
-0.0005080068979017709   -0.018882706963345902   -0.0004825624412240169
-0.0010751646796129354   -0.018948029066763367   -0.0004985150250541256
-0.0014688237140776056   -0.01968417655872194   -0.0005597598935965108
-0.0010522041132964273   -0.018945725106325355   -0.0005188799713095155
-0.00120883862911952   -0.019612132160859764   -0.0006186018619851786
-0.0014315128395730528   -0.01969230134603688   -0.0005829056895410148
-0.0010522041132964273   -0.018945725106325355   -0.0005188799713095155
-0.0014688237140776056   -0.01968417655872194   -0.0005597598935965108
-0.00120883862911952   -0.019612132160859764   -0.0006186018619851786
-0.0010522041132964273   -0.018945725106325355   -0.0005188799713095155
-0.00044111726623750636   -0.018881055101912257   -0.000532004222706905
-0.0005080068979017709   -0.018882706963345902   -0.0004825624412240169
-0.00120883862911952   -0.019612132160859764   -0.0006186018619851786
-0.0010522041132964273   -0.018945725106325355   -0.0005188799713095155
-0.0005080068979017709   -0.018882706963345902   -0.0004825624412240169
-0.0014688237140776056   -0.01968417655872194   -0.0005597598935965108
-0.0015495823941495662   -0.019717821088314075   -0.0005072340737429469
-0.0011316797831467933   -0.01899456682254834   -0.00045162206127783615
-0.0016562737578055726   -0.0197626298824713   -0.0005652534531759755
-0.0015124918312696188   -0.019692735009259024   -0.0005344959214750726
-0.0011316797831467933   -0.01899456682254834   -0.00045162206127783615
-0.0016141869147106014   -0.019014356896010425   -0.0005145419415171346
-0.0016562737578055726   -0.0197626298824713   -0.0005652534531759755
-0.0015920346572186241   -0.01898785331159148   -0.0005157155635594836
-0.0015124918312696188   -0.019692735009259024   -0.0005344959214750726
-0.001623550758610862   -0.019740179719065134   -0.0005658032977604627
-0.0015920346572186241   -0.01898785331159148   -0.0005157155635594836
-0.0016562737578055726   -0.0197626298824713   -0.0005652534531759755
-0.0015124918312696188   -0.019692735009259024   -0.0005344959214750726
-0.0015920346572186241   -0.01898785331159148   -0.0005157155635594836
-0.0011051862715148251   -0.018964156408449815   -0.00047612032718609567
-0.0011316797831467933   -0.01899456682254834   -0.00045162206127783615
-0.0015124918312696188   -0.019692735009259024   -0.0005344959214750726
-0.0015920346572186241   -0.01898785331159148   -0.0005157155635594836
-0.0011316797831467933   -0.01899456682254834   -0.00045162206127783615
-0.0016562737578055726   -0.0197626298824713   -0.0005652534531759755
-0.0015124918312696188   -0.019692735009259024   -0.0005344959214750726
-0.0011051862715148251   -0.018964156408449815   -0.00047612032718609567
-0.001623550758610862   -0.019740179719065134   -0.0005658032977604627
-0.0014688237140776056   -0.01968417655872194   -0.0005597598935965108
-0.0011051862715148251   -0.018964156408449815   -0.00047612032718609567
-0.0015920346572186241   -0.01898785331159148   -0.0005157155635594836
-0.001623550758610862   -0.019740179719065134   -0.0005658032977604627
-0.0015691013058663243   -0.018974215660473318   -0.0005149381758624151
-0.0014688237140776056   -0.01968417655872194   -0.0005597598935965108
-0.0015871706328008507   -0.01973269050627663   -0.0005637644631060027
-0.0015691013058663243   -0.018974215660473318   -0.0005149381758624151
-0.001623550758610862   -0.019740179719065134   -0.0005658032977604627
-0.0014688237140776056   -0.01968417655872194   -0.0005597598935965108
-0.0015691013058663243   -0.018974215660473318   -0.0005149381758624151
-0.0010751646796129354   -0.018948029066763367   -0.0004985150250541256
-0.0011051862715148251   -0.018964156408449815   -0.00047612032718609567
-0.0014688237140776056   -0.01968417655872194   -0.0005597598935965108
-0.0015691013058663243   -0.018974215660473318   -0.0005149381758624151
-0.0011051862715148251   -0.018964156408449815   -0.00047612032718609567
-0.001623550758610862   -0.019740179719065134   -0.0005658032977604627
-0.0014688237140776056   -0.01968417655872194   -0.0005597598935965108
-0.0010751646796129354   -0.018948029066763367   -0.0004985150250541256
-0.0015871706328008507   -0.01973269050627663   -0.0005637644631060027
-0.0014315128395730528   -0.01969230134603688   -0.0005829056895410148
-0.0010751646796129354   -0.018948029066763367   -0.0004985150250541256
-0.0015691013058663243   -0.018974215660473318   -0.0005149381758624151
-0.0015871706328008507   -0.01973269050627663   -0.0005637644631060027
-0.0015470113283658576   -0.018972873171723647   -0.0005122045751893886
-0.0014315128395730528   -0.01969230134603688   -0.0005829056895410148
-0.0015502315301511758   -0.01973953824040212   -0.0005596916649351847
-0.0015470113283658576   -0.018972873171723647   -0.0005122045751893886
-0.0015871706328008507   -0.01973269050627663   -0.0005637644631060027
-0.0014315128395730528   -0.01969230134603688   -0.0005829056895410148
-0.0015470113283658576   -0.018972873171723647   -0.0005122045751893886
-0.0010522041132964273   -0.018945725106325355   -0.0005188799713095155
-0.0010751646796129354   -0.018948029066763367   -0.0004985150250541256
-0.0014315128395730528   -0.01969230134603688   -0.0005829056895410148
-0.0015470113283658576   -0.018972873171723647   -0.0005122045751893886
-0.0010751646796129354   -0.018948029066763367   -0.0004985150250541256
-0.0015871706328008507   -0.01973269050627663   -0.0005637644631060027
-0.0016562737578055726   -0.0197626298824713   -0.0005652534531759755
-0.0016141869147106014   -0.019014356896010425   -0.0005145419415171346
-0.0017714810909433276   -0.01977967223106726   -0.0006225443503867389
-0.001623550758610862   -0.019740179719065134   -0.0005658032977604627
-0.0016141869147106014   -0.019014356896010425   -0.0005145419415171346
-0.0020938375237970616   -0.018996136242657172   -0.0005735075486917505
-0.0017714810909433276   -0.01977967223106726   -0.0006225443503867389
-0.0020718615248965645   -0.018972527476569107   -0.0005522872763169651
-0.001623550758610862   -0.019740179719065134   -0.0005658032977604627
-0.0017375769960637885   -0.01975811832630393   -0.0005973931058973081
-0.0020718615248965645   -0.018972527476569107   -0.0005522872763169651
-0.0017714810909433276   -0.01977967223106726   -0.0006225443503867389
-0.001623550758610862   -0.019740179719065134   -0.0005658032977604627
-0.0020718615248965645   -0.018972527476569107   -0.0005522872763169651
-0.0015920346572186241   -0.01898785331159148   -0.0005157155635594836
-0.0016141869147106014   -0.019014356896010425   -0.0005145419415171346
-0.001623550758610862   -0.019740179719065134   -0.0005658032977604627
-0.0020718615248965645   -0.018972527476569107   -0.0005522872763169651
-0.0016141869147106014   -0.019014356896010425   -0.0005145419415171346
-0.0017714810909433276   -0.01977967223106726   -0.0006225443503867389
-0.001623550758610862   -0.019740179719065134   -0.0005658032977604627
-0.0015920346572186241   -0.01898785331159148   -0.0005157155635594836
-0.0017375769960637885   -0.01975811832630393   -0.0005973931058973081
-0.0015871706328008507   -0.01973269050627663   -0.0005637644631060027
-0.0015920346572186241   -0.01898785331159148   -0.0005157155635594836
-0.0020718615248965645   -0.018972527476569107   -0.0005522872763169651
-0.0017375769960637885   -0.01975811832630393   -0.0005973931058973081
-0.002047203888868453   -0.018961583792558565   -0.0005291508214236816
-0.0015871706328008507   -0.01973269050627663   -0.0005637644631060027
-0.0016970344908096532   -0.019751754630965204   -0.0005690849109343583
-0.002047203888868453   -0.018961583792558565   -0.0005291508214236816
-0.0017375769960637885   -0.01975811832630393   -0.0005973931058973081
-0.0015871706328008507   -0.01973269050627663   -0.0005637644631060027
-0.002047203888868453   -0.018961583792558565   -0.0005291508214236816
-0.0015691013058663243   -0.018974215660473318   -0.0005149381758624151
-0.0015920346572186241   -0.01898785331159148   -0.0005157155635594836
-0.0015871706328008507   -0.01973269050627663   -0.0005637644631060027
-0.002047203888868453   -0.018961583792558565   -0.0005291508214236816
-0.0015920346572186241   -0.01898785331159148   -0.0005157155635594836
-0.0017375769960637885   -0.01975811832630393   -0.0005973931058973081
-0.0015871706328008507   -0.01973269050627663   -0.0005637644631060027
-0.0015691013058663243   -0.018974215660473318   -0.0005149381758624151
-0.0016970344908096532   -0.019751754630965204   -0.0005690849109343583
-0.0015502315301511758   -0.01973953824040212   -0.0005596916649351847
-0.0015691013058663243   -0.018974215660473318   -0.0005149381758624151
-0.002047203888868453   -0.018961583792558565   -0.0005291508214236816
-0.0016970344908096532   -0.019751754630965204   -0.0005690849109343583
-0.002022509008608633   -0.018962158060378393   -0.0005038658067653213
-0.0015502315301511758   -0.01973953824040212   -0.0005596916649351847
-0.001655418129955432   -0.019758342419068833   -0.0005390079881870799
-0.002022509008608633   -0.018962158060378393   -0.0005038658067653213
-0.0016970344908096532   -0.019751754630965204   -0.0005690849109343583
-0.0015502315301511758   -0.01973953824040212   -0.0005596916649351847
-0.002022509008608633   -0.018962158060378393   -0.0005038658067653213
-0.0015470113283658576   -0.018972873171723647   -0.0005122045751893886
-0.0015691013058663243   -0.018974215660473318   -0.0005149381758624151
-0.0015502315301511758   -0.01973953824040212   -0.0005596916649351847
-0.002022509008608633   -0.018962158060378393   -0.0005038658067653213
-0.0015691013058663243   -0.018974215660473318   -0.0005149381758624151
-0.0016970344908096532   -0.019751754630965204   -0.0005690849109343583
-0.0017714810909433276   -0.01977967223106726   -0.0006225443503867389
-0.0020938375237970616   -0.018996136242657172   -0.0005735075486917505
-0.001938878118703531   -0.019756202276554172   -0.0006774636658810145
-0.0017375769960637885   -0.01975811832630393   -0.0005973931058973081
-0.0020938375237970616   -0.018996136242657172   -0.0005735075486917505
-0.0026194988025068037   -0.01893760414675564   -0.0006279230579668162
-0.001938878118703531   -0.019756202276554172   -0.0006774636658810145
-0.0025924162627946534   -0.018916844423274314   -0.0005847385643545139
-0.0017375769960637885   -0.01975811832630393   -0.0005973931058973081
-0.0018946496297658636   -0.019735582387959378   -0.0006277306685028623
-0.0025924162627946534   -0.018916844423274314   -0.0005847385643545139
-0.001938878118703531   -0.019756202276554172   -0.0006774636658810145
-0.0017375769960637885   -0.01975811832630393   -0.0005973931058973081
-0.0025924162627946534   -0.018916844423274314   -0.0005847385643545139
-0.0020718615248965645   -0.018972527476569107   -0.0005522872763169651
-0.0020938375237970616   -0.018996136242657172   -0.0005735075486917505
-0.0017375769960637885   -0.01975811832630393   -0.0005973931058973081
-0.0025924162627946534   -0.018916844423274314   -0.0005847385643545139
-0.0020938375237970616   -0.018996136242657172   -0.0005735075486917505
-0.001938878118703531   -0.019756202276554172   -0.0006774636658810145
-0.0017375769960637885   -0.01975811832630393   -0.0005973931058973081
-0.0020718615248965645   -0.018972527476569107   -0.0005522872763169651
-0.0018946496297658636   -0.019735582387959378   -0.0006277306685028623
-0.0016970344908096532   -0.019751754630965204   -0.0005690849109343583
-0.0020718615248965645   -0.018972527476569107   -0.0005522872763169651
-0.0025924162627946534   -0.018916844423274314   -0.0005847385643545139
-0.0018946496297658636   -0.019735582387959378   -0.0006277306685028623
-0.002554850486337792   -0.0189085844238785   -0.000539796770538469
-0.0016970344908096532   -0.019751754630965204   -0.0005690849109343583
-0.0018359936406176544   -0.019731264635901562   -0.00057443654920157
-0.002554850486337792   -0.0189085844238785   -0.000539796770538469
-0.0018946496297658636   -0.019735582387959378   -0.0006277306685028623
-0.0016970344908096532   -0.019751754630965204   -0.0005690849109343583
-0.002554850486337792   -0.0189085844238785   -0.000539796770538469
-0.002047203888868453   -0.018961583792558565   -0.0005291508214236816
-0.0020718615248965645   -0.018972527476569107   -0.0005522872763169651
-0.0016970344908096532   -0.019751754630965204   -0.0005690849109343583
-0.002554850486337792   -0.0189085844238785   -0.000539796770538469
-0.0020718615248965645   -0.018972527476569107   -0.0005522872763169651
-0.0018946496297658636   -0.019735582387959378   -0.0006277306685028623
-0.0016970344908096532   -0.019751754630965204   -0.0005690849109343583
-0.002047203888868453   -0.018961583792558565   -0.0005291508214236816
-0.0018359936406176544   -0.019731264635901562   -0.00057443654920157
-0.001655418129955432   -0.019758342419068833   -0.0005390079881870799
-0.002047203888868453   -0.018961583792558565   -0.0005291508214236816
-0.002554850486337792   -0.0189085844238785   -0.000539796770538469
-0.0018359936406176544   -0.019731264635901562   -0.00057443654920157
-0.002522362339772014   -0.018912822017676387   -0.0004918936855296913
-0.001655418129955432   -0.019758342419068833   -0.0005390079881870799
-0.0017812777432991854   -0.019740210994827125   -0.0005191860648972202
-0.002522362339772014   -0.018912822017676387   -0.0004918936855296913
-0.0018359936406176544   -0.019731264635901562   -0.00057443654920157
-0.001655418129955432   -0.019758342419068833   -0.0005390079881870799
-0.002522362339772014   -0.018912822017676387   -0.0004918936855296913
-0.002022509008608633   -0.018962158060378393   -0.0005038658067653213
-0.002047203888868453   -0.018961583792558565   -0.0005291508214236816
-0.001655418129955432   -0.019758342419068833   -0.0005390079881870799
-0.002522362339772014   -0.018912822017676387   -0.0004918936855296913
-0.002047203888868453   -0.018961583792558565   -0.0005291508214236816
-0.0018359936406176544   -0.019731264635901562   -0.00057443654920157
-0.001938878118703531   -0.019756202276554172   -0.0006774636658810145
-0.0026194988025068037   -0.01893760414675564   -0.0006279230579668162
-0.00227089898502973   -0.019660120432550353   -0.0007366267090025766
-0.0018946496297658636   -0.019735582387959378   -0.0006277306685028623
-0.0026194988025068037   -0.01893760414675564   -0.0006279230579668162
-0.0032961523648764642   -0.018842409704684183   -0.0006809201962786738
-0.00227089898502973   -0.019660120432550353   -0.0007366267090025766
-0.003206316584647478   -0.018819577501608648   -0.0006126572152489713
-0.0018946496297658636   -0.019735582387959378   -0.0006277306685028623
-0.002150154053857643   -0.01964227620145009   -0.0006550980913976316
-0.003206316584647478   -0.018819577501608648   -0.0006126572152489713
-0.00227089898502973   -0.019660120432550353   -0.0007366267090025766
-0.0018946496297658636   -0.019735582387959378   -0.0006277306685028623
-0.003206316584647478   -0.018819577501608648   -0.0006126572152489713
-0.0025924162627946534   -0.018916844423274314   -0.0005847385643545139
-0.0026194988025068037   -0.01893760414675564   -0.0006279230579668162
-0.0018946496297658636   -0.019735582387959378   -0.0006277306685028623
-0.003206316584647478   -0.018819577501608648   -0.0006126572152489713
-0.0026194988025068037   -0.01893760414675564   -0.0006279230579668162
-0.00227089898502973   -0.019660120432550353   -0.0007366267090025766
-0.0018946496297658636   -0.019735582387959378   -0.0006277306685028623
-0.0025924162627946534   -0.018916844423274314   -0.0005847385643545139
-0.002150154053857643   -0.01964227620145009   -0.0006550980913976316
-0.0018359936406176544   -0.019731264635901562   -0.00057443654920157
-0.0025924162627946534   -0.018916844423274314   -0.0005847385643545139
-0.003206316584647478   -0.018819577501608648   -0.0006126572152489713
-0.002150154053857643   -0.01964227620145009   -0.0006550980913976316
-0.003126328524655423   -0.018811937387174345   -0.0005406687354349932
-0.0018359936406176544   -0.019731264635901562   -0.00057443654920157
-0.0020398641592023845   -0.01964013893735409   -0.0005683727554125981
-0.003126328524655423   -0.018811937387174345   -0.0005406687354349932
-0.002150154053857643   -0.01964227620145009   -0.0006550980913976316
-0.0018359936406176544   -0.019731264635901562   -0.00057443654920157
-0.003126328524655423   -0.018811937387174345   -0.0005406687354349932
-0.002554850486337792   -0.0189085844238785   -0.000539796770538469
-0.0025924162627946534   -0.018916844423274314   -0.0005847385643545139
-0.0018359936406176544   -0.019731264635901562   -0.00057443654920157
-0.003126328524655423   -0.018811937387174345   -0.0005406687354349932
-0.0025924162627946534   -0.018916844423274314   -0.0005847385643545139
-0.002150154053857643   -0.01964227620145009   -0.0006550980913976316
-0.0018359936406176544   -0.019731264635901562   -0.00057443654920157
-0.002554850486337792   -0.0189085844238785   -0.000539796770538469
-0.0020398641592023845   -0.01964013893735409   -0.0005683727554125981
-0.0017812777432991854   -0.019740210994827125   -0.0005191860648972202
-0.002554850486337792   -0.0189085844238785   -0.000539796770538469
-0.003126328524655423   -0.018811937387174345   -0.0005406687354349932
-0.0020398641592023845   -0.01964013893735409   -0.0005683727554125981
-0.0030227289439546516   -0.01882360571289837   -0.0004656176482097492
-0.0017812777432991854   -0.019740210994827125   -0.0005191860648972202
-0.001900459003201734   -0.01966343147493921   -0.0004779267123106609
-0.0030227289439546516   -0.01882360571289837   -0.0004656176482097492
-0.0020398641592023845   -0.01964013893735409   -0.0005683727554125981
-0.0017812777432991854   -0.019740210994827125   -0.0005191860648972202
-0.0030227289439546516   -0.01882360571289837   -0.0004656176482097492
-0.002522362339772014   -0.018912822017676387   -0.0004918936855296913
-0.002554850486337792   -0.0189085844238785   -0.000539796770538469
-0.0017812777432991854   -0.019740210994827125   -0.0005191860648972202
-0.0030227289439546516   -0.01882360571289837   -0.0004656176482097492
-0.002554850486337792   -0.0189085844238785   -0.000539796770538469
-0.0020398641592023845   -0.01964013893735409   -0.0005683727554125981
-0.0006461475956782907   -0.01893765393732537   -0.0003740973842090779
3.458948747916532e-05   -0.01760981635909694   -0.0003083448057855991
-0.0011316797831467933   -0.01899456682254834   -0.00045162206127783615
-0.000568850160393761   -0.018899875689204503   -0.00042988577788649087
3.458948747916532e-05   -0.01760981635909694   -0.0003083448057855991
-0.0007959067012031239   -0.017652190059020745   -0.00038465187325552536
-0.0011316797831467933   -0.01899456682254834   -0.00045162206127783615
-0.0007816435116614507   -0.01762027457498076   -0.0004043213038541355
-0.000568850160393761   -0.018899875689204503   -0.00042988577788649087
-0.0011051862715148251   -0.018964156408449815   -0.00047612032718609567
-0.0007816435116614507   -0.01762027457498076   -0.0004043213038541355
-0.0011316797831467933   -0.01899456682254834   -0.00045162206127783615
-0.000568850160393761   -0.018899875689204503   -0.00042988577788649087
-0.0007816435116614507   -0.01762027457498076   -0.0004043213038541355
8.945397993870818e-05   -0.017571310032902958   -0.000353347351276315
3.458948747916532e-05   -0.01760981635909694   -0.0003083448057855991
-0.000568850160393761   -0.018899875689204503   -0.00042988577788649087
-0.0007816435116614507   -0.01762027457498076   -0.0004043213038541355
3.458948747916532e-05   -0.01760981635909694   -0.0003083448057855991
-0.0011316797831467933   -0.01899456682254834   -0.00045162206127783615
-0.000568850160393761   -0.018899875689204503   -0.00042988577788649087
8.945397993870818e-05   -0.017571310032902958   -0.000353347351276315
-0.0011051862715148251   -0.018964156408449815   -0.00047612032718609567
-0.0005080068979017709   -0.018882706963345902   -0.0004825624412240169
8.945397993870818e-05   -0.017571310032902958   -0.000353347351276315
-0.0007816435116614507   -0.01762027457498076   -0.0004043213038541355
-0.0011051862715148251   -0.018964156408449815   -0.00047612032718609567
-0.0007652485765157717   -0.017600151912100497   -0.0004218100846950494
-0.0005080068979017709   -0.018882706963345902   -0.0004825624412240169
-0.0010751646796129354   -0.018948029066763367   -0.0004985150250541256
-0.0007652485765157717   -0.017600151912100497   -0.0004218100846950494
-0.0011051862715148251   -0.018964156408449815   -0.00047612032718609567
-0.0005080068979017709   -0.018882706963345902   -0.0004825624412240169
-0.0007652485765157717   -0.017600151912100497   -0.0004218100846950494
0.00012990745546726556   -0.01754989983793993   -0.0003952968625764633
8.945397993870818e-05   -0.017571310032902958   -0.000353347351276315
-0.0005080068979017709   -0.018882706963345902   -0.0004825624412240169
-0.0007652485765157717   -0.017600151912100497   -0.0004218100846950494
8.945397993870818e-05   -0.017571310032902958   -0.000353347351276315
-0.0011051862715148251   -0.018964156408449815   -0.00047612032718609567
-0.0005080068979017709   -0.018882706963345902   -0.0004825624412240169
0.00012990745546726556   -0.01754989983793993   -0.0003952968625764633
-0.0010751646796129354   -0.018948029066763367   -0.0004985150250541256
-0.00044111726623750636   -0.018881055101912257   -0.000532004222706905
0.00012990745546726556   -0.01754989983793993   -0.0003952968625764633
-0.0007652485765157717   -0.017600151912100497   -0.0004218100846950494
-0.0010751646796129354   -0.018948029066763367   -0.0004985150250541256
-0.000755428154298273   -0.017591201419228365   -0.0004373345697679249
-0.00044111726623750636   -0.018881055101912257   -0.000532004222706905
-0.0010522041132964273   -0.018945725106325355   -0.0005188799713095155
-0.000755428154298273   -0.017591201419228365   -0.0004373345697679249
-0.0010751646796129354   -0.018948029066763367   -0.0004985150250541256
-0.00044111726623750636   -0.018881055101912257   -0.000532004222706905
-0.000755428154298273   -0.017591201419228365   -0.0004373345697679249
0.00017363225423507587   -0.017540615102791146   -0.000434185303431595
0.00012990745546726556   -0.01754989983793993   -0.0003952968625764633
-0.00044111726623750636   -0.018881055101912257   -0.000532004222706905
-0.000755428154298273   -0.017591201419228365   -0.0004373345697679249
0.00012990745546726556   -0.01754989983793993   -0.0003952968625764633
-0.0010751646796129354   -0.018948029066763367   -0.0004985150250541256
-0.0011316797831467933   -0.01899456682254834   -0.00045162206127783615
-0.0007959067012031239   -0.017652190059020745   -0.00038465187325552536
-0.0016141869147106014   -0.019014356896010425   -0.0005145419415171346
-0.0011051862715148251   -0.018964156408449815   -0.00047612032718609567
-0.0007959067012031239   -0.017652190059020745   -0.00038465187325552536
-0.0016022770933864416   -0.017660368344256442   -0.00044707183464096035
-0.0016141869147106014   -0.019014356896010425   -0.0005145419415171346
-0.001591904080682524   -0.017633079619881895   -0.0004474488522234933
-0.0011051862715148251   -0.018964156408449815   -0.00047612032718609567
-0.0015920346572186241   -0.01898785331159148   -0.0005157155635594836
-0.001591904080682524   -0.017633079619881895   -0.0004474488522234933
-0.0016141869147106014   -0.019014356896010425   -0.0005145419415171346
-0.0011051862715148251   -0.018964156408449815   -0.00047612032718609567
-0.001591904080682524   -0.017633079619881895   -0.0004474488522234933
-0.0007816435116614507   -0.01762027457498076   -0.0004043213038541355
-0.0007959067012031239   -0.017652190059020745   -0.00038465187325552536
-0.0011051862715148251   -0.018964156408449815   -0.00047612032718609567
-0.001591904080682524   -0.017633079619881895   -0.0004474488522234933
-0.0007959067012031239   -0.017652190059020745   -0.00038465187325552536
-0.0016141869147106014   -0.019014356896010425   -0.0005145419415171346
-0.0011051862715148251   -0.018964156408449815   -0.00047612032718609567
-0.0007816435116614507   -0.01762027457498076   -0.0004043213038541355
-0.0015920346572186241   -0.01898785331159148   -0.0005157155635594836
-0.0010751646796129354   -0.018948029066763367   -0.0004985150250541256
-0.0007816435116614507   -0.01762027457498076   -0.0004043213038541355
-0.001591904080682524   -0.017633079619881895   -0.0004474488522234933
-0.0015920346572186241   -0.01898785331159148   -0.0005157155635594836
-0.0015812173571920344   -0.017616334912654203   -0.0004457303523688586
-0.0010751646796129354   -0.018948029066763367   -0.0004985150250541256
-0.0015691013058663243   -0.018974215660473318   -0.0005149381758624151
-0.0015812173571920344   -0.017616334912654203   -0.0004457303523688586
-0.0015920346572186241   -0.01898785331159148   -0.0005157155635594836
-0.0010751646796129354   -0.018948029066763367   -0.0004985150250541256
-0.0015812173571920344   -0.017616334912654203   -0.0004457303523688586
-0.0007652485765157717   -0.017600151912100497   -0.0004218100846950494
-0.0007816435116614507   -0.01762027457498076   -0.0004043213038541355
-0.0010751646796129354   -0.018948029066763367   -0.0004985150250541256
-0.0015812173571920344   -0.017616334912654203   -0.0004457303523688586
-0.0007816435116614507   -0.01762027457498076   -0.0004043213038541355
-0.0015920346572186241   -0.01898785331159148   -0.0005157155635594836
-0.0010751646796129354   -0.018948029066763367   -0.0004985150250541256
-0.0007652485765157717   -0.017600151912100497   -0.0004218100846950494
-0.0015691013058663243   -0.018974215660473318   -0.0005149381758624151
-0.0010522041132964273   -0.018945725106325355   -0.0005188799713095155
-0.0007652485765157717   -0.017600151912100497   -0.0004218100846950494
-0.0015812173571920344   -0.017616334912654203   -0.0004457303523688586
-0.0015691013058663243   -0.018974215660473318   -0.0005149381758624151
-0.0015718780615409083   -0.017609978145018756   -0.00044206556727443267
-0.0010522041132964273   -0.018945725106325355   -0.0005188799713095155
-0.0015470113283658576   -0.018972873171723647   -0.0005122045751893886
-0.0015718780615409083   -0.017609978145018756   -0.00044206556727443267
-0.0015691013058663243   -0.018974215660473318   -0.0005149381758624151
-0.0010522041132964273   -0.018945725106325355   -0.0005188799713095155
-0.0015718780615409083   -0.017609978145018756   -0.00044206556727443267
-0.000755428154298273   -0.017591201419228365   -0.0004373345697679249
-0.0007652485765157717   -0.017600151912100497   -0.0004218100846950494
-0.0010522041132964273   -0.018945725106325355   -0.0005188799713095155
-0.0015718780615409083   -0.017609978145018756   -0.00044206556727443267
-0.0007652485765157717   -0.017600151912100497   -0.0004218100846950494
-0.0015691013058663243   -0.018974215660473318   -0.0005149381758624151
-0.0016141869147106014   -0.019014356896010425   -0.0005145419415171346
-0.0016022770933864416   -0.017660368344256442   -0.00044707183464096035
-0.0020938375237970616   -0.018996136242657172   -0.0005735075486917505
-0.0015920346572186241   -0.01898785331159148   -0.0005157155635594836
-0.0016022770933864416   -0.017660368344256442   -0.00044707183464096035
-0.002396598421902091   -0.01763439606981124   -0.0005033703792417764
-0.0020938375237970616   -0.018996136242657172   -0.0005735075486917505
-0.0023869524801999934   -0.017610889271974177   -0.00048491223831284184
-0.0015920346572186241   -0.01898785331159148   -0.0005157155635594836
-0.0020718615248965645   -0.018972527476569107   -0.0005522872763169651
-0.0023869524801999934   -0.017610889271974177   -0.00048491223831284184
-0.0020938375237970616   -0.018996136242657172   -0.0005735075486917505
-0.0015920346572186241   -0.01898785331159148   -0.0005157155635594836
-0.0023869524801999934   -0.017610889271974177   -0.00048491223831284184
-0.001591904080682524   -0.017633079619881895   -0.0004474488522234933
-0.0016022770933864416   -0.017660368344256442   -0.00044707183464096035
-0.0015920346572186241   -0.01898785331159148   -0.0005157155635594836
-0.0023869524801999934   -0.017610889271974177   -0.00048491223831284184
-0.0016022770933864416   -0.017660368344256442   -0.00044707183464096035
-0.0020938375237970616   -0.018996136242657172   -0.0005735075486917505
-0.0015920346572186241   -0.01898785331159148   -0.0005157155635594836
-0.001591904080682524   -0.017633079619881895   -0.0004474488522234933
-0.0020718615248965645   -0.018972527476569107   -0.0005522872763169651
-0.0015691013058663243   -0.018974215660473318   -0.0005149381758624151
-0.001591904080682524   -0.017633079619881895   -0.0004474488522234933
-0.0023869524801999934   -0.017610889271974177   -0.00048491223831284184
-0.0020718615248965645   -0.018972527476569107   -0.0005522872763169651
-0.00237528496340108   -0.017597813731311397   -0.0004644094397423757
-0.0015691013058663243   -0.018974215660473318   -0.0005149381758624151
-0.002047203888868453   -0.018961583792558565   -0.0005291508214236816
-0.00237528496340108   -0.017597813731311397   -0.0004644094397423757
-0.0020718615248965645   -0.018972527476569107   -0.0005522872763169651
-0.0015691013058663243   -0.018974215660473318   -0.0005149381758624151
-0.00237528496340108   -0.017597813731311397   -0.0004644094397423757
-0.0015812173571920344   -0.017616334912654203   -0.0004457303523688586
-0.001591904080682524   -0.017633079619881895   -0.0004474488522234933
-0.0015691013058663243   -0.018974215660473318   -0.0005149381758624151
-0.00237528496340108   -0.017597813731311397   -0.0004644094397423757
-0.001591904080682524   -0.017633079619881895   -0.0004474488522234933
-0.0020718615248965645   -0.018972527476569107   -0.0005522872763169651
-0.0015691013058663243   -0.018974215660473318   -0.0005149381758624151
-0.0015812173571920344   -0.017616334912654203   -0.0004457303523688586
-0.002047203888868453   -0.018961583792558565   -0.0005291508214236816
-0.0015470113283658576   -0.018972873171723647   -0.0005122045751893886
-0.0015812173571920344   -0.017616334912654203   -0.0004457303523688586
-0.00237528496340108   -0.017597813731311397   -0.0004644094397423757
-0.002047203888868453   -0.018961583792558565   -0.0005291508214236816
-0.002363977632938402   -0.017594718678361296   -0.0004419236335232808
-0.0015470113283658576   -0.018972873171723647   -0.0005122045751893886
-0.002022509008608633   -0.018962158060378393   -0.0005038658067653213
-0.002363977632938402   -0.017594718678361296   -0.0004419236335232808
-0.002047203888868453   -0.018961583792558565   -0.0005291508214236816
-0.0015470113283658576   -0.018972873171723647   -0.0005122045751893886
-0.002363977632938402   -0.017594718678361296   -0.0004419236335232808
-0.0015718780615409083   -0.017609978145018756   -0.00044206556727443267
-0.0015812173571920344   -0.017616334912654203   -0.0004457303523688586
-0.0015470113283658576   -0.018972873171723647   -0.0005122045751893886
-0.002363977632938402   -0.017594718678361296   -0.0004419236335232808
-0.0015812173571920344   -0.017616334912654203   -0.0004457303523688586
-0.002047203888868453   -0.018961583792558565   -0.0005291508214236816
-0.0020938375237970616   -0.018996136242657172   -0.0005735075486917505
-0.002396598421902091   -0.01763439606981124   -0.0005033703792417764
-0.0026194988025068037   -0.01893760414675564   -0.0006279230579668162
-0.0020718615248965645   -0.018972527476569107   -0.0005522872763169651
-0.002396598421902091   -0.01763439606981124   -0.0005033703792417764
-0.0032281789918243344   -0.01757510686196849   -0.0005534442667670034
-0.0026194988025068037   -0.01893760414675564   -0.0006279230579668162
-0.003215396009860563   -0.01755515088217382   -0.0005160977295544437
-0.0020718615248965645   -0.018972527476569107   -0.0005522872763169651
-0.0025924162627946534   -0.018916844423274314   -0.0005847385643545139
-0.003215396009860563   -0.01755515088217382   -0.0005160977295544437
-0.0026194988025068037   -0.01893760414675564   -0.0006279230579668162
-0.0020718615248965645   -0.018972527476569107   -0.0005522872763169651
-0.003215396009860563   -0.01755515088217382   -0.0005160977295544437
-0.0023869524801999934   -0.017610889271974177   -0.00048491223831284184
-0.002396598421902091   -0.01763439606981124   -0.0005033703792417764
-0.0020718615248965645   -0.018972527476569107   -0.0005522872763169651
-0.003215396009860563   -0.01755515088217382   -0.0005160977295544437
-0.002396598421902091   -0.01763439606981124   -0.0005033703792417764
-0.0026194988025068037   -0.01893760414675564   -0.0006279230579668162
-0.0020718615248965645   -0.018972527476569107   -0.0005522872763169651
-0.0023869524801999934   -0.017610889271974177   -0.00048491223831284184
-0.0025924162627946534   -0.018916844423274314   -0.0005847385643545139
-0.002047203888868453   -0.018961583792558565   -0.0005291508214236816
-0.0023869524801999934   -0.017610889271974177   -0.00048491223831284184
-0.003215396009860563   -0.01755515088217382   -0.0005160977295544437
-0.0025924162627946534   -0.018916844423274314   -0.0005847385643545139
-0.0031936226081954   -0.01754540095618012   -0.0004770293313710729
-0.002047203888868453   -0.018961583792558565   -0.0005291508214236816
-0.002554850486337792   -0.0189085844238785   -0.000539796770538469
-0.0031936226081954   -0.01754540095618012   -0.0004770293313710729
-0.0025924162627946534   -0.018916844423274314   -0.0005847385643545139
-0.002047203888868453   -0.018961583792558565   -0.0005291508214236816
-0.0031936226081954   -0.01754540095618012   -0.0004770293313710729
-0.00237528496340108   -0.017597813731311397   -0.0004644094397423757
-0.0023869524801999934   -0.017610889271974177   -0.00048491223831284184
-0.002047203888868453   -0.018961583792558565   -0.0005291508214236816
-0.0031936226081954   -0.01754540095618012   -0.0004770293313710729
-0.0023869524801999934   -0.017610889271974177   -0.00048491223831284184
-0.0025924162627946534   -0.018916844423274314   -0.0005847385643545139
-0.002047203888868453   -0.018961583792558565   -0.0005291508214236816
-0.00237528496340108   -0.017597813731311397   -0.0004644094397423757
-0.002554850486337792   -0.0189085844238785   -0.000539796770538469
-0.002022509008608633   -0.018962158060378393   -0.0005038658067653213
-0.00237528496340108   -0.017597813731311397   -0.0004644094397423757
-0.0031936226081954   -0.01754540095618012   -0.0004770293313710729
-0.002554850486337792   -0.0189085844238785   -0.000539796770538469
-0.0031761517925295627   -0.017546414585139926   -0.00043568412588875535
-0.002022509008608633   -0.018962158060378393   -0.0005038658067653213
-0.002522362339772014   -0.018912822017676387   -0.0004918936855296913
-0.0031761517925295627   -0.017546414585139926   -0.00043568412588875535
-0.002554850486337792   -0.0189085844238785   -0.000539796770538469
-0.002022509008608633   -0.018962158060378393   -0.0005038658067653213
-0.0031761517925295627   -0.017546414585139926   -0.00043568412588875535
-0.002363977632938402   -0.017594718678361296   -0.0004419236335232808
-0.00237528496340108   -0.017597813731311397   -0.0004644094397423757
-0.002022509008608633   -0.018962158060378393   -0.0005038658067653213
-0.0031761517925295627   -0.017546414585139926   -0.00043568412588875535
-0.00237528496340108   -0.017597813731311397   -0.0004644094397423757
-0.002554850486337792   -0.0189085844238785   -0.000539796770538469
-0.0026194988025068037   -0.01893760414675564   -0.0006279230579668162
-0.0032281789918243344   -0.01757510686196849   -0.0005534442667670034
-0.0032961523648764642   -0.018842409704684183   -0.0006809201962786738
-0.0025924162627946534   -0.018916844423274314   -0.0005847385643545139
-0.0032281789918243344   -0.01757510686196849   -0.0005534442667670034
-0.004197567561965527   -0.0174891504673892   -0.0006006696257599528
-0.0032961523648764642   -0.018842409704684183   -0.0006809201962786738
-0.0041302745465216055   -0.017468091542695335   -0.0005420875624916768
-0.0025924162627946534   -0.018916844423274314   -0.0005847385643545139
-0.003206316584647478   -0.018819577501608648   -0.0006126572152489713
-0.0041302745465216055   -0.017468091542695335   -0.0005420875624916768
-0.0032961523648764642   -0.018842409704684183   -0.0006809201962786738
-0.0025924162627946534   -0.018916844423274314   -0.0005847385643545139
-0.0041302745465216055   -0.017468091542695335   -0.0005420875624916768
-0.003215396009860563   -0.01755515088217382   -0.0005160977295544437
-0.0032281789918243344   -0.01757510686196849   -0.0005534442667670034
-0.0025924162627946534   -0.018916844423274314   -0.0005847385643545139
-0.0041302745465216055   -0.017468091542695335   -0.0005420875624916768
-0.0032281789918243344   -0.01757510686196849   -0.0005534442667670034
-0.0032961523648764642   -0.018842409704684183   -0.0006809201962786738
-0.0025924162627946534   -0.018916844423274314   -0.0005847385643545139
-0.003215396009860563   -0.01755515088217382   -0.0005160977295544437
-0.003206316584647478   -0.018819577501608648   -0.0006126572152489713
-0.002554850486337792   -0.0189085844238785   -0.000539796770538469
-0.003215396009860563   -0.01755515088217382   -0.0005160977295544437
-0.0041302745465216055   -0.017468091542695335   -0.0005420875624916768
-0.003206316584647478   -0.018819577501608648   -0.0006126572152489713
-0.004072214905734206   -0.0174592461958336   -0.00048064118192302213
-0.002554850486337792   -0.0189085844238785   -0.000539796770538469
-0.003126328524655423   -0.018811937387174345   -0.0005406687354349932
-0.004072214905734206   -0.0174592461958336   -0.00048064118192302213
-0.003206316584647478   -0.018819577501608648   -0.0006126572152489713
-0.002554850486337792   -0.0189085844238785   -0.000539796770538469
-0.004072214905734206   -0.0174592461958336   -0.00048064118192302213
-0.0031936226081954   -0.01754540095618012   -0.0004770293313710729
-0.003215396009860563   -0.01755515088217382   -0.0005160977295544437
-0.002554850486337792   -0.0189085844238785   -0.000539796770538469
-0.004072214905734206   -0.0174592461958336   -0.00048064118192302213
-0.003215396009860563   -0.01755515088217382   -0.0005160977295544437
-0.003206316584647478   -0.018819577501608648   -0.0006126572152489713
-0.002554850486337792   -0.0189085844238785   -0.000539796770538469
-0.0031936226081954   -0.01754540095618012   -0.0004770293313710729
-0.003126328524655423   -0.018811937387174345   -0.0005406687354349932
-0.002522362339772014   -0.018912822017676387   -0.0004918936855296913
-0.0031936226081954   -0.01754540095618012   -0.0004770293313710729
-0.004072214905734206   -0.0174592461958336   -0.00048064118192302213
-0.003126328524655423   -0.018811937387174345   -0.0005406687354349932
-0.003994141117691783   -0.017466766799142285   -0.00041671723407916896
-0.002522362339772014   -0.018912822017676387   -0.0004918936855296913
-0.0030227289439546516   -0.01882360571289837   -0.0004656176482097492
-0.003994141117691783   -0.017466766799142285   -0.00041671723407916896
-0.003126328524655423   -0.018811937387174345   -0.0005406687354349932
-0.002522362339772014   -0.018912822017676387   -0.0004918936855296913
-0.003994141117691783   -0.017466766799142285   -0.00041671723407916896
-0.0031761517925295627   -0.017546414585139926   -0.00043568412588875535
-0.0031936226081954   -0.01754540095618012   -0.0004770293313710729
-0.002522362339772014   -0.018912822017676387   -0.0004918936855296913
-0.003994141117691783   -0.017466766799142285   -0.00041671723407916896
-0.0031936226081954   -0.01754540095618012   -0.0004770293313710729
-0.003126328524655423   -0.018811937387174345   -0.0005406687354349932
3.458948747916532e-05   -0.01760981635909694   -0.0003083448057855991
0.0005590700859823643   -0.015787115699582847   -0.00023458173196312678
-0.0007959067012031239   -0.017652190059020745   -0.00038465187325552536
8.945397993870818e-05   -0.017571310032902958   -0.000353347351276315
0.0005590700859823643   -0.015787115699582847   -0.00023458173196312678
-0.0005496842669571193   -0.015815689596534187   -0.00030750749903124644
-0.0007959067012031239   -0.017652190059020745   -0.00038465187325552536
-0.0005464095769074773   -0.01578393554337136   -0.00032139708632004363
8.945397993870818e-05   -0.017571310032902958   -0.000353347351276315
-0.0007816435116614507   -0.01762027457498076   -0.0004043213038541355
-0.0005464095769074773   -0.01578393554337136   -0.00032139708632004363
-0.0007959067012031239   -0.017652190059020745   -0.00038465187325552536
8.945397993870818e-05   -0.017571310032902958   -0.000353347351276315
-0.0005464095769074773   -0.01578393554337136   -0.00032139708632004363
0.0005926207857956768   -0.015749462931140268   -0.00026842329079260836
0.0005590700859823643   -0.015787115699582847   -0.00023458173196312678
8.945397993870818e-05   -0.017571310032902958   -0.000353347351276315
-0.0005464095769074773   -0.01578393554337136   -0.00032139708632004363
0.0005590700859823643   -0.015787115699582847   -0.00023458173196312678
-0.0007959067012031239   -0.017652190059020745   -0.00038465187325552536
8.945397993870818e-05   -0.017571310032902958   -0.000353347351276315
0.0005926207857956768   -0.015749462931140268   -0.00026842329079260836
-0.0007816435116614507   -0.01762027457498076   -0.0004043213038541355
0.00012990745546726556   -0.01754989983793993   -0.0003952968625764633
0.0005926207857956768   -0.015749462931140268   -0.00026842329079260836
-0.0005464095769074773   -0.01578393554337136   -0.00032139708632004363
-0.0007816435116614507   -0.01762027457498076   -0.0004043213038541355
-0.000542195038027846   -0.015761609256809875   -0.0003332667118757241
0.00012990745546726556   -0.01754989983793993   -0.0003952968625764633
-0.0007652485765157717   -0.017600151912100497   -0.0004218100846950494
-0.000542195038027846   -0.015761609256809875   -0.0003332667118757241
-0.0007816435116614507   -0.01762027457498076   -0.0004043213038541355
0.00012990745546726556   -0.01754989983793993   -0.0003952968625764633
-0.000542195038027846   -0.015761609256809875   -0.0003332667118757241
0.0006143292519652114   -0.01572559185484595   -0.0002994040436289446
0.0005926207857956768   -0.015749462931140268   -0.00026842329079260836
0.00012990745546726556   -0.01754989983793993   -0.0003952968625764633
-0.000542195038027846   -0.015761609256809875   -0.0003332667118757241
0.0005926207857956768   -0.015749462931140268   -0.00026842329079260836
-0.0007816435116614507   -0.01762027457498076   -0.0004043213038541355
0.00012990745546726556   -0.01754989983793993   -0.0003952968625764633
0.0006143292519652114   -0.01572559185484595   -0.0002994040436289446
-0.0007652485765157717   -0.017600151912100497   -0.0004218100846950494
0.00017363225423507587   -0.017540615102791146   -0.000434185303431595
0.0006143292519652114   -0.01572559185484595   -0.0002994040436289446
-0.000542195038027846   -0.015761609256809875   -0.0003332667118757241
-0.0007652485765157717   -0.017600151912100497   -0.0004218100846950494
-0.0005436507682996439   -0.015747957438283354   -0.000343262666615473
0.00017363225423507587   -0.017540615102791146   -0.000434185303431595
-0.000755428154298273   -0.017591201419228365   -0.0004373345697679249
-0.0005436507682996439   -0.015747957438283354   -0.000343262666615473
-0.0007652485765157717   -0.017600151912100497   -0.0004218100846950494
0.00017363225423507587   -0.017540615102791146   -0.000434185303431595
-0.0005436507682996439   -0.015747957438283354   -0.000343262666615473
0.0006370142951978548   -0.015710640369005005   -0.0003275897809739866
0.0006143292519652114   -0.01572559185484595   -0.0002994040436289446
0.00017363225423507587   -0.017540615102791146   -0.000434185303431595
-0.0005436507682996439   -0.015747957438283354   -0.000343262666615473
0.0006143292519652114   -0.01572559185484595   -0.0002994040436289446
-0.0007652485765157717   -0.017600151912100497   -0.0004218100846950494
-0.0007959067012031239   -0.017652190059020745   -0.00038465187325552536
-0.0005496842669571193   -0.015815689596534187   -0.00030750749903124644
-0.0016022770933864416   -0.017660368344256442   -0.00044707183464096035
-0.0007816435116614507   -0.01762027457498076   -0.0004043213038541355
-0.0005496842669571193   -0.015815689596534187   -0.00030750749903124644
-0.0016190394403364668   -0.01581613595313243   -0.0003670748460588575
-0.0016022770933864416   -0.017660368344256442   -0.00044707183464096035
-0.001619026100130853   -0.015789458327050022   -0.00036574767523005013
-0.0007816435116614507   -0.01762027457498076   -0.0004043213038541355
-0.001591904080682524   -0.017633079619881895   -0.0004474488522234933
-0.001619026100130853   -0.015789458327050022   -0.00036574767523005013
-0.0016022770933864416   -0.017660368344256442   -0.00044707183464096035
-0.0007816435116614507   -0.01762027457498076   -0.0004043213038541355
-0.001619026100130853   -0.015789458327050022   -0.00036574767523005013
-0.0005464095769074773   -0.01578393554337136   -0.00032139708632004363
-0.0005496842669571193   -0.015815689596534187   -0.00030750749903124644
-0.0007816435116614507   -0.01762027457498076   -0.0004043213038541355
-0.001619026100130853   -0.015789458327050022   -0.00036574767523005013
-0.0005496842669571193   -0.015815689596534187   -0.00030750749903124644
-0.0016022770933864416   -0.017660368344256442   -0.00044707183464096035
-0.0007816435116614507   -0.01762027457498076   -0.0004043213038541355
-0.0005464095769074773   -0.01578393554337136   -0.00032139708632004363
-0.001591904080682524   -0.017633079619881895   -0.0004474488522234933
-0.0007652485765157717   -0.017600151912100497   -0.0004218100846950494
-0.0005464095769074773   -0.01578393554337136   -0.00032139708632004363
-0.001619026100130853   -0.015789458327050022   -0.00036574767523005013
-0.001591904080682524   -0.017633079619881895   -0.0004474488522234933
-0.0016189313007000728   -0.015771081559698395   -0.0003624015724594685
-0.0007652485765157717   -0.017600151912100497   -0.0004218100846950494
-0.0015812173571920344   -0.017616334912654203   -0.0004457303523688586
-0.0016189313007000728   -0.015771081559698395   -0.0003624015724594685
-0.001591904080682524   -0.017633079619881895   -0.0004474488522234933
-0.0007652485765157717   -0.017600151912100497   -0.0004218100846950494
-0.0016189313007000728   -0.015771081559698395   -0.0003624015724594685
-0.000542195038027846   -0.015761609256809875   -0.0003332667118757241
-0.0005464095769074773   -0.01578393554337136   -0.00032139708632004363
-0.0007652485765157717   -0.017600151912100497   -0.0004218100846950494
-0.0016189313007000728   -0.015771081559698395   -0.0003624015724594685
-0.0005464095769074773   -0.01578393554337136   -0.00032139708632004363
-0.001591904080682524   -0.017633079619881895   -0.0004474488522234933
-0.0007652485765157717   -0.017600151912100497   -0.0004218100846950494
-0.000542195038027846   -0.015761609256809875   -0.0003332667118757241
-0.0015812173571920344   -0.017616334912654203   -0.0004457303523688586
-0.000755428154298273   -0.017591201419228365   -0.0004373345697679249
-0.000542195038027846   -0.015761609256809875   -0.0003332667118757241
-0.0016189313007000728   -0.015771081559698395   -0.0003624015724594685
-0.0015812173571920344   -0.017616334912654203   -0.0004457303523688586
-0.0016202486402108877   -0.015761023200165314   -0.0003571501935431309
-0.000755428154298273   -0.017591201419228365   -0.0004373345697679249
-0.0015718780615409083   -0.017609978145018756   -0.00044206556727443267
-0.0016202486402108877   -0.015761023200165314   -0.0003571501935431309
-0.0015812173571920344   -0.017616334912654203   -0.0004457303523688586
-0.000755428154298273   -0.017591201419228365   -0.0004373345697679249
-0.0016202486402108877   -0.015761023200165314   -0.0003571501935431309
-0.0005436507682996439   -0.015747957438283354   -0.000343262666615473
-0.000542195038027846   -0.015761609256809875   -0.0003332667118757241
-0.000755428154298273   -0.017591201419228365   -0.0004373345697679249
-0.0016202486402108877   -0.015761023200165314   -0.0003571501935431309
-0.000542195038027846   -0.015761609256809875   -0.0003332667118757241
-0.0015812173571920344   -0.017616334912654203   -0.0004457303523688586
-0.0016022770933864416   -0.017660368344256442   -0.00044707183464096035
-0.0016190394403364668   -0.01581613595313243   -0.0003670748460588575
-0.002396598421902091   -0.01763439606981124   -0.0005033703792417764
-0.001591904080682524   -0.017633079619881895   -0.0004474488522234933
-0.0016190394403364668   -0.01581613595313243   -0.0003670748460588575
-0.0026708163027320433   -0.015789286224348227   -0.00041907287887843985
-0.002396598421902091   -0.01763439606981124   -0.0005033703792417764
-0.0026716149794073487   -0.015767010982223082   -0.0004027202141655301
-0.001591904080682524   -0.017633079619881895   -0.0004474488522234933
-0.0023869524801999934   -0.017610889271974177   -0.00048491223831284184
-0.0026716149794073487   -0.015767010982223082   -0.0004027202141655301
-0.002396598421902091   -0.01763439606981124   -0.0005033703792417764
-0.001591904080682524   -0.017633079619881895   -0.0004474488522234933
-0.0026716149794073487   -0.015767010982223082   -0.0004027202141655301
-0.001619026100130853   -0.015789458327050022   -0.00036574767523005013
-0.0016190394403364668   -0.01581613595313243   -0.0003670748460588575
-0.001591904080682524   -0.017633079619881895   -0.0004474488522234933
-0.0026716149794073487   -0.015767010982223082   -0.0004027202141655301
-0.0016190394403364668   -0.01581613595313243   -0.0003670748460588575
-0.002396598421902091   -0.01763439606981124   -0.0005033703792417764
-0.001591904080682524   -0.017633079619881895   -0.0004474488522234933
-0.001619026100130853   -0.015789458327050022   -0.00036574767523005013
-0.0023869524801999934   -0.017610889271974177   -0.00048491223831284184
-0.0015812173571920344   -0.017616334912654203   -0.0004457303523688586
-0.001619026100130853   -0.015789458327050022   -0.00036574767523005013
-0.0026716149794073487   -0.015767010982223082   -0.0004027202141655301
-0.0023869524801999934   -0.017610889271974177   -0.00048491223831284184
-0.0026706370355091074   -0.01575296400995598   -0.0003843925094595884
-0.0015812173571920344   -0.017616334912654203   -0.0004457303523688586
-0.00237528496340108   -0.017597813731311397   -0.0004644094397423757
-0.0026706370355091074   -0.01575296400995598   -0.0003843925094595884
-0.0023869524801999934   -0.017610889271974177   -0.00048491223831284184
-0.0015812173571920344   -0.017616334912654203   -0.0004457303523688586
-0.0026706370355091074   -0.01575296400995598   -0.0003843925094595884
-0.0016189313007000728   -0.015771081559698395   -0.0003624015724594685
-0.001619026100130853   -0.015789458327050022   -0.00036574767523005013
-0.0015812173571920344   -0.017616334912654203   -0.0004457303523688586
-0.0026706370355091074   -0.01575296400995598   -0.0003843925094595884
-0.001619026100130853   -0.015789458327050022   -0.00036574767523005013
-0.0023869524801999934   -0.017610889271974177   -0.00048491223831284184
-0.0015812173571920344   -0.017616334912654203   -0.0004457303523688586
-0.0016189313007000728   -0.015771081559698395   -0.0003624015724594685
-0.00237528496340108   -0.017597813731311397   -0.0004644094397423757
-0.0015718780615409083   -0.017609978145018756   -0.00044206556727443267
-0.0016189313007000728   -0.015771081559698395   -0.0003624015724594685
-0.0026706370355091074   -0.01575296400995598   -0.0003843925094595884
-0.00237528496340108   -0.017597813731311397   -0.0004644094397423757
-0.0026700005166463907   -0.015747009770280197   -0.00036414505300902313
-0.0015718780615409083   -0.017609978145018756   -0.00044206556727443267
-0.002363977632938402   -0.017594718678361296   -0.0004419236335232808
-0.0026700005166463907   -0.015747009770280197   -0.00036414505300902313
-0.00237528496340108   -0.017597813731311397   -0.0004644094397423757
-0.0015718780615409083   -0.017609978145018756   -0.00044206556727443267
-0.0026700005166463907   -0.015747009770280197   -0.00036414505300902313
-0.0016202486402108877   -0.015761023200165314   -0.0003571501935431309
-0.0016189313007000728   -0.015771081559698395   -0.0003624015724594685
-0.0015718780615409083   -0.017609978145018756   -0.00044206556727443267
-0.0026700005166463907   -0.015747009770280197   -0.00036414505300902313
-0.0016189313007000728   -0.015771081559698395   -0.0003624015724594685
-0.00237528496340108   -0.017597813731311397   -0.0004644094397423757
-0.002396598421902091   -0.01763439606981124   -0.0005033703792417764
-0.0026708163027320433   -0.015789286224348227   -0.00041907287887843985
-0.0032281789918243344   -0.01757510686196849   -0.0005534442667670034
-0.0023869524801999934   -0.017610889271974177   -0.00048491223831284184
-0.0026708163027320433   -0.015789286224348227   -0.00041907287887843985
-0.0037549920651510056   -0.015736085838891172   -0.00046368499247982246
-0.0032281789918243344   -0.01757510686196849   -0.0005534442667670034
-0.0037534724182316584   -0.015717976417449646   -0.0004321154893308094
-0.0023869524801999934   -0.017610889271974177   -0.00048491223831284184
-0.003215396009860563   -0.01755515088217382   -0.0005160977295544437
-0.0037534724182316584   -0.015717976417449646   -0.0004321154893308094
-0.0032281789918243344   -0.01757510686196849   -0.0005534442667670034
-0.0023869524801999934   -0.017610889271974177   -0.00048491223831284184
-0.0037534724182316584   -0.015717976417449646   -0.0004321154893308094
-0.0026716149794073487   -0.015767010982223082   -0.0004027202141655301
-0.0026708163027320433   -0.015789286224348227   -0.00041907287887843985
-0.0023869524801999934   -0.017610889271974177   -0.00048491223831284184
-0.0037534724182316584   -0.015717976417449646   -0.0004321154893308094
-0.0026708163027320433   -0.015789286224348227   -0.00041907287887843985
-0.0032281789918243344   -0.01757510686196849   -0.0005534442667670034
-0.0023869524801999934   -0.017610889271974177   -0.00048491223831284184
-0.0026716149794073487   -0.015767010982223082   -0.0004027202141655301
-0.003215396009860563   -0.01755515088217382   -0.0005160977295544437
-0.00237528496340108   -0.017597813731311397   -0.0004644094397423757
-0.0026716149794073487   -0.015767010982223082   -0.0004027202141655301
-0.0037534724182316584   -0.015717976417449646   -0.0004321154893308094
-0.003215396009860563   -0.01755515088217382   -0.0005160977295544437
-0.003744058615023776   -0.015707857980995825   -0.00039887179757596504
-0.00237528496340108   -0.017597813731311397   -0.0004644094397423757
-0.0031936226081954   -0.01754540095618012   -0.0004770293313710729
-0.003744058615023776   -0.015707857980995825   -0.00039887179757596504
-0.003215396009860563   -0.01755515088217382   -0.0005160977295544437
-0.00237528496340108   -0.017597813731311397   -0.0004644094397423757
-0.003744058615023776   -0.015707857980995825   -0.00039887179757596504
-0.0026706370355091074   -0.01575296400995598   -0.0003843925094595884
-0.0026716149794073487   -0.015767010982223082   -0.0004027202141655301
-0.00237528496340108   -0.017597813731311397   -0.0004644094397423757
-0.003744058615023776   -0.015707857980995825   -0.00039887179757596504
-0.0026716149794073487   -0.015767010982223082   -0.0004027202141655301
-0.003215396009860563   -0.01755515088217382   -0.0005160977295544437
-0.00237528496340108   -0.017597813731311397   -0.0004644094397423757
-0.0026706370355091074   -0.01575296400995598   -0.0003843925094595884
-0.0031936226081954   -0.01754540095618012   -0.0004770293313710729
-0.002363977632938402   -0.017594718678361296   -0.0004419236335232808
-0.0026706370355091074   -0.01575296400995598   -0.0003843925094595884
-0.003744058615023776   -0.015707857980995825   -0.00039887179757596504
-0.0031936226081954   -0.01754540095618012   -0.0004770293313710729
-0.0037378419804860175   -0.015706521758572897   -0.00036354905695051777
-0.002363977632938402   -0.017594718678361296   -0.0004419236335232808
-0.0031761517925295627   -0.017546414585139926   -0.00043568412588875535
-0.0037378419804860175   -0.015706521758572897   -0.00036354905695051777
-0.0031936226081954   -0.01754540095618012   -0.0004770293313710729
-0.002363977632938402   -0.017594718678361296   -0.0004419236335232808
-0.0037378419804860175   -0.015706521758572897   -0.00036354905695051777
-0.0026700005166463907   -0.015747009770280197   -0.00036414505300902313
-0.0026706370355091074   -0.01575296400995598   -0.0003843925094595884
-0.002363977632938402   -0.017594718678361296   -0.0004419236335232808
-0.0037378419804860175   -0.015706521758572897   -0.00036354905695051777
-0.0026706370355091074   -0.01575296400995598   -0.0003843925094595884
-0.0031936226081954   -0.01754540095618012   -0.0004770293313710729
-0.0032281789918243344   -0.01757510686196849   -0.0005534442667670034
-0.0037549920651510056   -0.015736085838891172   -0.00046368499247982246
-0.004197567561965527   -0.0174891504673892   -0.0006006696257599528
-0.003215396009860563   -0.01755515088217382   -0.0005160977295544437
-0.0037549920651510056   -0.015736085838891172   -0.00046368499247982246
-0.004966145545055091   -0.015662150253998596   -0.0005042132856199128
-0.004197567561965527   -0.0174891504673892   -0.0006006696257599528
-0.004919188267758444   -0.015644229133464364   -0.00045573894607572733
-0.003215396009860563   -0.01755515088217382   -0.0005160977295544437
-0.0041302745465216055   -0.017468091542695335   -0.0005420875624916768
-0.004919188267758444   -0.015644229133464364   -0.00045573894607572733
-0.004197567561965527   -0.0174891504673892   -0.0006006696257599528
-0.003215396009860563   -0.01755515088217382   -0.0005160977295544437
-0.004919188267758444   -0.015644229133464364   -0.00045573894607572733
-0.0037534724182316584   -0.015717976417449646   -0.0004321154893308094
-0.0037549920651510056   -0.015736085838891172   -0.00046368499247982246
-0.003215396009860563   -0.01755515088217382   -0.0005160977295544437
-0.004919188267758444   -0.015644229133464364   -0.00045573894607572733
-0.0037549920651510056   -0.015736085838891172   -0.00046368499247982246
-0.004197567561965527   -0.0174891504673892   -0.0006006696257599528
-0.003215396009860563   -0.01755515088217382   -0.0005160977295544437
-0.0037534724182316584   -0.015717976417449646   -0.0004321154893308094
-0.0041302745465216055   -0.017468091542695335   -0.0005420875624916768
-0.0031936226081954   -0.01754540095618012   -0.0004770293313710729
-0.0037534724182316584   -0.015717976417449646   -0.0004321154893308094
-0.004919188267758444   -0.015644229133464364   -0.00045573894607572733
-0.0041302745465216055   -0.017468091542695335   -0.0005420875624916768
-0.0048792493425868465   -0.015635553219362303   -0.0004044300156102654
-0.0031936226081954   -0.01754540095618012   -0.0004770293313710729
-0.004072214905734206   -0.0174592461958336   -0.00048064118192302213
-0.0048792493425868465   -0.015635553219362303   -0.0004044300156102654
-0.0041302745465216055   -0.017468091542695335   -0.0005420875624916768
-0.0031936226081954   -0.01754540095618012   -0.0004770293313710729
-0.0048792493425868465   -0.015635553219362303   -0.0004044300156102654
-0.003744058615023776   -0.015707857980995825   -0.00039887179757596504
-0.0037534724182316584   -0.015717976417449646   -0.0004321154893308094
-0.0031936226081954   -0.01754540095618012   -0.0004770293313710729
-0.0048792493425868465   -0.015635553219362303   -0.0004044300156102654
-0.0037534724182316584   -0.015717976417449646   -0.0004321154893308094
-0.0041302745465216055   -0.017468091542695335   -0.0005420875624916768
-0.0031936226081954   -0.01754540095618012   -0.0004770293313710729
-0.003744058615023776   -0.015707857980995825   -0.00039887179757596504
-0.004072214905734206   -0.0174592461958336   -0.00048064118192302213
-0.0031761517925295627   -0.017546414585139926   -0.00043568412588875535
-0.003744058615023776   -0.015707857980995825   -0.00039887179757596504
-0.0048792493425868465   -0.015635553219362303   -0.0004044300156102654
-0.004072214905734206   -0.0174592461958336   -0.00048064118192302213
-0.004821913864701243   -0.01564072509024744   -0.0003506847690995622
-0.0031761517925295627   -0.017546414585139926   -0.00043568412588875535
-0.003994141117691783   -0.017466766799142285   -0.00041671723407916896
-0.004821913864701243   -0.01564072509024744   -0.0003506847690995622
-0.004072214905734206   -0.0174592461958336   -0.00048064118192302213
-0.0031761517925295627   -0.017546414585139926   -0.00043568412588875535
-0.004821913864701243   -0.01564072509024744   -0.0003506847690995622
-0.0037378419804860175   -0.015706521758572897   -0.00036354905695051777
-0.003744058615023776   -0.015707857980995825   -0.00039887179757596504
-0.0031761517925295627   -0.017546414585139926   -0.00043568412588875535
-0.004821913864701243   -0.01564072509024744   -0.0003506847690995622
-0.003744058615023776   -0.015707857980995825   -0.00039887179757596504
-0.004072214905734206   -0.0174592461958336   -0.00048064118192302213
0.0005590700859823643   -0.015787115699582847   -0.00023458173196312678
0.0009277296188741549   -0.013577197292207147   -0.00015661786107521795
-0.0005496842669571193   -0.015815689596534187   -0.00030750749903124644
0.0005926207857956768   -0.015749462931140268   -0.00026842329079260836
0.0009277296188741549   -0.013577197292207147   -0.00015661786107521795
-0.00039625431731142325   -0.01359187238694712   -0.0002251735093008175
-0.0005496842669571193   -0.015815689596534187   -0.00030750749903124644
-0.0004019102266758945   -0.013560933246457598   -0.00023294456040395543
0.0005926207857956768   -0.015749462931140268   -0.00026842329079260836
-0.0005464095769074773   -0.01578393554337136   -0.00032139708632004363
-0.0004019102266758945   -0.013560933246457598   -0.00023294456040395543
-0.0005496842669571193   -0.015815689596534187   -0.00030750749903124644
0.0005926207857956768   -0.015749462931140268   -0.00026842329079260836
-0.0004019102266758945   -0.013560933246457598   -0.00023294456040395543
0.0009421512214488031   -0.013540912970342456   -0.00017934047217917936
0.0009277296188741549   -0.013577197292207147   -0.00015661786107521795
0.0005926207857956768   -0.015749462931140268   -0.00026842329079260836
-0.0004019102266758945   -0.013560933246457598   -0.00023294456040395543
0.0009277296188741549   -0.013577197292207147   -0.00015661786107521795
-0.0005496842669571193   -0.015815689596534187   -0.00030750749903124644
0.0005926207857956768   -0.015749462931140268   -0.00026842329079260836
0.0009421512214488031   -0.013540912970342456   -0.00017934047217917936
-0.0005464095769074773   -0.01578393554337136   -0.00032139708632004363
0.0006143292519652114   -0.01572559185484595   -0.0002994040436289446
0.0009421512214488031   -0.013540912970342456   -0.00017934047217917936
-0.0004019102266758945   -0.013560933246457598   -0.00023294456040395543
-0.0005464095769074773   -0.01578393554337136   -0.00032139708632004363
-0.0004077848445051897   -0.01353709262399869   -0.00023888417973363715
0.0006143292519652114   -0.01572559185484595   -0.0002994040436289446
-0.000542195038027846   -0.015761609256809875   -0.0003332667118757241
-0.0004077848445051897   -0.01353709262399869   -0.00023888417973363715
-0.0005464095769074773   -0.01578393554337136   -0.00032139708632004363
0.0006143292519652114   -0.01572559185484595   -0.0002994040436289446
-0.0004077848445051897   -0.01353709262399869   -0.00023888417973363715
0.0009473783647127181   -0.013515269202630294   -0.00019935425926970627
0.0009421512214488031   -0.013540912970342456   -0.00017934047217917936
0.0006143292519652114   -0.01572559185484595   -0.0002994040436289446
-0.0004077848445051897   -0.01353709262399869   -0.00023888417973363715
0.0009421512214488031   -0.013540912970342456   -0.00017934047217917936
-0.0005464095769074773   -0.01578393554337136   -0.00032139708632004363
0.0006143292519652114   -0.01572559185484595   -0.0002994040436289446
0.0009473783647127181   -0.013515269202630294   -0.00019935425926970627
-0.000542195038027846   -0.015761609256809875   -0.0003332667118757241
0.0006370142951978548   -0.015710640369005005   -0.0003275897809739866
0.0009473783647127181   -0.013515269202630294   -0.00019935425926970627
-0.0004077848445051897   -0.01353709262399869   -0.00023888417973363715
-0.000542195038027846   -0.015761609256809875   -0.0003332667118757241
-0.0004183093248846946   -0.013519554905778499   -0.00024305272370735726
0.0006370142951978548   -0.015710640369005005   -0.0003275897809739866
-0.0005436507682996439   -0.015747957438283354   -0.000343262666615473
-0.0004183093248846946   -0.013519554905778499   -0.00024305272370735726
-0.000542195038027846   -0.015761609256809875   -0.0003332667118757241
0.0006370142951978548   -0.015710640369005005   -0.0003275897809739866
-0.0004183093248846946   -0.013519554905778499   -0.00024305272370735726
0.0009512676052192329   -0.013495466537592152   -0.00021679095663758907
0.0009473783647127181   -0.013515269202630294   -0.00019935425926970627
0.0006370142951978548   -0.015710640369005005   -0.0003275897809739866
-0.0004183093248846946   -0.013519554905778499   -0.00024305272370735726
0.0009473783647127181   -0.013515269202630294   -0.00019935425926970627
-0.000542195038027846   -0.015761609256809875   -0.0003332667118757241
-0.0005496842669571193   -0.015815689596534187   -0.00030750749903124644
-0.00039625431731142325   -0.01359187238694712   -0.0002251735093008175
-0.0016190394403364668   -0.01581613595313243   -0.0003670748460588575
-0.0005464095769074773   -0.01578393554337136   -0.00032139708632004363
-0.00039625431731142325   -0.01359187238694712   -0.0002251735093008175
-0.001667032738870666   -0.013585161171546992   -0.0002809393410491114
-0.0016190394403364668   -0.01581613595313243   -0.0003670748460588575
-0.001675251060717253   -0.013559567886872636   -0.0002775365556351167
-0.0005464095769074773   -0.01578393554337136   -0.00032139708632004363
-0.001619026100130853   -0.015789458327050022   -0.00036574767523005013
-0.001675251060717253   -0.013559567886872636   -0.0002775365556351167
-0.0016190394403364668   -0.01581613595313243   -0.0003670748460588575
-0.0005464095769074773   -0.01578393554337136   -0.00032139708632004363
-0.001675251060717253   -0.013559567886872636   -0.0002775365556351167
-0.0004019102266758945   -0.013560933246457598   -0.00023294456040395543
-0.00039625431731142325   -0.01359187238694712   -0.0002251735093008175
-0.0005464095769074773   -0.01578393554337136   -0.00032139708632004363
-0.001675251060717253   -0.013559567886872636   -0.0002775365556351167
-0.00039625431731142325   -0.01359187238694712   -0.0002251735093008175
-0.0016190394403364668   -0.01581613595313243   -0.0003670748460588575
-0.0005464095769074773   -0.01578393554337136   -0.00032139708632004363
-0.0004019102266758945   -0.013560933246457598   -0.00023294456040395543
-0.001619026100130853   -0.015789458327050022   -0.00036574767523005013
-0.000542195038027846   -0.015761609256809875   -0.0003332667118757241
-0.0004019102266758945   -0.013560933246457598   -0.00023294456040395543
-0.001675251060717253   -0.013559567886872636   -0.0002775365556351167
-0.001619026100130853   -0.015789458327050022   -0.00036574767523005013
-0.00168358575590151   -0.01354005252057032   -0.000272241780521968
-0.000542195038027846   -0.015761609256809875   -0.0003332667118757241
-0.0016189313007000728   -0.015771081559698395   -0.0003624015724594685
-0.00168358575590151   -0.01354005252057032   -0.000272241780521968
-0.001619026100130853   -0.015789458327050022   -0.00036574767523005013
-0.000542195038027846   -0.015761609256809875   -0.0003332667118757241
-0.00168358575590151   -0.01354005252057032   -0.000272241780521968
-0.0004077848445051897   -0.01353709262399869   -0.00023888417973363715
-0.0004019102266758945   -0.013560933246457598   -0.00023294456040395543
-0.000542195038027846   -0.015761609256809875   -0.0003332667118757241
-0.00168358575590151   -0.01354005252057032   -0.000272241780521968
-0.0004019102266758945   -0.013560933246457598   -0.00023294456040395543
-0.001619026100130853   -0.015789458327050022   -0.00036574767523005013
-0.000542195038027846   -0.015761609256809875   -0.0003332667118757241
-0.0004077848445051897   -0.01353709262399869   -0.00023888417973363715
-0.0016189313007000728   -0.015771081559698395   -0.0003624015724594685
-0.0005436507682996439   -0.015747957438283354   -0.000343262666615473
-0.0004077848445051897   -0.01353709262399869   -0.00023888417973363715
-0.00168358575590151   -0.01354005252057032   -0.000272241780521968
-0.0016189313007000728   -0.015771081559698395   -0.0003624015724594685
-0.0016932718210601735   -0.013526714873874027   -0.0002651545385688116
-0.0005436507682996439   -0.015747957438283354   -0.000343262666615473
-0.0016202486402108877   -0.015761023200165314   -0.0003571501935431309
-0.0016932718210601735   -0.013526714873874027   -0.0002651545385688116
-0.0016189313007000728   -0.015771081559698395   -0.0003624015724594685
-0.0005436507682996439   -0.015747957438283354   -0.000343262666615473
-0.0016932718210601735   -0.013526714873874027   -0.0002651545385688116
-0.0004183093248846946   -0.013519554905778499   -0.00024305272370735726
-0.0004077848445051897   -0.01353709262399869   -0.00023888417973363715
-0.0005436507682996439   -0.015747957438283354   -0.000343262666615473
-0.0016932718210601735   -0.013526714873874027   -0.0002651545385688116
-0.0004077848445051897   -0.01353709262399869   -0.00023888417973363715
-0.0016189313007000728   -0.015771081559698395   -0.0003624015724594685
-0.0016190394403364668   -0.01581613595313243   -0.0003670748460588575
-0.001667032738870666   -0.013585161171546992   -0.0002809393410491114
-0.0026708163027320433   -0.015789286224348227   -0.00041907287887843985
-0.001619026100130853   -0.015789458327050022   -0.00036574767523005013
-0.001667032738870666   -0.013585161171546992   -0.0002809393410491114
-0.0029167086346074092   -0.013558571459129158   -0.00032833760221894333
-0.0026708163027320433   -0.015789286224348227   -0.00041907287887843985
-0.002925657343535295   -0.01353778124857124   -0.00031383164908168
-0.001619026100130853   -0.015789458327050022   -0.00036574767523005013
-0.0026716149794073487   -0.015767010982223082   -0.0004027202141655301
-0.002925657343535295   -0.01353778124857124   -0.00031383164908168
-0.0026708163027320433   -0.015789286224348227   -0.00041907287887843985
-0.001619026100130853   -0.015789458327050022   -0.00036574767523005013
-0.002925657343535295   -0.01353778124857124   -0.00031383164908168
-0.001675251060717253   -0.013559567886872636   -0.0002775365556351167
-0.001667032738870666   -0.013585161171546992   -0.0002809393410491114
-0.001619026100130853   -0.015789458327050022   -0.00036574767523005013
-0.002925657343535295   -0.01353778124857124   -0.00031383164908168
-0.001667032738870666   -0.013585161171546992   -0.0002809393410491114
-0.0026708163027320433   -0.015789286224348227   -0.00041907287887843985
-0.001619026100130853   -0.015789458327050022   -0.00036574767523005013
-0.001675251060717253   -0.013559567886872636   -0.0002775365556351167
-0.0026716149794073487   -0.015767010982223082   -0.0004027202141655301
-0.0016189313007000728   -0.015771081559698395   -0.0003624015724594685
-0.001675251060717253   -0.013559567886872636   -0.0002775365556351167
-0.002925657343535295   -0.01353778124857124   -0.00031383164908168
-0.0026716149794073487   -0.015767010982223082   -0.0004027202141655301
-0.0029330137950319946   -0.013523012131160772   -0.00029747112983716885
-0.0016189313007000728   -0.015771081559698395   -0.0003624015724594685
-0.0026706370355091074   -0.01575296400995598   -0.0003843925094595884
-0.0029330137950319946   -0.013523012131160772   -0.00029747112983716885
-0.0026716149794073487   -0.015767010982223082   -0.0004027202141655301
-0.0016189313007000728   -0.015771081559698395   -0.0003624015724594685
-0.0029330137950319946   -0.013523012131160772   -0.00029747112983716885
-0.00168358575590151   -0.01354005252057032   -0.000272241780521968
-0.001675251060717253   -0.013559567886872636   -0.0002775365556351167
-0.0016189313007000728   -0.015771081559698395   -0.0003624015724594685
-0.0029330137950319946   -0.013523012131160772   -0.00029747112983716885
-0.001675251060717253   -0.013559567886872636   -0.0002775365556351167
-0.0026716149794073487   -0.015767010982223082   -0.0004027202141655301
-0.0016189313007000728   -0.015771081559698395   -0.0003624015724594685
-0.00168358575590151   -0.01354005252057032   -0.000272241780521968
-0.0026706370355091074   -0.01575296400995598   -0.0003843925094595884
-0.0016202486402108877   -0.015761023200165314   -0.0003571501935431309
-0.00168358575590151   -0.01354005252057032   -0.000272241780521968
-0.0029330137950319946   -0.013523012131160772   -0.00029747112983716885
-0.0026706370355091074   -0.01575296400995598   -0.0003843925094595884
-0.002940603016147761   -0.013514235969612735   -0.00027930800889600414
-0.0016202486402108877   -0.015761023200165314   -0.0003571501935431309
-0.0026700005166463907   -0.015747009770280197   -0.00036414505300902313
-0.002940603016147761   -0.013514235969612735   -0.00027930800889600414
-0.0026706370355091074   -0.01575296400995598   -0.0003843925094595884
-0.0016202486402108877   -0.015761023200165314   -0.0003571501935431309
-0.002940603016147761   -0.013514235969612735   -0.00027930800889600414
-0.0016932718210601735   -0.013526714873874027   -0.0002651545385688116
-0.00168358575590151   -0.01354005252057032   -0.000272241780521968
-0.0016202486402108877   -0.015761023200165314   -0.0003571501935431309
-0.002940603016147761   -0.013514235969612735   -0.00027930800889600414
-0.00168358575590151   -0.01354005252057032   -0.000272241780521968
-0.0026706370355091074   -0.01575296400995598   -0.0003843925094595884
-0.0026708163027320433   -0.015789286224348227   -0.00041907287887843985
-0.0029167086346074092   -0.013558571459129158   -0.00032833760221894333
-0.0037549920651510056   -0.015736085838891172   -0.00046368499247982246
-0.0026716149794073487   -0.015767010982223082   -0.0004027202141655301
-0.0029167086346074092   -0.013558571459129158   -0.00032833760221894333
-0.0041960626868931   -0.013512601202359696   -0.0003676189891768546
-0.0037549920651510056   -0.015736085838891172   -0.00046368499247982246
-0.004203319625755995   -0.013496464890071842   -0.00034185073047144385
-0.0026716149794073487   -0.015767010982223082   -0.0004027202141655301
-0.0037534724182316584   -0.015717976417449646   -0.0004321154893308094
-0.004203319625755995   -0.013496464890071842   -0.00034185073047144385
-0.0037549920651510056   -0.015736085838891172   -0.00046368499247982246
-0.0026716149794073487   -0.015767010982223082   -0.0004027202141655301
-0.004203319625755995   -0.013496464890071842   -0.00034185073047144385
-0.002925657343535295   -0.01353778124857124   -0.00031383164908168
-0.0029167086346074092   -0.013558571459129158   -0.00032833760221894333
-0.0026716149794073487   -0.015767010982223082   -0.0004027202141655301
-0.004203319625755995   -0.013496464890071842   -0.00034185073047144385
-0.0029167086346074092   -0.013558571459129158   -0.00032833760221894333
-0.0037549920651510056   -0.015736085838891172   -0.00046368499247982246
-0.0026716149794073487   -0.015767010982223082   -0.0004027202141655301
-0.002925657343535295   -0.01353778124857124   -0.00031383164908168
-0.0037534724182316584   -0.015717976417449646   -0.0004321154893308094
-0.0026706370355091074   -0.01575296400995598   -0.0003843925094595884
-0.002925657343535295   -0.01353778124857124   -0.00031383164908168
-0.004203319625755995   -0.013496464890071842   -0.00034185073047144385
-0.0037534724182316584   -0.015717976417449646   -0.0004321154893308094
-0.004203751691713877   -0.013486042546604243   -0.00031448317227674946
-0.0026706370355091074   -0.01575296400995598   -0.0003843925094595884
-0.003744058615023776   -0.015707857980995825   -0.00039887179757596504
-0.004203751691713877   -0.013486042546604243   -0.00031448317227674946
-0.0037534724182316584   -0.015717976417449646   -0.0004321154893308094
-0.0026706370355091074   -0.01575296400995598   -0.0003843925094595884
-0.004203751691713877   -0.013486042546604243   -0.00031448317227674946
-0.0029330137950319946   -0.013523012131160772   -0.00029747112983716885
-0.002925657343535295   -0.01353778124857124   -0.00031383164908168
-0.0026706370355091074   -0.01575296400995598   -0.0003843925094595884
-0.004203751691713877   -0.013486042546604243   -0.00031448317227674946
-0.002925657343535295   -0.01353778124857124   -0.00031383164908168
-0.0037534724182316584   -0.015717976417449646   -0.0004321154893308094
-0.0026706370355091074   -0.01575296400995598   -0.0003843925094595884
-0.0029330137950319946   -0.013523012131160772   -0.00029747112983716885
-0.003744058615023776   -0.015707857980995825   -0.00039887179757596504
-0.0026700005166463907   -0.015747009770280197   -0.00036414505300902313
-0.0029330137950319946   -0.013523012131160772   -0.00029747112983716885
-0.004203751691713877   -0.013486042546604243   -0.00031448317227674946
-0.003744058615023776   -0.015707857980995825   -0.00039887179757596504
-0.004206238604255644   -0.01348216549465812   -0.00028517335390399417
-0.0026700005166463907   -0.015747009770280197   -0.00036414505300902313
-0.0037378419804860175   -0.015706521758572897   -0.00036354905695051777
-0.004206238604255644   -0.01348216549465812   -0.00028517335390399417
-0.003744058615023776   -0.015707857980995825   -0.00039887179757596504
-0.0026700005166463907   -0.015747009770280197   -0.00036414505300902313
-0.004206238604255644   -0.01348216549465812   -0.00028517335390399417
-0.002940603016147761   -0.013514235969612735   -0.00027930800889600414
-0.0029330137950319946   -0.013523012131160772   -0.00029747112983716885
-0.0026700005166463907   -0.015747009770280197   -0.00036414505300902313
-0.004206238604255644   -0.01348216549465812   -0.00028517335390399417
-0.0029330137950319946   -0.013523012131160772   -0.00029747112983716885
-0.003744058615023776   -0.015707857980995825   -0.00039887179757596504
-0.0037549920651510056   -0.015736085838891172   -0.00046368499247982246
-0.0041960626868931   -0.013512601202359696   -0.0003676189891768546
-0.004966145545055091   -0.015662150253998596   -0.0005042132856199128
-0.0037534724182316584   -0.015717976417449646   -0.0004321154893308094
-0.0041960626868931   -0.013512601202359696   -0.0003676189891768546
-0.005592020742752811   -0.013451709739449253   -0.00040120740792808215
-0.004966145545055091   -0.015662150253998596   -0.0005042132856199128
-0.005563543844058136   -0.013436963025502083   -0.0003633459380382479
-0.0037534724182316584   -0.015717976417449646   -0.0004321154893308094
-0.004919188267758444   -0.015644229133464364   -0.00045573894607572733
-0.005563543844058136   -0.013436963025502083   -0.0003633459380382479
-0.004966145545055091   -0.015662150253998596   -0.0005042132856199128
-0.0037534724182316584   -0.015717976417449646   -0.0004321154893308094
-0.005563543844058136   -0.013436963025502083   -0.0003633459380382479
-0.004203319625755995   -0.013496464890071842   -0.00034185073047144385
-0.0041960626868931   -0.013512601202359696   -0.0003676189891768546
-0.0037534724182316584   -0.015717976417449646   -0.0004321154893308094
-0.005563543844058136   -0.013436963025502083   -0.0003633459380382479
-0.0041960626868931   -0.013512601202359696   -0.0003676189891768546
-0.004966145545055091   -0.015662150253998596   -0.0005042132856199128
-0.0037534724182316584   -0.015717976417449646   -0.0004321154893308094
-0.004203319625755995   -0.013496464890071842   -0.00034185073047144385
-0.004919188267758444   -0.015644229133464364   -0.00045573894607572733
-0.003744058615023776   -0.015707857980995825   -0.00039887179757596504
-0.004203319625755995   -0.013496464890071842   -0.00034185073047144385
-0.005563543844058136   -0.013436963025502083   -0.0003633459380382479
-0.004919188267758444   -0.015644229133464364   -0.00045573894607572733
-0.005539642365694074   -0.013428392450876467   -0.00032268002097950806
-0.003744058615023776   -0.015707857980995825   -0.00039887179757596504
-0.0048792493425868465   -0.015635553219362303   -0.0004044300156102654
-0.005539642365694074   -0.013428392450876467   -0.00032268002097950806
-0.004919188267758444   -0.015644229133464364   -0.00045573894607572733
-0.003744058615023776   -0.015707857980995825   -0.00039887179757596504
-0.005539642365694074   -0.013428392450876467   -0.00032268002097950806
-0.004203751691713877   -0.013486042546604243   -0.00031448317227674946
-0.004203319625755995   -0.013496464890071842   -0.00034185073047144385
-0.003744058615023776   -0.015707857980995825   -0.00039887179757596504
-0.005539642365694074   -0.013428392450876467   -0.00032268002097950806
-0.004203319625755995   -0.013496464890071842   -0.00034185073047144385
-0.004919188267758444   -0.015644229133464364   -0.00045573894607572733
-0.003744058615023776   -0.015707857980995825   -0.00039887179757596504
-0.004203751691713877   -0.013486042546604243   -0.00031448317227674946
-0.0048792493425868465   -0.015635553219362303   -0.0004044300156102654
-0.0037378419804860175   -0.015706521758572897   -0.00036354905695051777
-0.004203751691713877   -0.013486042546604243   -0.00031448317227674946
-0.005539642365694074   -0.013428392450876467   -0.00032268002097950806
-0.0048792493425868465   -0.015635553219362303   -0.0004044300156102654
-0.005500834963745627   -0.013430848931474174   -0.0002795629644806138
-0.0037378419804860175   -0.015706521758572897   -0.00036354905695051777
-0.004821913864701243   -0.01564072509024744   -0.0003506847690995622
-0.005500834963745627   -0.013430848931474174   -0.0002795629644806138
-0.0048792493425868465   -0.015635553219362303   -0.0004044300156102654
-0.0037378419804860175   -0.015706521758572897   -0.00036354905695051777
-0.005500834963745627   -0.013430848931474174   -0.0002795629644806138
-0.004206238604255644   -0.01348216549465812   -0.00028517335390399417
-0.004203751691713877   -0.013486042546604243   -0.00031448317227674946
-0.0037378419804860175   -0.015706521758572897   -0.00036354905695051777
-0.005500834963745627   -0.013430848931474174   -0.0002795629644806138
-0.004203751691713877   -0.013486042546604243   -0.00031448317227674946
-0.0048792493425868465   -0.015635553219362303   -0.0004044300156102654
0.0009277296188741549   -0.013577197292207147   -0.00015661786107521795
0.001140298342981039   -0.011081287730527207   -8.083485146724974e-05
-0.00039625431731142325   -0.01359187238694712   -0.0002251735093008175
0.0009421512214488031   -0.013540912970342456   -0.00017934047217917936
0.001140298342981039   -0.011081287730527207   -8.083485146724974e-05
-0.00033762897178254097   -0.01108199990055775   -0.0001441774681554504
-0.00039625431731142325   -0.01359187238694712   -0.0002251735093008175
-0.0003500902882146564   -0.011052172305774315   -0.00014565197580867974
0.0009421512214488031   -0.013540912970342456   -0.00017934047217917936
-0.0004019102266758945   -0.013560933246457598   -0.00023294456040395543
-0.0003500902882146564   -0.011052172305774315   -0.00014565197580867974
-0.00039625431731142325   -0.01359187238694712   -0.0002251735093008175
0.0009421512214488031   -0.013540912970342456   -0.00017934047217917936
-0.0003500902882146564   -0.011052172305774315   -0.00014565197580867974
0.0011378084497106842   -0.011046625098191855   -9.238690397735552e-05
0.001140298342981039   -0.011081287730527207   -8.083485146724974e-05
0.0009421512214488031   -0.013540912970342456   -0.00017934047217917936
-0.0003500902882146564   -0.011052172305774315   -0.00014565197580867974
0.001140298342981039   -0.011081287730527207   -8.083485146724974e-05
-0.00039625431731142325   -0.01359187238694712   -0.0002251735093008175
0.0009421512214488031   -0.013540912970342456   -0.00017934047217917936
0.0011378084497106842   -0.011046625098191855   -9.238690397735552e-05
-0.0004019102266758945   -0.013560933246457598   -0.00023294456040395543
0.0009473783647127181   -0.013515269202630294   -0.00019935425926970627
0.0011378084497106842   -0.011046625098191855   -9.238690397735552e-05
-0.0003500902882146564   -0.011052172305774315   -0.00014565197580867974
-0.0004019102266758945   -0.013560933246457598   -0.00023294456040395543
-0.00036395116064686316   -0.011027036389218897   -0.0001454746467544727
0.0009473783647127181   -0.013515269202630294   -0.00019935425926970627
-0.0004077848445051897   -0.01353709262399869   -0.00023888417973363715
-0.00036395116064686316   -0.011027036389218897   -0.0001454746467544727
-0.0004019102266758945   -0.013560933246457598   -0.00023294456040395543
0.0009473783647127181   -0.013515269202630294   -0.00019935425926970627
-0.00036395116064686316   -0.011027036389218897   -0.0001454746467544727
0.0011286533506796434   -0.011019456916728853   -0.0001012911538922259
0.0011378084497106842   -0.011046625098191855   -9.238690397735552e-05
0.0009473783647127181   -0.013515269202630294   -0.00019935425926970627
-0.00036395116064686316   -0.011027036389218897   -0.0001454746467544727
0.0011378084497106842   -0.011046625098191855   -9.238690397735552e-05
-0.0004019102266758945   -0.013560933246457598   -0.00023294456040395543
0.0009473783647127181   -0.013515269202630294   -0.00019935425926970627
0.0011286533506796434   -0.011019456916728853   -0.0001012911538922259
-0.0004077848445051897   -0.01353709262399869   -0.00023888417973363715
0.0009512676052192329   -0.013495466537592152   -0.00021679095663758907
0.0011286533506796434   -0.011019456916728853   -0.0001012911538922259
-0.00036395116064686316   -0.011027036389218897   -0.0001454746467544727
-0.0004077848445051897   -0.01353709262399869   -0.00023888417973363715
-0.00038142375818677024   -0.011005897482530285   -0.0001435803563418542
0.0009512676052192329   -0.013495466537592152   -0.00021679095663758907
-0.0004183093248846946   -0.013519554905778499   -0.00024305272370735726
-0.00038142375818677024   -0.011005897482530285   -0.0001435803563418542
-0.0004077848445051897   -0.01353709262399869   -0.00023888417973363715
0.0009512676052192329   -0.013495466537592152   -0.00021679095663758907
-0.00038142375818677024   -0.011005897482530285   -0.0001435803563418542
0.0011156099268225916   -0.010995031970597565   -0.00010773279428892279
0.0011286533506796434   -0.011019456916728853   -0.0001012911538922259
0.0009512676052192329   -0.013495466537592152   -0.00021679095663758907
-0.00038142375818677024   -0.011005897482530285   -0.0001435803563418542
0.0011286533506796434   -0.011019456916728853   -0.0001012911538922259
-0.0004077848445051897   -0.01353709262399869   -0.00023888417973363715
-0.00039625431731142325   -0.01359187238694712   -0.0002251735093008175
-0.00033762897178254097   -0.01108199990055775   -0.0001441774681554504
-0.001667032738870666   -0.013585161171546992   -0.0002809393410491114
-0.0004019102266758945   -0.013560933246457598   -0.00023294456040395543
-0.00033762897178254097   -0.01108199990055775   -0.0001441774681554504
-0.0017481438759661926   -0.011068858912737345   -0.00019567276270354245
-0.001667032738870666   -0.013585161171546992   -0.0002809393410491114
-0.0017623706858461699   -0.011044425187658809   -0.00018998237615102978
-0.0004019102266758945   -0.013560933246457598   -0.00023294456040395543
-0.001675251060717253   -0.013559567886872636   -0.0002775365556351167
-0.0017623706858461699   -0.011044425187658809   -0.00018998237615102978
-0.001667032738870666   -0.013585161171546992   -0.0002809393410491114
-0.0004019102266758945   -0.013560933246457598   -0.00023294456040395543
-0.0017623706858461699   -0.011044425187658809   -0.00018998237615102978
-0.0003500902882146564   -0.011052172305774315   -0.00014565197580867974
-0.00033762897178254097   -0.01108199990055775   -0.0001441774681554504
-0.0004019102266758945   -0.013560933246457598   -0.00023294456040395543
-0.0017623706858461699   -0.011044425187658809   -0.00018998237615102978
-0.00033762897178254097   -0.01108199990055775   -0.0001441774681554504
-0.001667032738870666   -0.013585161171546992   -0.0002809393410491114
-0.0004019102266758945   -0.013560933246457598   -0.00023294456040395543
-0.0003500902882146564   -0.011052172305774315   -0.00014565197580867974
-0.001675251060717253   -0.013559567886872636   -0.0002775365556351167
-0.0004077848445051897   -0.01353709262399869   -0.00023888417973363715
-0.0003500902882146564   -0.011052172305774315   -0.00014565197580867974
-0.0017623706858461699   -0.011044425187658809   -0.00018998237615102978
-0.001675251060717253   -0.013559567886872636   -0.0002775365556351167
-0.001776901966230661   -0.011023808874326873   -0.00018256429850506528
-0.0004077848445051897   -0.01353709262399869   -0.00023888417973363715
-0.00168358575590151   -0.01354005252057032   -0.000272241780521968
-0.001776901966230661   -0.011023808874326873   -0.00018256429850506528
-0.001675251060717253   -0.013559567886872636   -0.0002775365556351167
-0.0004077848445051897   -0.01353709262399869   -0.00023888417973363715
-0.001776901966230661   -0.011023808874326873   -0.00018256429850506528
-0.00036395116064686316   -0.011027036389218897   -0.0001454746467544727
-0.0003500902882146564   -0.011052172305774315   -0.00014565197580867974
-0.0004077848445051897   -0.01353709262399869   -0.00023888417973363715
-0.001776901966230661   -0.011023808874326873   -0.00018256429850506528
-0.0003500902882146564   -0.011052172305774315   -0.00014565197580867974
-0.001675251060717253   -0.013559567886872636   -0.0002775365556351167
-0.0004077848445051897   -0.01353709262399869   -0.00023888417973363715
-0.00036395116064686316   -0.011027036389218897   -0.0001454746467544727
-0.00168358575590151   -0.01354005252057032   -0.000272241780521968
-0.0004183093248846946   -0.013519554905778499   -0.00024305272370735726
-0.00036395116064686316   -0.011027036389218897   -0.0001454746467544727
-0.001776901966230661   -0.011023808874326873   -0.00018256429850506528
-0.00168358575590151   -0.01354005252057032   -0.000272241780521968
-0.0017927066073054187   -0.011007225405640053   -0.000173507609316601
-0.0004183093248846946   -0.013519554905778499   -0.00024305272370735726
-0.0016932718210601735   -0.013526714873874027   -0.0002651545385688116
-0.0017927066073054187   -0.011007225405640053   -0.000173507609316601
-0.00168358575590151   -0.01354005252057032   -0.000272241780521968
-0.0004183093248846946   -0.013519554905778499   -0.00024305272370735726
-0.0017927066073054187   -0.011007225405640053   -0.000173507609316601
-0.00038142375818677024   -0.011005897482530285   -0.0001435803563418542
-0.00036395116064686316   -0.011027036389218897   -0.0001454746467544727
-0.0004183093248846946   -0.013519554905778499   -0.00024305272370735726
-0.0017927066073054187   -0.011007225405640053   -0.000173507609316601
-0.00036395116064686316   -0.011027036389218897   -0.0001454746467544727
-0.00168358575590151   -0.01354005252057032   -0.000272241780521968
-0.001667032738870666   -0.013585161171546992   -0.0002809393410491114
-0.0017481438759661926   -0.011068858912737345   -0.00019567276270354245
-0.0029167086346074092   -0.013558571459129158   -0.00032833760221894333
-0.001675251060717253   -0.013559567886872636   -0.0002775365556351167
-0.0017481438759661926   -0.011068858912737345   -0.00019567276270354245
-0.003134850842928718   -0.01104362898590086   -0.00023867983848026265
-0.0029167086346074092   -0.013558571459129158   -0.00032833760221894333
-0.0031495914936254168   -0.011024115230697023   -0.00022586160915506398
-0.001675251060717253   -0.013559567886872636   -0.0002775365556351167
-0.002925657343535295   -0.01353778124857124   -0.00031383164908168
-0.0031495914936254168   -0.011024115230697023   -0.00022586160915506398
-0.0029167086346074092   -0.013558571459129158   -0.00032833760221894333
-0.001675251060717253   -0.013559567886872636   -0.0002775365556351167
-0.0031495914936254168   -0.011024115230697023   -0.00022586160915506398
-0.0017623706858461699   -0.011044425187658809   -0.00018998237615102978
-0.0017481438759661926   -0.011068858912737345   -0.00019567276270354245
-0.001675251060717253   -0.013559567886872636   -0.0002775365556351167
-0.0031495914936254168   -0.011024115230697023   -0.00022586160915506398
-0.0017481438759661926   -0.011068858912737345   -0.00019567276270354245
-0.0029167086346074092   -0.013558571459129158   -0.00032833760221894333
-0.001675251060717253   -0.013559567886872636   -0.0002775365556351167
-0.0017623706858461699   -0.011044425187658809   -0.00018998237615102978
-0.002925657343535295   -0.01353778124857124   -0.00031383164908168
-0.00168358575590151   -0.01354005252057032   -0.000272241780521968
-0.0017623706858461699   -0.011044425187658809   -0.00018998237615102978
-0.0031495914936254168   -0.011024115230697023   -0.00022586160915506398
-0.002925657343535295   -0.01353778124857124   -0.00031383164908168
-0.0031629194078128206   -0.011008392139661293   -0.00021135853550075637
-0.00168358575590151   -0.01354005252057032   -0.000272241780521968
-0.0029330137950319946   -0.013523012131160772   -0.00029747112983716885
-0.0031629194078128206   -0.011008392139661293   -0.00021135853550075637
-0.002925657343535295   -0.01353778124857124   -0.00031383164908168
-0.00168358575590151   -0.01354005252057032   -0.000272241780521968
-0.0031629194078128206   -0.011008392139661293   -0.00021135853550075637
-0.001776901966230661   -0.011023808874326873   -0.00018256429850506528
-0.0017623706858461699   -0.011044425187658809   -0.00018998237615102978
-0.00168358575590151   -0.01354005252057032   -0.000272241780521968
-0.0031629194078128206   -0.011008392139661293   -0.00021135853550075637
-0.0017623706858461699   -0.011044425187658809   -0.00018998237615102978
-0.002925657343535295   -0.01353778124857124   -0.00031383164908168
-0.00168358575590151   -0.01354005252057032   -0.000272241780521968
-0.001776901966230661   -0.011023808874326873   -0.00018256429850506528
-0.0029330137950319946   -0.013523012131160772   -0.00029747112983716885
-0.0016932718210601735   -0.013526714873874027   -0.0002651545385688116
-0.001776901966230661   -0.011023808874326873   -0.00018256429850506528
-0.0031629194078128206   -0.011008392139661293   -0.00021135853550075637
-0.0029330137950319946   -0.013523012131160772   -0.00029747112983716885
-0.0031763797518075208   -0.010996480288684565   -0.00019523178500324373
-0.0016932718210601735   -0.013526714873874027   -0.0002651545385688116
-0.002940603016147761   -0.013514235969612735   -0.00027930800889600414
-0.0031763797518075208   -0.010996480288684565   -0.00019523178500324373
-0.0029330137950319946   -0.013523012131160772   -0.00029747112983716885
-0.0016932718210601735   -0.013526714873874027   -0.0002651545385688116
-0.0031763797518075208   -0.010996480288684565   -0.00019523178500324373
-0.0017927066073054187   -0.011007225405640053   -0.000173507609316601
-0.001776901966230661   -0.011023808874326873   -0.00018256429850506528
-0.0016932718210601735   -0.013526714873874027   -0.0002651545385688116
-0.0031763797518075208   -0.010996480288684565   -0.00019523178500324373
-0.001776901966230661   -0.011023808874326873   -0.00018256429850506528
-0.0029330137950319946   -0.013523012131160772   -0.00029747112983716885
-0.0029167086346074092   -0.013558571459129158   -0.00032833760221894333
-0.003134850842928718   -0.01104362898590086   -0.00023867983848026265
-0.0041960626868931   -0.013512601202359696   -0.0003676189891768546
-0.002925657343535295   -0.01353778124857124   -0.00031383164908168
-0.003134850842928718   -0.01104362898590086   -0.00023867983848026265
-0.004549219126180229   -0.011005787857179051   -0.0002733463591946165
-0.0041960626868931   -0.013512601202359696   -0.0003676189891768546
-0.004562818763290371   -0.010991211685464039   -0.0002533414243188093
-0.002925657343535295   -0.01353778124857124   -0.00031383164908168
-0.004203319625755995   -0.013496464890071842   -0.00034185073047144385
-0.004562818763290371   -0.010991211685464039   -0.0002533414243188093
-0.0041960626868931   -0.013512601202359696   -0.0003676189891768546
-0.002925657343535295   -0.01353778124857124   -0.00031383164908168
-0.004562818763290371   -0.010991211685464039   -0.0002533414243188093
-0.0031495914936254168   -0.011024115230697023   -0.00022586160915506398
-0.003134850842928718   -0.01104362898590086   -0.00023867983848026265
-0.002925657343535295   -0.01353778124857124   -0.00031383164908168
-0.004562818763290371   -0.010991211685464039   -0.0002533414243188093
-0.003134850842928718   -0.01104362898590086   -0.00023867983848026265
-0.0041960626868931   -0.013512601202359696   -0.0003676189891768546
-0.002925657343535295   -0.01353778124857124   -0.00031383164908168
-0.0031495914936254168   -0.011024115230697023   -0.00022586160915506398
-0.004203319625755995   -0.013496464890071842   -0.00034185073047144385
-0.0029330137950319946   -0.013523012131160772   -0.00029747112983716885
-0.0031495914936254168   -0.011024115230697023   -0.00022586160915506398
-0.004562818763290371   -0.010991211685464039   -0.0002533414243188093
-0.004203319625755995   -0.013496464890071842   -0.00034185073047144385
-0.004570726894232552   -0.010980012015583868   -0.00023187211914784062
-0.0029330137950319946   -0.013523012131160772   -0.00029747112983716885
-0.004203751691713877   -0.013486042546604243   -0.00031448317227674946
-0.004570726894232552   -0.010980012015583868   -0.00023187211914784062
-0.004203319625755995   -0.013496464890071842   -0.00034185073047144385
-0.0029330137950319946   -0.013523012131160772   -0.00029747112983716885
-0.004570726894232552   -0.010980012015583868   -0.00023187211914784062
-0.0031629194078128206   -0.011008392139661293   -0.00021135853550075637
-0.0031495914936254168   -0.011024115230697023   -0.00022586160915506398
-0.0029330137950319946   -0.013523012131160772   -0.00029747112983716885
-0.004570726894232552   -0.010980012015583868   -0.00023187211914784062
-0.0031495914936254168   -0.011024115230697023   -0.00022586160915506398
-0.004203319625755995   -0.013496464890071842   -0.00034185073047144385
-0.0029330137950319946   -0.013523012131160772   -0.00029747112983716885
-0.0031629194078128206   -0.011008392139661293   -0.00021135853550075637
-0.004203751691713877   -0.013486042546604243   -0.00031448317227674946
-0.002940603016147761   -0.013514235969612735   -0.00027930800889600414
-0.0031629194078128206   -0.011008392139661293   -0.00021135853550075637
-0.004570726894232552   -0.010980012015583868   -0.00023187211914784062
-0.004203751691713877   -0.013486042546604243   -0.00031448317227674946
-0.004579584433525745   -0.010972970457733744   -0.00020863897101165173
-0.002940603016147761   -0.013514235969612735   -0.00027930800889600414
-0.004206238604255644   -0.01348216549465812   -0.00028517335390399417
-0.004579584433525745   -0.010972970457733744   -0.00020863897101165173
-0.004203751691713877   -0.013486042546604243   -0.00031448317227674946
-0.002940603016147761   -0.013514235969612735   -0.00027930800889600414
-0.004579584433525745   -0.010972970457733744   -0.00020863897101165173
-0.0031763797518075208   -0.010996480288684565   -0.00019523178500324373
-0.0031629194078128206   -0.011008392139661293   -0.00021135853550075637
-0.002940603016147761   -0.013514235969612735   -0.00027930800889600414
-0.004579584433525745   -0.010972970457733744   -0.00020863897101165173
-0.0031629194078128206   -0.011008392139661293   -0.00021135853550075637
-0.004203751691713877   -0.013486042546604243   -0.00031448317227674946
-0.0041960626868931   -0.013512601202359696   -0.0003676189891768546
-0.004549219126180229   -0.011005787857179051   -0.0002733463591946165
-0.005592020742752811   -0.013451709739449253   -0.00040120740792808215
-0.004203319625755995   -0.013496464890071842   -0.00034185073047144385
-0.004549219126180229   -0.011005787857179051   -0.0002733463591946165
-0.00606876920435198   -0.010958668223049105   -0.0003006100685501937
-0.005592020742752811   -0.013451709739449253   -0.00040120740792808215
-0.006056631780547637   -0.010946566465431214   -0.0002736117754636241
-0.004203319625755995   -0.013496464890071842   -0.00034185073047144385
-0.005563543844058136   -0.013436963025502083   -0.0003633459380382479
-0.006056631780547637   -0.010946566465431214   -0.0002736117754636241
-0.005592020742752811   -0.013451709739449253   -0.00040120740792808215
-0.004203319625755995   -0.013496464890071842   -0.00034185073047144385
-0.006056631780547637   -0.010946566465431214   -0.0002736117754636241
-0.004562818763290371   -0.010991211685464039   -0.0002533414243188093
-0.004549219126180229   -0.011005787857179051   -0.0002733463591946165
-0.004203319625755995   -0.013496464890071842   -0.00034185073047144385
-0.006056631780547637   -0.010946566465431214   -0.0002736117754636241
-0.004549219126180229   -0.011005787857179051   -0.0002733463591946165
-0.005592020742752811   -0.013451709739449253   -0.00040120740792808215
-0.004203319625755995   -0.013496464890071842   -0.00034185073047144385
-0.004562818763290371   -0.010991211685464039   -0.0002533414243188093
-0.005563543844058136   -0.013436963025502083   -0.0003633459380382479
-0.004203751691713877   -0.013486042546604243   -0.00031448317227674946
-0.004562818763290371   -0.010991211685464039   -0.0002533414243188093
-0.006056631780547637   -0.010946566465431214   -0.0002736117754636241
-0.005563543844058136   -0.013436963025502083   -0.0003633459380382479
-0.006046717263729431   -0.010937504399712394   -0.00024392525649478267
-0.004203751691713877   -0.013486042546604243   -0.00031448317227674946
-0.005539642365694074   -0.013428392450876467   -0.00032268002097950806
-0.006046717263729431   -0.010937504399712394   -0.00024392525649478267
-0.005563543844058136   -0.013436963025502083   -0.0003633459380382479
-0.004203751691713877   -0.013486042546604243   -0.00031448317227674946
-0.006046717263729431   -0.010937504399712394   -0.00024392525649478267
-0.004570726894232552   -0.010980012015583868   -0.00023187211914784062
-0.004562818763290371   -0.010991211685464039   -0.0002533414243188093
-0.004203751691713877   -0.013486042546604243   -0.00031448317227674946
-0.006046717263729431   -0.010937504399712394   -0.00024392525649478267
-0.004562818763290371   -0.010991211685464039   -0.0002533414243188093
-0.005563543844058136   -0.013436963025502083   -0.0003633459380382479
-0.004203751691713877   -0.013486042546604243   -0.00031448317227674946
-0.004570726894232552   -0.010980012015583868   -0.00023187211914784062
-0.005539642365694074   -0.013428392450876467   -0.00032268002097950806
-0.004206238604255644   -0.01348216549465812   -0.00028517335390399417
-0.004570726894232552   -0.010980012015583868   -0.00023187211914784062
-0.006046717263729431   -0.010937504399712394   -0.00024392525649478267
-0.005539642365694074   -0.013428392450876467   -0.00032268002097950806
-0.006024559957231845   -0.010936391163365707   -0.0002118549755672613
-0.004206238604255644   -0.01348216549465812   -0.00028517335390399417
-0.005500834963745627   -0.013430848931474174   -0.0002795629644806138
-0.006024559957231845   -0.010936391163365707   -0.0002118549755672613
-0.005539642365694074   -0.013428392450876467   -0.00032268002097950806
-0.004206238604255644   -0.01348216549465812   -0.00028517335390399417
-0.006024559957231845   -0.010936391163365707   -0.0002118549755672613
-0.004579584433525745   -0.010972970457733744   -0.00020863897101165173
-0.004570726894232552   -0.010980012015583868   -0.00023187211914784062
-0.004206238604255644   -0.01348216549465812   -0.00028517335390399417
-0.006024559957231845   -0.010936391163365707   -0.0002118549755672613
-0.004570726894232552   -0.010980012015583868   -0.00023187211914784062
-0.005539642365694074   -0.013428392450876467   -0.00032268002097950806
0.001140298342981039   -0.011081287730527207   -8.083485146724974e-05
0.0011944489268975542   -0.008398110800986682   -1.4680411741503661e-05
-0.00033762897178254097   -0.01108199990055775   -0.0001441774681554504
0.0011378084497106842   -0.011046625098191855   -9.238690397735552e-05
0.0011944489268975542   -0.008398110800986682   -1.4680411741503661e-05
-0.0003750267405785471   -0.008385244164864874   -7.116469974888377e-05
-0.00033762897178254097   -0.01108199990055775   -0.0001441774681554504
-0.00039248453654518563   -0.008356856312143585   -6.623847540080928e-05
0.0011378084497106842   -0.011046625098191855   -9.238690397735552e-05
-0.0003500902882146564   -0.011052172305774315   -0.00014565197580867974
-0.00039248453654518563   -0.008356856312143585   -6.623847540080928e-05
-0.00033762897178254097   -0.01108199990055775   -0.0001441774681554504
0.0011378084497106842   -0.011046625098191855   -9.238690397735552e-05
-0.00039248453654518563   -0.008356856312143585   -6.623847540080928e-05
0.0011768977527855712   -0.008365205235669687   -1.4711190418528839e-05
0.0011944489268975542   -0.008398110800986682   -1.4680411741503661e-05
0.0011378084497106842   -0.011046625098191855   -9.238690397735552e-05
-0.00039248453654518563   -0.008356856312143585   -6.623847540080928e-05
0.0011944489268975542   -0.008398110800986682   -1.4680411741503661e-05
-0.00033762897178254097   -0.01108199990055775   -0.0001441774681554504
0.0011378084497106842   -0.011046625098191855   -9.238690397735552e-05
0.0011768977527855712   -0.008365205235669687   -1.4711190418528839e-05
-0.0003500902882146564   -0.011052172305774315   -0.00014565197580867974
0.0011286533506796434   -0.011019456916728853   -0.0001012911538922259
0.0011768977527855712   -0.008365205235669687   -1.4711190418528839e-05
-0.00039248453654518563   -0.008356856312143585   -6.623847540080928e-05
-0.0003500902882146564   -0.011052172305774315   -0.00014565197580867974
-0.0004125472994567373   -0.008330448858486873   -5.978978465581651e-05
0.0011286533506796434   -0.011019456916728853   -0.0001012911538922259
-0.00036395116064686316   -0.011027036389218897   -0.0001454746467544727
-0.0004125472994567373   -0.008330448858486873   -5.978978465581651e-05
-0.0003500902882146564   -0.011052172305774315   -0.00014565197580867974
0.0011286533506796434   -0.011019456916728853   -0.0001012911538922259
-0.0004125472994567373   -0.008330448858486873   -5.978978465581651e-05
0.0011545958281807482   -0.008336385301733067   -1.1647868965261396e-05
0.0011768977527855712   -0.008365205235669687   -1.4711190418528839e-05
0.0011286533506796434   -0.011019456916728853   -0.0001012911538922259
-0.0004125472994567373   -0.008330448858486873   -5.978978465581651e-05
0.0011768977527855712   -0.008365205235669687   -1.4711190418528839e-05
-0.0003500902882146564   -0.011052172305774315   -0.00014565197580867974
0.0011286533506796434   -0.011019456916728853   -0.0001012911538922259
0.0011545958281807482   -0.008336385301733067   -1.1647868965261396e-05
-0.00036395116064686316   -0.011027036389218897   -0.0001454746467544727
0.0011156099268225916   -0.010995031970597565   -0.00010773279428892279
0.0011545958281807482   -0.008336385301733067   -1.1647868965261396e-05
-0.0004125472994567373   -0.008330448858486873   -5.978978465581651e-05
-0.00036395116064686316   -0.011027036389218897   -0.0001454746467544727
-0.00043525333461436077   -0.008305640627192851   -5.144025354754341e-05
0.0011156099268225916   -0.010995031970597565   -0.00010773279428892279
-0.00038142375818677024   -0.011005897482530285   -0.0001435803563418542
-0.00043525333461436077   -0.008305640627192851   -5.144025354754341e-05
-0.00036395116064686316   -0.011027036389218897   -0.0001454746467544727
0.0011156099268225916   -0.010995031970597565   -0.00010773279428892279
-0.00043525333461436077   -0.008305640627192851   -5.144025354754341e-05
0.0011249977405714984   -0.008306532287337739   -5.625274823714052e-06
0.0011545958281807482   -0.008336385301733067   -1.1647868965261396e-05
0.0011156099268225916   -0.010995031970597565   -0.00010773279428892279
-0.00043525333461436077   -0.008305640627192851   -5.144025354754341e-05
0.0011545958281807482   -0.008336385301733067   -1.1647868965261396e-05
-0.00036395116064686316   -0.011027036389218897   -0.0001454746467544727
-0.00033762897178254097   -0.01108199990055775   -0.0001441774681554504
-0.0003750267405785471   -0.008385244164864874   -7.116469974888377e-05
-0.0017481438759661926   -0.011068858912737345   -0.00019567276270354245
-0.0003500902882146564   -0.011052172305774315   -0.00014565197580867974
-0.0003750267405785471   -0.008385244164864874   -7.116469974888377e-05
-0.0018619235159141382   -0.008369282327267804   -0.00011815684485816636
-0.0017481438759661926   -0.011068858912737345   -0.00019567276270354245
-0.0018799806660532467   -0.008345899478626158   -0.0001099831617249394
-0.0003500902882146564   -0.011052172305774315   -0.00014565197580867974
-0.0017623706858461699   -0.011044425187658809   -0.00018998237615102978
-0.0018799806660532467   -0.008345899478626158   -0.0001099831617249394
-0.0017481438759661926   -0.011068858912737345   -0.00019567276270354245
-0.0003500902882146564   -0.011052172305774315   -0.00014565197580867974
-0.0018799806660532467   -0.008345899478626158   -0.0001099831617249394
-0.00039248453654518563   -0.008356856312143585   -6.623847540080928e-05
-0.0003750267405785471   -0.008385244164864874   -7.116469974888377e-05
-0.0003500902882146564   -0.011052172305774315   -0.00014565197580867974
-0.0018799806660532467   -0.008345899478626158   -0.0001099831617249394
-0.0003750267405785471   -0.008385244164864874   -7.116469974888377e-05
-0.0017481438759661926   -0.011068858912737345   -0.00019567276270354245
-0.0003500902882146564   -0.011052172305774315   -0.00014565197580867974
-0.00039248453654518563   -0.008356856312143585   -6.623847540080928e-05
-0.0017623706858461699   -0.011044425187658809   -0.00018998237615102978
-0.00036395116064686316   -0.011027036389218897   -0.0001454746467544727
-0.00039248453654518563   -0.008356856312143585   -6.623847540080928e-05
-0.0018799806660532467   -0.008345899478626158   -0.0001099831617249394
-0.0017623706858461699   -0.011044425187658809   -0.00018998237615102978
-0.00189847164941944   -0.00832404524844511   -0.00010034530843003535
-0.00036395116064686316   -0.011027036389218897   -0.0001454746467544727
-0.001776901966230661   -0.011023808874326873   -0.00018256429850506528
-0.00189847164941944   -0.00832404524844511   -0.00010034530843003535
-0.0017623706858461699   -0.011044425187658809   -0.00018998237615102978
-0.00036395116064686316   -0.011027036389218897   -0.0001454746467544727
-0.00189847164941944   -0.00832404524844511   -0.00010034530843003535
-0.0004125472994567373   -0.008330448858486873   -5.978978465581651e-05
-0.00039248453654518563   -0.008356856312143585   -6.623847540080928e-05
-0.00036395116064686316   -0.011027036389218897   -0.0001454746467544727
-0.00189847164941944   -0.00832404524844511   -0.00010034530843003535
-0.00039248453654518563   -0.008356856312143585   -6.623847540080928e-05
-0.0017623706858461699   -0.011044425187658809   -0.00018998237615102978
-0.00036395116064686316   -0.011027036389218897   -0.0001454746467544727
-0.0004125472994567373   -0.008330448858486873   -5.978978465581651e-05
-0.001776901966230661   -0.011023808874326873   -0.00018256429850506528
-0.00038142375818677024   -0.011005897482530285   -0.0001435803563418542
-0.0004125472994567373   -0.008330448858486873   -5.978978465581651e-05
-0.00189847164941944   -0.00832404524844511   -0.00010034530843003535
-0.001776901966230661   -0.011023808874326873   -0.00018256429850506528
-0.0019181840862323072   -0.00830409889713738   -8.923776153826305e-05
-0.00038142375818677024   -0.011005897482530285   -0.0001435803563418542
-0.0017927066073054187   -0.011007225405640053   -0.000173507609316601
-0.0019181840862323072   -0.00830409889713738   -8.923776153826305e-05
-0.001776901966230661   -0.011023808874326873   -0.00018256429850506528
-0.00038142375818677024   -0.011005897482530285   -0.0001435803563418542
-0.0019181840862323072   -0.00830409889713738   -8.923776153826305e-05
-0.00043525333461436077   -0.008305640627192851   -5.144025354754341e-05
-0.0004125472994567373   -0.008330448858486873   -5.978978465581651e-05
-0.00038142375818677024   -0.011005897482530285   -0.0001435803563418542
-0.0019181840862323072   -0.00830409889713738   -8.923776153826305e-05
-0.0004125472994567373   -0.008330448858486873   -5.978978465581651e-05
-0.001776901966230661   -0.011023808874326873   -0.00018256429850506528
-0.0017481438759661926   -0.011068858912737345   -0.00019567276270354245
-0.0018619235159141382   -0.008369282327267804   -0.00011815684485816636
-0.003134850842928718   -0.01104362898590086   -0.00023867983848026265
-0.0017623706858461699   -0.011044425187658809   -0.00018998237615102978
-0.0018619235159141382   -0.008369282327267804   -0.00011815684485816636
-0.003324128111936642   -0.008349698958879385   -0.00015758320898035517
-0.003134850842928718   -0.01104362898590086   -0.00023867983848026265
-0.0033421516393165943   -0.008330901239920831   -0.00014620257300043373
-0.0017623706858461699   -0.011044425187658809   -0.00018998237615102978
-0.0031495914936254168   -0.011024115230697023   -0.00022586160915506398
-0.0033421516393165943   -0.008330901239920831   -0.00014620257300043373
-0.003134850842928718   -0.01104362898590086   -0.00023867983848026265
-0.0017623706858461699   -0.011044425187658809   -0.00018998237615102978
-0.0033421516393165943   -0.008330901239920831   -0.00014620257300043373
-0.0018799806660532467   -0.008345899478626158   -0.0001099831617249394
-0.0018619235159141382   -0.008369282327267804   -0.00011815684485816636
-0.0017623706858461699   -0.011044425187658809   -0.00018998237615102978
-0.0033421516393165943   -0.008330901239920831   -0.00014620257300043373
-0.0018619235159141382   -0.008369282327267804   -0.00011815684485816636
-0.003134850842928718   -0.01104362898590086   -0.00023867983848026265
-0.0017623706858461699   -0.011044425187658809   -0.00018998237615102978
-0.0018799806660532467   -0.008345899478626158   -0.0001099831617249394
-0.0031495914936254168   -0.011024115230697023   -0.00022586160915506398
-0.001776901966230661   -0.011023808874326873   -0.00018256429850506528
-0.0018799806660532467   -0.008345899478626158   -0.0001099831617249394
-0.0033421516393165943   -0.008330901239920831   -0.00014620257300043373
-0.0031495914936254168   -0.011024115230697023   -0.00022586160915506398
-0.003358981455665932   -0.008313701565697945   -0.00013340720000335892
-0.001776901966230661   -0.011023808874326873   -0.00018256429850506528
-0.0031629194078128206   -0.011008392139661293   -0.00021135853550075637
-0.003358981455665932   -0.008313701565697945   -0.00013340720000335892
-0.0031495914936254168   -0.011024115230697023   -0.00022586160915506398
-0.001776901966230661   -0.011023808874326873   -0.00018256429850506528
-0.003358981455665932   -0.008313701565697945   -0.00013340720000335892
-0.00189847164941944   -0.00832404524844511   -0.00010034530843003535
-0.0018799806660532467   -0.008345899478626158   -0.0001099831617249394
-0.001776901966230661   -0.011023808874326873   -0.00018256429850506528
-0.003358981455665932   -0.008313701565697945   -0.00013340720000335892
-0.0018799806660532467   -0.008345899478626158   -0.0001099831617249394
-0.0031495914936254168   -0.011024115230697023   -0.00022586160915506398
-0.001776901966230661   -0.011023808874326873   -0.00018256429850506528
-0.00189847164941944   -0.00832404524844511   -0.00010034530843003535
-0.0031629194078128206   -0.011008392139661293   -0.00021135853550075637
-0.0017927066073054187   -0.011007225405640053   -0.000173507609316601
-0.00189847164941944   -0.00832404524844511   -0.00010034530843003535
-0.003358981455665932   -0.008313701565697945   -0.00013340720000335892
-0.0031629194078128206   -0.011008392139661293   -0.00021135853550075637
-0.0033758723806829377   -0.008298141295318232   -0.00011926409620011678
-0.0017927066073054187   -0.011007225405640053   -0.000173507609316601
-0.0031763797518075208   -0.010996480288684565   -0.00019523178500324373
-0.0033758723806829377   -0.008298141295318232   -0.00011926409620011678
-0.0031629194078128206   -0.011008392139661293   -0.00021135853550075637
-0.0017927066073054187   -0.011007225405640053   -0.000173507609316601
-0.0033758723806829377   -0.008298141295318232   -0.00011926409620011678
-0.0019181840862323072   -0.00830409889713738   -8.923776153826305e-05
-0.00189847164941944   -0.00832404524844511   -0.00010034530843003535
-0.0017927066073054187   -0.011007225405640053   -0.000173507609316601
-0.0033758723806829377   -0.008298141295318232   -0.00011926409620011678
-0.00189847164941944   -0.00832404524844511   -0.00010034530843003535
-0.0031629194078128206   -0.011008392139661293   -0.00021135853550075637
-0.003134850842928718   -0.01104362898590086   -0.00023867983848026265
-0.003324128111936642   -0.008349698958879385   -0.00015758320898035517
-0.004549219126180229   -0.011005787857179051   -0.0002733463591946165
-0.0031495914936254168   -0.011024115230697023   -0.00022586160915506398
-0.003324128111936642   -0.008349698958879385   -0.00015758320898035517
-0.004813045411649904   -0.008322937568003945   -0.00018909940964957273
-0.004549219126180229   -0.011005787857179051   -0.0002733463591946165
-0.004830266232803812   -0.008308957343252004   -0.0001745520422949031
-0.0031495914936254168   -0.011024115230697023   -0.00022586160915506398
-0.004562818763290371   -0.010991211685464039   -0.0002533414243188093
-0.004830266232803812   -0.008308957343252004   -0.0001745520422949031
-0.004549219126180229   -0.011005787857179051   -0.0002733463591946165
-0.0031495914936254168   -0.011024115230697023   -0.00022586160915506398
-0.004830266232803812   -0.008308957343252004   -0.0001745520422949031
-0.0033421516393165943   -0.008330901239920831   -0.00014620257300043373
-0.003324128111936642   -0.008349698958879385   -0.00015758320898035517
-0.0031495914936254168   -0.011024115230697023   -0.00022586160915506398
-0.004830266232803812   -0.008308957343252004   -0.0001745520422949031
-0.003324128111936642   -0.008349698958879385   -0.00015758320898035517
-0.004549219126180229   -0.011005787857179051   -0.0002733463591946165
-0.0031495914936254168   -0.011024115230697023   -0.00022586160915506398
-0.0033421516393165943   -0.008330901239920831   -0.00014620257300043373
-0.004562818763290371   -0.010991211685464039   -0.0002533414243188093
-0.0031629194078128206   -0.011008392139661293   -0.00021135853550075637
-0.0033421516393165943   -0.008330901239920831   -0.00014620257300043373
-0.004830266232803812   -0.008308957343252004   -0.0001745520422949031
-0.004562818763290371   -0.010991211685464039   -0.0002533414243188093
-0.004843094369456427   -0.008296070036865544   -0.00015880898022307884
-0.0031629194078128206   -0.011008392139661293   -0.00021135853550075637
-0.004570726894232552   -0.010980012015583868   -0.00023187211914784062
-0.004843094369456427   -0.008296070036865544   -0.00015880898022307884
-0.004562818763290371   -0.010991211685464039   -0.0002533414243188093
-0.0031629194078128206   -0.011008392139661293   -0.00021135853550075637
-0.004843094369456427   -0.008296070036865544   -0.00015880898022307884
-0.003358981455665932   -0.008313701565697945   -0.00013340720000335892
-0.0033421516393165943   -0.008330901239920831   -0.00014620257300043373
-0.0031629194078128206   -0.011008392139661293   -0.00021135853550075637
-0.004843094369456427   -0.008296070036865544   -0.00015880898022307884
-0.0033421516393165943   -0.008330901239920831   -0.00014620257300043373
-0.004562818763290371   -0.010991211685464039   -0.0002533414243188093
-0.0031629194078128206   -0.011008392139661293   -0.00021135853550075637
-0.003358981455665932   -0.008313701565697945   -0.00013340720000335892
-0.004570726894232552   -0.010980012015583868   -0.00023187211914784062
-0.0031763797518075208   -0.010996480288684565   -0.00019523178500324373
-0.003358981455665932   -0.008313701565697945   -0.00013340720000335892
-0.004843094369456427   -0.008296070036865544   -0.00015880898022307884
-0.004570726894232552   -0.010980012015583868   -0.00023187211914784062
-0.004855876534023817   -0.00828493117690418   -0.00014157093266829043
-0.0031763797518075208   -0.010996480288684565   -0.00019523178500324373
-0.004579584433525745   -0.010972970457733744   -0.00020863897101165173
-0.004855876534023817   -0.00828493117690418   -0.00014157093266829043
-0.004570726894232552   -0.010980012015583868   -0.00023187211914784062
-0.0031763797518075208   -0.010996480288684565   -0.00019523178500324373
-0.004855876534023817   -0.00828493117690418   -0.00014157093266829043
-0.0033758723806829377   -0.008298141295318232   -0.00011926409620011678
-0.003358981455665932   -0.008313701565697945   -0.00013340720000335892
-0.0031763797518075208   -0.010996480288684565   -0.00019523178500324373
-0.004855876534023817   -0.00828493117690418   -0.00014157093266829043
-0.003358981455665932   -0.008313701565697945   -0.00013340720000335892
-0.004570726894232552   -0.010980012015583868   -0.00023187211914784062
-0.004549219126180229   -0.011005787857179051   -0.0002733463591946165
-0.004813045411649904   -0.008322937568003945   -0.00018909940964957273
-0.00606876920435198   -0.010958668223049105   -0.0003006100685501937
-0.004562818763290371   -0.010991211685464039   -0.0002533414243188093
-0.004813045411649904   -0.008322937568003945   -0.00018909940964957273
-0.006393308985980195   -0.008290822361670799   -0.00021181893446828597
-0.00606876920435198   -0.010958668223049105   -0.0003006100685501937
-0.006394631255409468   -0.008280040340801209   -0.00019533230496077082
-0.004562818763290371   -0.010991211685464039   -0.0002533414243188093
-0.006056631780547637   -0.010946566465431214   -0.0002736117754636241
-0.006394631255409468   -0.008280040340801209   -0.00019533230496077082
-0.00606876920435198   -0.010958668223049105   -0.0003006100685501937
-0.004562818763290371   -0.010991211685464039   -0.0002533414243188093
-0.006394631255409468   -0.008280040340801209   -0.00019533230496077082
-0.004830266232803812   -0.008308957343252004   -0.0001745520422949031
-0.004813045411649904   -0.008322937568003945   -0.00018909940964957273
-0.004562818763290371   -0.010991211685464039   -0.0002533414243188093
-0.006394631255409468   -0.008280040340801209   -0.00019533230496077082
-0.004813045411649904   -0.008322937568003945   -0.00018909940964957273
-0.00606876920435198   -0.010958668223049105   -0.0003006100685501937
-0.004562818763290371   -0.010991211685464039   -0.0002533414243188093
-0.004830266232803812   -0.008308957343252004   -0.0001745520422949031
-0.006056631780547637   -0.010946566465431214   -0.0002736117754636241
-0.004570726894232552   -0.010980012015583868   -0.00023187211914784062
-0.004830266232803812   -0.008308957343252004   -0.0001745520422949031
-0.006394631255409468   -0.008280040340801209   -0.00019533230496077082
-0.006056631780547637   -0.010946566465431214   -0.0002736117754636241
-0.006396208763032508   -0.008269373727739308   -0.0001764545117547137
-0.004570726894232552   -0.010980012015583868   -0.00023187211914784062
-0.006046717263729431   -0.010937504399712394   -0.00024392525649478267
-0.006396208763032508   -0.008269373727739308   -0.0001764545117547137
-0.006056631780547637   -0.010946566465431214   -0.0002736117754636241
-0.004570726894232552   -0.010980012015583868   -0.00023187211914784062
-0.006396208763032508   -0.008269373727739308   -0.0001764545117547137
-0.004843094369456427   -0.008296070036865544   -0.00015880898022307884
-0.004830266232803812   -0.008308957343252004   -0.0001745520422949031
-0.004570726894232552   -0.010980012015583868   -0.00023187211914784062
-0.006396208763032508   -0.008269373727739308   -0.0001764545117547137
-0.004830266232803812   -0.008308957343252004   -0.0001745520422949031
-0.006056631780547637   -0.010946566465431214   -0.0002736117754636241
-0.004570726894232552   -0.010980012015583868   -0.00023187211914784062
-0.004843094369456427   -0.008296070036865544   -0.00015880898022307884
-0.006046717263729431   -0.010937504399712394   -0.00024392525649478267
-0.004579584433525745   -0.010972970457733744   -0.00020863897101165173
-0.004843094369456427   -0.008296070036865544   -0.00015880898022307884
-0.006396208763032508   -0.008269373727739308   -0.0001764545117547137
-0.006046717263729431   -0.010937504399712394   -0.00024392525649478267
-0.006388543932796602   -0.008263453801035575   -0.0001554599395021024
-0.004579584433525745   -0.010972970457733744   -0.00020863897101165173
-0.006024559957231845   -0.010936391163365707   -0.0002118549755672613
-0.006388543932796602   -0.008263453801035575   -0.0001554599395021024
-0.006046717263729431   -0.010937504399712394   -0.00024392525649478267
-0.004579584433525745   -0.010972970457733744   -0.00020863897101165173
-0.006388543932796602   -0.008263453801035575   -0.0001554599395021024
-0.004855876534023817   -0.00828493117690418   -0.00014157093266829043
-0.004843094369456427   -0.008296070036865544   -0.00015880898022307884
-0.004579584433525745   -0.010972970457733744   -0.00020863897101165173
-0.006388543932796602   -0.008263453801035575   -0.0001554599395021024
-0.004843094369456427   -0.008296070036865544   -0.00015880898022307884
-0.006046717263729431   -0.010937504399712394   -0.00024392525649478267
0.0011944489268975542   -0.008398110800986682   -1.4680411741503661e-05
0.00108125841059821   -0.005621493173534974   3.11244674671986e-05
-0.0003750267405785471   -0.008385244164864874   -7.116469974888377e-05
0.0011768977527855712   -0.008365205235669687   -1.4711190418528839e-05
0.00108125841059821   -0.005621493173534974   3.11244674671986e-05
-0.0005073954934752262   -0.00559625335036495   -1.2776515673781988e-05
-0.0003750267405785471   -0.008385244164864874   -7.116469974888377e-05
-0.0005286892892793652   -0.005570808274467811   -1.8354192732699604e-06
0.0011768977527855712   -0.008365205235669687   -1.4711190418528839e-05
-0.00039248453654518563   -0.008356856312143585   -6.623847540080928e-05
-0.0005286892892793652   -0.005570808274467811   -1.8354192732699604e-06
-0.0003750267405785471   -0.008385244164864874   -7.116469974888377e-05
0.0011768977527855712   -0.008365205235669687   -1.4711190418528839e-05
-0.0005286892892793652   -0.005570808274467811   -1.8354192732699604e-06
0.0010484131410367769   -0.0055903403661636845   4.4150135314557034e-05
0.00108125841059821   -0.005621493173534974   3.11244674671986e-05
0.0011768977527855712   -0.008365205235669687   -1.4711190418528839e-05
-0.0005286892892793652   -0.005570808274467811   -1.8354192732699604e-06
0.00108125841059821   -0.005621493173534974   3.11244674671986e-05
-0.0003750267405785471   -0.008385244164864874   -7.116469974888377e-05
0.0011768977527855712   -0.008365205235669687   -1.4711190418528839e-05
0.0010484131410367769   -0.0055903403661636845   4.4150135314557034e-05
-0.00039248453654518563   -0.008356856312143585   -6.623847540080928e-05
0.0011545958281807482   -0.008336385301733067   -1.1647868965261396e-05
0.0010484131410367769   -0.0055903403661636845   4.4150135314557034e-05
-0.0005286892892793652   -0.005570808274467811   -1.8354192732699604e-06
-0.00039248453654518563   -0.008356856312143585   -6.623847540080928e-05
-0.0005537142081794348   -0.005544103033356822   1.1143431469891647e-05
0.0011545958281807482   -0.008336385301733067   -1.1647868965261396e-05
-0.0004125472994567373   -0.008330448858486873   -5.978978465581651e-05
-0.0005537142081794348   -0.005544103033356822   1.1143431469891647e-05
-0.00039248453654518563   -0.008356856312143585   -6.623847540080928e-05
0.0011545958281807482   -0.008336385301733067   -1.1647868965261396e-05
-0.0005537142081794348   -0.005544103033356822   1.1143431469891647e-05
0.0010111365976544207   -0.005559763214802757   6.339556514749647e-05
0.0010484131410367769   -0.0055903403661636845   4.4150135314557034e-05
0.0011545958281807482   -0.008336385301733067   -1.1647868965261396e-05
-0.0005537142081794348   -0.005544103033356822   1.1143431469891647e-05
0.0010484131410367769   -0.0055903403661636845   4.4150135314557034e-05
-0.00039248453654518563   -0.008356856312143585   -6.623847540080928e-05
0.0011545958281807482   -0.008336385301733067   -1.1647868965261396e-05
0.0010111365976544207   -0.005559763214802757   6.339556514749647e-05
-0.0004125472994567373   -0.008330448858486873   -5.978978465581651e-05
0.0011249977405714984   -0.008306532287337739   -5.625274823714052e-06
0.0010111365976544207   -0.005559763214802757   6.339556514749647e-05
-0.0005537142081794348   -0.005544103033356822   1.1143431469891647e-05
-0.0004125472994567373   -0.008330448858486873   -5.978978465581651e-05
-0.0005797351095892196   -0.005515883151921559   2.615119216387495e-05
0.0011249977405714984   -0.008306532287337739   -5.625274823714052e-06
-0.00043525333461436077   -0.008305640627192851   -5.144025354754341e-05
-0.0005797351095892196   -0.005515883151921559   2.615119216387495e-05
-0.0004125472994567373   -0.008330448858486873   -5.978978465581651e-05
0.0011249977405714984   -0.008306532287337739   -5.625274823714052e-06
-0.0005797351095892196   -0.005515883151921559   2.615119216387495e-05
0.0009655316413689566   -0.00552206086130861   8.46657760692373e-05
0.0010111365976544207   -0.005559763214802757   6.339556514749647e-05
0.0011249977405714984   -0.008306532287337739   -5.625274823714052e-06
-0.0005797351095892196   -0.005515883151921559   2.615119216387495e-05
0.0010111365976544207   -0.005559763214802757   6.339556514749647e-05
-0.0004125472994567373   -0.008330448858486873   -5.978978465581651e-05
-0.0003750267405785471   -0.008385244164864874   -7.116469974888377e-05
-0.0005073954934752262   -0.00559625335036495   -1.2776515673781988e-05
-0.0018619235159141382   -0.008369282327267804   -0.00011815684485816636
-0.00039248453654518563   -0.008356856312143585   -6.623847540080928e-05
-0.0005073954934752262   -0.00559625335036495   -1.2776515673781988e-05
-0.002001349693176595   -0.005589672539530587   -5.465703016084246e-05
-0.0018619235159141382   -0.008369282327267804   -0.00011815684485816636
-0.0020208245956977984   -0.005567796441810323   -4.4189371704829215e-05
-0.00039248453654518563   -0.008356856312143585   -6.623847540080928e-05
-0.0018799806660532467   -0.008345899478626158   -0.0001099831617249394
-0.0020208245956977984   -0.005567796441810323   -4.4189371704829215e-05
-0.0018619235159141382   -0.008369282327267804   -0.00011815684485816636
-0.00039248453654518563   -0.008356856312143585   -6.623847540080928e-05
-0.0020208245956977984   -0.005567796441810323   -4.4189371704829215e-05
-0.0005286892892793652   -0.005570808274467811   -1.8354192732699604e-06
-0.0005073954934752262   -0.00559625335036495   -1.2776515673781988e-05
-0.00039248453654518563   -0.008356856312143585   -6.623847540080928e-05
-0.0020208245956977984   -0.005567796441810323   -4.4189371704829215e-05
-0.0005073954934752262   -0.00559625335036495   -1.2776515673781988e-05
-0.0018619235159141382   -0.008369282327267804   -0.00011815684485816636
-0.00039248453654518563   -0.008356856312143585   -6.623847540080928e-05
-0.0005286892892793652   -0.005570808274467811   -1.8354192732699604e-06
-0.0018799806660532467   -0.008345899478626158   -0.0001099831617249394
-0.0004125472994567373   -0.008330448858486873   -5.978978465581651e-05
-0.0005286892892793652   -0.005570808274467811   -1.8354192732699604e-06
-0.0020208245956977984   -0.005567796441810323   -4.4189371704829215e-05
-0.0018799806660532467   -0.008345899478626158   -0.0001099831617249394
-0.002041027004660026   -0.005545099452082327   -3.2628221388594096e-05
-0.0004125472994567373   -0.008330448858486873   -5.978978465581651e-05
-0.00189847164941944   -0.00832404524844511   -0.00010034530843003535
-0.002041027004660026   -0.005545099452082327   -3.2628221388594096e-05
-0.0018799806660532467   -0.008345899478626158   -0.0001099831617249394
-0.0004125472994567373   -0.008330448858486873   -5.978978465581651e-05
-0.002041027004660026   -0.005545099452082327   -3.2628221388594096e-05
-0.0005537142081794348   -0.005544103033356822   1.1143431469891647e-05
-0.0005286892892793652   -0.005570808274467811   -1.8354192732699604e-06
-0.0004125472994567373   -0.008330448858486873   -5.978978465581651e-05
-0.002041027004660026   -0.005545099452082327   -3.2628221388594096e-05
-0.0005286892892793652   -0.005570808274467811   -1.8354192732699604e-06
-0.0018799806660532467   -0.008345899478626158   -0.0001099831617249394
-0.0004125472994567373   -0.008330448858486873   -5.978978465581651e-05
-0.0005537142081794348   -0.005544103033356822   1.1143431469891647e-05
-0.00189847164941944   -0.00832404524844511   -0.00010034530843003535
-0.00043525333461436077   -0.008305640627192851   -5.144025354754341e-05
-0.0005537142081794348   -0.005544103033356822   1.1143431469891647e-05
-0.002041027004660026   -0.005545099452082327   -3.2628221388594096e-05
-0.00189847164941944   -0.00832404524844511   -0.00010034530843003535
-0.00206211613548975   -0.005522066620327959   -1.9767636008031355e-05
-0.00043525333461436077   -0.008305640627192851   -5.144025354754341e-05
-0.0019181840862323072   -0.00830409889713738   -8.923776153826305e-05
-0.00206211613548975   -0.005522066620327959   -1.9767636008031355e-05
-0.00189847164941944   -0.00832404524844511   -0.00010034530843003535
-0.00043525333461436077   -0.008305640627192851   -5.144025354754341e-05
-0.00206211613548975   -0.005522066620327959   -1.9767636008031355e-05
-0.0005797351095892196   -0.005515883151921559   2.615119216387495e-05
-0.0005537142081794348   -0.005544103033356822   1.1143431469891647e-05
-0.00043525333461436077   -0.008305640627192851   -5.144025354754341e-05
-0.00206211613548975   -0.005522066620327959   -1.9767636008031355e-05
-0.0005537142081794348   -0.005544103033356822   1.1143431469891647e-05
-0.00189847164941944   -0.00832404524844511   -0.00010034530843003535
-0.0018619235159141382   -0.008369282327267804   -0.00011815684485816636
-0.002001349693176595   -0.005589672539530587   -5.465703016084246e-05
-0.003324128111936642   -0.008349698958879385   -0.00015758320898035517
-0.0018799806660532467   -0.008345899478626158   -0.0001099831617249394
-0.002001349693176595   -0.005589672539530587   -5.465703016084246e-05
-0.0034785161570013547   -0.005587773579227812   -9.224141834691896e-05
-0.003324128111936642   -0.008349698958879385   -0.00015758320898035517
-0.0034972454854786264   -0.005568831582813805   -8.200928996629057e-05
-0.0018799806660532467   -0.008345899478626158   -0.0001099831617249394
-0.0033421516393165943   -0.008330901239920831   -0.00014620257300043373
-0.0034972454854786264   -0.005568831582813805   -8.200928996629057e-05
-0.003324128111936642   -0.008349698958879385   -0.00015758320898035517
-0.0018799806660532467   -0.008345899478626158   -0.0001099831617249394
-0.0034972454854786264   -0.005568831582813805   -8.200928996629057e-05
-0.0020208245956977984   -0.005567796441810323   -4.4189371704829215e-05
-0.002001349693176595   -0.005589672539530587   -5.465703016084246e-05
-0.0018799806660532467   -0.008345899478626158   -0.0001099831617249394
-0.0034972454854786264   -0.005568831582813805   -8.200928996629057e-05
-0.002001349693176595   -0.005589672539530587   -5.465703016084246e-05
-0.003324128111936642   -0.008349698958879385   -0.00015758320898035517
-0.0018799806660532467   -0.008345899478626158   -0.0001099831617249394
-0.0020208245956977984   -0.005567796441810323   -4.4189371704829215e-05
-0.0033421516393165943   -0.008330901239920831   -0.00014620257300043373
-0.00189847164941944   -0.00832404524844511   -0.00010034530843003535
-0.0020208245956977984   -0.005567796441810323   -4.4189371704829215e-05
-0.0034972454854786264   -0.005568831582813805   -8.200928996629057e-05
-0.0033421516393165943   -0.008330901239920831   -0.00014620257300043373
-0.003515093712698669   -0.00554964199756814   -7.081171952449845e-05
-0.00189847164941944   -0.00832404524844511   -0.00010034530843003535
-0.003358981455665932   -0.008313701565697945   -0.00013340720000335892
-0.003515093712698669   -0.00554964199756814   -7.081171952449845e-05
-0.0033421516393165943   -0.008330901239920831   -0.00014620257300043373
-0.00189847164941944   -0.00832404524844511   -0.00010034530843003535
-0.003515093712698669   -0.00554964199756814   -7.081171952449845e-05
-0.002041027004660026   -0.005545099452082327   -3.2628221388594096e-05
-0.0020208245956977984   -0.005567796441810323   -4.4189371704829215e-05
-0.00189847164941944   -0.00832404524844511   -0.00010034530843003535
-0.003515093712698669   -0.00554964199756814   -7.081171952449845e-05
-0.0020208245956977984   -0.005567796441810323   -4.4189371704829215e-05
-0.0033421516393165943   -0.008330901239920831   -0.00014620257300043373
-0.00189847164941944   -0.00832404524844511   -0.00010034530843003535
-0.002041027004660026   -0.005545099452082327   -3.2628221388594096e-05
-0.003358981455665932   -0.008313701565697945   -0.00013340720000335892
-0.0019181840862323072   -0.00830409889713738   -8.923776153826305e-05
-0.002041027004660026   -0.005545099452082327   -3.2628221388594096e-05
-0.003515093712698669   -0.00554964199756814   -7.081171952449845e-05
-0.003358981455665932   -0.008313701565697945   -0.00013340720000335892
-0.0035327685696130875   -0.005530080563480656   -5.8694770213412984e-05
-0.0019181840862323072   -0.00830409889713738   -8.923776153826305e-05
-0.0033758723806829377   -0.008298141295318232   -0.00011926409620011678
-0.0035327685696130875   -0.005530080563480656   -5.8694770213412984e-05
-0.003358981455665932   -0.008313701565697945   -0.00013340720000335892
-0.0019181840862323072   -0.00830409889713738   -8.923776153826305e-05
-0.0035327685696130875   -0.005530080563480656   -5.8694770213412984e-05
-0.00206211613548975   -0.005522066620327959   -1.9767636008031355e-05
-0.002041027004660026   -0.005545099452082327   -3.2628221388594096e-05
-0.0019181840862323072   -0.00830409889713738   -8.923776153826305e-05
-0.0035327685696130875   -0.005530080563480656   -5.8694770213412984e-05
-0.002041027004660026   -0.005545099452082327   -3.2628221388594096e-05
-0.003358981455665932   -0.008313701565697945   -0.00013340720000335892
-0.003324128111936642   -0.008349698958879385   -0.00015758320898035517
-0.0034785161570013547   -0.005587773579227812   -9.224141834691896e-05
-0.004813045411649904   -0.008322937568003945   -0.00018909940964957273
-0.0033421516393165943   -0.008330901239920831   -0.00014620257300043373
-0.0034785161570013547   -0.005587773579227812   -9.224141834691896e-05
-0.004987192971898187   -0.005578847396118627   -0.00012327136716805875
-0.004813045411649904   -0.008322937568003945   -0.00018909940964957273
-0.005005044050534542   -0.005563798540758575   -0.00011335759022482909
-0.0033421516393165943   -0.008330901239920831   -0.00014620257300043373
-0.004830266232803812   -0.008308957343252004   -0.0001745520422949031
-0.005005044050534542   -0.005563798540758575   -0.00011335759022482909
-0.004813045411649904   -0.008322937568003945   -0.00018909940964957273
-0.0033421516393165943   -0.008330901239920831   -0.00014620257300043373
-0.005005044050534542   -0.005563798540758575   -0.00011335759022482909
-0.0034972454854786264   -0.005568831582813805   -8.200928996629057e-05
-0.0034785161570013547   -0.005587773579227812   -9.224141834691896e-05
-0.0033421516393165943   -0.008330901239920831   -0.00014620257300043373
-0.005005044050534542   -0.005563798540758575   -0.00011335759022482909
-0.0034785161570013547   -0.005587773579227812   -9.224141834691896e-05
-0.004813045411649904   -0.008322937568003945   -0.00018909940964957273
-0.0033421516393165943   -0.008330901239920831   -0.00014620257300043373
-0.0034972454854786264   -0.005568831582813805   -8.200928996629057e-05
-0.004830266232803812   -0.008308957343252004   -0.0001745520422949031
-0.003358981455665932   -0.008313701565697945   -0.00013340720000335892
-0.0034972454854786264   -0.005568831582813805   -8.200928996629057e-05
-0.005005044050534542   -0.005563798540758575   -0.00011335759022482909
-0.004830266232803812   -0.008308957343252004   -0.0001745520422949031
-0.005020046646924018   -0.005547957966349041   -0.00010273117494880883
-0.003358981455665932   -0.008313701565697945   -0.00013340720000335892
-0.004843094369456427   -0.008296070036865544   -0.00015880898022307884
-0.005020046646924018   -0.005547957966349041   -0.00010273117494880883
-0.004830266232803812   -0.008308957343252004   -0.0001745520422949031
-0.003358981455665932   -0.008313701565697945   -0.00013340720000335892
-0.005020046646924018   -0.005547957966349041   -0.00010273117494880883
-0.003515093712698669   -0.00554964199756814   -7.081171952449845e-05
-0.0034972454854786264   -0.005568831582813805   -8.200928996629057e-05
-0.003358981455665932   -0.008313701565697945   -0.00013340720000335892
-0.005020046646924018   -0.005547957966349041   -0.00010273117494880883
-0.0034972454854786264   -0.005568831582813805   -8.200928996629057e-05
-0.004830266232803812   -0.008308957343252004   -0.0001745520422949031
-0.003358981455665932   -0.008313701565697945   -0.00013340720000335892
-0.003515093712698669   -0.00554964199756814   -7.081171952449845e-05
-0.004843094369456427   -0.008296070036865544   -0.00015880898022307884
-0.0033758723806829377   -0.008298141295318232   -0.00011926409620011678
-0.003515093712698669   -0.00554964199756814   -7.081171952449845e-05
-0.005020046646924018   -0.005547957966349041   -0.00010273117494880883
-0.004843094369456427   -0.008296070036865544   -0.00015880898022307884
-0.005034219282742221   -0.005531782633333175   -9.110750711883535e-05
-0.0033758723806829377   -0.008298141295318232   -0.00011926409620011678
-0.004855876534023817   -0.00828493117690418   -0.00014157093266829043
-0.005034219282742221   -0.005531782633333175   -9.110750711883535e-05
-0.004843094369456427   -0.008296070036865544   -0.00015880898022307884
-0.0033758723806829377   -0.008298141295318232   -0.00011926409620011678
-0.005034219282742221   -0.005531782633333175   -9.110750711883535e-05
-0.0035327685696130875   -0.005530080563480656   -5.8694770213412984e-05
-0.003515093712698669   -0.00554964199756814   -7.081171952449845e-05
-0.0033758723806829377   -0.008298141295318232   -0.00011926409620011678
-0.005034219282742221   -0.005531782633333175   -9.110750711883535e-05
-0.003515093712698669   -0.00554964199756814   -7.081171952449845e-05
-0.004843094369456427   -0.008296070036865544   -0.00015880898022307884
-0.004813045411649904   -0.008322937568003945   -0.00018909940964957273
-0.004987192971898187   -0.005578847396118627   -0.00012327136716805875
-0.006393308985980195   -0.008290822361670799   -0.00021181893446828597
-0.004830266232803812   -0.008308957343252004   -0.0001745520422949031
-0.004987192971898187   -0.005578847396118627   -0.00012327136716805875
-0.006570168073921937   -0.005563789256521432   -0.00014535461300644608
-0.006393308985980195   -0.008290822361670799   -0.00021181893446828597
-0.006580608890008658   -0.005551539407720013   -0.0001375260852951627
-0.004830266232803812   -0.008308957343252004   -0.0001745520422949031
-0.006394631255409468   -0.008280040340801209   -0.00019533230496077082
-0.006580608890008658   -0.005551539407720013   -0.0001375260852951627
-0.006393308985980195   -0.008290822361670799   -0.00021181893446828597
-0.004830266232803812   -0.008308957343252004   -0.0001745520422949031
-0.006580608890008658   -0.005551539407720013   -0.0001375260852951627
-0.005005044050534542   -0.005563798540758575   -0.00011335759022482909
-0.004987192971898187   -0.005578847396118627   -0.00012327136716805875
-0.004830266232803812   -0.008308957343252004   -0.0001745520422949031
-0.006580608890008658   -0.005551539407720013   -0.0001375260852951627
-0.004987192971898187   -0.005578847396118627   -0.00012327136716805875
-0.006393308985980195   -0.008290822361670799   -0.00021181893446828597
-0.004830266232803812   -0.008308957343252004   -0.0001745520422949031
-0.005005044050534542   -0.005563798540758575   -0.00011335759022482909
-0.006394631255409468   -0.008280040340801209   -0.00019533230496077082
-0.004843094369456427   -0.008296070036865544   -0.00015880898022307884
-0.005005044050534542   -0.005563798540758575   -0.00011335759022482909
-0.006580608890008658   -0.005551539407720013   -0.0001375260852951627
-0.006394631255409468   -0.008280040340801209   -0.00019533230496077082
-0.006590156249948368   -0.005537518003742147   -0.00012800450000288318
-0.004843094369456427   -0.008296070036865544   -0.00015880898022307884
-0.006396208763032508   -0.008269373727739308   -0.0001764545117547137
-0.006590156249948368   -0.005537518003742147   -0.00012800450000288318
-0.006394631255409468   -0.008280040340801209   -0.00019533230496077082
-0.004843094369456427   -0.008296070036865544   -0.00015880898022307884
-0.006590156249948368   -0.005537518003742147   -0.00012800450000288318
-0.005020046646924018   -0.005547957966349041   -0.00010273117494880883
-0.005005044050534542   -0.005563798540758575   -0.00011335759022482909
-0.004843094369456427   -0.008296070036865544   -0.00015880898022307884
-0.006590156249948368   -0.005537518003742147   -0.00012800450000288318
-0.005005044050534542   -0.005563798540758575   -0.00011335759022482909
-0.006394631255409468   -0.008280040340801209   -0.00019533230496077082
-0.004843094369456427   -0.008296070036865544   -0.00015880898022307884
-0.005020046646924018   -0.005547957966349041   -0.00010273117494880883
-0.006396208763032508   -0.008269373727739308   -0.0001764545117547137
-0.004855876534023817   -0.00828493117690418   -0.00014157093266829043
-0.005020046646924018   -0.005547957966349041   -0.00010273117494880883
-0.006590156249948368   -0.005537518003742147   -0.00012800450000288318
-0.006396208763032508   -0.008269373727739308   -0.0001764545117547137
-0.006594049722412653   -0.0055251294324875746   -0.00011718233661408111
-0.004855876534023817   -0.00828493117690418   -0.00014157093266829043
-0.006388543932796602   -0.008263453801035575   -0.0001554599395021024
-0.006594049722412653   -0.0055251294324875746   -0.00011718233661408111
-0.006396208763032508   -0.008269373727739308   -0.0001764545117547137
-0.004855876534023817   -0.00828493117690418   -0.00014157093266829043
-0.006594049722412653   -0.0055251294324875746   -0.00011718233661408111
-0.005034219282742221   -0.005531782633333175   -9.110750711883535e-05
-0.005020046646924018   -0.005547957966349041   -0.00010273117494880883
-0.004855876534023817   -0.00828493117690418   -0.00014157093266829043
-0.006594049722412653   -0.0055251294324875746   -0.00011718233661408111
-0.005020046646924018   -0.005547957966349041   -0.00010273117494880883
-0.006396208763032508   -0.008269373727739308   -0.0001764545117547137
0.00108125841059821   -0.005621493173534974   3.11244674671986e-05
0.0007643583846280023   -0.0028360766264913435   3.423923444191722e-05
-0.0005073954934752262   -0.00559625335036495   -1.2776515673781988e-05
0.0010484131410367769   -0.0055903403661636845   4.4150135314557034e-05
0.0007643583846280023   -0.0028360766264913435   3.423923444191722e-05
-0.0007252955351509791   -0.002801418749410346   2.0891321273432683e-05
-0.0005073954934752262   -0.00559625335036495   -1.2776515673781988e-05
-0.0007467599198500297   -0.002789634779765948   3.652707736972648e-05
0.0010484131410367769   -0.0055903403661636845   4.4150135314557034e-05
-0.0005286892892793652   -0.005570808274467811   -1.8354192732699604e-06
-0.0007467599198500297   -0.002789634779765948   3.652707736972648e-05
-0.0005073954934752262   -0.00559625335036495   -1.2776515673781988e-05
0.0010484131410367769   -0.0055903403661636845   4.4150135314557034e-05
-0.0007467599198500297   -0.002789634779765948   3.652707736972648e-05
0.0006971377667759031   -0.002802497824590551   7.252496059400179e-05
0.0007643583846280023   -0.0028360766264913435   3.423923444191722e-05
0.0010484131410367769   -0.0055903403661636845   4.4150135314557034e-05
-0.0007467599198500297   -0.002789634779765948   3.652707736972648e-05
0.0007643583846280023   -0.0028360766264913435   3.423923444191722e-05
-0.0005073954934752262   -0.00559625335036495   -1.2776515673781988e-05
0.0010484131410367769   -0.0055903403661636845   4.4150135314557034e-05
0.0006971377667759031   -0.002802497824590551   7.252496059400179e-05
-0.0005286892892793652   -0.005570808274467811   -1.8354192732699604e-06
0.0010111365976544207   -0.005559763214802757   6.339556514749647e-05
0.0006971377667759031   -0.002802497824590551   7.252496059400179e-05
-0.0007467599198500297   -0.002789634779765948   3.652707736972648e-05
-0.0005286892892793652   -0.005570808274467811   -1.8354192732699604e-06
-0.0007754569600394832   -0.0027669988559471574   5.565372200068428e-05
0.0010111365976544207   -0.005559763214802757   6.339556514749647e-05
-0.0005537142081794348   -0.005544103033356822   1.1143431469891647e-05
-0.0007754569600394832   -0.0027669988559471574   5.565372200068428e-05
-0.0005286892892793652   -0.005570808274467811   -1.8354192732699604e-06
0.0010111365976544207   -0.005559763214802757   6.339556514749647e-05
-0.0007754569600394832   -0.0027669988559471574   5.565372200068428e-05
0.0006579925894884916   -0.0027758112618743833   0.00010082471550703373
0.0006971377667759031   -0.002802497824590551   7.252496059400179e-05
0.0010111365976544207   -0.005559763214802757   6.339556514749647e-05
-0.0007754569600394832   -0.0027669988559471574   5.565372200068428e-05
0.0006971377667759031   -0.002802497824590551   7.252496059400179e-05
-0.0005286892892793652   -0.005570808274467811   -1.8354192732699604e-06
0.0010111365976544207   -0.005559763214802757   6.339556514749647e-05
0.0006579925894884916   -0.0027758112618743833   0.00010082471550703373
-0.0005537142081794348   -0.005544103033356822   1.1143431469891647e-05
0.0009655316413689566   -0.00552206086130861   8.46657760692373e-05
0.0006579925894884916   -0.0027758112618743833   0.00010082471550703373
-0.0007754569600394832   -0.0027669988559471574   5.565372200068428e-05
-0.0005537142081794348   -0.005544103033356822   1.1143431469891647e-05
-0.0007997978519440798   -0.0027429565929938627   7.246123568154756e-05
0.0009655316413689566   -0.00552206086130861   8.46657760692373e-05
-0.0005797351095892196   -0.005515883151921559   2.615119216387495e-05
-0.0007997978519440798   -0.0027429565929938627   7.246123568154756e-05
-0.0005537142081794348   -0.005544103033356822   1.1143431469891647e-05
0.0009655316413689566   -0.00552206086130861   8.46657760692373e-05
-0.0007997978519440798   -0.0027429565929938627   7.246123568154756e-05
0.0006074750038484105   -0.002734296222582133   0.00013335645387904457
0.0006579925894884916   -0.0027758112618743833   0.00010082471550703373
0.0009655316413689566   -0.00552206086130861   8.46657760692373e-05
-0.0007997978519440798   -0.0027429565929938627   7.246123568154756e-05
0.0006579925894884916   -0.0027758112618743833   0.00010082471550703373
-0.0005537142081794348   -0.005544103033356822   1.1143431469891647e-05
-0.0005073954934752262   -0.00559625335036495   -1.2776515673781988e-05
-0.0007252955351509791   -0.002801418749410346   2.0891321273432683e-05
-0.002001349693176595   -0.005589672539530587   -5.465703016084246e-05
-0.0005286892892793652   -0.005570808274467811   -1.8354192732699604e-06
-0.0007252955351509791   -0.002801418749410346   2.0891321273432683e-05
-0.002136952463438507   -0.0028443404343406167   -1.1319275933616847e-05
-0.002001349693176595   -0.005589672539530587   -5.465703016084246e-05
-0.002157148854657676   -0.0028251588429007153   -6.755141217873649e-08
-0.0005286892892793652   -0.005570808274467811   -1.8354192732699604e-06
-0.0020208245956977984   -0.005567796441810323   -4.4189371704829215e-05
-0.002157148854657676   -0.0028251588429007153   -6.755141217873649e-08
-0.002001349693176595   -0.005589672539530587   -5.465703016084246e-05
-0.0005286892892793652   -0.005570808274467811   -1.8354192732699604e-06
-0.002157148854657676   -0.0028251588429007153   -6.755141217873649e-08
-0.0007467599198500297   -0.002789634779765948   3.652707736972648e-05
-0.0007252955351509791   -0.002801418749410346   2.0891321273432683e-05
-0.0005286892892793652   -0.005570808274467811   -1.8354192732699604e-06
-0.002157148854657676   -0.0028251588429007153   -6.755141217873649e-08
-0.0007252955351509791   -0.002801418749410346   2.0891321273432683e-05
-0.002001349693176595   -0.005589672539530587   -5.465703016084246e-05
-0.0005286892892793652   -0.005570808274467811   -1.8354192732699604e-06
-0.0007467599198500297   -0.002789634779765948   3.652707736972648e-05
-0.0020208245956977984   -0.005567796441810323   -4.4189371704829215e-05
-0.0005537142081794348   -0.005544103033356822   1.1143431469891647e-05
-0.0007467599198500297   -0.002789634779765948   3.652707736972648e-05
-0.002157148854657676   -0.0028251588429007153   -6.755141217873649e-08
-0.0020208245956977984   -0.005567796441810323   -4.4189371704829215e-05
-0.002178523438476683   -0.0028032015194881235   1.1958254041985664e-05
-0.0005537142081794348   -0.005544103033356822   1.1143431469891647e-05
-0.002041027004660026   -0.005545099452082327   -3.2628221388594096e-05
-0.002178523438476683   -0.0028032015194881235   1.1958254041985664e-05
-0.0020208245956977984   -0.005567796441810323   -4.4189371704829215e-05
-0.0005537142081794348   -0.005544103033356822   1.1143431469891647e-05
-0.002178523438476683   -0.0028032015194881235   1.1958254041985664e-05
-0.0007754569600394832   -0.0027669988559471574   5.565372200068428e-05
-0.0007467599198500297   -0.002789634779765948   3.652707736972648e-05
-0.0005537142081794348   -0.005544103033356822   1.1143431469891647e-05
-0.002178523438476683   -0.0028032015194881235   1.1958254041985664e-05
-0.0007467599198500297   -0.002789634779765948   3.652707736972648e-05
-0.0020208245956977984   -0.005567796441810323   -4.4189371704829215e-05
-0.0005537142081794348   -0.005544103033356822   1.1143431469891647e-05
-0.0007754569600394832   -0.0027669988559471574   5.565372200068428e-05
-0.002041027004660026   -0.005545099452082327   -3.2628221388594096e-05
-0.0005797351095892196   -0.005515883151921559   2.615119216387495e-05
-0.0007754569600394832   -0.0027669988559471574   5.565372200068428e-05
-0.002178523438476683   -0.0028032015194881235   1.1958254041985664e-05
-0.002041027004660026   -0.005545099452082327   -3.2628221388594096e-05
-0.0021990342786280663   -0.002779132764820909   2.5290990680958848e-05
-0.0005797351095892196   -0.005515883151921559   2.615119216387495e-05
-0.00206211613548975   -0.005522066620327959   -1.9767636008031355e-05
-0.0021990342786280663   -0.002779132764820909   2.5290990680958848e-05
-0.002041027004660026   -0.005545099452082327   -3.2628221388594096e-05
-0.0005797351095892196   -0.005515883151921559   2.615119216387495e-05
-0.0021990342786280663   -0.002779132764820909   2.5290990680958848e-05
-0.0007997978519440798   -0.0027429565929938627   7.246123568154756e-05
-0.0007754569600394832   -0.0027669988559471574   5.565372200068428e-05
-0.0005797351095892196   -0.005515883151921559   2.615119216387495e-05
-0.0021990342786280663   -0.002779132764820909   2.5290990680958848e-05
-0.0007754569600394832   -0.0027669988559471574   5.565372200068428e-05
-0.002041027004660026   -0.005545099452082327   -3.2628221388594096e-05
-0.002001349693176595   -0.005589672539530587   -5.465703016084246e-05
-0.002136952463438507   -0.0028443404343406167   -1.1319275933616847e-05
-0.0034785161570013547   -0.005587773579227812   -9.224141834691896e-05
-0.0020208245956977984   -0.005567796441810323   -4.4189371704829215e-05
-0.002136952463438507   -0.0028443404343406167   -1.1319275933616847e-05
-0.003580566962780865   -0.002877912244061221   -4.777140326609754e-05
-0.0034785161570013547   -0.005587773579227812   -9.224141834691896e-05
-0.003598895978648585   -0.0028581320354588062   -3.890711238733797e-05
-0.0020208245956977984   -0.005567796441810323   -4.4189371704829215e-05
-0.0034972454854786264   -0.005568831582813805   -8.200928996629057e-05
-0.003598895978648585   -0.0028581320354588062   -3.890711238733797e-05
-0.0034785161570013547   -0.005587773579227812   -9.224141834691896e-05
-0.0020208245956977984   -0.005567796441810323   -4.4189371704829215e-05
-0.003598895978648585   -0.0028581320354588062   -3.890711238733797e-05
-0.002157148854657676   -0.0028251588429007153   -6.755141217873649e-08
-0.002136952463438507   -0.0028443404343406167   -1.1319275933616847e-05
-0.0020208245956977984   -0.005567796441810323   -4.4189371704829215e-05
-0.003598895978648585   -0.0028581320354588062   -3.890711238733797e-05
-0.002136952463438507   -0.0028443404343406167   -1.1319275933616847e-05
-0.0034785161570013547   -0.005587773579227812   -9.224141834691896e-05
-0.0020208245956977984   -0.005567796441810323   -4.4189371704829215e-05
-0.002157148854657676   -0.0028251588429007153   -6.755141217873649e-08
-0.0034972454854786264   -0.005568831582813805   -8.200928996629057e-05
-0.002041027004660026   -0.005545099452082327   -3.2628221388594096e-05
-0.002157148854657676   -0.0028251588429007153   -6.755141217873649e-08
-0.003598895978648585   -0.0028581320354588062   -3.890711238733797e-05
-0.0034972454854786264   -0.005568831582813805   -8.200928996629057e-05
-0.0036165732005260637   -0.0028371081872865613   -2.998722397371656e-05
-0.002041027004660026   -0.005545099452082327   -3.2628221388594096e-05
-0.003515093712698669   -0.00554964199756814   -7.081171952449845e-05
-0.0036165732005260637   -0.0028371081872865613   -2.998722397371656e-05
-0.0034972454854786264   -0.005568831582813805   -8.200928996629057e-05
-0.002041027004660026   -0.005545099452082327   -3.2628221388594096e-05
-0.0036165732005260637   -0.0028371081872865613   -2.998722397371656e-05
-0.002178523438476683   -0.0028032015194881235   1.1958254041985664e-05
-0.002157148854657676   -0.0028251588429007153   -6.755141217873649e-08
-0.002041027004660026   -0.005545099452082327   -3.2628221388594096e-05
-0.0036165732005260637   -0.0028371081872865613   -2.998722397371656e-05
-0.002157148854657676   -0.0028251588429007153   -6.755141217873649e-08
-0.0034972454854786264   -0.005568831582813805   -8.200928996629057e-05
-0.002041027004660026   -0.005545099452082327   -3.2628221388594096e-05
-0.002178523438476683   -0.0028032015194881235   1.1958254041985664e-05
-0.003515093712698669   -0.00554964199756814   -7.081171952449845e-05
-0.00206211613548975   -0.005522066620327959   -1.9767636008031355e-05
-0.002178523438476683   -0.0028032015194881235   1.1958254041985664e-05
-0.0036165732005260637   -0.0028371081872865613   -2.998722397371656e-05
-0.003515093712698669   -0.00554964199756814   -7.081171952449845e-05
-0.0036329763842256587   -0.0028142419467020556   -2.0186706748889856e-05
-0.00206211613548975   -0.005522066620327959   -1.9767636008031355e-05
-0.0035327685696130875   -0.005530080563480656   -5.8694770213412984e-05
-0.0036329763842256587   -0.0028142419467020556   -2.0186706748889856e-05
-0.003515093712698669   -0.00554964199756814   -7.081171952449845e-05
-0.00206211613548975   -0.005522066620327959   -1.9767636008031355e-05
-0.0036329763842256587   -0.0028142419467020556   -2.0186706748889856e-05
-0.0021990342786280663   -0.002779132764820909   2.5290990680958848e-05
-0.002178523438476683   -0.0028032015194881235   1.1958254041985664e-05
-0.00206211613548975   -0.005522066620327959   -1.9767636008031355e-05
-0.0036329763842256587   -0.0028142419467020556   -2.0186706748889856e-05
-0.002178523438476683   -0.0028032015194881235   1.1958254041985664e-05
-0.003515093712698669   -0.00554964199756814   -7.081171952449845e-05
-0.0034785161570013547   -0.005587773579227812   -9.224141834691896e-05
-0.003580566962780865   -0.002877912244061221   -4.777140326609754e-05
-0.004987192971898187   -0.005578847396118627   -0.00012327136716805875
-0.0034972454854786264   -0.005568831582813805   -8.200928996629057e-05
-0.003580566962780865   -0.002877912244061221   -4.777140326609754e-05
-0.005074968450860144   -0.0028918264516124134   -8.124563209799883e-05
-0.004987192971898187   -0.005578847396118627   -0.00012327136716805875
-0.005091523019074013   -0.0028742902436826563   -7.466349649105871e-05
-0.0034972454854786264   -0.005568831582813805   -8.200928996629057e-05
-0.005005044050534542   -0.005563798540758575   -0.00011335759022482909
-0.005091523019074013   -0.0028742902436826563   -7.466349649105871e-05
-0.004987192971898187   -0.005578847396118627   -0.00012327136716805875
-0.0034972454854786264   -0.005568831582813805   -8.200928996629057e-05
-0.005091523019074013   -0.0028742902436826563   -7.466349649105871e-05
-0.003598895978648585   -0.0028581320354588062   -3.890711238733797e-05
-0.003580566962780865   -0.002877912244061221   -4.777140326609754e-05
-0.0034972454854786264   -0.005568831582813805   -8.200928996629057e-05
-0.005091523019074013   -0.0028742902436826563   -7.466349649105871e-05
-0.003580566962780865   -0.002877912244061221   -4.777140326609754e-05
-0.004987192971898187   -0.005578847396118627   -0.00012327136716805875
-0.0034972454854786264   -0.005568831582813805   -8.200928996629057e-05
-0.003598895978648585   -0.0028581320354588062   -3.890711238733797e-05
-0.005005044050534542   -0.005563798540758575   -0.00011335759022482909
-0.003515093712698669   -0.00554964199756814   -7.081171952449845e-05
-0.003598895978648585   -0.0028581320354588062   -3.890711238733797e-05
-0.005091523019074013   -0.0028742902436826563   -7.466349649105871e-05
-0.005005044050534542   -0.005563798540758575   -0.00011335759022482909
-0.005106283317768951   -0.0028550102059935697   -6.81914511443611e-05
-0.003515093712698669   -0.00554964199756814   -7.081171952449845e-05
-0.005020046646924018   -0.005547957966349041   -0.00010273117494880883
-0.005106283317768951   -0.0028550102059935697   -6.81914511443611e-05
-0.005005044050534542   -0.005563798540758575   -0.00011335759022482909
-0.003515093712698669   -0.00554964199756814   -7.081171952449845e-05
-0.005106283317768951   -0.0028550102059935697   -6.81914511443611e-05
-0.0036165732005260637   -0.0028371081872865613   -2.998722397371656e-05
-0.003598895978648585   -0.0028581320354588062   -3.890711238733797e-05
-0.003515093712698669   -0.00554964199756814   -7.081171952449845e-05
-0.005106283317768951   -0.0028550102059935697   -6.81914511443611e-05
-0.003598895978648585   -0.0028581320354588062   -3.890711238733797e-05
-0.005005044050534542   -0.005563798540758575   -0.00011335759022482909
-0.003515093712698669   -0.00554964199756814   -7.081171952449845e-05
-0.0036165732005260637   -0.0028371081872865613   -2.998722397371656e-05
-0.005020046646924018   -0.005547957966349041   -0.00010273117494880883
-0.0035327685696130875   -0.005530080563480656   -5.8694770213412984e-05
-0.0036165732005260637   -0.0028371081872865613   -2.998722397371656e-05
-0.005106283317768951   -0.0028550102059935697   -6.81914511443611e-05
-0.005020046646924018   -0.005547957966349041   -0.00010273117494880883
-0.005119681965947584   -0.0028343984528803622   -6.14365961898567e-05
-0.0035327685696130875   -0.005530080563480656   -5.8694770213412984e-05
-0.005034219282742221   -0.005531782633333175   -9.110750711883535e-05
-0.005119681965947584   -0.0028343984528803622   -6.14365961898567e-05
-0.005020046646924018   -0.005547957966349041   -0.00010273117494880883
-0.0035327685696130875   -0.005530080563480656   -5.8694770213412984e-05
-0.005119681965947584   -0.0028343984528803622   -6.14365961898567e-05
-0.0036329763842256587   -0.0028142419467020556   -2.0186706748889856e-05
-0.0036165732005260637   -0.0028371081872865613   -2.998722397371656e-05
-0.0035327685696130875   -0.005530080563480656   -5.8694770213412984e-05
-0.005119681965947584   -0.0028343984528803622   -6.14365961898567e-05
-0.0036165732005260637   -0.0028371081872865613   -2.998722397371656e-05
-0.005020046646924018   -0.005547957966349041   -0.00010273117494880883
-0.004987192971898187   -0.005578847396118627   -0.00012327136716805875
-0.005074968450860144   -0.0028918264516124134   -8.124563209799883e-05
-0.006570168073921937   -0.005563789256521432   -0.00014535461300644608
-0.005005044050534542   -0.005563798540758575   -0.00011335759022482909
-0.005074968450860144   -0.0028918264516124134   -8.124563209799883e-05
-0.006625096864263967   -0.002893159089631848   -0.00010843595082235819
-0.006570168073921937   -0.005563789256521432   -0.00014535461300644608
-0.0066391198983962885   -0.0028762422222177947   -0.00010537779070209616
-0.005005044050534542   -0.005563798540758575   -0.00011335759022482909
-0.006580608890008658   -0.005551539407720013   -0.0001375260852951627
-0.0066391198983962885   -0.0028762422222177947   -0.00010537779070209616
-0.006570168073921937   -0.005563789256521432   -0.00014535461300644608
-0.005005044050534542   -0.005563798540758575   -0.00011335759022482909
-0.0066391198983962885   -0.0028762422222177947   -0.00010537779070209616
-0.005091523019074013   -0.0028742902436826563   -7.466349649105871e-05
-0.005074968450860144   -0.0028918264516124134   -8.124563209799883e-05
-0.005005044050534542   -0.005563798540758575   -0.00011335759022482909
-0.0066391198983962885   -0.0028762422222177947   -0.00010537779070209616
-0.005074968450860144   -0.0028918264516124134   -8.124563209799883e-05
-0.006570168073921937   -0.005563789256521432   -0.00014535461300644608
-0.005005044050534542   -0.005563798540758575   -0.00011335759022482909
-0.005091523019074013   -0.0028742902436826563   -7.466349649105871e-05
-0.006580608890008658   -0.005551539407720013   -0.0001375260852951627
-0.005020046646924018   -0.005547957966349041   -0.00010273117494880883
-0.005091523019074013   -0.0028742902436826563   -7.466349649105871e-05
-0.0066391198983962885   -0.0028762422222177947   -0.00010537779070209616
-0.006580608890008658   -0.005551539407720013   -0.0001375260852951627
-0.006651683560764857   -0.002857769400851296   -0.00010175804039994735
-0.005020046646924018   -0.005547957966349041   -0.00010273117494880883
-0.006590156249948368   -0.005537518003742147   -0.00012800450000288318
-0.006651683560764857   -0.002857769400851296   -0.00010175804039994735
-0.006580608890008658   -0.005551539407720013   -0.0001375260852951627
-0.005020046646924018   -0.005547957966349041   -0.00010273117494880883
-0.006651683560764857   -0.002857769400851296   -0.00010175804039994735
-0.005106283317768951   -0.0028550102059935697   -6.81914511443611e-05
-0.005091523019074013   -0.0028742902436826563   -7.466349649105871e-05
-0.005020046646924018   -0.005547957966349041   -0.00010273117494880883
-0.006651683560764857   -0.002857769400851296   -0.00010175804039994735
-0.005091523019074013   -0.0028742902436826563   -7.466349649105871e-05
-0.006580608890008658   -0.005551539407720013   -0.0001375260852951627
-0.005020046646924018   -0.005547957966349041   -0.00010273117494880883
-0.005106283317768951   -0.0028550102059935697   -6.81914511443611e-05
-0.006590156249948368   -0.005537518003742147   -0.00012800450000288318
-0.005034219282742221   -0.005531782633333175   -9.110750711883535e-05
-0.005106283317768951   -0.0028550102059935697   -6.81914511443611e-05
-0.006651683560764857   -0.002857769400851296   -0.00010175804039994735
-0.006590156249948368   -0.005537518003742147   -0.00012800450000288318
-0.006661990105621587   -0.0028382430732251085   -9.824364387852327e-05
-0.005034219282742221   -0.005531782633333175   -9.110750711883535e-05
-0.006594049722412653   -0.0055251294324875746   -0.00011718233661408111
-0.006661990105621587   -0.0028382430732251085   -9.824364387852327e-05
-0.006590156249948368   -0.005537518003742147   -0.00012800450000288318
-0.005034219282742221   -0.005531782633333175   -9.110750711883535e-05
-0.006661990105621587   -0.0028382430732251085   -9.824364387852327e-05
-0.005119681965947584   -0.0028343984528803622   -6.14365961898567e-05
-0.005106283317768951   -0.0028550102059935697   -6.81914511443611e-05
-0.005034219282742221   -0.005531782633333175   -9.110750711883535e-05
-0.006661990105621587   -0.0028382430732251085   -9.824364387852327e-05
-0.005106283317768951   -0.0028550102059935697   -6.81914511443611e-05
-0.006590156249948368   -0.005537518003742147   -0.00012800450000288318
0.0007643583846280023   -0.0028360766264913435   3.423923444191722e-05
0.0   0.0   0.0
-0.0007252955351509791   -0.002801418749410346   2.0891321273432683e-05
0.0006971377667759031   -0.002802497824590551   7.252496059400179e-05
0.0   0.0   0.0
-0.0009020193253438465   -0.00024306007799532208   -4.2009087879009945e-06
-0.0007252955351509791   -0.002801418749410346   2.0891321273432683e-05
-0.0009562195891641743   -0.0001917814786277964   2.833074119566946e-05
0.0006971377667759031   -0.002802497824590551   7.252496059400179e-05
-0.0007467599198500297   -0.002789634779765948   3.652707736972648e-05
-0.0009562195891641743   -0.0001917814786277964   2.833074119566946e-05
-0.0007252955351509791   -0.002801418749410346   2.0891321273432683e-05
0.0006971377667759031   -0.002802497824590551   7.252496059400179e-05
-0.0009562195891641743   -0.0001917814786277964   2.833074119566946e-05
0.0   0.0   0.0
0.0   0.0   0.0
0.0006971377667759031   -0.002802497824590551   7.252496059400179e-05
-0.0009562195891641743   -0.0001917814786277964   2.833074119566946e-05
0.0   0.0   0.0
-0.0007252955351509791   -0.002801418749410346   2.0891321273432683e-05
0.0006971377667759031   -0.002802497824590551   7.252496059400179e-05
0.0   0.0   0.0
-0.0007467599198500297   -0.002789634779765948   3.652707736972648e-05
0.0006579925894884916   -0.0027758112618743833   0.00010082471550703373
0.0   0.0   0.0
-0.0009562195891641743   -0.0001917814786277964   2.833074119566946e-05
-0.0007467599198500297   -0.002789634779765948   3.652707736972648e-05
-0.0009906681504083638   -0.0001674545550198866   4.7590378908590644e-05
0.0006579925894884916   -0.0027758112618743833   0.00010082471550703373
-0.0007754569600394832   -0.0027669988559471574   5.565372200068428e-05
-0.0009906681504083638   -0.0001674545550198866   4.7590378908590644e-05
-0.0007467599198500297   -0.002789634779765948   3.652707736972648e-05
0.0006579925894884916   -0.0027758112618743833   0.00010082471550703373
-0.0009906681504083638   -0.0001674545550198866   4.7590378908590644e-05
0.0   0.0   0.0
0.0   0.0   0.0
0.0006579925894884916   -0.0027758112618743833   0.00010082471550703373
-0.0009906681504083638   -0.0001674545550198866   4.7590378908590644e-05
0.0   0.0   0.0
-0.0007467599198500297   -0.002789634779765948   3.652707736972648e-05
0.0006579925894884916   -0.0027758112618743833   0.00010082471550703373
0.0   0.0   0.0
-0.0007754569600394832   -0.0027669988559471574   5.565372200068428e-05
0.0006074750038484105   -0.002734296222582133   0.00013335645387904457
0.0   0.0   0.0
-0.0009906681504083638   -0.0001674545550198866   4.7590378908590644e-05
-0.0007754569600394832   -0.0027669988559471574   5.565372200068428e-05
-0.001037609439123613   -0.00013490361174721386   6.978934585978221e-05
0.0006074750038484105   -0.002734296222582133   0.00013335645387904457
-0.0007997978519440798   -0.0027429565929938627   7.246123568154756e-05
-0.001037609439123613   -0.00013490361174721386   6.978934585978221e-05
-0.0007754569600394832   -0.0027669988559471574   5.565372200068428e-05
0.0006074750038484105   -0.002734296222582133   0.00013335645387904457
-0.001037609439123613   -0.00013490361174721386   6.978934585978221e-05
0.0   0.0   0.0
0.0   0.0   0.0
0.0006074750038484105   -0.002734296222582133   0.00013335645387904457
-0.001037609439123613   -0.00013490361174721386   6.978934585978221e-05
0.0   0.0   0.0
-0.0007754569600394832   -0.0027669988559471574   5.565372200068428e-05
-0.0007252955351509791   -0.002801418749410346   2.0891321273432683e-05
-0.0009020193253438465   -0.00024306007799532208   -4.2009087879009945e-06
-0.002136952463438507   -0.0028443404343406167   -1.1319275933616847e-05
-0.0007467599198500297   -0.002789634779765948   3.652707736972648e-05
-0.0009020193253438465   -0.00024306007799532208   -4.2009087879009945e-06
-0.0021976441949450795   -0.00032364480197468213   9.889555734170564e-07
-0.002136952463438507   -0.0028443404343406167   -1.1319275933616847e-05
-0.0022261418216483492   -0.0002964346231977088   9.983553482109717e-06
-0.0007467599198500297   -0.002789634779765948   3.652707736972648e-05
-0.002157148854657676   -0.0028251588429007153   -6.755141217873649e-08
-0.0022261418216483492   -0.0002964346231977088   9.983553482109717e-06
-0.002136952463438507   -0.0028443404343406167   -1.1319275933616847e-05
-0.0007467599198500297   -0.002789634779765948   3.652707736972648e-05
-0.0022261418216483492   -0.0002964346231977088   9.983553482109717e-06
-0.0009562195891641743   -0.0001917814786277964   2.833074119566946e-05
-0.0009020193253438465   -0.00024306007799532208   -4.2009087879009945e-06
-0.0007467599198500297   -0.002789634779765948   3.652707736972648e-05
-0.0022261418216483492   -0.0002964346231977088   9.983553482109717e-06
-0.0009020193253438465   -0.00024306007799532208   -4.2009087879009945e-06
-0.002136952463438507   -0.0028443404343406167   -1.1319275933616847e-05
-0.0007467599198500297   -0.002789634779765948   3.652707736972648e-05
-0.0009562195891641743   -0.0001917814786277964   2.833074119566946e-05
-0.002157148854657676   -0.0028251588429007153   -6.755141217873649e-08
-0.0007754569600394832   -0.0027669988559471574   5.565372200068428e-05
-0.0009562195891641743   -0.0001917814786277964   2.833074119566946e-05
-0.0022261418216483492   -0.0002964346231977088   9.983553482109717e-06
-0.002157148854657676   -0.0028251588429007153   -6.755141217873649e-08
-0.0022547201908761877   -0.0002643805511641743   2.5598206070718657e-05
-0.0007754569600394832   -0.0027669988559471574   5.565372200068428e-05
-0.002178523438476683   -0.0028032015194881235   1.1958254041985664e-05
-0.0022547201908761877   -0.0002643805511641743   2.5598206070718657e-05
-0.002157148854657676   -0.0028251588429007153   -6.755141217873649e-08
-0.0007754569600394832   -0.0027669988559471574   5.565372200068428e-05
-0.0022547201908761877   -0.0002643805511641743   2.5598206070718657e-05
-0.0009906681504083638   -0.0001674545550198866   4.7590378908590644e-05
-0.0009562195891641743   -0.0001917814786277964   2.833074119566946e-05
-0.0007754569600394832   -0.0027669988559471574   5.565372200068428e-05
-0.0022547201908761877   -0.0002643805511641743   2.5598206070718657e-05
-0.0009562195891641743   -0.0001917814786277964   2.833074119566946e-05
-0.002157148854657676   -0.0028251588429007153   -6.755141217873649e-08
-0.0007754569600394832   -0.0027669988559471574   5.565372200068428e-05
-0.0009906681504083638   -0.0001674545550198866   4.7590378908590644e-05
-0.002178523438476683   -0.0028032015194881235   1.1958254041985664e-05
-0.0007997978519440798   -0.0027429565929938627   7.246123568154756e-05
-0.0009906681504083638   -0.0001674545550198866   4.7590378908590644e-05
-0.0022547201908761877   -0.0002643805511641743   2.5598206070718657e-05
-0.002178523438476683   -0.0028032015194881235   1.1958254041985664e-05
-0.002287148969600692   -0.0002268270913235997   4.085956097543312e-05
-0.0007997978519440798   -0.0027429565929938627   7.246123568154756e-05
-0.0021990342786280663   -0.002779132764820909   2.5290990680958848e-05
-0.002287148969600692   -0.0002268270913235997   4.085956097543312e-05
-0.002178523438476683   -0.0028032015194881235   1.1958254041985664e-05
-0.0007997978519440798   -0.0027429565929938627   7.246123568154756e-05
-0.002287148969600692   -0.0002268270913235997   4.085956097543312e-05
-0.001037609439123613   -0.00013490361174721386   6.978934585978221e-05
-0.0009906681504083638   -0.0001674545550198866   4.7590378908590644e-05
-0.0007997978519440798   -0.0027429565929938627   7.246123568154756e-05
-0.002287148969600692   -0.0002268270913235997   4.085956097543312e-05
-0.0009906681504083638   -0.0001674545550198866   4.7590378908590644e-05
-0.002178523438476683   -0.0028032015194881235   1.1958254041985664e-05
-0.002136952463438507   -0.0028443404343406167   -1.1319275933616847e-05
-0.0021976441949450795   -0.00032364480197468213   9.889555734170564e-07
-0.003580566962780865   -0.002877912244061221   -4.777140326609754e-05
-0.002157148854657676   -0.0028251588429007153   -6.755141217873649e-08
-0.0021976441949450795   -0.00032364480197468213   9.889555734170564e-07
-0.003614965722825417   -0.0003491200104359797   -2.0255804995074297e-05
-0.003580566962780865   -0.002877912244061221   -4.777140326609754e-05
-0.0036325805168341664   -0.0003288081019966084   -1.746779200494459e-05
-0.002157148854657676   -0.0028251588429007153   -6.755141217873649e-08
-0.003598895978648585   -0.0028581320354588062   -3.890711238733797e-05
-0.0036325805168341664   -0.0003288081019966084   -1.746779200494459e-05
-0.003580566962780865   -0.002877912244061221   -4.777140326609754e-05
-0.002157148854657676   -0.0028251588429007153   -6.755141217873649e-08
-0.0036325805168341664   -0.0003288081019966084   -1.746779200494459e-05
-0.0022261418216483492   -0.0002964346231977088   9.983553482109717e-06
-0.0021976441949450795   -0.00032364480197468213   9.889555734170564e-07
-0.002157148854657676   -0.0028251588429007153   -6.755141217873649e-08
-0.0036325805168341664   -0.0003288081019966084   -1.746779200494459e-05
-0.0021976441949450795   -0.00032364480197468213   9.889555734170564e-07
-0.003580566962780865   -0.002877912244061221   -4.777140326609754e-05
-0.002157148854657676   -0.0028251588429007153   -6.755141217873649e-08
-0.0022261418216483492   -0.0002964346231977088   9.983553482109717e-06
-0.003598895978648585   -0.0028581320354588062   -3.890711238733797e-05
-0.002178523438476683   -0.0028032015194881235   1.1958254041985664e-05
-0.0022261418216483492   -0.0002964346231977088   9.983553482109717e-06
-0.0036325805168341664   -0.0003288081019966084   -1.746779200494459e-05
-0.003598895978648585   -0.0028581320354588062   -3.890711238733797e-05
-0.0036509546813066054   -0.0003047818398595976   -1.274498943339819e-05
-0.002178523438476683   -0.0028032015194881235   1.1958254041985664e-05
-0.0036165732005260637   -0.0028371081872865613   -2.998722397371656e-05
-0.0036509546813066054   -0.0003047818398595976   -1.274498943339819e-05
-0.003598895978648585   -0.0028581320354588062   -3.890711238733797e-05
-0.002178523438476683   -0.0028032015194881235   1.1958254041985664e-05
-0.0036509546813066054   -0.0003047818398595976   -1.274498943339819e-05
-0.0022547201908761877   -0.0002643805511641743   2.5598206070718657e-05
-0.0022261418216483492   -0.0002964346231977088   9.983553482109717e-06
-0.002178523438476683   -0.0028032015194881235   1.1958254041985664e-05
-0.0036509546813066054   -0.0003047818398595976   -1.274498943339819e-05
-0.0022261418216483492   -0.0002964346231977088   9.983553482109717e-06
-0.003598895978648585   -0.0028581320354588062   -3.890711238733797e-05
-0.002178523438476683   -0.0028032015194881235   1.1958254041985664e-05
-0.0022547201908761877   -0.0002643805511641743   2.5598206070718657e-05
-0.0036165732005260637   -0.0028371081872865613   -2.998722397371656e-05
-0.0021990342786280663   -0.002779132764820909   2.5290990680958848e-05
-0.0022547201908761877   -0.0002643805511641743   2.5598206070718657e-05
-0.0036509546813066054   -0.0003047818398595976   -1.274498943339819e-05
-0.0036165732005260637   -0.0028371081872865613   -2.998722397371656e-05
-0.0036690362414651075   -0.0002747998559579322   -6.494033255021856e-06
-0.0021990342786280663   -0.002779132764820909   2.5290990680958848e-05
-0.0036329763842256587   -0.0028142419467020556   -2.0186706748889856e-05
-0.0036690362414651075   -0.0002747998559579322   -6.494033255021856e-06
-0.0036165732005260637   -0.0028371081872865613   -2.998722397371656e-05
-0.0021990342786280663   -0.002779132764820909   2.5290990680958848e-05
-0.0036690362414651075   -0.0002747998559579322   -6.494033255021856e-06
-0.002287148969600692   -0.0002268270913235997   4.085956097543312e-05
-0.0022547201908761877   -0.0002643805511641743   2.5598206070718657e-05
-0.0021990342786280663   -0.002779132764820909   2.5290990680958848e-05
-0.0036690362414651075   -0.0002747998559579322   -6.494033255021856e-06
-0.0022547201908761877   -0.0002643805511641743   2.5598206070718657e-05
-0.0036165732005260637   -0.0028371081872865613   -2.998722397371656e-05
-0.003580566962780865   -0.002877912244061221   -4.777140326609754e-05
-0.003614965722825417   -0.0003491200104359797   -2.0255804995074297e-05
-0.005074968450860144   -0.0028918264516124134   -8.124563209799883e-05
-0.003598895978648585   -0.0028581320354588062   -3.890711238733797e-05
-0.003614965722825417   -0.0003491200104359797   -2.0255804995074297e-05
-0.0051017289211682925   -0.00034811773897005995   -5.3139487612963205e-05
-0.005074968450860144   -0.0028918264516124134   -8.124563209799883e-05
-0.005113710329260628   -0.0003305419852630316   -5.1901049619718216e-05
-0.003598895978648585   -0.0028581320354588062   -3.890711238733797e-05
-0.005091523019074013   -0.0028742902436826563   -7.466349649105871e-05
-0.005113710329260628   -0.0003305419852630316   -5.1901049619718216e-05
-0.005074968450860144   -0.0028918264516124134   -8.124563209799883e-05
-0.003598895978648585   -0.0028581320354588062   -3.890711238733797e-05
-0.005113710329260628   -0.0003305419852630316   -5.1901049619718216e-05
-0.0036325805168341664   -0.0003288081019966084   -1.746779200494459e-05
-0.003614965722825417   -0.0003491200104359797   -2.0255804995074297e-05
-0.003598895978648585   -0.0028581320354588062   -3.890711238733797e-05
-0.005113710329260628   -0.0003305419852630316   -5.1901049619718216e-05
-0.003614965722825417   -0.0003491200104359797   -2.0255804995074297e-05
-0.005074968450860144   -0.0028918264516124134   -8.124563209799883e-05
-0.003598895978648585   -0.0028581320354588062   -3.890711238733797e-05
-0.0036325805168341664   -0.0003288081019966084   -1.746779200494459e-05
-0.005091523019074013   -0.0028742902436826563   -7.466349649105871e-05
-0.0036165732005260637   -0.0028371081872865613   -2.998722397371656e-05
-0.0036325805168341664   -0.0003288081019966084   -1.746779200494459e-05
-0.005113710329260628   -0.0003305419852630316   -5.1901049619718216e-05
-0.005091523019074013   -0.0028742902436826563   -7.466349649105871e-05
-0.0051261906583809054   -0.0003105443105209376   -5.078931876890378e-05
-0.0036165732005260637   -0.0028371081872865613   -2.998722397371656e-05
-0.005106283317768951   -0.0028550102059935697   -6.81914511443611e-05
-0.0051261906583809054   -0.0003105443105209376   -5.078931876890378e-05
-0.005091523019074013   -0.0028742902436826563   -7.466349649105871e-05
-0.0036165732005260637   -0.0028371081872865613   -2.998722397371656e-05
-0.0051261906583809054   -0.0003105443105209376   -5.078931876890378e-05
-0.0036509546813066054   -0.0003047818398595976   -1.274498943339819e-05
-0.0036325805168341664   -0.0003288081019966084   -1.746779200494459e-05
-0.0036165732005260637   -0.0028371081872865613   -2.998722397371656e-05
-0.0051261906583809054   -0.0003105443105209376   -5.078931876890378e-05
-0.0036325805168341664   -0.0003288081019966084   -1.746779200494459e-05
-0.005091523019074013   -0.0028742902436826563   -7.466349649105871e-05
-0.0036165732005260637   -0.0028371081872865613   -2.998722397371656e-05
-0.0036509546813066054   -0.0003047818398595976   -1.274498943339819e-05
-0.005106283317768951   -0.0028550102059935697   -6.81914511443611e-05
-0.0036329763842256587   -0.0028142419467020556   -2.0186706748889856e-05
-0.0036509546813066054   -0.0003047818398595976   -1.274498943339819e-05
-0.0051261906583809054   -0.0003105443105209376   -5.078931876890378e-05
-0.005106283317768951   -0.0028550102059935697   -6.81914511443611e-05
-0.005136125204749224   -0.000288449731777055   -4.983375083721125e-05
-0.0036329763842256587   -0.0028142419467020556   -2.0186706748889856e-05
-0.005119681965947584   -0.0028343984528803622   -6.14365961898567e-05
-0.005136125204749224   -0.000288449731777055   -4.983375083721125e-05
-0.005106283317768951   -0.0028550102059935697   -6.81914511443611e-05
-0.0036329763842256587   -0.0028142419467020556   -2.0186706748889856e-05
-0.005136125204749224   -0.000288449731777055   -4.983375083721125e-05
-0.0036690362414651075   -0.0002747998559579322   -6.494033255021856e-06
-0.0036509546813066054   -0.0003047818398595976   -1.274498943339819e-05
-0.0036329763842256587   -0.0028142419467020556   -2.0186706748889856e-05
-0.005136125204749224   -0.000288449731777055   -4.983375083721125e-05
-0.0036509546813066054   -0.0003047818398595976   -1.274498943339819e-05
-0.005106283317768951   -0.0028550102059935697   -6.81914511443611e-05
-0.005074968450860144   -0.0028918264516124134   -8.124563209799883e-05
-0.0051017289211682925   -0.00034811773897005995   -5.3139487612963205e-05
-0.006625096864263967   -0.002893159089631848   -0.00010843595082235819
-0.005091523019074013   -0.0028742902436826563   -7.466349649105871e-05
-0.0051017289211682925   -0.00034811773897005995   -5.3139487612963205e-05
-0.006631359902900814   -0.0003461287879677154   -8.572826364077135e-05
-0.006625096864263967   -0.002893159089631848   -0.00010843595082235819
-0.006640939544431371   -0.00032722357289058726   -8.556715111078175e-05
-0.005091523019074013   -0.0028742902436826563   -7.466349649105871e-05
-0.0066391198983962885   -0.0028762422222177947   -0.00010537779070209616
-0.006640939544431371   -0.00032722357289058726   -8.556715111078175e-05
-0.006625096864263967   -0.002893159089631848   -0.00010843595082235819
-0.005091523019074013   -0.0028742902436826563   -7.466349649105871e-05
-0.006640939544431371   -0.00032722357289058726   -8.556715111078175e-05
-0.005113710329260628   -0.0003305419852630316   -5.1901049619718216e-05
-0.0051017289211682925   -0.00034811773897005995   -5.3139487612963205e-05
-0.005091523019074013   -0.0028742902436826563   -7.466349649105871e-05
-0.006640939544431371   -0.00032722357289058726   -8.556715111078175e-05
-0.0051017289211682925   -0.00034811773897005995   -5.3139487612963205e-05
-0.006625096864263967   -0.002893159089631848   -0.00010843595082235819
-0.005091523019074013   -0.0028742902436826563   -7.466349649105871e-05
-0.005113710329260628   -0.0003305419852630316   -5.1901049619718216e-05
-0.0066391198983962885   -0.0028762422222177947   -0.00010537779070209616
-0.005106283317768951   -0.0028550102059935697   -6.81914511443611e-05
-0.005113710329260628   -0.0003305419852630316   -5.1901049619718216e-05
-0.006640939544431371   -0.00032722357289058726   -8.556715111078175e-05
-0.0066391198983962885   -0.0028762422222177947   -0.00010537779070209616
-0.006651415939068566   -0.00030804262011052246   -8.689675085227152e-05
-0.005106283317768951   -0.0028550102059935697   -6.81914511443611e-05
-0.006651683560764857   -0.002857769400851296   -0.00010175804039994735
-0.006651415939068566   -0.00030804262011052246   -8.689675085227152e-05
-0.0066391198983962885   -0.0028762422222177947   -0.00010537779070209616
-0.005106283317768951   -0.0028550102059935697   -6.81914511443611e-05
-0.006651415939068566   -0.00030804262011052246   -8.689675085227152e-05
-0.0051261906583809054   -0.0003105443105209376   -5.078931876890378e-05
-0.005113710329260628   -0.0003305419852630316   -5.1901049619718216e-05
-0.005106283317768951   -0.0028550102059935697   -6.81914511443611e-05
-0.006651415939068566   -0.00030804262011052246   -8.689675085227152e-05
-0.005113710329260628   -0.0003305419852630316   -5.1901049619718216e-05
-0.0066391198983962885   -0.0028762422222177947   -0.00010537779070209616
-0.005106283317768951   -0.0028550102059935697   -6.81914511443611e-05
-0.0051261906583809054   -0.0003105443105209376   -5.078931876890378e-05
-0.006651683560764857   -0.002857769400851296   -0.00010175804039994735
-0.005119681965947584   -0.0028343984528803622   -6.14365961898567e-05
-0.0051261906583809054   -0.0003105443105209376   -5.078931876890378e-05
-0.006651415939068566   -0.00030804262011052246   -8.689675085227152e-05
-0.006651683560764857   -0.002857769400851296   -0.00010175804039994735
-0.006659283542557563   -0.000286954097491594   -8.824112366139561e-05
-0.005119681965947584   -0.0028343984528803622   -6.14365961898567e-05
-0.006661990105621587   -0.0028382430732251085   -9.824364387852327e-05
-0.006659283542557563   -0.000286954097491594   -8.824112366139561e-05
-0.006651683560764857   -0.002857769400851296   -0.00010175804039994735
-0.005119681965947584   -0.0028343984528803622   -6.14365961898567e-05
-0.006659283542557563   -0.000286954097491594   -8.824112366139561e-05
-0.005136125204749224   -0.000288449731777055   -4.983375083721125e-05
-0.0051261906583809054   -0.0003105443105209376   -5.078931876890378e-05
-0.005119681965947584   -0.0028343984528803622   -6.14365961898567e-05
-0.006659283542557563   -0.000286954097491594   -8.824112366139561e-05
-0.0051261906583809054   -0.0003105443105209376   -5.078931876890378e-05
-0.006651683560764857   -0.002857769400851296   -0.00010175804039994735
              </DataArray>   
          </PointData>  
       </Piece>  
   </UnstructuredGrid> 
</VTKFile> 
