<?xml version="1.0"?> 
<VTKFile type="UnstructuredGrid"> 
   <UnstructuredGrid> 
      <Piece NumberOfPoints="6000"  NumberOfCells="1500">  
          <Points>  
             <DataArray type="Float64" NumberOfComponents="3" format="ascii">   
-500.0   0.0   0.0
-450.0   0.0   0.0
-500.0   30.0   0.0
-500.0   0.0   16.666666666666668
-450.0   0.0   0.0
-450.0   30.0   0.0
-500.0   30.0   0.0
-450.0   30.0   16.666666666666668
-500.0   0.0   16.666666666666668
-500.0   30.0   16.666666666666668
-450.0   30.0   16.666666666666668
-500.0   30.0   0.0
-500.0   0.0   16.666666666666668
-450.0   30.0   16.666666666666668
-450.0   0.0   16.666666666666668
-450.0   0.0   0.0
-500.0   0.0   16.666666666666668
-450.0   30.0   16.666666666666668
-450.0   0.0   0.0
-500.0   30.0   0.0
-500.0   0.0   16.666666666666668
-450.0   0.0   16.666666666666668
-500.0   30.0   16.666666666666668
-500.0   0.0   33.333333333333336
-450.0   0.0   16.666666666666668
-450.0   30.0   16.666666666666668
-500.0   30.0   16.666666666666668
-450.0   30.0   33.333333333333336
-500.0   0.0   33.333333333333336
-500.0   30.0   33.333333333333336
-450.0   30.0   33.333333333333336
-500.0   30.0   16.666666666666668
-500.0   0.0   33.333333333333336
-450.0   30.0   33.333333333333336
-450.0   0.0   33.333333333333336
-450.0   0.0   16.666666666666668
-500.0   0.0   33.333333333333336
-450.0   30.0   33.333333333333336
-450.0   0.0   16.666666666666668
-500.0   30.0   16.666666666666668
-500.0   0.0   33.333333333333336
-450.0   0.0   33.333333333333336
-500.0   30.0   33.333333333333336
-500.0   0.0   50.0
-450.0   0.0   33.333333333333336
-450.0   30.0   33.333333333333336
-500.0   30.0   33.333333333333336
-450.0   30.0   50.0
-500.0   0.0   50.0
-500.0   30.0   50.0
-450.0   30.0   50.0
-500.0   30.0   33.333333333333336
-500.0   0.0   50.0
-450.0   30.0   50.0
-450.0   0.0   50.0
-450.0   0.0   33.333333333333336
-500.0   0.0   50.0
-450.0   30.0   50.0
-450.0   0.0   33.333333333333336
-500.0   30.0   33.333333333333336
-500.0   30.0   0.0
-450.0   30.0   0.0
-500.0   60.0   0.0
-500.0   30.0   16.666666666666668
-450.0   30.0   0.0
-450.0   60.0   0.0
-500.0   60.0   0.0
-450.0   60.0   16.666666666666668
-500.0   30.0   16.666666666666668
-500.0   60.0   16.666666666666668
-450.0   60.0   16.666666666666668
-500.0   60.0   0.0
-500.0   30.0   16.666666666666668
-450.0   60.0   16.666666666666668
-450.0   30.0   16.666666666666668
-450.0   30.0   0.0
-500.0   30.0   16.666666666666668
-450.0   60.0   16.666666666666668
-450.0   30.0   0.0
-500.0   60.0   0.0
-500.0   30.0   16.666666666666668
-450.0   30.0   16.666666666666668
-500.0   60.0   16.666666666666668
-500.0   30.0   33.333333333333336
-450.0   30.0   16.666666666666668
-450.0   60.0   16.666666666666668
-500.0   60.0   16.666666666666668
-450.0   60.0   33.333333333333336
-500.0   30.0   33.333333333333336
-500.0   60.0   33.333333333333336
-450.0   60.0   33.333333333333336
-500.0   60.0   16.666666666666668
-500.0   30.0   33.333333333333336
-450.0   60.0   33.333333333333336
-450.0   30.0   33.333333333333336
-450.0   30.0   16.666666666666668
-500.0   30.0   33.333333333333336
-450.0   60.0   33.333333333333336
-450.0   30.0   16.666666666666668
-500.0   60.0   16.666666666666668
-500.0   30.0   33.333333333333336
-450.0   30.0   33.333333333333336
-500.0   60.0   33.333333333333336
-500.0   30.0   50.0
-450.0   30.0   33.333333333333336
-450.0   60.0   33.333333333333336
-500.0   60.0   33.333333333333336
-450.0   60.0   50.0
-500.0   30.0   50.0
-500.0   60.0   50.0
-450.0   60.0   50.0
-500.0   60.0   33.333333333333336
-500.0   30.0   50.0
-450.0   60.0   50.0
-450.0   30.0   50.0
-450.0   30.0   33.333333333333336
-500.0   30.0   50.0
-450.0   60.0   50.0
-450.0   30.0   33.333333333333336
-500.0   60.0   33.333333333333336
-500.0   60.0   0.0
-450.0   60.0   0.0
-500.0   90.0   0.0
-500.0   60.0   16.666666666666668
-450.0   60.0   0.0
-450.0   90.0   0.0
-500.0   90.0   0.0
-450.0   90.0   16.666666666666668
-500.0   60.0   16.666666666666668
-500.0   90.0   16.666666666666668
-450.0   90.0   16.666666666666668
-500.0   90.0   0.0
-500.0   60.0   16.666666666666668
-450.0   90.0   16.666666666666668
-450.0   60.0   16.666666666666668
-450.0   60.0   0.0
-500.0   60.0   16.666666666666668
-450.0   90.0   16.666666666666668
-450.0   60.0   0.0
-500.0   90.0   0.0
-500.0   60.0   16.666666666666668
-450.0   60.0   16.666666666666668
-500.0   90.0   16.666666666666668
-500.0   60.0   33.333333333333336
-450.0   60.0   16.666666666666668
-450.0   90.0   16.666666666666668
-500.0   90.0   16.666666666666668
-450.0   90.0   33.333333333333336
-500.0   60.0   33.333333333333336
-500.0   90.0   33.333333333333336
-450.0   90.0   33.333333333333336
-500.0   90.0   16.666666666666668
-500.0   60.0   33.333333333333336
-450.0   90.0   33.333333333333336
-450.0   60.0   33.333333333333336
-450.0   60.0   16.666666666666668
-500.0   60.0   33.333333333333336
-450.0   90.0   33.333333333333336
-450.0   60.0   16.666666666666668
-500.0   90.0   16.666666666666668
-500.0   60.0   33.333333333333336
-450.0   60.0   33.333333333333336
-500.0   90.0   33.333333333333336
-500.0   60.0   50.0
-450.0   60.0   33.333333333333336
-450.0   90.0   33.333333333333336
-500.0   90.0   33.333333333333336
-450.0   90.0   50.0
-500.0   60.0   50.0
-500.0   90.0   50.0
-450.0   90.0   50.0
-500.0   90.0   33.333333333333336
-500.0   60.0   50.0
-450.0   90.0   50.0
-450.0   60.0   50.0
-450.0   60.0   33.333333333333336
-500.0   60.0   50.0
-450.0   90.0   50.0
-450.0   60.0   33.333333333333336
-500.0   90.0   33.333333333333336
-500.0   90.0   0.0
-450.0   90.0   0.0
-500.0   120.0   0.0
-500.0   90.0   16.666666666666668
-450.0   90.0   0.0
-450.0   120.0   0.0
-500.0   120.0   0.0
-450.0   120.0   16.666666666666668
-500.0   90.0   16.666666666666668
-500.0   120.0   16.666666666666668
-450.0   120.0   16.666666666666668
-500.0   120.0   0.0
-500.0   90.0   16.666666666666668
-450.0   120.0   16.666666666666668
-450.0   90.0   16.666666666666668
-450.0   90.0   0.0
-500.0   90.0   16.666666666666668
-450.0   120.0   16.666666666666668
-450.0   90.0   0.0
-500.0   120.0   0.0
-500.0   90.0   16.666666666666668
-450.0   90.0   16.666666666666668
-500.0   120.0   16.666666666666668
-500.0   90.0   33.333333333333336
-450.0   90.0   16.666666666666668
-450.0   120.0   16.666666666666668
-500.0   120.0   16.666666666666668
-450.0   120.0   33.333333333333336
-500.0   90.0   33.333333333333336
-500.0   120.0   33.333333333333336
-450.0   120.0   33.333333333333336
-500.0   120.0   16.666666666666668
-500.0   90.0   33.333333333333336
-450.0   120.0   33.333333333333336
-450.0   90.0   33.333333333333336
-450.0   90.0   16.666666666666668
-500.0   90.0   33.333333333333336
-450.0   120.0   33.333333333333336
-450.0   90.0   16.666666666666668
-500.0   120.0   16.666666666666668
-500.0   90.0   33.333333333333336
-450.0   90.0   33.333333333333336
-500.0   120.0   33.333333333333336
-500.0   90.0   50.0
-450.0   90.0   33.333333333333336
-450.0   120.0   33.333333333333336
-500.0   120.0   33.333333333333336
-450.0   120.0   50.0
-500.0   90.0   50.0
-500.0   120.0   50.0
-450.0   120.0   50.0
-500.0   120.0   33.333333333333336
-500.0   90.0   50.0
-450.0   120.0   50.0
-450.0   90.0   50.0
-450.0   90.0   33.333333333333336
-500.0   90.0   50.0
-450.0   120.0   50.0
-450.0   90.0   33.333333333333336
-500.0   120.0   33.333333333333336
-500.0   120.0   0.0
-450.0   120.0   0.0
-500.0   150.0   0.0
-500.0   120.0   16.666666666666668
-450.0   120.0   0.0
-450.0   150.0   0.0
-500.0   150.0   0.0
-450.0   150.0   16.666666666666668
-500.0   120.0   16.666666666666668
-500.0   150.0   16.666666666666668
-450.0   150.0   16.666666666666668
-500.0   150.0   0.0
-500.0   120.0   16.666666666666668
-450.0   150.0   16.666666666666668
-450.0   120.0   16.666666666666668
-450.0   120.0   0.0
-500.0   120.0   16.666666666666668
-450.0   150.0   16.666666666666668
-450.0   120.0   0.0
-500.0   150.0   0.0
-500.0   120.0   16.666666666666668
-450.0   120.0   16.666666666666668
-500.0   150.0   16.666666666666668
-500.0   120.0   33.333333333333336
-450.0   120.0   16.666666666666668
-450.0   150.0   16.666666666666668
-500.0   150.0   16.666666666666668
-450.0   150.0   33.333333333333336
-500.0   120.0   33.333333333333336
-500.0   150.0   33.333333333333336
-450.0   150.0   33.333333333333336
-500.0   150.0   16.666666666666668
-500.0   120.0   33.333333333333336
-450.0   150.0   33.333333333333336
-450.0   120.0   33.333333333333336
-450.0   120.0   16.666666666666668
-500.0   120.0   33.333333333333336
-450.0   150.0   33.333333333333336
-450.0   120.0   16.666666666666668
-500.0   150.0   16.666666666666668
-500.0   120.0   33.333333333333336
-450.0   120.0   33.333333333333336
-500.0   150.0   33.333333333333336
-500.0   120.0   50.0
-450.0   120.0   33.333333333333336
-450.0   150.0   33.333333333333336
-500.0   150.0   33.333333333333336
-450.0   150.0   50.0
-500.0   120.0   50.0
-500.0   150.0   50.0
-450.0   150.0   50.0
-500.0   150.0   33.333333333333336
-500.0   120.0   50.0
-450.0   150.0   50.0
-450.0   120.0   50.0
-450.0   120.0   33.333333333333336
-500.0   120.0   50.0
-450.0   150.0   50.0
-450.0   120.0   33.333333333333336
-500.0   150.0   33.333333333333336
-450.0   0.0   0.0
-400.0   0.0   0.0
-450.0   30.0   0.0
-450.0   0.0   16.666666666666668
-400.0   0.0   0.0
-400.0   30.0   0.0
-450.0   30.0   0.0
-400.0   30.0   16.666666666666668
-450.0   0.0   16.666666666666668
-450.0   30.0   16.666666666666668
-400.0   30.0   16.666666666666668
-450.0   30.0   0.0
-450.0   0.0   16.666666666666668
-400.0   30.0   16.666666666666668
-400.0   0.0   16.666666666666668
-400.0   0.0   0.0
-450.0   0.0   16.666666666666668
-400.0   30.0   16.666666666666668
-400.0   0.0   0.0
-450.0   30.0   0.0
-450.0   0.0   16.666666666666668
-400.0   0.0   16.666666666666668
-450.0   30.0   16.666666666666668
-450.0   0.0   33.333333333333336
-400.0   0.0   16.666666666666668
-400.0   30.0   16.666666666666668
-450.0   30.0   16.666666666666668
-400.0   30.0   33.333333333333336
-450.0   0.0   33.333333333333336
-450.0   30.0   33.333333333333336
-400.0   30.0   33.333333333333336
-450.0   30.0   16.666666666666668
-450.0   0.0   33.333333333333336
-400.0   30.0   33.333333333333336
-400.0   0.0   33.333333333333336
-400.0   0.0   16.666666666666668
-450.0   0.0   33.333333333333336
-400.0   30.0   33.333333333333336
-400.0   0.0   16.666666666666668
-450.0   30.0   16.666666666666668
-450.0   0.0   33.333333333333336
-400.0   0.0   33.333333333333336
-450.0   30.0   33.333333333333336
-450.0   0.0   50.0
-400.0   0.0   33.333333333333336
-400.0   30.0   33.333333333333336
-450.0   30.0   33.333333333333336
-400.0   30.0   50.0
-450.0   0.0   50.0
-450.0   30.0   50.0
-400.0   30.0   50.0
-450.0   30.0   33.333333333333336
-450.0   0.0   50.0
-400.0   30.0   50.0
-400.0   0.0   50.0
-400.0   0.0   33.333333333333336
-450.0   0.0   50.0
-400.0   30.0   50.0
-400.0   0.0   33.333333333333336
-450.0   30.0   33.333333333333336
-450.0   30.0   0.0
-400.0   30.0   0.0
-450.0   60.0   0.0
-450.0   30.0   16.666666666666668
-400.0   30.0   0.0
-400.0   60.0   0.0
-450.0   60.0   0.0
-400.0   60.0   16.666666666666668
-450.0   30.0   16.666666666666668
-450.0   60.0   16.666666666666668
-400.0   60.0   16.666666666666668
-450.0   60.0   0.0
-450.0   30.0   16.666666666666668
-400.0   60.0   16.666666666666668
-400.0   30.0   16.666666666666668
-400.0   30.0   0.0
-450.0   30.0   16.666666666666668
-400.0   60.0   16.666666666666668
-400.0   30.0   0.0
-450.0   60.0   0.0
-450.0   30.0   16.666666666666668
-400.0   30.0   16.666666666666668
-450.0   60.0   16.666666666666668
-450.0   30.0   33.333333333333336
-400.0   30.0   16.666666666666668
-400.0   60.0   16.666666666666668
-450.0   60.0   16.666666666666668
-400.0   60.0   33.333333333333336
-450.0   30.0   33.333333333333336
-450.0   60.0   33.333333333333336
-400.0   60.0   33.333333333333336
-450.0   60.0   16.666666666666668
-450.0   30.0   33.333333333333336
-400.0   60.0   33.333333333333336
-400.0   30.0   33.333333333333336
-400.0   30.0   16.666666666666668
-450.0   30.0   33.333333333333336
-400.0   60.0   33.333333333333336
-400.0   30.0   16.666666666666668
-450.0   60.0   16.666666666666668
-450.0   30.0   33.333333333333336
-400.0   30.0   33.333333333333336
-450.0   60.0   33.333333333333336
-450.0   30.0   50.0
-400.0   30.0   33.333333333333336
-400.0   60.0   33.333333333333336
-450.0   60.0   33.333333333333336
-400.0   60.0   50.0
-450.0   30.0   50.0
-450.0   60.0   50.0
-400.0   60.0   50.0
-450.0   60.0   33.333333333333336
-450.0   30.0   50.0
-400.0   60.0   50.0
-400.0   30.0   50.0
-400.0   30.0   33.333333333333336
-450.0   30.0   50.0
-400.0   60.0   50.0
-400.0   30.0   33.333333333333336
-450.0   60.0   33.333333333333336
-450.0   60.0   0.0
-400.0   60.0   0.0
-450.0   90.0   0.0
-450.0   60.0   16.666666666666668
-400.0   60.0   0.0
-400.0   90.0   0.0
-450.0   90.0   0.0
-400.0   90.0   16.666666666666668
-450.0   60.0   16.666666666666668
-450.0   90.0   16.666666666666668
-400.0   90.0   16.666666666666668
-450.0   90.0   0.0
-450.0   60.0   16.666666666666668
-400.0   90.0   16.666666666666668
-400.0   60.0   16.666666666666668
-400.0   60.0   0.0
-450.0   60.0   16.666666666666668
-400.0   90.0   16.666666666666668
-400.0   60.0   0.0
-450.0   90.0   0.0
-450.0   60.0   16.666666666666668
-400.0   60.0   16.666666666666668
-450.0   90.0   16.666666666666668
-450.0   60.0   33.333333333333336
-400.0   60.0   16.666666666666668
-400.0   90.0   16.666666666666668
-450.0   90.0   16.666666666666668
-400.0   90.0   33.333333333333336
-450.0   60.0   33.333333333333336
-450.0   90.0   33.333333333333336
-400.0   90.0   33.333333333333336
-450.0   90.0   16.666666666666668
-450.0   60.0   33.333333333333336
-400.0   90.0   33.333333333333336
-400.0   60.0   33.333333333333336
-400.0   60.0   16.666666666666668
-450.0   60.0   33.333333333333336
-400.0   90.0   33.333333333333336
-400.0   60.0   16.666666666666668
-450.0   90.0   16.666666666666668
-450.0   60.0   33.333333333333336
-400.0   60.0   33.333333333333336
-450.0   90.0   33.333333333333336
-450.0   60.0   50.0
-400.0   60.0   33.333333333333336
-400.0   90.0   33.333333333333336
-450.0   90.0   33.333333333333336
-400.0   90.0   50.0
-450.0   60.0   50.0
-450.0   90.0   50.0
-400.0   90.0   50.0
-450.0   90.0   33.333333333333336
-450.0   60.0   50.0
-400.0   90.0   50.0
-400.0   60.0   50.0
-400.0   60.0   33.333333333333336
-450.0   60.0   50.0
-400.0   90.0   50.0
-400.0   60.0   33.333333333333336
-450.0   90.0   33.333333333333336
-450.0   90.0   0.0
-400.0   90.0   0.0
-450.0   120.0   0.0
-450.0   90.0   16.666666666666668
-400.0   90.0   0.0
-400.0   120.0   0.0
-450.0   120.0   0.0
-400.0   120.0   16.666666666666668
-450.0   90.0   16.666666666666668
-450.0   120.0   16.666666666666668
-400.0   120.0   16.666666666666668
-450.0   120.0   0.0
-450.0   90.0   16.666666666666668
-400.0   120.0   16.666666666666668
-400.0   90.0   16.666666666666668
-400.0   90.0   0.0
-450.0   90.0   16.666666666666668
-400.0   120.0   16.666666666666668
-400.0   90.0   0.0
-450.0   120.0   0.0
-450.0   90.0   16.666666666666668
-400.0   90.0   16.666666666666668
-450.0   120.0   16.666666666666668
-450.0   90.0   33.333333333333336
-400.0   90.0   16.666666666666668
-400.0   120.0   16.666666666666668
-450.0   120.0   16.666666666666668
-400.0   120.0   33.333333333333336
-450.0   90.0   33.333333333333336
-450.0   120.0   33.333333333333336
-400.0   120.0   33.333333333333336
-450.0   120.0   16.666666666666668
-450.0   90.0   33.333333333333336
-400.0   120.0   33.333333333333336
-400.0   90.0   33.333333333333336
-400.0   90.0   16.666666666666668
-450.0   90.0   33.333333333333336
-400.0   120.0   33.333333333333336
-400.0   90.0   16.666666666666668
-450.0   120.0   16.666666666666668
-450.0   90.0   33.333333333333336
-400.0   90.0   33.333333333333336
-450.0   120.0   33.333333333333336
-450.0   90.0   50.0
-400.0   90.0   33.333333333333336
-400.0   120.0   33.333333333333336
-450.0   120.0   33.333333333333336
-400.0   120.0   50.0
-450.0   90.0   50.0
-450.0   120.0   50.0
-400.0   120.0   50.0
-450.0   120.0   33.333333333333336
-450.0   90.0   50.0
-400.0   120.0   50.0
-400.0   90.0   50.0
-400.0   90.0   33.333333333333336
-450.0   90.0   50.0
-400.0   120.0   50.0
-400.0   90.0   33.333333333333336
-450.0   120.0   33.333333333333336
-450.0   120.0   0.0
-400.0   120.0   0.0
-450.0   150.0   0.0
-450.0   120.0   16.666666666666668
-400.0   120.0   0.0
-400.0   150.0   0.0
-450.0   150.0   0.0
-400.0   150.0   16.666666666666668
-450.0   120.0   16.666666666666668
-450.0   150.0   16.666666666666668
-400.0   150.0   16.666666666666668
-450.0   150.0   0.0
-450.0   120.0   16.666666666666668
-400.0   150.0   16.666666666666668
-400.0   120.0   16.666666666666668
-400.0   120.0   0.0
-450.0   120.0   16.666666666666668
-400.0   150.0   16.666666666666668
-400.0   120.0   0.0
-450.0   150.0   0.0
-450.0   120.0   16.666666666666668
-400.0   120.0   16.666666666666668
-450.0   150.0   16.666666666666668
-450.0   120.0   33.333333333333336
-400.0   120.0   16.666666666666668
-400.0   150.0   16.666666666666668
-450.0   150.0   16.666666666666668
-400.0   150.0   33.333333333333336
-450.0   120.0   33.333333333333336
-450.0   150.0   33.333333333333336
-400.0   150.0   33.333333333333336
-450.0   150.0   16.666666666666668
-450.0   120.0   33.333333333333336
-400.0   150.0   33.333333333333336
-400.0   120.0   33.333333333333336
-400.0   120.0   16.666666666666668
-450.0   120.0   33.333333333333336
-400.0   150.0   33.333333333333336
-400.0   120.0   16.666666666666668
-450.0   150.0   16.666666666666668
-450.0   120.0   33.333333333333336
-400.0   120.0   33.333333333333336
-450.0   150.0   33.333333333333336
-450.0   120.0   50.0
-400.0   120.0   33.333333333333336
-400.0   150.0   33.333333333333336
-450.0   150.0   33.333333333333336
-400.0   150.0   50.0
-450.0   120.0   50.0
-450.0   150.0   50.0
-400.0   150.0   50.0
-450.0   150.0   33.333333333333336
-450.0   120.0   50.0
-400.0   150.0   50.0
-400.0   120.0   50.0
-400.0   120.0   33.333333333333336
-450.0   120.0   50.0
-400.0   150.0   50.0
-400.0   120.0   33.333333333333336
-450.0   150.0   33.333333333333336
-400.0   0.0   0.0
-350.0   0.0   0.0
-400.0   30.0   0.0
-400.0   0.0   16.666666666666668
-350.0   0.0   0.0
-350.0   30.0   0.0
-400.0   30.0   0.0
-350.0   30.0   16.666666666666668
-400.0   0.0   16.666666666666668
-400.0   30.0   16.666666666666668
-350.0   30.0   16.666666666666668
-400.0   30.0   0.0
-400.0   0.0   16.666666666666668
-350.0   30.0   16.666666666666668
-350.0   0.0   16.666666666666668
-350.0   0.0   0.0
-400.0   0.0   16.666666666666668
-350.0   30.0   16.666666666666668
-350.0   0.0   0.0
-400.0   30.0   0.0
-400.0   0.0   16.666666666666668
-350.0   0.0   16.666666666666668
-400.0   30.0   16.666666666666668
-400.0   0.0   33.333333333333336
-350.0   0.0   16.666666666666668
-350.0   30.0   16.666666666666668
-400.0   30.0   16.666666666666668
-350.0   30.0   33.333333333333336
-400.0   0.0   33.333333333333336
-400.0   30.0   33.333333333333336
-350.0   30.0   33.333333333333336
-400.0   30.0   16.666666666666668
-400.0   0.0   33.333333333333336
-350.0   30.0   33.333333333333336
-350.0   0.0   33.333333333333336
-350.0   0.0   16.666666666666668
-400.0   0.0   33.333333333333336
-350.0   30.0   33.333333333333336
-350.0   0.0   16.666666666666668
-400.0   30.0   16.666666666666668
-400.0   0.0   33.333333333333336
-350.0   0.0   33.333333333333336
-400.0   30.0   33.333333333333336
-400.0   0.0   50.0
-350.0   0.0   33.333333333333336
-350.0   30.0   33.333333333333336
-400.0   30.0   33.333333333333336
-350.0   30.0   50.0
-400.0   0.0   50.0
-400.0   30.0   50.0
-350.0   30.0   50.0
-400.0   30.0   33.333333333333336
-400.0   0.0   50.0
-350.0   30.0   50.0
-350.0   0.0   50.0
-350.0   0.0   33.333333333333336
-400.0   0.0   50.0
-350.0   30.0   50.0
-350.0   0.0   33.333333333333336
-400.0   30.0   33.333333333333336
-400.0   30.0   0.0
-350.0   30.0   0.0
-400.0   60.0   0.0
-400.0   30.0   16.666666666666668
-350.0   30.0   0.0
-350.0   60.0   0.0
-400.0   60.0   0.0
-350.0   60.0   16.666666666666668
-400.0   30.0   16.666666666666668
-400.0   60.0   16.666666666666668
-350.0   60.0   16.666666666666668
-400.0   60.0   0.0
-400.0   30.0   16.666666666666668
-350.0   60.0   16.666666666666668
-350.0   30.0   16.666666666666668
-350.0   30.0   0.0
-400.0   30.0   16.666666666666668
-350.0   60.0   16.666666666666668
-350.0   30.0   0.0
-400.0   60.0   0.0
-400.0   30.0   16.666666666666668
-350.0   30.0   16.666666666666668
-400.0   60.0   16.666666666666668
-400.0   30.0   33.333333333333336
-350.0   30.0   16.666666666666668
-350.0   60.0   16.666666666666668
-400.0   60.0   16.666666666666668
-350.0   60.0   33.333333333333336
-400.0   30.0   33.333333333333336
-400.0   60.0   33.333333333333336
-350.0   60.0   33.333333333333336
-400.0   60.0   16.666666666666668
-400.0   30.0   33.333333333333336
-350.0   60.0   33.333333333333336
-350.0   30.0   33.333333333333336
-350.0   30.0   16.666666666666668
-400.0   30.0   33.333333333333336
-350.0   60.0   33.333333333333336
-350.0   30.0   16.666666666666668
-400.0   60.0   16.666666666666668
-400.0   30.0   33.333333333333336
-350.0   30.0   33.333333333333336
-400.0   60.0   33.333333333333336
-400.0   30.0   50.0
-350.0   30.0   33.333333333333336
-350.0   60.0   33.333333333333336
-400.0   60.0   33.333333333333336
-350.0   60.0   50.0
-400.0   30.0   50.0
-400.0   60.0   50.0
-350.0   60.0   50.0
-400.0   60.0   33.333333333333336
-400.0   30.0   50.0
-350.0   60.0   50.0
-350.0   30.0   50.0
-350.0   30.0   33.333333333333336
-400.0   30.0   50.0
-350.0   60.0   50.0
-350.0   30.0   33.333333333333336
-400.0   60.0   33.333333333333336
-400.0   60.0   0.0
-350.0   60.0   0.0
-400.0   90.0   0.0
-400.0   60.0   16.666666666666668
-350.0   60.0   0.0
-350.0   90.0   0.0
-400.0   90.0   0.0
-350.0   90.0   16.666666666666668
-400.0   60.0   16.666666666666668
-400.0   90.0   16.666666666666668
-350.0   90.0   16.666666666666668
-400.0   90.0   0.0
-400.0   60.0   16.666666666666668
-350.0   90.0   16.666666666666668
-350.0   60.0   16.666666666666668
-350.0   60.0   0.0
-400.0   60.0   16.666666666666668
-350.0   90.0   16.666666666666668
-350.0   60.0   0.0
-400.0   90.0   0.0
-400.0   60.0   16.666666666666668
-350.0   60.0   16.666666666666668
-400.0   90.0   16.666666666666668
-400.0   60.0   33.333333333333336
-350.0   60.0   16.666666666666668
-350.0   90.0   16.666666666666668
-400.0   90.0   16.666666666666668
-350.0   90.0   33.333333333333336
-400.0   60.0   33.333333333333336
-400.0   90.0   33.333333333333336
-350.0   90.0   33.333333333333336
-400.0   90.0   16.666666666666668
-400.0   60.0   33.333333333333336
-350.0   90.0   33.333333333333336
-350.0   60.0   33.333333333333336
-350.0   60.0   16.666666666666668
-400.0   60.0   33.333333333333336
-350.0   90.0   33.333333333333336
-350.0   60.0   16.666666666666668
-400.0   90.0   16.666666666666668
-400.0   60.0   33.333333333333336
-350.0   60.0   33.333333333333336
-400.0   90.0   33.333333333333336
-400.0   60.0   50.0
-350.0   60.0   33.333333333333336
-350.0   90.0   33.333333333333336
-400.0   90.0   33.333333333333336
-350.0   90.0   50.0
-400.0   60.0   50.0
-400.0   90.0   50.0
-350.0   90.0   50.0
-400.0   90.0   33.333333333333336
-400.0   60.0   50.0
-350.0   90.0   50.0
-350.0   60.0   50.0
-350.0   60.0   33.333333333333336
-400.0   60.0   50.0
-350.0   90.0   50.0
-350.0   60.0   33.333333333333336
-400.0   90.0   33.333333333333336
-400.0   90.0   0.0
-350.0   90.0   0.0
-400.0   120.0   0.0
-400.0   90.0   16.666666666666668
-350.0   90.0   0.0
-350.0   120.0   0.0
-400.0   120.0   0.0
-350.0   120.0   16.666666666666668
-400.0   90.0   16.666666666666668
-400.0   120.0   16.666666666666668
-350.0   120.0   16.666666666666668
-400.0   120.0   0.0
-400.0   90.0   16.666666666666668
-350.0   120.0   16.666666666666668
-350.0   90.0   16.666666666666668
-350.0   90.0   0.0
-400.0   90.0   16.666666666666668
-350.0   120.0   16.666666666666668
-350.0   90.0   0.0
-400.0   120.0   0.0
-400.0   90.0   16.666666666666668
-350.0   90.0   16.666666666666668
-400.0   120.0   16.666666666666668
-400.0   90.0   33.333333333333336
-350.0   90.0   16.666666666666668
-350.0   120.0   16.666666666666668
-400.0   120.0   16.666666666666668
-350.0   120.0   33.333333333333336
-400.0   90.0   33.333333333333336
-400.0   120.0   33.333333333333336
-350.0   120.0   33.333333333333336
-400.0   120.0   16.666666666666668
-400.0   90.0   33.333333333333336
-350.0   120.0   33.333333333333336
-350.0   90.0   33.333333333333336
-350.0   90.0   16.666666666666668
-400.0   90.0   33.333333333333336
-350.0   120.0   33.333333333333336
-350.0   90.0   16.666666666666668
-400.0   120.0   16.666666666666668
-400.0   90.0   33.333333333333336
-350.0   90.0   33.333333333333336
-400.0   120.0   33.333333333333336
-400.0   90.0   50.0
-350.0   90.0   33.333333333333336
-350.0   120.0   33.333333333333336
-400.0   120.0   33.333333333333336
-350.0   120.0   50.0
-400.0   90.0   50.0
-400.0   120.0   50.0
-350.0   120.0   50.0
-400.0   120.0   33.333333333333336
-400.0   90.0   50.0
-350.0   120.0   50.0
-350.0   90.0   50.0
-350.0   90.0   33.333333333333336
-400.0   90.0   50.0
-350.0   120.0   50.0
-350.0   90.0   33.333333333333336
-400.0   120.0   33.333333333333336
-400.0   120.0   0.0
-350.0   120.0   0.0
-400.0   150.0   0.0
-400.0   120.0   16.666666666666668
-350.0   120.0   0.0
-350.0   150.0   0.0
-400.0   150.0   0.0
-350.0   150.0   16.666666666666668
-400.0   120.0   16.666666666666668
-400.0   150.0   16.666666666666668
-350.0   150.0   16.666666666666668
-400.0   150.0   0.0
-400.0   120.0   16.666666666666668
-350.0   150.0   16.666666666666668
-350.0   120.0   16.666666666666668
-350.0   120.0   0.0
-400.0   120.0   16.666666666666668
-350.0   150.0   16.666666666666668
-350.0   120.0   0.0
-400.0   150.0   0.0
-400.0   120.0   16.666666666666668
-350.0   120.0   16.666666666666668
-400.0   150.0   16.666666666666668
-400.0   120.0   33.333333333333336
-350.0   120.0   16.666666666666668
-350.0   150.0   16.666666666666668
-400.0   150.0   16.666666666666668
-350.0   150.0   33.333333333333336
-400.0   120.0   33.333333333333336
-400.0   150.0   33.333333333333336
-350.0   150.0   33.333333333333336
-400.0   150.0   16.666666666666668
-400.0   120.0   33.333333333333336
-350.0   150.0   33.333333333333336
-350.0   120.0   33.333333333333336
-350.0   120.0   16.666666666666668
-400.0   120.0   33.333333333333336
-350.0   150.0   33.333333333333336
-350.0   120.0   16.666666666666668
-400.0   150.0   16.666666666666668
-400.0   120.0   33.333333333333336
-350.0   120.0   33.333333333333336
-400.0   150.0   33.333333333333336
-400.0   120.0   50.0
-350.0   120.0   33.333333333333336
-350.0   150.0   33.333333333333336
-400.0   150.0   33.333333333333336
-350.0   150.0   50.0
-400.0   120.0   50.0
-400.0   150.0   50.0
-350.0   150.0   50.0
-400.0   150.0   33.333333333333336
-400.0   120.0   50.0
-350.0   150.0   50.0
-350.0   120.0   50.0
-350.0   120.0   33.333333333333336
-400.0   120.0   50.0
-350.0   150.0   50.0
-350.0   120.0   33.333333333333336
-400.0   150.0   33.333333333333336
-350.0   0.0   0.0
-300.0   0.0   0.0
-350.0   30.0   0.0
-350.0   0.0   16.666666666666668
-300.0   0.0   0.0
-300.0   30.0   0.0
-350.0   30.0   0.0
-300.0   30.0   16.666666666666668
-350.0   0.0   16.666666666666668
-350.0   30.0   16.666666666666668
-300.0   30.0   16.666666666666668
-350.0   30.0   0.0
-350.0   0.0   16.666666666666668
-300.0   30.0   16.666666666666668
-300.0   0.0   16.666666666666668
-300.0   0.0   0.0
-350.0   0.0   16.666666666666668
-300.0   30.0   16.666666666666668
-300.0   0.0   0.0
-350.0   30.0   0.0
-350.0   0.0   16.666666666666668
-300.0   0.0   16.666666666666668
-350.0   30.0   16.666666666666668
-350.0   0.0   33.333333333333336
-300.0   0.0   16.666666666666668
-300.0   30.0   16.666666666666668
-350.0   30.0   16.666666666666668
-300.0   30.0   33.333333333333336
-350.0   0.0   33.333333333333336
-350.0   30.0   33.333333333333336
-300.0   30.0   33.333333333333336
-350.0   30.0   16.666666666666668
-350.0   0.0   33.333333333333336
-300.0   30.0   33.333333333333336
-300.0   0.0   33.333333333333336
-300.0   0.0   16.666666666666668
-350.0   0.0   33.333333333333336
-300.0   30.0   33.333333333333336
-300.0   0.0   16.666666666666668
-350.0   30.0   16.666666666666668
-350.0   0.0   33.333333333333336
-300.0   0.0   33.333333333333336
-350.0   30.0   33.333333333333336
-350.0   0.0   50.0
-300.0   0.0   33.333333333333336
-300.0   30.0   33.333333333333336
-350.0   30.0   33.333333333333336
-300.0   30.0   50.0
-350.0   0.0   50.0
-350.0   30.0   50.0
-300.0   30.0   50.0
-350.0   30.0   33.333333333333336
-350.0   0.0   50.0
-300.0   30.0   50.0
-300.0   0.0   50.0
-300.0   0.0   33.333333333333336
-350.0   0.0   50.0
-300.0   30.0   50.0
-300.0   0.0   33.333333333333336
-350.0   30.0   33.333333333333336
-350.0   30.0   0.0
-300.0   30.0   0.0
-350.0   60.0   0.0
-350.0   30.0   16.666666666666668
-300.0   30.0   0.0
-300.0   60.0   0.0
-350.0   60.0   0.0
-300.0   60.0   16.666666666666668
-350.0   30.0   16.666666666666668
-350.0   60.0   16.666666666666668
-300.0   60.0   16.666666666666668
-350.0   60.0   0.0
-350.0   30.0   16.666666666666668
-300.0   60.0   16.666666666666668
-300.0   30.0   16.666666666666668
-300.0   30.0   0.0
-350.0   30.0   16.666666666666668
-300.0   60.0   16.666666666666668
-300.0   30.0   0.0
-350.0   60.0   0.0
-350.0   30.0   16.666666666666668
-300.0   30.0   16.666666666666668
-350.0   60.0   16.666666666666668
-350.0   30.0   33.333333333333336
-300.0   30.0   16.666666666666668
-300.0   60.0   16.666666666666668
-350.0   60.0   16.666666666666668
-300.0   60.0   33.333333333333336
-350.0   30.0   33.333333333333336
-350.0   60.0   33.333333333333336
-300.0   60.0   33.333333333333336
-350.0   60.0   16.666666666666668
-350.0   30.0   33.333333333333336
-300.0   60.0   33.333333333333336
-300.0   30.0   33.333333333333336
-300.0   30.0   16.666666666666668
-350.0   30.0   33.333333333333336
-300.0   60.0   33.333333333333336
-300.0   30.0   16.666666666666668
-350.0   60.0   16.666666666666668
-350.0   30.0   33.333333333333336
-300.0   30.0   33.333333333333336
-350.0   60.0   33.333333333333336
-350.0   30.0   50.0
-300.0   30.0   33.333333333333336
-300.0   60.0   33.333333333333336
-350.0   60.0   33.333333333333336
-300.0   60.0   50.0
-350.0   30.0   50.0
-350.0   60.0   50.0
-300.0   60.0   50.0
-350.0   60.0   33.333333333333336
-350.0   30.0   50.0
-300.0   60.0   50.0
-300.0   30.0   50.0
-300.0   30.0   33.333333333333336
-350.0   30.0   50.0
-300.0   60.0   50.0
-300.0   30.0   33.333333333333336
-350.0   60.0   33.333333333333336
-350.0   60.0   0.0
-300.0   60.0   0.0
-350.0   90.0   0.0
-350.0   60.0   16.666666666666668
-300.0   60.0   0.0
-300.0   90.0   0.0
-350.0   90.0   0.0
-300.0   90.0   16.666666666666668
-350.0   60.0   16.666666666666668
-350.0   90.0   16.666666666666668
-300.0   90.0   16.666666666666668
-350.0   90.0   0.0
-350.0   60.0   16.666666666666668
-300.0   90.0   16.666666666666668
-300.0   60.0   16.666666666666668
-300.0   60.0   0.0
-350.0   60.0   16.666666666666668
-300.0   90.0   16.666666666666668
-300.0   60.0   0.0
-350.0   90.0   0.0
-350.0   60.0   16.666666666666668
-300.0   60.0   16.666666666666668
-350.0   90.0   16.666666666666668
-350.0   60.0   33.333333333333336
-300.0   60.0   16.666666666666668
-300.0   90.0   16.666666666666668
-350.0   90.0   16.666666666666668
-300.0   90.0   33.333333333333336
-350.0   60.0   33.333333333333336
-350.0   90.0   33.333333333333336
-300.0   90.0   33.333333333333336
-350.0   90.0   16.666666666666668
-350.0   60.0   33.333333333333336
-300.0   90.0   33.333333333333336
-300.0   60.0   33.333333333333336
-300.0   60.0   16.666666666666668
-350.0   60.0   33.333333333333336
-300.0   90.0   33.333333333333336
-300.0   60.0   16.666666666666668
-350.0   90.0   16.666666666666668
-350.0   60.0   33.333333333333336
-300.0   60.0   33.333333333333336
-350.0   90.0   33.333333333333336
-350.0   60.0   50.0
-300.0   60.0   33.333333333333336
-300.0   90.0   33.333333333333336
-350.0   90.0   33.333333333333336
-300.0   90.0   50.0
-350.0   60.0   50.0
-350.0   90.0   50.0
-300.0   90.0   50.0
-350.0   90.0   33.333333333333336
-350.0   60.0   50.0
-300.0   90.0   50.0
-300.0   60.0   50.0
-300.0   60.0   33.333333333333336
-350.0   60.0   50.0
-300.0   90.0   50.0
-300.0   60.0   33.333333333333336
-350.0   90.0   33.333333333333336
-350.0   90.0   0.0
-300.0   90.0   0.0
-350.0   120.0   0.0
-350.0   90.0   16.666666666666668
-300.0   90.0   0.0
-300.0   120.0   0.0
-350.0   120.0   0.0
-300.0   120.0   16.666666666666668
-350.0   90.0   16.666666666666668
-350.0   120.0   16.666666666666668
-300.0   120.0   16.666666666666668
-350.0   120.0   0.0
-350.0   90.0   16.666666666666668
-300.0   120.0   16.666666666666668
-300.0   90.0   16.666666666666668
-300.0   90.0   0.0
-350.0   90.0   16.666666666666668
-300.0   120.0   16.666666666666668
-300.0   90.0   0.0
-350.0   120.0   0.0
-350.0   90.0   16.666666666666668
-300.0   90.0   16.666666666666668
-350.0   120.0   16.666666666666668
-350.0   90.0   33.333333333333336
-300.0   90.0   16.666666666666668
-300.0   120.0   16.666666666666668
-350.0   120.0   16.666666666666668
-300.0   120.0   33.333333333333336
-350.0   90.0   33.333333333333336
-350.0   120.0   33.333333333333336
-300.0   120.0   33.333333333333336
-350.0   120.0   16.666666666666668
-350.0   90.0   33.333333333333336
-300.0   120.0   33.333333333333336
-300.0   90.0   33.333333333333336
-300.0   90.0   16.666666666666668
-350.0   90.0   33.333333333333336
-300.0   120.0   33.333333333333336
-300.0   90.0   16.666666666666668
-350.0   120.0   16.666666666666668
-350.0   90.0   33.333333333333336
-300.0   90.0   33.333333333333336
-350.0   120.0   33.333333333333336
-350.0   90.0   50.0
-300.0   90.0   33.333333333333336
-300.0   120.0   33.333333333333336
-350.0   120.0   33.333333333333336
-300.0   120.0   50.0
-350.0   90.0   50.0
-350.0   120.0   50.0
-300.0   120.0   50.0
-350.0   120.0   33.333333333333336
-350.0   90.0   50.0
-300.0   120.0   50.0
-300.0   90.0   50.0
-300.0   90.0   33.333333333333336
-350.0   90.0   50.0
-300.0   120.0   50.0
-300.0   90.0   33.333333333333336
-350.0   120.0   33.333333333333336
-350.0   120.0   0.0
-300.0   120.0   0.0
-350.0   150.0   0.0
-350.0   120.0   16.666666666666668
-300.0   120.0   0.0
-300.0   150.0   0.0
-350.0   150.0   0.0
-300.0   150.0   16.666666666666668
-350.0   120.0   16.666666666666668
-350.0   150.0   16.666666666666668
-300.0   150.0   16.666666666666668
-350.0   150.0   0.0
-350.0   120.0   16.666666666666668
-300.0   150.0   16.666666666666668
-300.0   120.0   16.666666666666668
-300.0   120.0   0.0
-350.0   120.0   16.666666666666668
-300.0   150.0   16.666666666666668
-300.0   120.0   0.0
-350.0   150.0   0.0
-350.0   120.0   16.666666666666668
-300.0   120.0   16.666666666666668
-350.0   150.0   16.666666666666668
-350.0   120.0   33.333333333333336
-300.0   120.0   16.666666666666668
-300.0   150.0   16.666666666666668
-350.0   150.0   16.666666666666668
-300.0   150.0   33.333333333333336
-350.0   120.0   33.333333333333336
-350.0   150.0   33.333333333333336
-300.0   150.0   33.333333333333336
-350.0   150.0   16.666666666666668
-350.0   120.0   33.333333333333336
-300.0   150.0   33.333333333333336
-300.0   120.0   33.333333333333336
-300.0   120.0   16.666666666666668
-350.0   120.0   33.333333333333336
-300.0   150.0   33.333333333333336
-300.0   120.0   16.666666666666668
-350.0   150.0   16.666666666666668
-350.0   120.0   33.333333333333336
-300.0   120.0   33.333333333333336
-350.0   150.0   33.333333333333336
-350.0   120.0   50.0
-300.0   120.0   33.333333333333336
-300.0   150.0   33.333333333333336
-350.0   150.0   33.333333333333336
-300.0   150.0   50.0
-350.0   120.0   50.0
-350.0   150.0   50.0
-300.0   150.0   50.0
-350.0   150.0   33.333333333333336
-350.0   120.0   50.0
-300.0   150.0   50.0
-300.0   120.0   50.0
-300.0   120.0   33.333333333333336
-350.0   120.0   50.0
-300.0   150.0   50.0
-300.0   120.0   33.333333333333336
-350.0   150.0   33.333333333333336
-300.0   0.0   0.0
-250.0   0.0   0.0
-300.0   30.0   0.0
-300.0   0.0   16.666666666666668
-250.0   0.0   0.0
-250.0   30.0   0.0
-300.0   30.0   0.0
-250.0   30.0   16.666666666666668
-300.0   0.0   16.666666666666668
-300.0   30.0   16.666666666666668
-250.0   30.0   16.666666666666668
-300.0   30.0   0.0
-300.0   0.0   16.666666666666668
-250.0   30.0   16.666666666666668
-250.0   0.0   16.666666666666668
-250.0   0.0   0.0
-300.0   0.0   16.666666666666668
-250.0   30.0   16.666666666666668
-250.0   0.0   0.0
-300.0   30.0   0.0
-300.0   0.0   16.666666666666668
-250.0   0.0   16.666666666666668
-300.0   30.0   16.666666666666668
-300.0   0.0   33.333333333333336
-250.0   0.0   16.666666666666668
-250.0   30.0   16.666666666666668
-300.0   30.0   16.666666666666668
-250.0   30.0   33.333333333333336
-300.0   0.0   33.333333333333336
-300.0   30.0   33.333333333333336
-250.0   30.0   33.333333333333336
-300.0   30.0   16.666666666666668
-300.0   0.0   33.333333333333336
-250.0   30.0   33.333333333333336
-250.0   0.0   33.333333333333336
-250.0   0.0   16.666666666666668
-300.0   0.0   33.333333333333336
-250.0   30.0   33.333333333333336
-250.0   0.0   16.666666666666668
-300.0   30.0   16.666666666666668
-300.0   0.0   33.333333333333336
-250.0   0.0   33.333333333333336
-300.0   30.0   33.333333333333336
-300.0   0.0   50.0
-250.0   0.0   33.333333333333336
-250.0   30.0   33.333333333333336
-300.0   30.0   33.333333333333336
-250.0   30.0   50.0
-300.0   0.0   50.0
-300.0   30.0   50.0
-250.0   30.0   50.0
-300.0   30.0   33.333333333333336
-300.0   0.0   50.0
-250.0   30.0   50.0
-250.0   0.0   50.0
-250.0   0.0   33.333333333333336
-300.0   0.0   50.0
-250.0   30.0   50.0
-250.0   0.0   33.333333333333336
-300.0   30.0   33.333333333333336
-300.0   30.0   0.0
-250.0   30.0   0.0
-300.0   60.0   0.0
-300.0   30.0   16.666666666666668
-250.0   30.0   0.0
-250.0   60.0   0.0
-300.0   60.0   0.0
-250.0   60.0   16.666666666666668
-300.0   30.0   16.666666666666668
-300.0   60.0   16.666666666666668
-250.0   60.0   16.666666666666668
-300.0   60.0   0.0
-300.0   30.0   16.666666666666668
-250.0   60.0   16.666666666666668
-250.0   30.0   16.666666666666668
-250.0   30.0   0.0
-300.0   30.0   16.666666666666668
-250.0   60.0   16.666666666666668
-250.0   30.0   0.0
-300.0   60.0   0.0
-300.0   30.0   16.666666666666668
-250.0   30.0   16.666666666666668
-300.0   60.0   16.666666666666668
-300.0   30.0   33.333333333333336
-250.0   30.0   16.666666666666668
-250.0   60.0   16.666666666666668
-300.0   60.0   16.666666666666668
-250.0   60.0   33.333333333333336
-300.0   30.0   33.333333333333336
-300.0   60.0   33.333333333333336
-250.0   60.0   33.333333333333336
-300.0   60.0   16.666666666666668
-300.0   30.0   33.333333333333336
-250.0   60.0   33.333333333333336
-250.0   30.0   33.333333333333336
-250.0   30.0   16.666666666666668
-300.0   30.0   33.333333333333336
-250.0   60.0   33.333333333333336
-250.0   30.0   16.666666666666668
-300.0   60.0   16.666666666666668
-300.0   30.0   33.333333333333336
-250.0   30.0   33.333333333333336
-300.0   60.0   33.333333333333336
-300.0   30.0   50.0
-250.0   30.0   33.333333333333336
-250.0   60.0   33.333333333333336
-300.0   60.0   33.333333333333336
-250.0   60.0   50.0
-300.0   30.0   50.0
-300.0   60.0   50.0
-250.0   60.0   50.0
-300.0   60.0   33.333333333333336
-300.0   30.0   50.0
-250.0   60.0   50.0
-250.0   30.0   50.0
-250.0   30.0   33.333333333333336
-300.0   30.0   50.0
-250.0   60.0   50.0
-250.0   30.0   33.333333333333336
-300.0   60.0   33.333333333333336
-300.0   60.0   0.0
-250.0   60.0   0.0
-300.0   90.0   0.0
-300.0   60.0   16.666666666666668
-250.0   60.0   0.0
-250.0   90.0   0.0
-300.0   90.0   0.0
-250.0   90.0   16.666666666666668
-300.0   60.0   16.666666666666668
-300.0   90.0   16.666666666666668
-250.0   90.0   16.666666666666668
-300.0   90.0   0.0
-300.0   60.0   16.666666666666668
-250.0   90.0   16.666666666666668
-250.0   60.0   16.666666666666668
-250.0   60.0   0.0
-300.0   60.0   16.666666666666668
-250.0   90.0   16.666666666666668
-250.0   60.0   0.0
-300.0   90.0   0.0
-300.0   60.0   16.666666666666668
-250.0   60.0   16.666666666666668
-300.0   90.0   16.666666666666668
-300.0   60.0   33.333333333333336
-250.0   60.0   16.666666666666668
-250.0   90.0   16.666666666666668
-300.0   90.0   16.666666666666668
-250.0   90.0   33.333333333333336
-300.0   60.0   33.333333333333336
-300.0   90.0   33.333333333333336
-250.0   90.0   33.333333333333336
-300.0   90.0   16.666666666666668
-300.0   60.0   33.333333333333336
-250.0   90.0   33.333333333333336
-250.0   60.0   33.333333333333336
-250.0   60.0   16.666666666666668
-300.0   60.0   33.333333333333336
-250.0   90.0   33.333333333333336
-250.0   60.0   16.666666666666668
-300.0   90.0   16.666666666666668
-300.0   60.0   33.333333333333336
-250.0   60.0   33.333333333333336
-300.0   90.0   33.333333333333336
-300.0   60.0   50.0
-250.0   60.0   33.333333333333336
-250.0   90.0   33.333333333333336
-300.0   90.0   33.333333333333336
-250.0   90.0   50.0
-300.0   60.0   50.0
-300.0   90.0   50.0
-250.0   90.0   50.0
-300.0   90.0   33.333333333333336
-300.0   60.0   50.0
-250.0   90.0   50.0
-250.0   60.0   50.0
-250.0   60.0   33.333333333333336
-300.0   60.0   50.0
-250.0   90.0   50.0
-250.0   60.0   33.333333333333336
-300.0   90.0   33.333333333333336
-300.0   90.0   0.0
-250.0   90.0   0.0
-300.0   120.0   0.0
-300.0   90.0   16.666666666666668
-250.0   90.0   0.0
-250.0   120.0   0.0
-300.0   120.0   0.0
-250.0   120.0   16.666666666666668
-300.0   90.0   16.666666666666668
-300.0   120.0   16.666666666666668
-250.0   120.0   16.666666666666668
-300.0   120.0   0.0
-300.0   90.0   16.666666666666668
-250.0   120.0   16.666666666666668
-250.0   90.0   16.666666666666668
-250.0   90.0   0.0
-300.0   90.0   16.666666666666668
-250.0   120.0   16.666666666666668
-250.0   90.0   0.0
-300.0   120.0   0.0
-300.0   90.0   16.666666666666668
-250.0   90.0   16.666666666666668
-300.0   120.0   16.666666666666668
-300.0   90.0   33.333333333333336
-250.0   90.0   16.666666666666668
-250.0   120.0   16.666666666666668
-300.0   120.0   16.666666666666668
-250.0   120.0   33.333333333333336
-300.0   90.0   33.333333333333336
-300.0   120.0   33.333333333333336
-250.0   120.0   33.333333333333336
-300.0   120.0   16.666666666666668
-300.0   90.0   33.333333333333336
-250.0   120.0   33.333333333333336
-250.0   90.0   33.333333333333336
-250.0   90.0   16.666666666666668
-300.0   90.0   33.333333333333336
-250.0   120.0   33.333333333333336
-250.0   90.0   16.666666666666668
-300.0   120.0   16.666666666666668
-300.0   90.0   33.333333333333336
-250.0   90.0   33.333333333333336
-300.0   120.0   33.333333333333336
-300.0   90.0   50.0
-250.0   90.0   33.333333333333336
-250.0   120.0   33.333333333333336
-300.0   120.0   33.333333333333336
-250.0   120.0   50.0
-300.0   90.0   50.0
-300.0   120.0   50.0
-250.0   120.0   50.0
-300.0   120.0   33.333333333333336
-300.0   90.0   50.0
-250.0   120.0   50.0
-250.0   90.0   50.0
-250.0   90.0   33.333333333333336
-300.0   90.0   50.0
-250.0   120.0   50.0
-250.0   90.0   33.333333333333336
-300.0   120.0   33.333333333333336
-300.0   120.0   0.0
-250.0   120.0   0.0
-300.0   150.0   0.0
-300.0   120.0   16.666666666666668
-250.0   120.0   0.0
-250.0   150.0   0.0
-300.0   150.0   0.0
-250.0   150.0   16.666666666666668
-300.0   120.0   16.666666666666668
-300.0   150.0   16.666666666666668
-250.0   150.0   16.666666666666668
-300.0   150.0   0.0
-300.0   120.0   16.666666666666668
-250.0   150.0   16.666666666666668
-250.0   120.0   16.666666666666668
-250.0   120.0   0.0
-300.0   120.0   16.666666666666668
-250.0   150.0   16.666666666666668
-250.0   120.0   0.0
-300.0   150.0   0.0
-300.0   120.0   16.666666666666668
-250.0   120.0   16.666666666666668
-300.0   150.0   16.666666666666668
-300.0   120.0   33.333333333333336
-250.0   120.0   16.666666666666668
-250.0   150.0   16.666666666666668
-300.0   150.0   16.666666666666668
-250.0   150.0   33.333333333333336
-300.0   120.0   33.333333333333336
-300.0   150.0   33.333333333333336
-250.0   150.0   33.333333333333336
-300.0   150.0   16.666666666666668
-300.0   120.0   33.333333333333336
-250.0   150.0   33.333333333333336
-250.0   120.0   33.333333333333336
-250.0   120.0   16.666666666666668
-300.0   120.0   33.333333333333336
-250.0   150.0   33.333333333333336
-250.0   120.0   16.666666666666668
-300.0   150.0   16.666666666666668
-300.0   120.0   33.333333333333336
-250.0   120.0   33.333333333333336
-300.0   150.0   33.333333333333336
-300.0   120.0   50.0
-250.0   120.0   33.333333333333336
-250.0   150.0   33.333333333333336
-300.0   150.0   33.333333333333336
-250.0   150.0   50.0
-300.0   120.0   50.0
-300.0   150.0   50.0
-250.0   150.0   50.0
-300.0   150.0   33.333333333333336
-300.0   120.0   50.0
-250.0   150.0   50.0
-250.0   120.0   50.0
-250.0   120.0   33.333333333333336
-300.0   120.0   50.0
-250.0   150.0   50.0
-250.0   120.0   33.333333333333336
-300.0   150.0   33.333333333333336
-250.0   0.0   0.0
-200.0   0.0   0.0
-250.0   30.0   0.0
-250.0   0.0   16.666666666666668
-200.0   0.0   0.0
-200.0   30.0   0.0
-250.0   30.0   0.0
-200.0   30.0   16.666666666666668
-250.0   0.0   16.666666666666668
-250.0   30.0   16.666666666666668
-200.0   30.0   16.666666666666668
-250.0   30.0   0.0
-250.0   0.0   16.666666666666668
-200.0   30.0   16.666666666666668
-200.0   0.0   16.666666666666668
-200.0   0.0   0.0
-250.0   0.0   16.666666666666668
-200.0   30.0   16.666666666666668
-200.0   0.0   0.0
-250.0   30.0   0.0
-250.0   0.0   16.666666666666668
-200.0   0.0   16.666666666666668
-250.0   30.0   16.666666666666668
-250.0   0.0   33.333333333333336
-200.0   0.0   16.666666666666668
-200.0   30.0   16.666666666666668
-250.0   30.0   16.666666666666668
-200.0   30.0   33.333333333333336
-250.0   0.0   33.333333333333336
-250.0   30.0   33.333333333333336
-200.0   30.0   33.333333333333336
-250.0   30.0   16.666666666666668
-250.0   0.0   33.333333333333336
-200.0   30.0   33.333333333333336
-200.0   0.0   33.333333333333336
-200.0   0.0   16.666666666666668
-250.0   0.0   33.333333333333336
-200.0   30.0   33.333333333333336
-200.0   0.0   16.666666666666668
-250.0   30.0   16.666666666666668
-250.0   0.0   33.333333333333336
-200.0   0.0   33.333333333333336
-250.0   30.0   33.333333333333336
-250.0   0.0   50.0
-200.0   0.0   33.333333333333336
-200.0   30.0   33.333333333333336
-250.0   30.0   33.333333333333336
-200.0   30.0   50.0
-250.0   0.0   50.0
-250.0   30.0   50.0
-200.0   30.0   50.0
-250.0   30.0   33.333333333333336
-250.0   0.0   50.0
-200.0   30.0   50.0
-200.0   0.0   50.0
-200.0   0.0   33.333333333333336
-250.0   0.0   50.0
-200.0   30.0   50.0
-200.0   0.0   33.333333333333336
-250.0   30.0   33.333333333333336
-250.0   30.0   0.0
-200.0   30.0   0.0
-250.0   60.0   0.0
-250.0   30.0   16.666666666666668
-200.0   30.0   0.0
-200.0   60.0   0.0
-250.0   60.0   0.0
-200.0   60.0   16.666666666666668
-250.0   30.0   16.666666666666668
-250.0   60.0   16.666666666666668
-200.0   60.0   16.666666666666668
-250.0   60.0   0.0
-250.0   30.0   16.666666666666668
-200.0   60.0   16.666666666666668
-200.0   30.0   16.666666666666668
-200.0   30.0   0.0
-250.0   30.0   16.666666666666668
-200.0   60.0   16.666666666666668
-200.0   30.0   0.0
-250.0   60.0   0.0
-250.0   30.0   16.666666666666668
-200.0   30.0   16.666666666666668
-250.0   60.0   16.666666666666668
-250.0   30.0   33.333333333333336
-200.0   30.0   16.666666666666668
-200.0   60.0   16.666666666666668
-250.0   60.0   16.666666666666668
-200.0   60.0   33.333333333333336
-250.0   30.0   33.333333333333336
-250.0   60.0   33.333333333333336
-200.0   60.0   33.333333333333336
-250.0   60.0   16.666666666666668
-250.0   30.0   33.333333333333336
-200.0   60.0   33.333333333333336
-200.0   30.0   33.333333333333336
-200.0   30.0   16.666666666666668
-250.0   30.0   33.333333333333336
-200.0   60.0   33.333333333333336
-200.0   30.0   16.666666666666668
-250.0   60.0   16.666666666666668
-250.0   30.0   33.333333333333336
-200.0   30.0   33.333333333333336
-250.0   60.0   33.333333333333336
-250.0   30.0   50.0
-200.0   30.0   33.333333333333336
-200.0   60.0   33.333333333333336
-250.0   60.0   33.333333333333336
-200.0   60.0   50.0
-250.0   30.0   50.0
-250.0   60.0   50.0
-200.0   60.0   50.0
-250.0   60.0   33.333333333333336
-250.0   30.0   50.0
-200.0   60.0   50.0
-200.0   30.0   50.0
-200.0   30.0   33.333333333333336
-250.0   30.0   50.0
-200.0   60.0   50.0
-200.0   30.0   33.333333333333336
-250.0   60.0   33.333333333333336
-250.0   60.0   0.0
-200.0   60.0   0.0
-250.0   90.0   0.0
-250.0   60.0   16.666666666666668
-200.0   60.0   0.0
-200.0   90.0   0.0
-250.0   90.0   0.0
-200.0   90.0   16.666666666666668
-250.0   60.0   16.666666666666668
-250.0   90.0   16.666666666666668
-200.0   90.0   16.666666666666668
-250.0   90.0   0.0
-250.0   60.0   16.666666666666668
-200.0   90.0   16.666666666666668
-200.0   60.0   16.666666666666668
-200.0   60.0   0.0
-250.0   60.0   16.666666666666668
-200.0   90.0   16.666666666666668
-200.0   60.0   0.0
-250.0   90.0   0.0
-250.0   60.0   16.666666666666668
-200.0   60.0   16.666666666666668
-250.0   90.0   16.666666666666668
-250.0   60.0   33.333333333333336
-200.0   60.0   16.666666666666668
-200.0   90.0   16.666666666666668
-250.0   90.0   16.666666666666668
-200.0   90.0   33.333333333333336
-250.0   60.0   33.333333333333336
-250.0   90.0   33.333333333333336
-200.0   90.0   33.333333333333336
-250.0   90.0   16.666666666666668
-250.0   60.0   33.333333333333336
-200.0   90.0   33.333333333333336
-200.0   60.0   33.333333333333336
-200.0   60.0   16.666666666666668
-250.0   60.0   33.333333333333336
-200.0   90.0   33.333333333333336
-200.0   60.0   16.666666666666668
-250.0   90.0   16.666666666666668
-250.0   60.0   33.333333333333336
-200.0   60.0   33.333333333333336
-250.0   90.0   33.333333333333336
-250.0   60.0   50.0
-200.0   60.0   33.333333333333336
-200.0   90.0   33.333333333333336
-250.0   90.0   33.333333333333336
-200.0   90.0   50.0
-250.0   60.0   50.0
-250.0   90.0   50.0
-200.0   90.0   50.0
-250.0   90.0   33.333333333333336
-250.0   60.0   50.0
-200.0   90.0   50.0
-200.0   60.0   50.0
-200.0   60.0   33.333333333333336
-250.0   60.0   50.0
-200.0   90.0   50.0
-200.0   60.0   33.333333333333336
-250.0   90.0   33.333333333333336
-250.0   90.0   0.0
-200.0   90.0   0.0
-250.0   120.0   0.0
-250.0   90.0   16.666666666666668
-200.0   90.0   0.0
-200.0   120.0   0.0
-250.0   120.0   0.0
-200.0   120.0   16.666666666666668
-250.0   90.0   16.666666666666668
-250.0   120.0   16.666666666666668
-200.0   120.0   16.666666666666668
-250.0   120.0   0.0
-250.0   90.0   16.666666666666668
-200.0   120.0   16.666666666666668
-200.0   90.0   16.666666666666668
-200.0   90.0   0.0
-250.0   90.0   16.666666666666668
-200.0   120.0   16.666666666666668
-200.0   90.0   0.0
-250.0   120.0   0.0
-250.0   90.0   16.666666666666668
-200.0   90.0   16.666666666666668
-250.0   120.0   16.666666666666668
-250.0   90.0   33.333333333333336
-200.0   90.0   16.666666666666668
-200.0   120.0   16.666666666666668
-250.0   120.0   16.666666666666668
-200.0   120.0   33.333333333333336
-250.0   90.0   33.333333333333336
-250.0   120.0   33.333333333333336
-200.0   120.0   33.333333333333336
-250.0   120.0   16.666666666666668
-250.0   90.0   33.333333333333336
-200.0   120.0   33.333333333333336
-200.0   90.0   33.333333333333336
-200.0   90.0   16.666666666666668
-250.0   90.0   33.333333333333336
-200.0   120.0   33.333333333333336
-200.0   90.0   16.666666666666668
-250.0   120.0   16.666666666666668
-250.0   90.0   33.333333333333336
-200.0   90.0   33.333333333333336
-250.0   120.0   33.333333333333336
-250.0   90.0   50.0
-200.0   90.0   33.333333333333336
-200.0   120.0   33.333333333333336
-250.0   120.0   33.333333333333336
-200.0   120.0   50.0
-250.0   90.0   50.0
-250.0   120.0   50.0
-200.0   120.0   50.0
-250.0   120.0   33.333333333333336
-250.0   90.0   50.0
-200.0   120.0   50.0
-200.0   90.0   50.0
-200.0   90.0   33.333333333333336
-250.0   90.0   50.0
-200.0   120.0   50.0
-200.0   90.0   33.333333333333336
-250.0   120.0   33.333333333333336
-250.0   120.0   0.0
-200.0   120.0   0.0
-250.0   150.0   0.0
-250.0   120.0   16.666666666666668
-200.0   120.0   0.0
-200.0   150.0   0.0
-250.0   150.0   0.0
-200.0   150.0   16.666666666666668
-250.0   120.0   16.666666666666668
-250.0   150.0   16.666666666666668
-200.0   150.0   16.666666666666668
-250.0   150.0   0.0
-250.0   120.0   16.666666666666668
-200.0   150.0   16.666666666666668
-200.0   120.0   16.666666666666668
-200.0   120.0   0.0
-250.0   120.0   16.666666666666668
-200.0   150.0   16.666666666666668
-200.0   120.0   0.0
-250.0   150.0   0.0
-250.0   120.0   16.666666666666668
-200.0   120.0   16.666666666666668
-250.0   150.0   16.666666666666668
-250.0   120.0   33.333333333333336
-200.0   120.0   16.666666666666668
-200.0   150.0   16.666666666666668
-250.0   150.0   16.666666666666668
-200.0   150.0   33.333333333333336
-250.0   120.0   33.333333333333336
-250.0   150.0   33.333333333333336
-200.0   150.0   33.333333333333336
-250.0   150.0   16.666666666666668
-250.0   120.0   33.333333333333336
-200.0   150.0   33.333333333333336
-200.0   120.0   33.333333333333336
-200.0   120.0   16.666666666666668
-250.0   120.0   33.333333333333336
-200.0   150.0   33.333333333333336
-200.0   120.0   16.666666666666668
-250.0   150.0   16.666666666666668
-250.0   120.0   33.333333333333336
-200.0   120.0   33.333333333333336
-250.0   150.0   33.333333333333336
-250.0   120.0   50.0
-200.0   120.0   33.333333333333336
-200.0   150.0   33.333333333333336
-250.0   150.0   33.333333333333336
-200.0   150.0   50.0
-250.0   120.0   50.0
-250.0   150.0   50.0
-200.0   150.0   50.0
-250.0   150.0   33.333333333333336
-250.0   120.0   50.0
-200.0   150.0   50.0
-200.0   120.0   50.0
-200.0   120.0   33.333333333333336
-250.0   120.0   50.0
-200.0   150.0   50.0
-200.0   120.0   33.333333333333336
-250.0   150.0   33.333333333333336
-200.0   0.0   0.0
-150.0   0.0   0.0
-200.0   30.0   0.0
-200.0   0.0   16.666666666666668
-150.0   0.0   0.0
-150.0   30.0   0.0
-200.0   30.0   0.0
-150.0   30.0   16.666666666666668
-200.0   0.0   16.666666666666668
-200.0   30.0   16.666666666666668
-150.0   30.0   16.666666666666668
-200.0   30.0   0.0
-200.0   0.0   16.666666666666668
-150.0   30.0   16.666666666666668
-150.0   0.0   16.666666666666668
-150.0   0.0   0.0
-200.0   0.0   16.666666666666668
-150.0   30.0   16.666666666666668
-150.0   0.0   0.0
-200.0   30.0   0.0
-200.0   0.0   16.666666666666668
-150.0   0.0   16.666666666666668
-200.0   30.0   16.666666666666668
-200.0   0.0   33.333333333333336
-150.0   0.0   16.666666666666668
-150.0   30.0   16.666666666666668
-200.0   30.0   16.666666666666668
-150.0   30.0   33.333333333333336
-200.0   0.0   33.333333333333336
-200.0   30.0   33.333333333333336
-150.0   30.0   33.333333333333336
-200.0   30.0   16.666666666666668
-200.0   0.0   33.333333333333336
-150.0   30.0   33.333333333333336
-150.0   0.0   33.333333333333336
-150.0   0.0   16.666666666666668
-200.0   0.0   33.333333333333336
-150.0   30.0   33.333333333333336
-150.0   0.0   16.666666666666668
-200.0   30.0   16.666666666666668
-200.0   0.0   33.333333333333336
-150.0   0.0   33.333333333333336
-200.0   30.0   33.333333333333336
-200.0   0.0   50.0
-150.0   0.0   33.333333333333336
-150.0   30.0   33.333333333333336
-200.0   30.0   33.333333333333336
-150.0   30.0   50.0
-200.0   0.0   50.0
-200.0   30.0   50.0
-150.0   30.0   50.0
-200.0   30.0   33.333333333333336
-200.0   0.0   50.0
-150.0   30.0   50.0
-150.0   0.0   50.0
-150.0   0.0   33.333333333333336
-200.0   0.0   50.0
-150.0   30.0   50.0
-150.0   0.0   33.333333333333336
-200.0   30.0   33.333333333333336
-200.0   30.0   0.0
-150.0   30.0   0.0
-200.0   60.0   0.0
-200.0   30.0   16.666666666666668
-150.0   30.0   0.0
-150.0   60.0   0.0
-200.0   60.0   0.0
-150.0   60.0   16.666666666666668
-200.0   30.0   16.666666666666668
-200.0   60.0   16.666666666666668
-150.0   60.0   16.666666666666668
-200.0   60.0   0.0
-200.0   30.0   16.666666666666668
-150.0   60.0   16.666666666666668
-150.0   30.0   16.666666666666668
-150.0   30.0   0.0
-200.0   30.0   16.666666666666668
-150.0   60.0   16.666666666666668
-150.0   30.0   0.0
-200.0   60.0   0.0
-200.0   30.0   16.666666666666668
-150.0   30.0   16.666666666666668
-200.0   60.0   16.666666666666668
-200.0   30.0   33.333333333333336
-150.0   30.0   16.666666666666668
-150.0   60.0   16.666666666666668
-200.0   60.0   16.666666666666668
-150.0   60.0   33.333333333333336
-200.0   30.0   33.333333333333336
-200.0   60.0   33.333333333333336
-150.0   60.0   33.333333333333336
-200.0   60.0   16.666666666666668
-200.0   30.0   33.333333333333336
-150.0   60.0   33.333333333333336
-150.0   30.0   33.333333333333336
-150.0   30.0   16.666666666666668
-200.0   30.0   33.333333333333336
-150.0   60.0   33.333333333333336
-150.0   30.0   16.666666666666668
-200.0   60.0   16.666666666666668
-200.0   30.0   33.333333333333336
-150.0   30.0   33.333333333333336
-200.0   60.0   33.333333333333336
-200.0   30.0   50.0
-150.0   30.0   33.333333333333336
-150.0   60.0   33.333333333333336
-200.0   60.0   33.333333333333336
-150.0   60.0   50.0
-200.0   30.0   50.0
-200.0   60.0   50.0
-150.0   60.0   50.0
-200.0   60.0   33.333333333333336
-200.0   30.0   50.0
-150.0   60.0   50.0
-150.0   30.0   50.0
-150.0   30.0   33.333333333333336
-200.0   30.0   50.0
-150.0   60.0   50.0
-150.0   30.0   33.333333333333336
-200.0   60.0   33.333333333333336
-200.0   60.0   0.0
-150.0   60.0   0.0
-200.0   90.0   0.0
-200.0   60.0   16.666666666666668
-150.0   60.0   0.0
-150.0   90.0   0.0
-200.0   90.0   0.0
-150.0   90.0   16.666666666666668
-200.0   60.0   16.666666666666668
-200.0   90.0   16.666666666666668
-150.0   90.0   16.666666666666668
-200.0   90.0   0.0
-200.0   60.0   16.666666666666668
-150.0   90.0   16.666666666666668
-150.0   60.0   16.666666666666668
-150.0   60.0   0.0
-200.0   60.0   16.666666666666668
-150.0   90.0   16.666666666666668
-150.0   60.0   0.0
-200.0   90.0   0.0
-200.0   60.0   16.666666666666668
-150.0   60.0   16.666666666666668
-200.0   90.0   16.666666666666668
-200.0   60.0   33.333333333333336
-150.0   60.0   16.666666666666668
-150.0   90.0   16.666666666666668
-200.0   90.0   16.666666666666668
-150.0   90.0   33.333333333333336
-200.0   60.0   33.333333333333336
-200.0   90.0   33.333333333333336
-150.0   90.0   33.333333333333336
-200.0   90.0   16.666666666666668
-200.0   60.0   33.333333333333336
-150.0   90.0   33.333333333333336
-150.0   60.0   33.333333333333336
-150.0   60.0   16.666666666666668
-200.0   60.0   33.333333333333336
-150.0   90.0   33.333333333333336
-150.0   60.0   16.666666666666668
-200.0   90.0   16.666666666666668
-200.0   60.0   33.333333333333336
-150.0   60.0   33.333333333333336
-200.0   90.0   33.333333333333336
-200.0   60.0   50.0
-150.0   60.0   33.333333333333336
-150.0   90.0   33.333333333333336
-200.0   90.0   33.333333333333336
-150.0   90.0   50.0
-200.0   60.0   50.0
-200.0   90.0   50.0
-150.0   90.0   50.0
-200.0   90.0   33.333333333333336
-200.0   60.0   50.0
-150.0   90.0   50.0
-150.0   60.0   50.0
-150.0   60.0   33.333333333333336
-200.0   60.0   50.0
-150.0   90.0   50.0
-150.0   60.0   33.333333333333336
-200.0   90.0   33.333333333333336
-200.0   90.0   0.0
-150.0   90.0   0.0
-200.0   120.0   0.0
-200.0   90.0   16.666666666666668
-150.0   90.0   0.0
-150.0   120.0   0.0
-200.0   120.0   0.0
-150.0   120.0   16.666666666666668
-200.0   90.0   16.666666666666668
-200.0   120.0   16.666666666666668
-150.0   120.0   16.666666666666668
-200.0   120.0   0.0
-200.0   90.0   16.666666666666668
-150.0   120.0   16.666666666666668
-150.0   90.0   16.666666666666668
-150.0   90.0   0.0
-200.0   90.0   16.666666666666668
-150.0   120.0   16.666666666666668
-150.0   90.0   0.0
-200.0   120.0   0.0
-200.0   90.0   16.666666666666668
-150.0   90.0   16.666666666666668
-200.0   120.0   16.666666666666668
-200.0   90.0   33.333333333333336
-150.0   90.0   16.666666666666668
-150.0   120.0   16.666666666666668
-200.0   120.0   16.666666666666668
-150.0   120.0   33.333333333333336
-200.0   90.0   33.333333333333336
-200.0   120.0   33.333333333333336
-150.0   120.0   33.333333333333336
-200.0   120.0   16.666666666666668
-200.0   90.0   33.333333333333336
-150.0   120.0   33.333333333333336
-150.0   90.0   33.333333333333336
-150.0   90.0   16.666666666666668
-200.0   90.0   33.333333333333336
-150.0   120.0   33.333333333333336
-150.0   90.0   16.666666666666668
-200.0   120.0   16.666666666666668
-200.0   90.0   33.333333333333336
-150.0   90.0   33.333333333333336
-200.0   120.0   33.333333333333336
-200.0   90.0   50.0
-150.0   90.0   33.333333333333336
-150.0   120.0   33.333333333333336
-200.0   120.0   33.333333333333336
-150.0   120.0   50.0
-200.0   90.0   50.0
-200.0   120.0   50.0
-150.0   120.0   50.0
-200.0   120.0   33.333333333333336
-200.0   90.0   50.0
-150.0   120.0   50.0
-150.0   90.0   50.0
-150.0   90.0   33.333333333333336
-200.0   90.0   50.0
-150.0   120.0   50.0
-150.0   90.0   33.333333333333336
-200.0   120.0   33.333333333333336
-200.0   120.0   0.0
-150.0   120.0   0.0
-200.0   150.0   0.0
-200.0   120.0   16.666666666666668
-150.0   120.0   0.0
-150.0   150.0   0.0
-200.0   150.0   0.0
-150.0   150.0   16.666666666666668
-200.0   120.0   16.666666666666668
-200.0   150.0   16.666666666666668
-150.0   150.0   16.666666666666668
-200.0   150.0   0.0
-200.0   120.0   16.666666666666668
-150.0   150.0   16.666666666666668
-150.0   120.0   16.666666666666668
-150.0   120.0   0.0
-200.0   120.0   16.666666666666668
-150.0   150.0   16.666666666666668
-150.0   120.0   0.0
-200.0   150.0   0.0
-200.0   120.0   16.666666666666668
-150.0   120.0   16.666666666666668
-200.0   150.0   16.666666666666668
-200.0   120.0   33.333333333333336
-150.0   120.0   16.666666666666668
-150.0   150.0   16.666666666666668
-200.0   150.0   16.666666666666668
-150.0   150.0   33.333333333333336
-200.0   120.0   33.333333333333336
-200.0   150.0   33.333333333333336
-150.0   150.0   33.333333333333336
-200.0   150.0   16.666666666666668
-200.0   120.0   33.333333333333336
-150.0   150.0   33.333333333333336
-150.0   120.0   33.333333333333336
-150.0   120.0   16.666666666666668
-200.0   120.0   33.333333333333336
-150.0   150.0   33.333333333333336
-150.0   120.0   16.666666666666668
-200.0   150.0   16.666666666666668
-200.0   120.0   33.333333333333336
-150.0   120.0   33.333333333333336
-200.0   150.0   33.333333333333336
-200.0   120.0   50.0
-150.0   120.0   33.333333333333336
-150.0   150.0   33.333333333333336
-200.0   150.0   33.333333333333336
-150.0   150.0   50.0
-200.0   120.0   50.0
-200.0   150.0   50.0
-150.0   150.0   50.0
-200.0   150.0   33.333333333333336
-200.0   120.0   50.0
-150.0   150.0   50.0
-150.0   120.0   50.0
-150.0   120.0   33.333333333333336
-200.0   120.0   50.0
-150.0   150.0   50.0
-150.0   120.0   33.333333333333336
-200.0   150.0   33.333333333333336
-150.0   0.0   0.0
-100.0   0.0   0.0
-150.0   30.0   0.0
-150.0   0.0   16.666666666666668
-100.0   0.0   0.0
-100.0   30.0   0.0
-150.0   30.0   0.0
-100.0   30.0   16.666666666666668
-150.0   0.0   16.666666666666668
-150.0   30.0   16.666666666666668
-100.0   30.0   16.666666666666668
-150.0   30.0   0.0
-150.0   0.0   16.666666666666668
-100.0   30.0   16.666666666666668
-100.0   0.0   16.666666666666668
-100.0   0.0   0.0
-150.0   0.0   16.666666666666668
-100.0   30.0   16.666666666666668
-100.0   0.0   0.0
-150.0   30.0   0.0
-150.0   0.0   16.666666666666668
-100.0   0.0   16.666666666666668
-150.0   30.0   16.666666666666668
-150.0   0.0   33.333333333333336
-100.0   0.0   16.666666666666668
-100.0   30.0   16.666666666666668
-150.0   30.0   16.666666666666668
-100.0   30.0   33.333333333333336
-150.0   0.0   33.333333333333336
-150.0   30.0   33.333333333333336
-100.0   30.0   33.333333333333336
-150.0   30.0   16.666666666666668
-150.0   0.0   33.333333333333336
-100.0   30.0   33.333333333333336
-100.0   0.0   33.333333333333336
-100.0   0.0   16.666666666666668
-150.0   0.0   33.333333333333336
-100.0   30.0   33.333333333333336
-100.0   0.0   16.666666666666668
-150.0   30.0   16.666666666666668
-150.0   0.0   33.333333333333336
-100.0   0.0   33.333333333333336
-150.0   30.0   33.333333333333336
-150.0   0.0   50.0
-100.0   0.0   33.333333333333336
-100.0   30.0   33.333333333333336
-150.0   30.0   33.333333333333336
-100.0   30.0   50.0
-150.0   0.0   50.0
-150.0   30.0   50.0
-100.0   30.0   50.0
-150.0   30.0   33.333333333333336
-150.0   0.0   50.0
-100.0   30.0   50.0
-100.0   0.0   50.0
-100.0   0.0   33.333333333333336
-150.0   0.0   50.0
-100.0   30.0   50.0
-100.0   0.0   33.333333333333336
-150.0   30.0   33.333333333333336
-150.0   30.0   0.0
-100.0   30.0   0.0
-150.0   60.0   0.0
-150.0   30.0   16.666666666666668
-100.0   30.0   0.0
-100.0   60.0   0.0
-150.0   60.0   0.0
-100.0   60.0   16.666666666666668
-150.0   30.0   16.666666666666668
-150.0   60.0   16.666666666666668
-100.0   60.0   16.666666666666668
-150.0   60.0   0.0
-150.0   30.0   16.666666666666668
-100.0   60.0   16.666666666666668
-100.0   30.0   16.666666666666668
-100.0   30.0   0.0
-150.0   30.0   16.666666666666668
-100.0   60.0   16.666666666666668
-100.0   30.0   0.0
-150.0   60.0   0.0
-150.0   30.0   16.666666666666668
-100.0   30.0   16.666666666666668
-150.0   60.0   16.666666666666668
-150.0   30.0   33.333333333333336
-100.0   30.0   16.666666666666668
-100.0   60.0   16.666666666666668
-150.0   60.0   16.666666666666668
-100.0   60.0   33.333333333333336
-150.0   30.0   33.333333333333336
-150.0   60.0   33.333333333333336
-100.0   60.0   33.333333333333336
-150.0   60.0   16.666666666666668
-150.0   30.0   33.333333333333336
-100.0   60.0   33.333333333333336
-100.0   30.0   33.333333333333336
-100.0   30.0   16.666666666666668
-150.0   30.0   33.333333333333336
-100.0   60.0   33.333333333333336
-100.0   30.0   16.666666666666668
-150.0   60.0   16.666666666666668
-150.0   30.0   33.333333333333336
-100.0   30.0   33.333333333333336
-150.0   60.0   33.333333333333336
-150.0   30.0   50.0
-100.0   30.0   33.333333333333336
-100.0   60.0   33.333333333333336
-150.0   60.0   33.333333333333336
-100.0   60.0   50.0
-150.0   30.0   50.0
-150.0   60.0   50.0
-100.0   60.0   50.0
-150.0   60.0   33.333333333333336
-150.0   30.0   50.0
-100.0   60.0   50.0
-100.0   30.0   50.0
-100.0   30.0   33.333333333333336
-150.0   30.0   50.0
-100.0   60.0   50.0
-100.0   30.0   33.333333333333336
-150.0   60.0   33.333333333333336
-150.0   60.0   0.0
-100.0   60.0   0.0
-150.0   90.0   0.0
-150.0   60.0   16.666666666666668
-100.0   60.0   0.0
-100.0   90.0   0.0
-150.0   90.0   0.0
-100.0   90.0   16.666666666666668
-150.0   60.0   16.666666666666668
-150.0   90.0   16.666666666666668
-100.0   90.0   16.666666666666668
-150.0   90.0   0.0
-150.0   60.0   16.666666666666668
-100.0   90.0   16.666666666666668
-100.0   60.0   16.666666666666668
-100.0   60.0   0.0
-150.0   60.0   16.666666666666668
-100.0   90.0   16.666666666666668
-100.0   60.0   0.0
-150.0   90.0   0.0
-150.0   60.0   16.666666666666668
-100.0   60.0   16.666666666666668
-150.0   90.0   16.666666666666668
-150.0   60.0   33.333333333333336
-100.0   60.0   16.666666666666668
-100.0   90.0   16.666666666666668
-150.0   90.0   16.666666666666668
-100.0   90.0   33.333333333333336
-150.0   60.0   33.333333333333336
-150.0   90.0   33.333333333333336
-100.0   90.0   33.333333333333336
-150.0   90.0   16.666666666666668
-150.0   60.0   33.333333333333336
-100.0   90.0   33.333333333333336
-100.0   60.0   33.333333333333336
-100.0   60.0   16.666666666666668
-150.0   60.0   33.333333333333336
-100.0   90.0   33.333333333333336
-100.0   60.0   16.666666666666668
-150.0   90.0   16.666666666666668
-150.0   60.0   33.333333333333336
-100.0   60.0   33.333333333333336
-150.0   90.0   33.333333333333336
-150.0   60.0   50.0
-100.0   60.0   33.333333333333336
-100.0   90.0   33.333333333333336
-150.0   90.0   33.333333333333336
-100.0   90.0   50.0
-150.0   60.0   50.0
-150.0   90.0   50.0
-100.0   90.0   50.0
-150.0   90.0   33.333333333333336
-150.0   60.0   50.0
-100.0   90.0   50.0
-100.0   60.0   50.0
-100.0   60.0   33.333333333333336
-150.0   60.0   50.0
-100.0   90.0   50.0
-100.0   60.0   33.333333333333336
-150.0   90.0   33.333333333333336
-150.0   90.0   0.0
-100.0   90.0   0.0
-150.0   120.0   0.0
-150.0   90.0   16.666666666666668
-100.0   90.0   0.0
-100.0   120.0   0.0
-150.0   120.0   0.0
-100.0   120.0   16.666666666666668
-150.0   90.0   16.666666666666668
-150.0   120.0   16.666666666666668
-100.0   120.0   16.666666666666668
-150.0   120.0   0.0
-150.0   90.0   16.666666666666668
-100.0   120.0   16.666666666666668
-100.0   90.0   16.666666666666668
-100.0   90.0   0.0
-150.0   90.0   16.666666666666668
-100.0   120.0   16.666666666666668
-100.0   90.0   0.0
-150.0   120.0   0.0
-150.0   90.0   16.666666666666668
-100.0   90.0   16.666666666666668
-150.0   120.0   16.666666666666668
-150.0   90.0   33.333333333333336
-100.0   90.0   16.666666666666668
-100.0   120.0   16.666666666666668
-150.0   120.0   16.666666666666668
-100.0   120.0   33.333333333333336
-150.0   90.0   33.333333333333336
-150.0   120.0   33.333333333333336
-100.0   120.0   33.333333333333336
-150.0   120.0   16.666666666666668
-150.0   90.0   33.333333333333336
-100.0   120.0   33.333333333333336
-100.0   90.0   33.333333333333336
-100.0   90.0   16.666666666666668
-150.0   90.0   33.333333333333336
-100.0   120.0   33.333333333333336
-100.0   90.0   16.666666666666668
-150.0   120.0   16.666666666666668
-150.0   90.0   33.333333333333336
-100.0   90.0   33.333333333333336
-150.0   120.0   33.333333333333336
-150.0   90.0   50.0
-100.0   90.0   33.333333333333336
-100.0   120.0   33.333333333333336
-150.0   120.0   33.333333333333336
-100.0   120.0   50.0
-150.0   90.0   50.0
-150.0   120.0   50.0
-100.0   120.0   50.0
-150.0   120.0   33.333333333333336
-150.0   90.0   50.0
-100.0   120.0   50.0
-100.0   90.0   50.0
-100.0   90.0   33.333333333333336
-150.0   90.0   50.0
-100.0   120.0   50.0
-100.0   90.0   33.333333333333336
-150.0   120.0   33.333333333333336
-150.0   120.0   0.0
-100.0   120.0   0.0
-150.0   150.0   0.0
-150.0   120.0   16.666666666666668
-100.0   120.0   0.0
-100.0   150.0   0.0
-150.0   150.0   0.0
-100.0   150.0   16.666666666666668
-150.0   120.0   16.666666666666668
-150.0   150.0   16.666666666666668
-100.0   150.0   16.666666666666668
-150.0   150.0   0.0
-150.0   120.0   16.666666666666668
-100.0   150.0   16.666666666666668
-100.0   120.0   16.666666666666668
-100.0   120.0   0.0
-150.0   120.0   16.666666666666668
-100.0   150.0   16.666666666666668
-100.0   120.0   0.0
-150.0   150.0   0.0
-150.0   120.0   16.666666666666668
-100.0   120.0   16.666666666666668
-150.0   150.0   16.666666666666668
-150.0   120.0   33.333333333333336
-100.0   120.0   16.666666666666668
-100.0   150.0   16.666666666666668
-150.0   150.0   16.666666666666668
-100.0   150.0   33.333333333333336
-150.0   120.0   33.333333333333336
-150.0   150.0   33.333333333333336
-100.0   150.0   33.333333333333336
-150.0   150.0   16.666666666666668
-150.0   120.0   33.333333333333336
-100.0   150.0   33.333333333333336
-100.0   120.0   33.333333333333336
-100.0   120.0   16.666666666666668
-150.0   120.0   33.333333333333336
-100.0   150.0   33.333333333333336
-100.0   120.0   16.666666666666668
-150.0   150.0   16.666666666666668
-150.0   120.0   33.333333333333336
-100.0   120.0   33.333333333333336
-150.0   150.0   33.333333333333336
-150.0   120.0   50.0
-100.0   120.0   33.333333333333336
-100.0   150.0   33.333333333333336
-150.0   150.0   33.333333333333336
-100.0   150.0   50.0
-150.0   120.0   50.0
-150.0   150.0   50.0
-100.0   150.0   50.0
-150.0   150.0   33.333333333333336
-150.0   120.0   50.0
-100.0   150.0   50.0
-100.0   120.0   50.0
-100.0   120.0   33.333333333333336
-150.0   120.0   50.0
-100.0   150.0   50.0
-100.0   120.0   33.333333333333336
-150.0   150.0   33.333333333333336
-100.0   0.0   0.0
-50.0   0.0   0.0
-100.0   30.0   0.0
-100.0   0.0   16.666666666666668
-50.0   0.0   0.0
-50.0   30.0   0.0
-100.0   30.0   0.0
-50.0   30.0   16.666666666666668
-100.0   0.0   16.666666666666668
-100.0   30.0   16.666666666666668
-50.0   30.0   16.666666666666668
-100.0   30.0   0.0
-100.0   0.0   16.666666666666668
-50.0   30.0   16.666666666666668
-50.0   0.0   16.666666666666668
-50.0   0.0   0.0
-100.0   0.0   16.666666666666668
-50.0   30.0   16.666666666666668
-50.0   0.0   0.0
-100.0   30.0   0.0
-100.0   0.0   16.666666666666668
-50.0   0.0   16.666666666666668
-100.0   30.0   16.666666666666668
-100.0   0.0   33.333333333333336
-50.0   0.0   16.666666666666668
-50.0   30.0   16.666666666666668
-100.0   30.0   16.666666666666668
-50.0   30.0   33.333333333333336
-100.0   0.0   33.333333333333336
-100.0   30.0   33.333333333333336
-50.0   30.0   33.333333333333336
-100.0   30.0   16.666666666666668
-100.0   0.0   33.333333333333336
-50.0   30.0   33.333333333333336
-50.0   0.0   33.333333333333336
-50.0   0.0   16.666666666666668
-100.0   0.0   33.333333333333336
-50.0   30.0   33.333333333333336
-50.0   0.0   16.666666666666668
-100.0   30.0   16.666666666666668
-100.0   0.0   33.333333333333336
-50.0   0.0   33.333333333333336
-100.0   30.0   33.333333333333336
-100.0   0.0   50.0
-50.0   0.0   33.333333333333336
-50.0   30.0   33.333333333333336
-100.0   30.0   33.333333333333336
-50.0   30.0   50.0
-100.0   0.0   50.0
-100.0   30.0   50.0
-50.0   30.0   50.0
-100.0   30.0   33.333333333333336
-100.0   0.0   50.0
-50.0   30.0   50.0
-50.0   0.0   50.0
-50.0   0.0   33.333333333333336
-100.0   0.0   50.0
-50.0   30.0   50.0
-50.0   0.0   33.333333333333336
-100.0   30.0   33.333333333333336
-100.0   30.0   0.0
-50.0   30.0   0.0
-100.0   60.0   0.0
-100.0   30.0   16.666666666666668
-50.0   30.0   0.0
-50.0   60.0   0.0
-100.0   60.0   0.0
-50.0   60.0   16.666666666666668
-100.0   30.0   16.666666666666668
-100.0   60.0   16.666666666666668
-50.0   60.0   16.666666666666668
-100.0   60.0   0.0
-100.0   30.0   16.666666666666668
-50.0   60.0   16.666666666666668
-50.0   30.0   16.666666666666668
-50.0   30.0   0.0
-100.0   30.0   16.666666666666668
-50.0   60.0   16.666666666666668
-50.0   30.0   0.0
-100.0   60.0   0.0
-100.0   30.0   16.666666666666668
-50.0   30.0   16.666666666666668
-100.0   60.0   16.666666666666668
-100.0   30.0   33.333333333333336
-50.0   30.0   16.666666666666668
-50.0   60.0   16.666666666666668
-100.0   60.0   16.666666666666668
-50.0   60.0   33.333333333333336
-100.0   30.0   33.333333333333336
-100.0   60.0   33.333333333333336
-50.0   60.0   33.333333333333336
-100.0   60.0   16.666666666666668
-100.0   30.0   33.333333333333336
-50.0   60.0   33.333333333333336
-50.0   30.0   33.333333333333336
-50.0   30.0   16.666666666666668
-100.0   30.0   33.333333333333336
-50.0   60.0   33.333333333333336
-50.0   30.0   16.666666666666668
-100.0   60.0   16.666666666666668
-100.0   30.0   33.333333333333336
-50.0   30.0   33.333333333333336
-100.0   60.0   33.333333333333336
-100.0   30.0   50.0
-50.0   30.0   33.333333333333336
-50.0   60.0   33.333333333333336
-100.0   60.0   33.333333333333336
-50.0   60.0   50.0
-100.0   30.0   50.0
-100.0   60.0   50.0
-50.0   60.0   50.0
-100.0   60.0   33.333333333333336
-100.0   30.0   50.0
-50.0   60.0   50.0
-50.0   30.0   50.0
-50.0   30.0   33.333333333333336
-100.0   30.0   50.0
-50.0   60.0   50.0
-50.0   30.0   33.333333333333336
-100.0   60.0   33.333333333333336
-100.0   60.0   0.0
-50.0   60.0   0.0
-100.0   90.0   0.0
-100.0   60.0   16.666666666666668
-50.0   60.0   0.0
-50.0   90.0   0.0
-100.0   90.0   0.0
-50.0   90.0   16.666666666666668
-100.0   60.0   16.666666666666668
-100.0   90.0   16.666666666666668
-50.0   90.0   16.666666666666668
-100.0   90.0   0.0
-100.0   60.0   16.666666666666668
-50.0   90.0   16.666666666666668
-50.0   60.0   16.666666666666668
-50.0   60.0   0.0
-100.0   60.0   16.666666666666668
-50.0   90.0   16.666666666666668
-50.0   60.0   0.0
-100.0   90.0   0.0
-100.0   60.0   16.666666666666668
-50.0   60.0   16.666666666666668
-100.0   90.0   16.666666666666668
-100.0   60.0   33.333333333333336
-50.0   60.0   16.666666666666668
-50.0   90.0   16.666666666666668
-100.0   90.0   16.666666666666668
-50.0   90.0   33.333333333333336
-100.0   60.0   33.333333333333336
-100.0   90.0   33.333333333333336
-50.0   90.0   33.333333333333336
-100.0   90.0   16.666666666666668
-100.0   60.0   33.333333333333336
-50.0   90.0   33.333333333333336
-50.0   60.0   33.333333333333336
-50.0   60.0   16.666666666666668
-100.0   60.0   33.333333333333336
-50.0   90.0   33.333333333333336
-50.0   60.0   16.666666666666668
-100.0   90.0   16.666666666666668
-100.0   60.0   33.333333333333336
-50.0   60.0   33.333333333333336
-100.0   90.0   33.333333333333336
-100.0   60.0   50.0
-50.0   60.0   33.333333333333336
-50.0   90.0   33.333333333333336
-100.0   90.0   33.333333333333336
-50.0   90.0   50.0
-100.0   60.0   50.0
-100.0   90.0   50.0
-50.0   90.0   50.0
-100.0   90.0   33.333333333333336
-100.0   60.0   50.0
-50.0   90.0   50.0
-50.0   60.0   50.0
-50.0   60.0   33.333333333333336
-100.0   60.0   50.0
-50.0   90.0   50.0
-50.0   60.0   33.333333333333336
-100.0   90.0   33.333333333333336
-100.0   90.0   0.0
-50.0   90.0   0.0
-100.0   120.0   0.0
-100.0   90.0   16.666666666666668
-50.0   90.0   0.0
-50.0   120.0   0.0
-100.0   120.0   0.0
-50.0   120.0   16.666666666666668
-100.0   90.0   16.666666666666668
-100.0   120.0   16.666666666666668
-50.0   120.0   16.666666666666668
-100.0   120.0   0.0
-100.0   90.0   16.666666666666668
-50.0   120.0   16.666666666666668
-50.0   90.0   16.666666666666668
-50.0   90.0   0.0
-100.0   90.0   16.666666666666668
-50.0   120.0   16.666666666666668
-50.0   90.0   0.0
-100.0   120.0   0.0
-100.0   90.0   16.666666666666668
-50.0   90.0   16.666666666666668
-100.0   120.0   16.666666666666668
-100.0   90.0   33.333333333333336
-50.0   90.0   16.666666666666668
-50.0   120.0   16.666666666666668
-100.0   120.0   16.666666666666668
-50.0   120.0   33.333333333333336
-100.0   90.0   33.333333333333336
-100.0   120.0   33.333333333333336
-50.0   120.0   33.333333333333336
-100.0   120.0   16.666666666666668
-100.0   90.0   33.333333333333336
-50.0   120.0   33.333333333333336
-50.0   90.0   33.333333333333336
-50.0   90.0   16.666666666666668
-100.0   90.0   33.333333333333336
-50.0   120.0   33.333333333333336
-50.0   90.0   16.666666666666668
-100.0   120.0   16.666666666666668
-100.0   90.0   33.333333333333336
-50.0   90.0   33.333333333333336
-100.0   120.0   33.333333333333336
-100.0   90.0   50.0
-50.0   90.0   33.333333333333336
-50.0   120.0   33.333333333333336
-100.0   120.0   33.333333333333336
-50.0   120.0   50.0
-100.0   90.0   50.0
-100.0   120.0   50.0
-50.0   120.0   50.0
-100.0   120.0   33.333333333333336
-100.0   90.0   50.0
-50.0   120.0   50.0
-50.0   90.0   50.0
-50.0   90.0   33.333333333333336
-100.0   90.0   50.0
-50.0   120.0   50.0
-50.0   90.0   33.333333333333336
-100.0   120.0   33.333333333333336
-100.0   120.0   0.0
-50.0   120.0   0.0
-100.0   150.0   0.0
-100.0   120.0   16.666666666666668
-50.0   120.0   0.0
-50.0   150.0   0.0
-100.0   150.0   0.0
-50.0   150.0   16.666666666666668
-100.0   120.0   16.666666666666668
-100.0   150.0   16.666666666666668
-50.0   150.0   16.666666666666668
-100.0   150.0   0.0
-100.0   120.0   16.666666666666668
-50.0   150.0   16.666666666666668
-50.0   120.0   16.666666666666668
-50.0   120.0   0.0
-100.0   120.0   16.666666666666668
-50.0   150.0   16.666666666666668
-50.0   120.0   0.0
-100.0   150.0   0.0
-100.0   120.0   16.666666666666668
-50.0   120.0   16.666666666666668
-100.0   150.0   16.666666666666668
-100.0   120.0   33.333333333333336
-50.0   120.0   16.666666666666668
-50.0   150.0   16.666666666666668
-100.0   150.0   16.666666666666668
-50.0   150.0   33.333333333333336
-100.0   120.0   33.333333333333336
-100.0   150.0   33.333333333333336
-50.0   150.0   33.333333333333336
-100.0   150.0   16.666666666666668
-100.0   120.0   33.333333333333336
-50.0   150.0   33.333333333333336
-50.0   120.0   33.333333333333336
-50.0   120.0   16.666666666666668
-100.0   120.0   33.333333333333336
-50.0   150.0   33.333333333333336
-50.0   120.0   16.666666666666668
-100.0   150.0   16.666666666666668
-100.0   120.0   33.333333333333336
-50.0   120.0   33.333333333333336
-100.0   150.0   33.333333333333336
-100.0   120.0   50.0
-50.0   120.0   33.333333333333336
-50.0   150.0   33.333333333333336
-100.0   150.0   33.333333333333336
-50.0   150.0   50.0
-100.0   120.0   50.0
-100.0   150.0   50.0
-50.0   150.0   50.0
-100.0   150.0   33.333333333333336
-100.0   120.0   50.0
-50.0   150.0   50.0
-50.0   120.0   50.0
-50.0   120.0   33.333333333333336
-100.0   120.0   50.0
-50.0   150.0   50.0
-50.0   120.0   33.333333333333336
-100.0   150.0   33.333333333333336
-50.0   0.0   0.0
0.0   0.0   0.0
-50.0   30.0   0.0
-50.0   0.0   16.666666666666668
0.0   0.0   0.0
0.0   30.0   0.0
-50.0   30.0   0.0
0.0   30.0   16.666666666666668
-50.0   0.0   16.666666666666668
-50.0   30.0   16.666666666666668
0.0   30.0   16.666666666666668
-50.0   30.0   0.0
-50.0   0.0   16.666666666666668
0.0   30.0   16.666666666666668
0.0   0.0   16.666666666666668
0.0   0.0   0.0
-50.0   0.0   16.666666666666668
0.0   30.0   16.666666666666668
0.0   0.0   0.0
-50.0   30.0   0.0
-50.0   0.0   16.666666666666668
0.0   0.0   16.666666666666668
-50.0   30.0   16.666666666666668
-50.0   0.0   33.333333333333336
0.0   0.0   16.666666666666668
0.0   30.0   16.666666666666668
-50.0   30.0   16.666666666666668
0.0   30.0   33.333333333333336
-50.0   0.0   33.333333333333336
-50.0   30.0   33.333333333333336
0.0   30.0   33.333333333333336
-50.0   30.0   16.666666666666668
-50.0   0.0   33.333333333333336
0.0   30.0   33.333333333333336
0.0   0.0   33.333333333333336
0.0   0.0   16.666666666666668
-50.0   0.0   33.333333333333336
0.0   30.0   33.333333333333336
0.0   0.0   16.666666666666668
-50.0   30.0   16.666666666666668
-50.0   0.0   33.333333333333336
0.0   0.0   33.333333333333336
-50.0   30.0   33.333333333333336
-50.0   0.0   50.0
0.0   0.0   33.333333333333336
0.0   30.0   33.333333333333336
-50.0   30.0   33.333333333333336
0.0   30.0   50.0
-50.0   0.0   50.0
-50.0   30.0   50.0
0.0   30.0   50.0
-50.0   30.0   33.333333333333336
-50.0   0.0   50.0
0.0   30.0   50.0
0.0   0.0   50.0
0.0   0.0   33.333333333333336
-50.0   0.0   50.0
0.0   30.0   50.0
0.0   0.0   33.333333333333336
-50.0   30.0   33.333333333333336
-50.0   30.0   0.0
0.0   30.0   0.0
-50.0   60.0   0.0
-50.0   30.0   16.666666666666668
0.0   30.0   0.0
0.0   60.0   0.0
-50.0   60.0   0.0
0.0   60.0   16.666666666666668
-50.0   30.0   16.666666666666668
-50.0   60.0   16.666666666666668
0.0   60.0   16.666666666666668
-50.0   60.0   0.0
-50.0   30.0   16.666666666666668
0.0   60.0   16.666666666666668
0.0   30.0   16.666666666666668
0.0   30.0   0.0
-50.0   30.0   16.666666666666668
0.0   60.0   16.666666666666668
0.0   30.0   0.0
-50.0   60.0   0.0
-50.0   30.0   16.666666666666668
0.0   30.0   16.666666666666668
-50.0   60.0   16.666666666666668
-50.0   30.0   33.333333333333336
0.0   30.0   16.666666666666668
0.0   60.0   16.666666666666668
-50.0   60.0   16.666666666666668
0.0   60.0   33.333333333333336
-50.0   30.0   33.333333333333336
-50.0   60.0   33.333333333333336
0.0   60.0   33.333333333333336
-50.0   60.0   16.666666666666668
-50.0   30.0   33.333333333333336
0.0   60.0   33.333333333333336
0.0   30.0   33.333333333333336
0.0   30.0   16.666666666666668
-50.0   30.0   33.333333333333336
0.0   60.0   33.333333333333336
0.0   30.0   16.666666666666668
-50.0   60.0   16.666666666666668
-50.0   30.0   33.333333333333336
0.0   30.0   33.333333333333336
-50.0   60.0   33.333333333333336
-50.0   30.0   50.0
0.0   30.0   33.333333333333336
0.0   60.0   33.333333333333336
-50.0   60.0   33.333333333333336
0.0   60.0   50.0
-50.0   30.0   50.0
-50.0   60.0   50.0
0.0   60.0   50.0
-50.0   60.0   33.333333333333336
-50.0   30.0   50.0
0.0   60.0   50.0
0.0   30.0   50.0
0.0   30.0   33.333333333333336
-50.0   30.0   50.0
0.0   60.0   50.0
0.0   30.0   33.333333333333336
-50.0   60.0   33.333333333333336
-50.0   60.0   0.0
0.0   60.0   0.0
-50.0   90.0   0.0
-50.0   60.0   16.666666666666668
0.0   60.0   0.0
0.0   90.0   0.0
-50.0   90.0   0.0
0.0   90.0   16.666666666666668
-50.0   60.0   16.666666666666668
-50.0   90.0   16.666666666666668
0.0   90.0   16.666666666666668
-50.0   90.0   0.0
-50.0   60.0   16.666666666666668
0.0   90.0   16.666666666666668
0.0   60.0   16.666666666666668
0.0   60.0   0.0
-50.0   60.0   16.666666666666668
0.0   90.0   16.666666666666668
0.0   60.0   0.0
-50.0   90.0   0.0
-50.0   60.0   16.666666666666668
0.0   60.0   16.666666666666668
-50.0   90.0   16.666666666666668
-50.0   60.0   33.333333333333336
0.0   60.0   16.666666666666668
0.0   90.0   16.666666666666668
-50.0   90.0   16.666666666666668
0.0   90.0   33.333333333333336
-50.0   60.0   33.333333333333336
-50.0   90.0   33.333333333333336
0.0   90.0   33.333333333333336
-50.0   90.0   16.666666666666668
-50.0   60.0   33.333333333333336
0.0   90.0   33.333333333333336
0.0   60.0   33.333333333333336
0.0   60.0   16.666666666666668
-50.0   60.0   33.333333333333336
0.0   90.0   33.333333333333336
0.0   60.0   16.666666666666668
-50.0   90.0   16.666666666666668
-50.0   60.0   33.333333333333336
0.0   60.0   33.333333333333336
-50.0   90.0   33.333333333333336
-50.0   60.0   50.0
0.0   60.0   33.333333333333336
0.0   90.0   33.333333333333336
-50.0   90.0   33.333333333333336
0.0   90.0   50.0
-50.0   60.0   50.0
-50.0   90.0   50.0
0.0   90.0   50.0
-50.0   90.0   33.333333333333336
-50.0   60.0   50.0
0.0   90.0   50.0
0.0   60.0   50.0
0.0   60.0   33.333333333333336
-50.0   60.0   50.0
0.0   90.0   50.0
0.0   60.0   33.333333333333336
-50.0   90.0   33.333333333333336
-50.0   90.0   0.0
0.0   90.0   0.0
-50.0   120.0   0.0
-50.0   90.0   16.666666666666668
0.0   90.0   0.0
0.0   120.0   0.0
-50.0   120.0   0.0
0.0   120.0   16.666666666666668
-50.0   90.0   16.666666666666668
-50.0   120.0   16.666666666666668
0.0   120.0   16.666666666666668
-50.0   120.0   0.0
-50.0   90.0   16.666666666666668
0.0   120.0   16.666666666666668
0.0   90.0   16.666666666666668
0.0   90.0   0.0
-50.0   90.0   16.666666666666668
0.0   120.0   16.666666666666668
0.0   90.0   0.0
-50.0   120.0   0.0
-50.0   90.0   16.666666666666668
0.0   90.0   16.666666666666668
-50.0   120.0   16.666666666666668
-50.0   90.0   33.333333333333336
0.0   90.0   16.666666666666668
0.0   120.0   16.666666666666668
-50.0   120.0   16.666666666666668
0.0   120.0   33.333333333333336
-50.0   90.0   33.333333333333336
-50.0   120.0   33.333333333333336
0.0   120.0   33.333333333333336
-50.0   120.0   16.666666666666668
-50.0   90.0   33.333333333333336
0.0   120.0   33.333333333333336
0.0   90.0   33.333333333333336
0.0   90.0   16.666666666666668
-50.0   90.0   33.333333333333336
0.0   120.0   33.333333333333336
0.0   90.0   16.666666666666668
-50.0   120.0   16.666666666666668
-50.0   90.0   33.333333333333336
0.0   90.0   33.333333333333336
-50.0   120.0   33.333333333333336
-50.0   90.0   50.0
0.0   90.0   33.333333333333336
0.0   120.0   33.333333333333336
-50.0   120.0   33.333333333333336
0.0   120.0   50.0
-50.0   90.0   50.0
-50.0   120.0   50.0
0.0   120.0   50.0
-50.0   120.0   33.333333333333336
-50.0   90.0   50.0
0.0   120.0   50.0
0.0   90.0   50.0
0.0   90.0   33.333333333333336
-50.0   90.0   50.0
0.0   120.0   50.0
0.0   90.0   33.333333333333336
-50.0   120.0   33.333333333333336
-50.0   120.0   0.0
0.0   120.0   0.0
-50.0   150.0   0.0
-50.0   120.0   16.666666666666668
0.0   120.0   0.0
0.0   150.0   0.0
-50.0   150.0   0.0
0.0   150.0   16.666666666666668
-50.0   120.0   16.666666666666668
-50.0   150.0   16.666666666666668
0.0   150.0   16.666666666666668
-50.0   150.0   0.0
-50.0   120.0   16.666666666666668
0.0   150.0   16.666666666666668
0.0   120.0   16.666666666666668
0.0   120.0   0.0
-50.0   120.0   16.666666666666668
0.0   150.0   16.666666666666668
0.0   120.0   0.0
-50.0   150.0   0.0
-50.0   120.0   16.666666666666668
0.0   120.0   16.666666666666668
-50.0   150.0   16.666666666666668
-50.0   120.0   33.333333333333336
0.0   120.0   16.666666666666668
0.0   150.0   16.666666666666668
-50.0   150.0   16.666666666666668
0.0   150.0   33.333333333333336
-50.0   120.0   33.333333333333336
-50.0   150.0   33.333333333333336
0.0   150.0   33.333333333333336
-50.0   150.0   16.666666666666668
-50.0   120.0   33.333333333333336
0.0   150.0   33.333333333333336
0.0   120.0   33.333333333333336
0.0   120.0   16.666666666666668
-50.0   120.0   33.333333333333336
0.0   150.0   33.333333333333336
0.0   120.0   16.666666666666668
-50.0   150.0   16.666666666666668
-50.0   120.0   33.333333333333336
0.0   120.0   33.333333333333336
-50.0   150.0   33.333333333333336
-50.0   120.0   50.0
0.0   120.0   33.333333333333336
0.0   150.0   33.333333333333336
-50.0   150.0   33.333333333333336
0.0   150.0   50.0
-50.0   120.0   50.0
-50.0   150.0   50.0
0.0   150.0   50.0
-50.0   150.0   33.333333333333336
-50.0   120.0   50.0
0.0   150.0   50.0
0.0   120.0   50.0
0.0   120.0   33.333333333333336
-50.0   120.0   50.0
0.0   150.0   50.0
0.0   120.0   33.333333333333336
-50.0   150.0   33.333333333333336
0.0   0.0   0.0
50.0   0.0   0.0
0.0   30.0   0.0
0.0   0.0   16.666666666666668
50.0   0.0   0.0
50.0   30.0   0.0
0.0   30.0   0.0
50.0   30.0   16.666666666666668
0.0   0.0   16.666666666666668
0.0   30.0   16.666666666666668
50.0   30.0   16.666666666666668
0.0   30.0   0.0
0.0   0.0   16.666666666666668
50.0   30.0   16.666666666666668
50.0   0.0   16.666666666666668
50.0   0.0   0.0
0.0   0.0   16.666666666666668
50.0   30.0   16.666666666666668
50.0   0.0   0.0
0.0   30.0   0.0
0.0   0.0   16.666666666666668
50.0   0.0   16.666666666666668
0.0   30.0   16.666666666666668
0.0   0.0   33.333333333333336
50.0   0.0   16.666666666666668
50.0   30.0   16.666666666666668
0.0   30.0   16.666666666666668
50.0   30.0   33.333333333333336
0.0   0.0   33.333333333333336
0.0   30.0   33.333333333333336
50.0   30.0   33.333333333333336
0.0   30.0   16.666666666666668
0.0   0.0   33.333333333333336
50.0   30.0   33.333333333333336
50.0   0.0   33.333333333333336
50.0   0.0   16.666666666666668
0.0   0.0   33.333333333333336
50.0   30.0   33.333333333333336
50.0   0.0   16.666666666666668
0.0   30.0   16.666666666666668
0.0   0.0   33.333333333333336
50.0   0.0   33.333333333333336
0.0   30.0   33.333333333333336
0.0   0.0   50.0
50.0   0.0   33.333333333333336
50.0   30.0   33.333333333333336
0.0   30.0   33.333333333333336
50.0   30.0   50.0
0.0   0.0   50.0
0.0   30.0   50.0
50.0   30.0   50.0
0.0   30.0   33.333333333333336
0.0   0.0   50.0
50.0   30.0   50.0
50.0   0.0   50.0
50.0   0.0   33.333333333333336
0.0   0.0   50.0
50.0   30.0   50.0
50.0   0.0   33.333333333333336
0.0   30.0   33.333333333333336
0.0   30.0   0.0
50.0   30.0   0.0
0.0   60.0   0.0
0.0   30.0   16.666666666666668
50.0   30.0   0.0
50.0   60.0   0.0
0.0   60.0   0.0
50.0   60.0   16.666666666666668
0.0   30.0   16.666666666666668
0.0   60.0   16.666666666666668
50.0   60.0   16.666666666666668
0.0   60.0   0.0
0.0   30.0   16.666666666666668
50.0   60.0   16.666666666666668
50.0   30.0   16.666666666666668
50.0   30.0   0.0
0.0   30.0   16.666666666666668
50.0   60.0   16.666666666666668
50.0   30.0   0.0
0.0   60.0   0.0
0.0   30.0   16.666666666666668
50.0   30.0   16.666666666666668
0.0   60.0   16.666666666666668
0.0   30.0   33.333333333333336
50.0   30.0   16.666666666666668
50.0   60.0   16.666666666666668
0.0   60.0   16.666666666666668
50.0   60.0   33.333333333333336
0.0   30.0   33.333333333333336
0.0   60.0   33.333333333333336
50.0   60.0   33.333333333333336
0.0   60.0   16.666666666666668
0.0   30.0   33.333333333333336
50.0   60.0   33.333333333333336
50.0   30.0   33.333333333333336
50.0   30.0   16.666666666666668
0.0   30.0   33.333333333333336
50.0   60.0   33.333333333333336
50.0   30.0   16.666666666666668
0.0   60.0   16.666666666666668
0.0   30.0   33.333333333333336
50.0   30.0   33.333333333333336
0.0   60.0   33.333333333333336
0.0   30.0   50.0
50.0   30.0   33.333333333333336
50.0   60.0   33.333333333333336
0.0   60.0   33.333333333333336
50.0   60.0   50.0
0.0   30.0   50.0
0.0   60.0   50.0
50.0   60.0   50.0
0.0   60.0   33.333333333333336
0.0   30.0   50.0
50.0   60.0   50.0
50.0   30.0   50.0
50.0   30.0   33.333333333333336
0.0   30.0   50.0
50.0   60.0   50.0
50.0   30.0   33.333333333333336
0.0   60.0   33.333333333333336
0.0   60.0   0.0
50.0   60.0   0.0
0.0   90.0   0.0
0.0   60.0   16.666666666666668
50.0   60.0   0.0
50.0   90.0   0.0
0.0   90.0   0.0
50.0   90.0   16.666666666666668
0.0   60.0   16.666666666666668
0.0   90.0   16.666666666666668
50.0   90.0   16.666666666666668
0.0   90.0   0.0
0.0   60.0   16.666666666666668
50.0   90.0   16.666666666666668
50.0   60.0   16.666666666666668
50.0   60.0   0.0
0.0   60.0   16.666666666666668
50.0   90.0   16.666666666666668
50.0   60.0   0.0
0.0   90.0   0.0
0.0   60.0   16.666666666666668
50.0   60.0   16.666666666666668
0.0   90.0   16.666666666666668
0.0   60.0   33.333333333333336
50.0   60.0   16.666666666666668
50.0   90.0   16.666666666666668
0.0   90.0   16.666666666666668
50.0   90.0   33.333333333333336
0.0   60.0   33.333333333333336
0.0   90.0   33.333333333333336
50.0   90.0   33.333333333333336
0.0   90.0   16.666666666666668
0.0   60.0   33.333333333333336
50.0   90.0   33.333333333333336
50.0   60.0   33.333333333333336
50.0   60.0   16.666666666666668
0.0   60.0   33.333333333333336
50.0   90.0   33.333333333333336
50.0   60.0   16.666666666666668
0.0   90.0   16.666666666666668
0.0   60.0   33.333333333333336
50.0   60.0   33.333333333333336
0.0   90.0   33.333333333333336
0.0   60.0   50.0
50.0   60.0   33.333333333333336
50.0   90.0   33.333333333333336
0.0   90.0   33.333333333333336
50.0   90.0   50.0
0.0   60.0   50.0
0.0   90.0   50.0
50.0   90.0   50.0
0.0   90.0   33.333333333333336
0.0   60.0   50.0
50.0   90.0   50.0
50.0   60.0   50.0
50.0   60.0   33.333333333333336
0.0   60.0   50.0
50.0   90.0   50.0
50.0   60.0   33.333333333333336
0.0   90.0   33.333333333333336
0.0   90.0   0.0
50.0   90.0   0.0
0.0   120.0   0.0
0.0   90.0   16.666666666666668
50.0   90.0   0.0
50.0   120.0   0.0
0.0   120.0   0.0
50.0   120.0   16.666666666666668
0.0   90.0   16.666666666666668
0.0   120.0   16.666666666666668
50.0   120.0   16.666666666666668
0.0   120.0   0.0
0.0   90.0   16.666666666666668
50.0   120.0   16.666666666666668
50.0   90.0   16.666666666666668
50.0   90.0   0.0
0.0   90.0   16.666666666666668
50.0   120.0   16.666666666666668
50.0   90.0   0.0
0.0   120.0   0.0
0.0   90.0   16.666666666666668
50.0   90.0   16.666666666666668
0.0   120.0   16.666666666666668
0.0   90.0   33.333333333333336
50.0   90.0   16.666666666666668
50.0   120.0   16.666666666666668
0.0   120.0   16.666666666666668
50.0   120.0   33.333333333333336
0.0   90.0   33.333333333333336
0.0   120.0   33.333333333333336
50.0   120.0   33.333333333333336
0.0   120.0   16.666666666666668
0.0   90.0   33.333333333333336
50.0   120.0   33.333333333333336
50.0   90.0   33.333333333333336
50.0   90.0   16.666666666666668
0.0   90.0   33.333333333333336
50.0   120.0   33.333333333333336
50.0   90.0   16.666666666666668
0.0   120.0   16.666666666666668
0.0   90.0   33.333333333333336
50.0   90.0   33.333333333333336
0.0   120.0   33.333333333333336
0.0   90.0   50.0
50.0   90.0   33.333333333333336
50.0   120.0   33.333333333333336
0.0   120.0   33.333333333333336
50.0   120.0   50.0
0.0   90.0   50.0
0.0   120.0   50.0
50.0   120.0   50.0
0.0   120.0   33.333333333333336
0.0   90.0   50.0
50.0   120.0   50.0
50.0   90.0   50.0
50.0   90.0   33.333333333333336
0.0   90.0   50.0
50.0   120.0   50.0
50.0   90.0   33.333333333333336
0.0   120.0   33.333333333333336
0.0   120.0   0.0
50.0   120.0   0.0
0.0   150.0   0.0
0.0   120.0   16.666666666666668
50.0   120.0   0.0
50.0   150.0   0.0
0.0   150.0   0.0
50.0   150.0   16.666666666666668
0.0   120.0   16.666666666666668
0.0   150.0   16.666666666666668
50.0   150.0   16.666666666666668
0.0   150.0   0.0
0.0   120.0   16.666666666666668
50.0   150.0   16.666666666666668
50.0   120.0   16.666666666666668
50.0   120.0   0.0
0.0   120.0   16.666666666666668
50.0   150.0   16.666666666666668
50.0   120.0   0.0
0.0   150.0   0.0
0.0   120.0   16.666666666666668
50.0   120.0   16.666666666666668
0.0   150.0   16.666666666666668
0.0   120.0   33.333333333333336
50.0   120.0   16.666666666666668
50.0   150.0   16.666666666666668
0.0   150.0   16.666666666666668
50.0   150.0   33.333333333333336
0.0   120.0   33.333333333333336
0.0   150.0   33.333333333333336
50.0   150.0   33.333333333333336
0.0   150.0   16.666666666666668
0.0   120.0   33.333333333333336
50.0   150.0   33.333333333333336
50.0   120.0   33.333333333333336
50.0   120.0   16.666666666666668
0.0   120.0   33.333333333333336
50.0   150.0   33.333333333333336
50.0   120.0   16.666666666666668
0.0   150.0   16.666666666666668
0.0   120.0   33.333333333333336
50.0   120.0   33.333333333333336
0.0   150.0   33.333333333333336
0.0   120.0   50.0
50.0   120.0   33.333333333333336
50.0   150.0   33.333333333333336
0.0   150.0   33.333333333333336
50.0   150.0   50.0
0.0   120.0   50.0
0.0   150.0   50.0
50.0   150.0   50.0
0.0   150.0   33.333333333333336
0.0   120.0   50.0
50.0   150.0   50.0
50.0   120.0   50.0
50.0   120.0   33.333333333333336
0.0   120.0   50.0
50.0   150.0   50.0
50.0   120.0   33.333333333333336
0.0   150.0   33.333333333333336
50.0   0.0   0.0
100.0   0.0   0.0
50.0   30.0   0.0
50.0   0.0   16.666666666666668
100.0   0.0   0.0
100.0   30.0   0.0
50.0   30.0   0.0
100.0   30.0   16.666666666666668
50.0   0.0   16.666666666666668
50.0   30.0   16.666666666666668
100.0   30.0   16.666666666666668
50.0   30.0   0.0
50.0   0.0   16.666666666666668
100.0   30.0   16.666666666666668
100.0   0.0   16.666666666666668
100.0   0.0   0.0
50.0   0.0   16.666666666666668
100.0   30.0   16.666666666666668
100.0   0.0   0.0
50.0   30.0   0.0
50.0   0.0   16.666666666666668
100.0   0.0   16.666666666666668
50.0   30.0   16.666666666666668
50.0   0.0   33.333333333333336
100.0   0.0   16.666666666666668
100.0   30.0   16.666666666666668
50.0   30.0   16.666666666666668
100.0   30.0   33.333333333333336
50.0   0.0   33.333333333333336
50.0   30.0   33.333333333333336
100.0   30.0   33.333333333333336
50.0   30.0   16.666666666666668
50.0   0.0   33.333333333333336
100.0   30.0   33.333333333333336
100.0   0.0   33.333333333333336
100.0   0.0   16.666666666666668
50.0   0.0   33.333333333333336
100.0   30.0   33.333333333333336
100.0   0.0   16.666666666666668
50.0   30.0   16.666666666666668
50.0   0.0   33.333333333333336
100.0   0.0   33.333333333333336
50.0   30.0   33.333333333333336
50.0   0.0   50.0
100.0   0.0   33.333333333333336
100.0   30.0   33.333333333333336
50.0   30.0   33.333333333333336
100.0   30.0   50.0
50.0   0.0   50.0
50.0   30.0   50.0
100.0   30.0   50.0
50.0   30.0   33.333333333333336
50.0   0.0   50.0
100.0   30.0   50.0
100.0   0.0   50.0
100.0   0.0   33.333333333333336
50.0   0.0   50.0
100.0   30.0   50.0
100.0   0.0   33.333333333333336
50.0   30.0   33.333333333333336
50.0   30.0   0.0
100.0   30.0   0.0
50.0   60.0   0.0
50.0   30.0   16.666666666666668
100.0   30.0   0.0
100.0   60.0   0.0
50.0   60.0   0.0
100.0   60.0   16.666666666666668
50.0   30.0   16.666666666666668
50.0   60.0   16.666666666666668
100.0   60.0   16.666666666666668
50.0   60.0   0.0
50.0   30.0   16.666666666666668
100.0   60.0   16.666666666666668
100.0   30.0   16.666666666666668
100.0   30.0   0.0
50.0   30.0   16.666666666666668
100.0   60.0   16.666666666666668
100.0   30.0   0.0
50.0   60.0   0.0
50.0   30.0   16.666666666666668
100.0   30.0   16.666666666666668
50.0   60.0   16.666666666666668
50.0   30.0   33.333333333333336
100.0   30.0   16.666666666666668
100.0   60.0   16.666666666666668
50.0   60.0   16.666666666666668
100.0   60.0   33.333333333333336
50.0   30.0   33.333333333333336
50.0   60.0   33.333333333333336
100.0   60.0   33.333333333333336
50.0   60.0   16.666666666666668
50.0   30.0   33.333333333333336
100.0   60.0   33.333333333333336
100.0   30.0   33.333333333333336
100.0   30.0   16.666666666666668
50.0   30.0   33.333333333333336
100.0   60.0   33.333333333333336
100.0   30.0   16.666666666666668
50.0   60.0   16.666666666666668
50.0   30.0   33.333333333333336
100.0   30.0   33.333333333333336
50.0   60.0   33.333333333333336
50.0   30.0   50.0
100.0   30.0   33.333333333333336
100.0   60.0   33.333333333333336
50.0   60.0   33.333333333333336
100.0   60.0   50.0
50.0   30.0   50.0
50.0   60.0   50.0
100.0   60.0   50.0
50.0   60.0   33.333333333333336
50.0   30.0   50.0
100.0   60.0   50.0
100.0   30.0   50.0
100.0   30.0   33.333333333333336
50.0   30.0   50.0
100.0   60.0   50.0
100.0   30.0   33.333333333333336
50.0   60.0   33.333333333333336
50.0   60.0   0.0
100.0   60.0   0.0
50.0   90.0   0.0
50.0   60.0   16.666666666666668
100.0   60.0   0.0
100.0   90.0   0.0
50.0   90.0   0.0
100.0   90.0   16.666666666666668
50.0   60.0   16.666666666666668
50.0   90.0   16.666666666666668
100.0   90.0   16.666666666666668
50.0   90.0   0.0
50.0   60.0   16.666666666666668
100.0   90.0   16.666666666666668
100.0   60.0   16.666666666666668
100.0   60.0   0.0
50.0   60.0   16.666666666666668
100.0   90.0   16.666666666666668
100.0   60.0   0.0
50.0   90.0   0.0
50.0   60.0   16.666666666666668
100.0   60.0   16.666666666666668
50.0   90.0   16.666666666666668
50.0   60.0   33.333333333333336
100.0   60.0   16.666666666666668
100.0   90.0   16.666666666666668
50.0   90.0   16.666666666666668
100.0   90.0   33.333333333333336
50.0   60.0   33.333333333333336
50.0   90.0   33.333333333333336
100.0   90.0   33.333333333333336
50.0   90.0   16.666666666666668
50.0   60.0   33.333333333333336
100.0   90.0   33.333333333333336
100.0   60.0   33.333333333333336
100.0   60.0   16.666666666666668
50.0   60.0   33.333333333333336
100.0   90.0   33.333333333333336
100.0   60.0   16.666666666666668
50.0   90.0   16.666666666666668
50.0   60.0   33.333333333333336
100.0   60.0   33.333333333333336
50.0   90.0   33.333333333333336
50.0   60.0   50.0
100.0   60.0   33.333333333333336
100.0   90.0   33.333333333333336
50.0   90.0   33.333333333333336
100.0   90.0   50.0
50.0   60.0   50.0
50.0   90.0   50.0
100.0   90.0   50.0
50.0   90.0   33.333333333333336
50.0   60.0   50.0
100.0   90.0   50.0
100.0   60.0   50.0
100.0   60.0   33.333333333333336
50.0   60.0   50.0
100.0   90.0   50.0
100.0   60.0   33.333333333333336
50.0   90.0   33.333333333333336
50.0   90.0   0.0
100.0   90.0   0.0
50.0   120.0   0.0
50.0   90.0   16.666666666666668
100.0   90.0   0.0
100.0   120.0   0.0
50.0   120.0   0.0
100.0   120.0   16.666666666666668
50.0   90.0   16.666666666666668
50.0   120.0   16.666666666666668
100.0   120.0   16.666666666666668
50.0   120.0   0.0
50.0   90.0   16.666666666666668
100.0   120.0   16.666666666666668
100.0   90.0   16.666666666666668
100.0   90.0   0.0
50.0   90.0   16.666666666666668
100.0   120.0   16.666666666666668
100.0   90.0   0.0
50.0   120.0   0.0
50.0   90.0   16.666666666666668
100.0   90.0   16.666666666666668
50.0   120.0   16.666666666666668
50.0   90.0   33.333333333333336
100.0   90.0   16.666666666666668
100.0   120.0   16.666666666666668
50.0   120.0   16.666666666666668
100.0   120.0   33.333333333333336
50.0   90.0   33.333333333333336
50.0   120.0   33.333333333333336
100.0   120.0   33.333333333333336
50.0   120.0   16.666666666666668
50.0   90.0   33.333333333333336
100.0   120.0   33.333333333333336
100.0   90.0   33.333333333333336
100.0   90.0   16.666666666666668
50.0   90.0   33.333333333333336
100.0   120.0   33.333333333333336
100.0   90.0   16.666666666666668
50.0   120.0   16.666666666666668
50.0   90.0   33.333333333333336
100.0   90.0   33.333333333333336
50.0   120.0   33.333333333333336
50.0   90.0   50.0
100.0   90.0   33.333333333333336
100.0   120.0   33.333333333333336
50.0   120.0   33.333333333333336
100.0   120.0   50.0
50.0   90.0   50.0
50.0   120.0   50.0
100.0   120.0   50.0
50.0   120.0   33.333333333333336
50.0   90.0   50.0
100.0   120.0   50.0
100.0   90.0   50.0
100.0   90.0   33.333333333333336
50.0   90.0   50.0
100.0   120.0   50.0
100.0   90.0   33.333333333333336
50.0   120.0   33.333333333333336
50.0   120.0   0.0
100.0   120.0   0.0
50.0   150.0   0.0
50.0   120.0   16.666666666666668
100.0   120.0   0.0
100.0   150.0   0.0
50.0   150.0   0.0
100.0   150.0   16.666666666666668
50.0   120.0   16.666666666666668
50.0   150.0   16.666666666666668
100.0   150.0   16.666666666666668
50.0   150.0   0.0
50.0   120.0   16.666666666666668
100.0   150.0   16.666666666666668
100.0   120.0   16.666666666666668
100.0   120.0   0.0
50.0   120.0   16.666666666666668
100.0   150.0   16.666666666666668
100.0   120.0   0.0
50.0   150.0   0.0
50.0   120.0   16.666666666666668
100.0   120.0   16.666666666666668
50.0   150.0   16.666666666666668
50.0   120.0   33.333333333333336
100.0   120.0   16.666666666666668
100.0   150.0   16.666666666666668
50.0   150.0   16.666666666666668
100.0   150.0   33.333333333333336
50.0   120.0   33.333333333333336
50.0   150.0   33.333333333333336
100.0   150.0   33.333333333333336
50.0   150.0   16.666666666666668
50.0   120.0   33.333333333333336
100.0   150.0   33.333333333333336
100.0   120.0   33.333333333333336
100.0   120.0   16.666666666666668
50.0   120.0   33.333333333333336
100.0   150.0   33.333333333333336
100.0   120.0   16.666666666666668
50.0   150.0   16.666666666666668
50.0   120.0   33.333333333333336
100.0   120.0   33.333333333333336
50.0   150.0   33.333333333333336
50.0   120.0   50.0
100.0   120.0   33.333333333333336
100.0   150.0   33.333333333333336
50.0   150.0   33.333333333333336
100.0   150.0   50.0
50.0   120.0   50.0
50.0   150.0   50.0
100.0   150.0   50.0
50.0   150.0   33.333333333333336
50.0   120.0   50.0
100.0   150.0   50.0
100.0   120.0   50.0
100.0   120.0   33.333333333333336
50.0   120.0   50.0
100.0   150.0   50.0
100.0   120.0   33.333333333333336
50.0   150.0   33.333333333333336
100.0   0.0   0.0
150.0   0.0   0.0
100.0   30.0   0.0
100.0   0.0   16.666666666666668
150.0   0.0   0.0
150.0   30.0   0.0
100.0   30.0   0.0
150.0   30.0   16.666666666666668
100.0   0.0   16.666666666666668
100.0   30.0   16.666666666666668
150.0   30.0   16.666666666666668
100.0   30.0   0.0
100.0   0.0   16.666666666666668
150.0   30.0   16.666666666666668
150.0   0.0   16.666666666666668
150.0   0.0   0.0
100.0   0.0   16.666666666666668
150.0   30.0   16.666666666666668
150.0   0.0   0.0
100.0   30.0   0.0
100.0   0.0   16.666666666666668
150.0   0.0   16.666666666666668
100.0   30.0   16.666666666666668
100.0   0.0   33.333333333333336
150.0   0.0   16.666666666666668
150.0   30.0   16.666666666666668
100.0   30.0   16.666666666666668
150.0   30.0   33.333333333333336
100.0   0.0   33.333333333333336
100.0   30.0   33.333333333333336
150.0   30.0   33.333333333333336
100.0   30.0   16.666666666666668
100.0   0.0   33.333333333333336
150.0   30.0   33.333333333333336
150.0   0.0   33.333333333333336
150.0   0.0   16.666666666666668
100.0   0.0   33.333333333333336
150.0   30.0   33.333333333333336
150.0   0.0   16.666666666666668
100.0   30.0   16.666666666666668
100.0   0.0   33.333333333333336
150.0   0.0   33.333333333333336
100.0   30.0   33.333333333333336
100.0   0.0   50.0
150.0   0.0   33.333333333333336
150.0   30.0   33.333333333333336
100.0   30.0   33.333333333333336
150.0   30.0   50.0
100.0   0.0   50.0
100.0   30.0   50.0
150.0   30.0   50.0
100.0   30.0   33.333333333333336
100.0   0.0   50.0
150.0   30.0   50.0
150.0   0.0   50.0
150.0   0.0   33.333333333333336
100.0   0.0   50.0
150.0   30.0   50.0
150.0   0.0   33.333333333333336
100.0   30.0   33.333333333333336
100.0   30.0   0.0
150.0   30.0   0.0
100.0   60.0   0.0
100.0   30.0   16.666666666666668
150.0   30.0   0.0
150.0   60.0   0.0
100.0   60.0   0.0
150.0   60.0   16.666666666666668
100.0   30.0   16.666666666666668
100.0   60.0   16.666666666666668
150.0   60.0   16.666666666666668
100.0   60.0   0.0
100.0   30.0   16.666666666666668
150.0   60.0   16.666666666666668
150.0   30.0   16.666666666666668
150.0   30.0   0.0
100.0   30.0   16.666666666666668
150.0   60.0   16.666666666666668
150.0   30.0   0.0
100.0   60.0   0.0
100.0   30.0   16.666666666666668
150.0   30.0   16.666666666666668
100.0   60.0   16.666666666666668
100.0   30.0   33.333333333333336
150.0   30.0   16.666666666666668
150.0   60.0   16.666666666666668
100.0   60.0   16.666666666666668
150.0   60.0   33.333333333333336
100.0   30.0   33.333333333333336
100.0   60.0   33.333333333333336
150.0   60.0   33.333333333333336
100.0   60.0   16.666666666666668
100.0   30.0   33.333333333333336
150.0   60.0   33.333333333333336
150.0   30.0   33.333333333333336
150.0   30.0   16.666666666666668
100.0   30.0   33.333333333333336
150.0   60.0   33.333333333333336
150.0   30.0   16.666666666666668
100.0   60.0   16.666666666666668
100.0   30.0   33.333333333333336
150.0   30.0   33.333333333333336
100.0   60.0   33.333333333333336
100.0   30.0   50.0
150.0   30.0   33.333333333333336
150.0   60.0   33.333333333333336
100.0   60.0   33.333333333333336
150.0   60.0   50.0
100.0   30.0   50.0
100.0   60.0   50.0
150.0   60.0   50.0
100.0   60.0   33.333333333333336
100.0   30.0   50.0
150.0   60.0   50.0
150.0   30.0   50.0
150.0   30.0   33.333333333333336
100.0   30.0   50.0
150.0   60.0   50.0
150.0   30.0   33.333333333333336
100.0   60.0   33.333333333333336
100.0   60.0   0.0
150.0   60.0   0.0
100.0   90.0   0.0
100.0   60.0   16.666666666666668
150.0   60.0   0.0
150.0   90.0   0.0
100.0   90.0   0.0
150.0   90.0   16.666666666666668
100.0   60.0   16.666666666666668
100.0   90.0   16.666666666666668
150.0   90.0   16.666666666666668
100.0   90.0   0.0
100.0   60.0   16.666666666666668
150.0   90.0   16.666666666666668
150.0   60.0   16.666666666666668
150.0   60.0   0.0
100.0   60.0   16.666666666666668
150.0   90.0   16.666666666666668
150.0   60.0   0.0
100.0   90.0   0.0
100.0   60.0   16.666666666666668
150.0   60.0   16.666666666666668
100.0   90.0   16.666666666666668
100.0   60.0   33.333333333333336
150.0   60.0   16.666666666666668
150.0   90.0   16.666666666666668
100.0   90.0   16.666666666666668
150.0   90.0   33.333333333333336
100.0   60.0   33.333333333333336
100.0   90.0   33.333333333333336
150.0   90.0   33.333333333333336
100.0   90.0   16.666666666666668
100.0   60.0   33.333333333333336
150.0   90.0   33.333333333333336
150.0   60.0   33.333333333333336
150.0   60.0   16.666666666666668
100.0   60.0   33.333333333333336
150.0   90.0   33.333333333333336
150.0   60.0   16.666666666666668
100.0   90.0   16.666666666666668
100.0   60.0   33.333333333333336
150.0   60.0   33.333333333333336
100.0   90.0   33.333333333333336
100.0   60.0   50.0
150.0   60.0   33.333333333333336
150.0   90.0   33.333333333333336
100.0   90.0   33.333333333333336
150.0   90.0   50.0
100.0   60.0   50.0
100.0   90.0   50.0
150.0   90.0   50.0
100.0   90.0   33.333333333333336
100.0   60.0   50.0
150.0   90.0   50.0
150.0   60.0   50.0
150.0   60.0   33.333333333333336
100.0   60.0   50.0
150.0   90.0   50.0
150.0   60.0   33.333333333333336
100.0   90.0   33.333333333333336
100.0   90.0   0.0
150.0   90.0   0.0
100.0   120.0   0.0
100.0   90.0   16.666666666666668
150.0   90.0   0.0
150.0   120.0   0.0
100.0   120.0   0.0
150.0   120.0   16.666666666666668
100.0   90.0   16.666666666666668
100.0   120.0   16.666666666666668
150.0   120.0   16.666666666666668
100.0   120.0   0.0
100.0   90.0   16.666666666666668
150.0   120.0   16.666666666666668
150.0   90.0   16.666666666666668
150.0   90.0   0.0
100.0   90.0   16.666666666666668
150.0   120.0   16.666666666666668
150.0   90.0   0.0
100.0   120.0   0.0
100.0   90.0   16.666666666666668
150.0   90.0   16.666666666666668
100.0   120.0   16.666666666666668
100.0   90.0   33.333333333333336
150.0   90.0   16.666666666666668
150.0   120.0   16.666666666666668
100.0   120.0   16.666666666666668
150.0   120.0   33.333333333333336
100.0   90.0   33.333333333333336
100.0   120.0   33.333333333333336
150.0   120.0   33.333333333333336
100.0   120.0   16.666666666666668
100.0   90.0   33.333333333333336
150.0   120.0   33.333333333333336
150.0   90.0   33.333333333333336
150.0   90.0   16.666666666666668
100.0   90.0   33.333333333333336
150.0   120.0   33.333333333333336
150.0   90.0   16.666666666666668
100.0   120.0   16.666666666666668
100.0   90.0   33.333333333333336
150.0   90.0   33.333333333333336
100.0   120.0   33.333333333333336
100.0   90.0   50.0
150.0   90.0   33.333333333333336
150.0   120.0   33.333333333333336
100.0   120.0   33.333333333333336
150.0   120.0   50.0
100.0   90.0   50.0
100.0   120.0   50.0
150.0   120.0   50.0
100.0   120.0   33.333333333333336
100.0   90.0   50.0
150.0   120.0   50.0
150.0   90.0   50.0
150.0   90.0   33.333333333333336
100.0   90.0   50.0
150.0   120.0   50.0
150.0   90.0   33.333333333333336
100.0   120.0   33.333333333333336
100.0   120.0   0.0
150.0   120.0   0.0
100.0   150.0   0.0
100.0   120.0   16.666666666666668
150.0   120.0   0.0
150.0   150.0   0.0
100.0   150.0   0.0
150.0   150.0   16.666666666666668
100.0   120.0   16.666666666666668
100.0   150.0   16.666666666666668
150.0   150.0   16.666666666666668
100.0   150.0   0.0
100.0   120.0   16.666666666666668
150.0   150.0   16.666666666666668
150.0   120.0   16.666666666666668
150.0   120.0   0.0
100.0   120.0   16.666666666666668
150.0   150.0   16.666666666666668
150.0   120.0   0.0
100.0   150.0   0.0
100.0   120.0   16.666666666666668
150.0   120.0   16.666666666666668
100.0   150.0   16.666666666666668
100.0   120.0   33.333333333333336
150.0   120.0   16.666666666666668
150.0   150.0   16.666666666666668
100.0   150.0   16.666666666666668
150.0   150.0   33.333333333333336
100.0   120.0   33.333333333333336
100.0   150.0   33.333333333333336
150.0   150.0   33.333333333333336
100.0   150.0   16.666666666666668
100.0   120.0   33.333333333333336
150.0   150.0   33.333333333333336
150.0   120.0   33.333333333333336
150.0   120.0   16.666666666666668
100.0   120.0   33.333333333333336
150.0   150.0   33.333333333333336
150.0   120.0   16.666666666666668
100.0   150.0   16.666666666666668
100.0   120.0   33.333333333333336
150.0   120.0   33.333333333333336
100.0   150.0   33.333333333333336
100.0   120.0   50.0
150.0   120.0   33.333333333333336
150.0   150.0   33.333333333333336
100.0   150.0   33.333333333333336
150.0   150.0   50.0
100.0   120.0   50.0
100.0   150.0   50.0
150.0   150.0   50.0
100.0   150.0   33.333333333333336
100.0   120.0   50.0
150.0   150.0   50.0
150.0   120.0   50.0
150.0   120.0   33.333333333333336
100.0   120.0   50.0
150.0   150.0   50.0
150.0   120.0   33.333333333333336
100.0   150.0   33.333333333333336
150.0   0.0   0.0
200.0   0.0   0.0
150.0   30.0   0.0
150.0   0.0   16.666666666666668
200.0   0.0   0.0
200.0   30.0   0.0
150.0   30.0   0.0
200.0   30.0   16.666666666666668
150.0   0.0   16.666666666666668
150.0   30.0   16.666666666666668
200.0   30.0   16.666666666666668
150.0   30.0   0.0
150.0   0.0   16.666666666666668
200.0   30.0   16.666666666666668
200.0   0.0   16.666666666666668
200.0   0.0   0.0
150.0   0.0   16.666666666666668
200.0   30.0   16.666666666666668
200.0   0.0   0.0
150.0   30.0   0.0
150.0   0.0   16.666666666666668
200.0   0.0   16.666666666666668
150.0   30.0   16.666666666666668
150.0   0.0   33.333333333333336
200.0   0.0   16.666666666666668
200.0   30.0   16.666666666666668
150.0   30.0   16.666666666666668
200.0   30.0   33.333333333333336
150.0   0.0   33.333333333333336
150.0   30.0   33.333333333333336
200.0   30.0   33.333333333333336
150.0   30.0   16.666666666666668
150.0   0.0   33.333333333333336
200.0   30.0   33.333333333333336
200.0   0.0   33.333333333333336
200.0   0.0   16.666666666666668
150.0   0.0   33.333333333333336
200.0   30.0   33.333333333333336
200.0   0.0   16.666666666666668
150.0   30.0   16.666666666666668
150.0   0.0   33.333333333333336
200.0   0.0   33.333333333333336
150.0   30.0   33.333333333333336
150.0   0.0   50.0
200.0   0.0   33.333333333333336
200.0   30.0   33.333333333333336
150.0   30.0   33.333333333333336
200.0   30.0   50.0
150.0   0.0   50.0
150.0   30.0   50.0
200.0   30.0   50.0
150.0   30.0   33.333333333333336
150.0   0.0   50.0
200.0   30.0   50.0
200.0   0.0   50.0
200.0   0.0   33.333333333333336
150.0   0.0   50.0
200.0   30.0   50.0
200.0   0.0   33.333333333333336
150.0   30.0   33.333333333333336
150.0   30.0   0.0
200.0   30.0   0.0
150.0   60.0   0.0
150.0   30.0   16.666666666666668
200.0   30.0   0.0
200.0   60.0   0.0
150.0   60.0   0.0
200.0   60.0   16.666666666666668
150.0   30.0   16.666666666666668
150.0   60.0   16.666666666666668
200.0   60.0   16.666666666666668
150.0   60.0   0.0
150.0   30.0   16.666666666666668
200.0   60.0   16.666666666666668
200.0   30.0   16.666666666666668
200.0   30.0   0.0
150.0   30.0   16.666666666666668
200.0   60.0   16.666666666666668
200.0   30.0   0.0
150.0   60.0   0.0
150.0   30.0   16.666666666666668
200.0   30.0   16.666666666666668
150.0   60.0   16.666666666666668
150.0   30.0   33.333333333333336
200.0   30.0   16.666666666666668
200.0   60.0   16.666666666666668
150.0   60.0   16.666666666666668
200.0   60.0   33.333333333333336
150.0   30.0   33.333333333333336
150.0   60.0   33.333333333333336
200.0   60.0   33.333333333333336
150.0   60.0   16.666666666666668
150.0   30.0   33.333333333333336
200.0   60.0   33.333333333333336
200.0   30.0   33.333333333333336
200.0   30.0   16.666666666666668
150.0   30.0   33.333333333333336
200.0   60.0   33.333333333333336
200.0   30.0   16.666666666666668
150.0   60.0   16.666666666666668
150.0   30.0   33.333333333333336
200.0   30.0   33.333333333333336
150.0   60.0   33.333333333333336
150.0   30.0   50.0
200.0   30.0   33.333333333333336
200.0   60.0   33.333333333333336
150.0   60.0   33.333333333333336
200.0   60.0   50.0
150.0   30.0   50.0
150.0   60.0   50.0
200.0   60.0   50.0
150.0   60.0   33.333333333333336
150.0   30.0   50.0
200.0   60.0   50.0
200.0   30.0   50.0
200.0   30.0   33.333333333333336
150.0   30.0   50.0
200.0   60.0   50.0
200.0   30.0   33.333333333333336
150.0   60.0   33.333333333333336
150.0   60.0   0.0
200.0   60.0   0.0
150.0   90.0   0.0
150.0   60.0   16.666666666666668
200.0   60.0   0.0
200.0   90.0   0.0
150.0   90.0   0.0
200.0   90.0   16.666666666666668
150.0   60.0   16.666666666666668
150.0   90.0   16.666666666666668
200.0   90.0   16.666666666666668
150.0   90.0   0.0
150.0   60.0   16.666666666666668
200.0   90.0   16.666666666666668
200.0   60.0   16.666666666666668
200.0   60.0   0.0
150.0   60.0   16.666666666666668
200.0   90.0   16.666666666666668
200.0   60.0   0.0
150.0   90.0   0.0
150.0   60.0   16.666666666666668
200.0   60.0   16.666666666666668
150.0   90.0   16.666666666666668
150.0   60.0   33.333333333333336
200.0   60.0   16.666666666666668
200.0   90.0   16.666666666666668
150.0   90.0   16.666666666666668
200.0   90.0   33.333333333333336
150.0   60.0   33.333333333333336
150.0   90.0   33.333333333333336
200.0   90.0   33.333333333333336
150.0   90.0   16.666666666666668
150.0   60.0   33.333333333333336
200.0   90.0   33.333333333333336
200.0   60.0   33.333333333333336
200.0   60.0   16.666666666666668
150.0   60.0   33.333333333333336
200.0   90.0   33.333333333333336
200.0   60.0   16.666666666666668
150.0   90.0   16.666666666666668
150.0   60.0   33.333333333333336
200.0   60.0   33.333333333333336
150.0   90.0   33.333333333333336
150.0   60.0   50.0
200.0   60.0   33.333333333333336
200.0   90.0   33.333333333333336
150.0   90.0   33.333333333333336
200.0   90.0   50.0
150.0   60.0   50.0
150.0   90.0   50.0
200.0   90.0   50.0
150.0   90.0   33.333333333333336
150.0   60.0   50.0
200.0   90.0   50.0
200.0   60.0   50.0
200.0   60.0   33.333333333333336
150.0   60.0   50.0
200.0   90.0   50.0
200.0   60.0   33.333333333333336
150.0   90.0   33.333333333333336
150.0   90.0   0.0
200.0   90.0   0.0
150.0   120.0   0.0
150.0   90.0   16.666666666666668
200.0   90.0   0.0
200.0   120.0   0.0
150.0   120.0   0.0
200.0   120.0   16.666666666666668
150.0   90.0   16.666666666666668
150.0   120.0   16.666666666666668
200.0   120.0   16.666666666666668
150.0   120.0   0.0
150.0   90.0   16.666666666666668
200.0   120.0   16.666666666666668
200.0   90.0   16.666666666666668
200.0   90.0   0.0
150.0   90.0   16.666666666666668
200.0   120.0   16.666666666666668
200.0   90.0   0.0
150.0   120.0   0.0
150.0   90.0   16.666666666666668
200.0   90.0   16.666666666666668
150.0   120.0   16.666666666666668
150.0   90.0   33.333333333333336
200.0   90.0   16.666666666666668
200.0   120.0   16.666666666666668
150.0   120.0   16.666666666666668
200.0   120.0   33.333333333333336
150.0   90.0   33.333333333333336
150.0   120.0   33.333333333333336
200.0   120.0   33.333333333333336
150.0   120.0   16.666666666666668
150.0   90.0   33.333333333333336
200.0   120.0   33.333333333333336
200.0   90.0   33.333333333333336
200.0   90.0   16.666666666666668
150.0   90.0   33.333333333333336
200.0   120.0   33.333333333333336
200.0   90.0   16.666666666666668
150.0   120.0   16.666666666666668
150.0   90.0   33.333333333333336
200.0   90.0   33.333333333333336
150.0   120.0   33.333333333333336
150.0   90.0   50.0
200.0   90.0   33.333333333333336
200.0   120.0   33.333333333333336
150.0   120.0   33.333333333333336
200.0   120.0   50.0
150.0   90.0   50.0
150.0   120.0   50.0
200.0   120.0   50.0
150.0   120.0   33.333333333333336
150.0   90.0   50.0
200.0   120.0   50.0
200.0   90.0   50.0
200.0   90.0   33.333333333333336
150.0   90.0   50.0
200.0   120.0   50.0
200.0   90.0   33.333333333333336
150.0   120.0   33.333333333333336
150.0   120.0   0.0
200.0   120.0   0.0
150.0   150.0   0.0
150.0   120.0   16.666666666666668
200.0   120.0   0.0
200.0   150.0   0.0
150.0   150.0   0.0
200.0   150.0   16.666666666666668
150.0   120.0   16.666666666666668
150.0   150.0   16.666666666666668
200.0   150.0   16.666666666666668
150.0   150.0   0.0
150.0   120.0   16.666666666666668
200.0   150.0   16.666666666666668
200.0   120.0   16.666666666666668
200.0   120.0   0.0
150.0   120.0   16.666666666666668
200.0   150.0   16.666666666666668
200.0   120.0   0.0
150.0   150.0   0.0
150.0   120.0   16.666666666666668
200.0   120.0   16.666666666666668
150.0   150.0   16.666666666666668
150.0   120.0   33.333333333333336
200.0   120.0   16.666666666666668
200.0   150.0   16.666666666666668
150.0   150.0   16.666666666666668
200.0   150.0   33.333333333333336
150.0   120.0   33.333333333333336
150.0   150.0   33.333333333333336
200.0   150.0   33.333333333333336
150.0   150.0   16.666666666666668
150.0   120.0   33.333333333333336
200.0   150.0   33.333333333333336
200.0   120.0   33.333333333333336
200.0   120.0   16.666666666666668
150.0   120.0   33.333333333333336
200.0   150.0   33.333333333333336
200.0   120.0   16.666666666666668
150.0   150.0   16.666666666666668
150.0   120.0   33.333333333333336
200.0   120.0   33.333333333333336
150.0   150.0   33.333333333333336
150.0   120.0   50.0
200.0   120.0   33.333333333333336
200.0   150.0   33.333333333333336
150.0   150.0   33.333333333333336
200.0   150.0   50.0
150.0   120.0   50.0
150.0   150.0   50.0
200.0   150.0   50.0
150.0   150.0   33.333333333333336
150.0   120.0   50.0
200.0   150.0   50.0
200.0   120.0   50.0
200.0   120.0   33.333333333333336
150.0   120.0   50.0
200.0   150.0   50.0
200.0   120.0   33.333333333333336
150.0   150.0   33.333333333333336
200.0   0.0   0.0
250.0   0.0   0.0
200.0   30.0   0.0
200.0   0.0   16.666666666666668
250.0   0.0   0.0
250.0   30.0   0.0
200.0   30.0   0.0
250.0   30.0   16.666666666666668
200.0   0.0   16.666666666666668
200.0   30.0   16.666666666666668
250.0   30.0   16.666666666666668
200.0   30.0   0.0
200.0   0.0   16.666666666666668
250.0   30.0   16.666666666666668
250.0   0.0   16.666666666666668
250.0   0.0   0.0
200.0   0.0   16.666666666666668
250.0   30.0   16.666666666666668
250.0   0.0   0.0
200.0   30.0   0.0
200.0   0.0   16.666666666666668
250.0   0.0   16.666666666666668
200.0   30.0   16.666666666666668
200.0   0.0   33.333333333333336
250.0   0.0   16.666666666666668
250.0   30.0   16.666666666666668
200.0   30.0   16.666666666666668
250.0   30.0   33.333333333333336
200.0   0.0   33.333333333333336
200.0   30.0   33.333333333333336
250.0   30.0   33.333333333333336
200.0   30.0   16.666666666666668
200.0   0.0   33.333333333333336
250.0   30.0   33.333333333333336
250.0   0.0   33.333333333333336
250.0   0.0   16.666666666666668
200.0   0.0   33.333333333333336
250.0   30.0   33.333333333333336
250.0   0.0   16.666666666666668
200.0   30.0   16.666666666666668
200.0   0.0   33.333333333333336
250.0   0.0   33.333333333333336
200.0   30.0   33.333333333333336
200.0   0.0   50.0
250.0   0.0   33.333333333333336
250.0   30.0   33.333333333333336
200.0   30.0   33.333333333333336
250.0   30.0   50.0
200.0   0.0   50.0
200.0   30.0   50.0
250.0   30.0   50.0
200.0   30.0   33.333333333333336
200.0   0.0   50.0
250.0   30.0   50.0
250.0   0.0   50.0
250.0   0.0   33.333333333333336
200.0   0.0   50.0
250.0   30.0   50.0
250.0   0.0   33.333333333333336
200.0   30.0   33.333333333333336
200.0   30.0   0.0
250.0   30.0   0.0
200.0   60.0   0.0
200.0   30.0   16.666666666666668
250.0   30.0   0.0
250.0   60.0   0.0
200.0   60.0   0.0
250.0   60.0   16.666666666666668
200.0   30.0   16.666666666666668
200.0   60.0   16.666666666666668
250.0   60.0   16.666666666666668
200.0   60.0   0.0
200.0   30.0   16.666666666666668
250.0   60.0   16.666666666666668
250.0   30.0   16.666666666666668
250.0   30.0   0.0
200.0   30.0   16.666666666666668
250.0   60.0   16.666666666666668
250.0   30.0   0.0
200.0   60.0   0.0
200.0   30.0   16.666666666666668
250.0   30.0   16.666666666666668
200.0   60.0   16.666666666666668
200.0   30.0   33.333333333333336
250.0   30.0   16.666666666666668
250.0   60.0   16.666666666666668
200.0   60.0   16.666666666666668
250.0   60.0   33.333333333333336
200.0   30.0   33.333333333333336
200.0   60.0   33.333333333333336
250.0   60.0   33.333333333333336
200.0   60.0   16.666666666666668
200.0   30.0   33.333333333333336
250.0   60.0   33.333333333333336
250.0   30.0   33.333333333333336
250.0   30.0   16.666666666666668
200.0   30.0   33.333333333333336
250.0   60.0   33.333333333333336
250.0   30.0   16.666666666666668
200.0   60.0   16.666666666666668
200.0   30.0   33.333333333333336
250.0   30.0   33.333333333333336
200.0   60.0   33.333333333333336
200.0   30.0   50.0
250.0   30.0   33.333333333333336
250.0   60.0   33.333333333333336
200.0   60.0   33.333333333333336
250.0   60.0   50.0
200.0   30.0   50.0
200.0   60.0   50.0
250.0   60.0   50.0
200.0   60.0   33.333333333333336
200.0   30.0   50.0
250.0   60.0   50.0
250.0   30.0   50.0
250.0   30.0   33.333333333333336
200.0   30.0   50.0
250.0   60.0   50.0
250.0   30.0   33.333333333333336
200.0   60.0   33.333333333333336
200.0   60.0   0.0
250.0   60.0   0.0
200.0   90.0   0.0
200.0   60.0   16.666666666666668
250.0   60.0   0.0
250.0   90.0   0.0
200.0   90.0   0.0
250.0   90.0   16.666666666666668
200.0   60.0   16.666666666666668
200.0   90.0   16.666666666666668
250.0   90.0   16.666666666666668
200.0   90.0   0.0
200.0   60.0   16.666666666666668
250.0   90.0   16.666666666666668
250.0   60.0   16.666666666666668
250.0   60.0   0.0
200.0   60.0   16.666666666666668
250.0   90.0   16.666666666666668
250.0   60.0   0.0
200.0   90.0   0.0
200.0   60.0   16.666666666666668
250.0   60.0   16.666666666666668
200.0   90.0   16.666666666666668
200.0   60.0   33.333333333333336
250.0   60.0   16.666666666666668
250.0   90.0   16.666666666666668
200.0   90.0   16.666666666666668
250.0   90.0   33.333333333333336
200.0   60.0   33.333333333333336
200.0   90.0   33.333333333333336
250.0   90.0   33.333333333333336
200.0   90.0   16.666666666666668
200.0   60.0   33.333333333333336
250.0   90.0   33.333333333333336
250.0   60.0   33.333333333333336
250.0   60.0   16.666666666666668
200.0   60.0   33.333333333333336
250.0   90.0   33.333333333333336
250.0   60.0   16.666666666666668
200.0   90.0   16.666666666666668
200.0   60.0   33.333333333333336
250.0   60.0   33.333333333333336
200.0   90.0   33.333333333333336
200.0   60.0   50.0
250.0   60.0   33.333333333333336
250.0   90.0   33.333333333333336
200.0   90.0   33.333333333333336
250.0   90.0   50.0
200.0   60.0   50.0
200.0   90.0   50.0
250.0   90.0   50.0
200.0   90.0   33.333333333333336
200.0   60.0   50.0
250.0   90.0   50.0
250.0   60.0   50.0
250.0   60.0   33.333333333333336
200.0   60.0   50.0
250.0   90.0   50.0
250.0   60.0   33.333333333333336
200.0   90.0   33.333333333333336
200.0   90.0   0.0
250.0   90.0   0.0
200.0   120.0   0.0
200.0   90.0   16.666666666666668
250.0   90.0   0.0
250.0   120.0   0.0
200.0   120.0   0.0
250.0   120.0   16.666666666666668
200.0   90.0   16.666666666666668
200.0   120.0   16.666666666666668
250.0   120.0   16.666666666666668
200.0   120.0   0.0
200.0   90.0   16.666666666666668
250.0   120.0   16.666666666666668
250.0   90.0   16.666666666666668
250.0   90.0   0.0
200.0   90.0   16.666666666666668
250.0   120.0   16.666666666666668
250.0   90.0   0.0
200.0   120.0   0.0
200.0   90.0   16.666666666666668
250.0   90.0   16.666666666666668
200.0   120.0   16.666666666666668
200.0   90.0   33.333333333333336
250.0   90.0   16.666666666666668
250.0   120.0   16.666666666666668
200.0   120.0   16.666666666666668
250.0   120.0   33.333333333333336
200.0   90.0   33.333333333333336
200.0   120.0   33.333333333333336
250.0   120.0   33.333333333333336
200.0   120.0   16.666666666666668
200.0   90.0   33.333333333333336
250.0   120.0   33.333333333333336
250.0   90.0   33.333333333333336
250.0   90.0   16.666666666666668
200.0   90.0   33.333333333333336
250.0   120.0   33.333333333333336
250.0   90.0   16.666666666666668
200.0   120.0   16.666666666666668
200.0   90.0   33.333333333333336
250.0   90.0   33.333333333333336
200.0   120.0   33.333333333333336
200.0   90.0   50.0
250.0   90.0   33.333333333333336
250.0   120.0   33.333333333333336
200.0   120.0   33.333333333333336
250.0   120.0   50.0
200.0   90.0   50.0
200.0   120.0   50.0
250.0   120.0   50.0
200.0   120.0   33.333333333333336
200.0   90.0   50.0
250.0   120.0   50.0
250.0   90.0   50.0
250.0   90.0   33.333333333333336
200.0   90.0   50.0
250.0   120.0   50.0
250.0   90.0   33.333333333333336
200.0   120.0   33.333333333333336
200.0   120.0   0.0
250.0   120.0   0.0
200.0   150.0   0.0
200.0   120.0   16.666666666666668
250.0   120.0   0.0
250.0   150.0   0.0
200.0   150.0   0.0
250.0   150.0   16.666666666666668
200.0   120.0   16.666666666666668
200.0   150.0   16.666666666666668
250.0   150.0   16.666666666666668
200.0   150.0   0.0
200.0   120.0   16.666666666666668
250.0   150.0   16.666666666666668
250.0   120.0   16.666666666666668
250.0   120.0   0.0
200.0   120.0   16.666666666666668
250.0   150.0   16.666666666666668
250.0   120.0   0.0
200.0   150.0   0.0
200.0   120.0   16.666666666666668
250.0   120.0   16.666666666666668
200.0   150.0   16.666666666666668
200.0   120.0   33.333333333333336
250.0   120.0   16.666666666666668
250.0   150.0   16.666666666666668
200.0   150.0   16.666666666666668
250.0   150.0   33.333333333333336
200.0   120.0   33.333333333333336
200.0   150.0   33.333333333333336
250.0   150.0   33.333333333333336
200.0   150.0   16.666666666666668
200.0   120.0   33.333333333333336
250.0   150.0   33.333333333333336
250.0   120.0   33.333333333333336
250.0   120.0   16.666666666666668
200.0   120.0   33.333333333333336
250.0   150.0   33.333333333333336
250.0   120.0   16.666666666666668
200.0   150.0   16.666666666666668
200.0   120.0   33.333333333333336
250.0   120.0   33.333333333333336
200.0   150.0   33.333333333333336
200.0   120.0   50.0
250.0   120.0   33.333333333333336
250.0   150.0   33.333333333333336
200.0   150.0   33.333333333333336
250.0   150.0   50.0
200.0   120.0   50.0
200.0   150.0   50.0
250.0   150.0   50.0
200.0   150.0   33.333333333333336
200.0   120.0   50.0
250.0   150.0   50.0
250.0   120.0   50.0
250.0   120.0   33.333333333333336
200.0   120.0   50.0
250.0   150.0   50.0
250.0   120.0   33.333333333333336
200.0   150.0   33.333333333333336
250.0   0.0   0.0
300.0   0.0   0.0
250.0   30.0   0.0
250.0   0.0   16.666666666666668
300.0   0.0   0.0
300.0   30.0   0.0
250.0   30.0   0.0
300.0   30.0   16.666666666666668
250.0   0.0   16.666666666666668
250.0   30.0   16.666666666666668
300.0   30.0   16.666666666666668
250.0   30.0   0.0
250.0   0.0   16.666666666666668
300.0   30.0   16.666666666666668
300.0   0.0   16.666666666666668
300.0   0.0   0.0
250.0   0.0   16.666666666666668
300.0   30.0   16.666666666666668
300.0   0.0   0.0
250.0   30.0   0.0
250.0   0.0   16.666666666666668
300.0   0.0   16.666666666666668
250.0   30.0   16.666666666666668
250.0   0.0   33.333333333333336
300.0   0.0   16.666666666666668
300.0   30.0   16.666666666666668
250.0   30.0   16.666666666666668
300.0   30.0   33.333333333333336
250.0   0.0   33.333333333333336
250.0   30.0   33.333333333333336
300.0   30.0   33.333333333333336
250.0   30.0   16.666666666666668
250.0   0.0   33.333333333333336
300.0   30.0   33.333333333333336
300.0   0.0   33.333333333333336
300.0   0.0   16.666666666666668
250.0   0.0   33.333333333333336
300.0   30.0   33.333333333333336
300.0   0.0   16.666666666666668
250.0   30.0   16.666666666666668
250.0   0.0   33.333333333333336
300.0   0.0   33.333333333333336
250.0   30.0   33.333333333333336
250.0   0.0   50.0
300.0   0.0   33.333333333333336
300.0   30.0   33.333333333333336
250.0   30.0   33.333333333333336
300.0   30.0   50.0
250.0   0.0   50.0
250.0   30.0   50.0
300.0   30.0   50.0
250.0   30.0   33.333333333333336
250.0   0.0   50.0
300.0   30.0   50.0
300.0   0.0   50.0
300.0   0.0   33.333333333333336
250.0   0.0   50.0
300.0   30.0   50.0
300.0   0.0   33.333333333333336
250.0   30.0   33.333333333333336
250.0   30.0   0.0
300.0   30.0   0.0
250.0   60.0   0.0
250.0   30.0   16.666666666666668
300.0   30.0   0.0
300.0   60.0   0.0
250.0   60.0   0.0
300.0   60.0   16.666666666666668
250.0   30.0   16.666666666666668
250.0   60.0   16.666666666666668
300.0   60.0   16.666666666666668
250.0   60.0   0.0
250.0   30.0   16.666666666666668
300.0   60.0   16.666666666666668
300.0   30.0   16.666666666666668
300.0   30.0   0.0
250.0   30.0   16.666666666666668
300.0   60.0   16.666666666666668
300.0   30.0   0.0
250.0   60.0   0.0
250.0   30.0   16.666666666666668
300.0   30.0   16.666666666666668
250.0   60.0   16.666666666666668
250.0   30.0   33.333333333333336
300.0   30.0   16.666666666666668
300.0   60.0   16.666666666666668
250.0   60.0   16.666666666666668
300.0   60.0   33.333333333333336
250.0   30.0   33.333333333333336
250.0   60.0   33.333333333333336
300.0   60.0   33.333333333333336
250.0   60.0   16.666666666666668
250.0   30.0   33.333333333333336
300.0   60.0   33.333333333333336
300.0   30.0   33.333333333333336
300.0   30.0   16.666666666666668
250.0   30.0   33.333333333333336
300.0   60.0   33.333333333333336
300.0   30.0   16.666666666666668
250.0   60.0   16.666666666666668
250.0   30.0   33.333333333333336
300.0   30.0   33.333333333333336
250.0   60.0   33.333333333333336
250.0   30.0   50.0
300.0   30.0   33.333333333333336
300.0   60.0   33.333333333333336
250.0   60.0   33.333333333333336
300.0   60.0   50.0
250.0   30.0   50.0
250.0   60.0   50.0
300.0   60.0   50.0
250.0   60.0   33.333333333333336
250.0   30.0   50.0
300.0   60.0   50.0
300.0   30.0   50.0
300.0   30.0   33.333333333333336
250.0   30.0   50.0
300.0   60.0   50.0
300.0   30.0   33.333333333333336
250.0   60.0   33.333333333333336
250.0   60.0   0.0
300.0   60.0   0.0
250.0   90.0   0.0
250.0   60.0   16.666666666666668
300.0   60.0   0.0
300.0   90.0   0.0
250.0   90.0   0.0
300.0   90.0   16.666666666666668
250.0   60.0   16.666666666666668
250.0   90.0   16.666666666666668
300.0   90.0   16.666666666666668
250.0   90.0   0.0
250.0   60.0   16.666666666666668
300.0   90.0   16.666666666666668
300.0   60.0   16.666666666666668
300.0   60.0   0.0
250.0   60.0   16.666666666666668
300.0   90.0   16.666666666666668
300.0   60.0   0.0
250.0   90.0   0.0
250.0   60.0   16.666666666666668
300.0   60.0   16.666666666666668
250.0   90.0   16.666666666666668
250.0   60.0   33.333333333333336
300.0   60.0   16.666666666666668
300.0   90.0   16.666666666666668
250.0   90.0   16.666666666666668
300.0   90.0   33.333333333333336
250.0   60.0   33.333333333333336
250.0   90.0   33.333333333333336
300.0   90.0   33.333333333333336
250.0   90.0   16.666666666666668
250.0   60.0   33.333333333333336
300.0   90.0   33.333333333333336
300.0   60.0   33.333333333333336
300.0   60.0   16.666666666666668
250.0   60.0   33.333333333333336
300.0   90.0   33.333333333333336
300.0   60.0   16.666666666666668
250.0   90.0   16.666666666666668
250.0   60.0   33.333333333333336
300.0   60.0   33.333333333333336
250.0   90.0   33.333333333333336
250.0   60.0   50.0
300.0   60.0   33.333333333333336
300.0   90.0   33.333333333333336
250.0   90.0   33.333333333333336
300.0   90.0   50.0
250.0   60.0   50.0
250.0   90.0   50.0
300.0   90.0   50.0
250.0   90.0   33.333333333333336
250.0   60.0   50.0
300.0   90.0   50.0
300.0   60.0   50.0
300.0   60.0   33.333333333333336
250.0   60.0   50.0
300.0   90.0   50.0
300.0   60.0   33.333333333333336
250.0   90.0   33.333333333333336
250.0   90.0   0.0
300.0   90.0   0.0
250.0   120.0   0.0
250.0   90.0   16.666666666666668
300.0   90.0   0.0
300.0   120.0   0.0
250.0   120.0   0.0
300.0   120.0   16.666666666666668
250.0   90.0   16.666666666666668
250.0   120.0   16.666666666666668
300.0   120.0   16.666666666666668
250.0   120.0   0.0
250.0   90.0   16.666666666666668
300.0   120.0   16.666666666666668
300.0   90.0   16.666666666666668
300.0   90.0   0.0
250.0   90.0   16.666666666666668
300.0   120.0   16.666666666666668
300.0   90.0   0.0
250.0   120.0   0.0
250.0   90.0   16.666666666666668
300.0   90.0   16.666666666666668
250.0   120.0   16.666666666666668
250.0   90.0   33.333333333333336
300.0   90.0   16.666666666666668
300.0   120.0   16.666666666666668
250.0   120.0   16.666666666666668
300.0   120.0   33.333333333333336
250.0   90.0   33.333333333333336
250.0   120.0   33.333333333333336
300.0   120.0   33.333333333333336
250.0   120.0   16.666666666666668
250.0   90.0   33.333333333333336
300.0   120.0   33.333333333333336
300.0   90.0   33.333333333333336
300.0   90.0   16.666666666666668
250.0   90.0   33.333333333333336
300.0   120.0   33.333333333333336
300.0   90.0   16.666666666666668
250.0   120.0   16.666666666666668
250.0   90.0   33.333333333333336
300.0   90.0   33.333333333333336
250.0   120.0   33.333333333333336
250.0   90.0   50.0
300.0   90.0   33.333333333333336
300.0   120.0   33.333333333333336
250.0   120.0   33.333333333333336
300.0   120.0   50.0
250.0   90.0   50.0
250.0   120.0   50.0
300.0   120.0   50.0
250.0   120.0   33.333333333333336
250.0   90.0   50.0
300.0   120.0   50.0
300.0   90.0   50.0
300.0   90.0   33.333333333333336
250.0   90.0   50.0
300.0   120.0   50.0
300.0   90.0   33.333333333333336
250.0   120.0   33.333333333333336
250.0   120.0   0.0
300.0   120.0   0.0
250.0   150.0   0.0
250.0   120.0   16.666666666666668
300.0   120.0   0.0
300.0   150.0   0.0
250.0   150.0   0.0
300.0   150.0   16.666666666666668
250.0   120.0   16.666666666666668
250.0   150.0   16.666666666666668
300.0   150.0   16.666666666666668
250.0   150.0   0.0
250.0   120.0   16.666666666666668
300.0   150.0   16.666666666666668
300.0   120.0   16.666666666666668
300.0   120.0   0.0
250.0   120.0   16.666666666666668
300.0   150.0   16.666666666666668
300.0   120.0   0.0
250.0   150.0   0.0
250.0   120.0   16.666666666666668
300.0   120.0   16.666666666666668
250.0   150.0   16.666666666666668
250.0   120.0   33.333333333333336
300.0   120.0   16.666666666666668
300.0   150.0   16.666666666666668
250.0   150.0   16.666666666666668
300.0   150.0   33.333333333333336
250.0   120.0   33.333333333333336
250.0   150.0   33.333333333333336
300.0   150.0   33.333333333333336
250.0   150.0   16.666666666666668
250.0   120.0   33.333333333333336
300.0   150.0   33.333333333333336
300.0   120.0   33.333333333333336
300.0   120.0   16.666666666666668
250.0   120.0   33.333333333333336
300.0   150.0   33.333333333333336
300.0   120.0   16.666666666666668
250.0   150.0   16.666666666666668
250.0   120.0   33.333333333333336
300.0   120.0   33.333333333333336
250.0   150.0   33.333333333333336
250.0   120.0   50.0
300.0   120.0   33.333333333333336
300.0   150.0   33.333333333333336
250.0   150.0   33.333333333333336
300.0   150.0   50.0
250.0   120.0   50.0
250.0   150.0   50.0
300.0   150.0   50.0
250.0   150.0   33.333333333333336
250.0   120.0   50.0
300.0   150.0   50.0
300.0   120.0   50.0
300.0   120.0   33.333333333333336
250.0   120.0   50.0
300.0   150.0   50.0
300.0   120.0   33.333333333333336
250.0   150.0   33.333333333333336
300.0   0.0   0.0
350.0   0.0   0.0
300.0   30.0   0.0
300.0   0.0   16.666666666666668
350.0   0.0   0.0
350.0   30.0   0.0
300.0   30.0   0.0
350.0   30.0   16.666666666666668
300.0   0.0   16.666666666666668
300.0   30.0   16.666666666666668
350.0   30.0   16.666666666666668
300.0   30.0   0.0
300.0   0.0   16.666666666666668
350.0   30.0   16.666666666666668
350.0   0.0   16.666666666666668
350.0   0.0   0.0
300.0   0.0   16.666666666666668
350.0   30.0   16.666666666666668
350.0   0.0   0.0
300.0   30.0   0.0
300.0   0.0   16.666666666666668
350.0   0.0   16.666666666666668
300.0   30.0   16.666666666666668
300.0   0.0   33.333333333333336
350.0   0.0   16.666666666666668
350.0   30.0   16.666666666666668
300.0   30.0   16.666666666666668
350.0   30.0   33.333333333333336
300.0   0.0   33.333333333333336
300.0   30.0   33.333333333333336
350.0   30.0   33.333333333333336
300.0   30.0   16.666666666666668
300.0   0.0   33.333333333333336
350.0   30.0   33.333333333333336
350.0   0.0   33.333333333333336
350.0   0.0   16.666666666666668
300.0   0.0   33.333333333333336
350.0   30.0   33.333333333333336
350.0   0.0   16.666666666666668
300.0   30.0   16.666666666666668
300.0   0.0   33.333333333333336
350.0   0.0   33.333333333333336
300.0   30.0   33.333333333333336
300.0   0.0   50.0
350.0   0.0   33.333333333333336
350.0   30.0   33.333333333333336
300.0   30.0   33.333333333333336
350.0   30.0   50.0
300.0   0.0   50.0
300.0   30.0   50.0
350.0   30.0   50.0
300.0   30.0   33.333333333333336
300.0   0.0   50.0
350.0   30.0   50.0
350.0   0.0   50.0
350.0   0.0   33.333333333333336
300.0   0.0   50.0
350.0   30.0   50.0
350.0   0.0   33.333333333333336
300.0   30.0   33.333333333333336
300.0   30.0   0.0
350.0   30.0   0.0
300.0   60.0   0.0
300.0   30.0   16.666666666666668
350.0   30.0   0.0
350.0   60.0   0.0
300.0   60.0   0.0
350.0   60.0   16.666666666666668
300.0   30.0   16.666666666666668
300.0   60.0   16.666666666666668
350.0   60.0   16.666666666666668
300.0   60.0   0.0
300.0   30.0   16.666666666666668
350.0   60.0   16.666666666666668
350.0   30.0   16.666666666666668
350.0   30.0   0.0
300.0   30.0   16.666666666666668
350.0   60.0   16.666666666666668
350.0   30.0   0.0
300.0   60.0   0.0
300.0   30.0   16.666666666666668
350.0   30.0   16.666666666666668
300.0   60.0   16.666666666666668
300.0   30.0   33.333333333333336
350.0   30.0   16.666666666666668
350.0   60.0   16.666666666666668
300.0   60.0   16.666666666666668
350.0   60.0   33.333333333333336
300.0   30.0   33.333333333333336
300.0   60.0   33.333333333333336
350.0   60.0   33.333333333333336
300.0   60.0   16.666666666666668
300.0   30.0   33.333333333333336
350.0   60.0   33.333333333333336
350.0   30.0   33.333333333333336
350.0   30.0   16.666666666666668
300.0   30.0   33.333333333333336
350.0   60.0   33.333333333333336
350.0   30.0   16.666666666666668
300.0   60.0   16.666666666666668
300.0   30.0   33.333333333333336
350.0   30.0   33.333333333333336
300.0   60.0   33.333333333333336
300.0   30.0   50.0
350.0   30.0   33.333333333333336
350.0   60.0   33.333333333333336
300.0   60.0   33.333333333333336
350.0   60.0   50.0
300.0   30.0   50.0
300.0   60.0   50.0
350.0   60.0   50.0
300.0   60.0   33.333333333333336
300.0   30.0   50.0
350.0   60.0   50.0
350.0   30.0   50.0
350.0   30.0   33.333333333333336
300.0   30.0   50.0
350.0   60.0   50.0
350.0   30.0   33.333333333333336
300.0   60.0   33.333333333333336
300.0   60.0   0.0
350.0   60.0   0.0
300.0   90.0   0.0
300.0   60.0   16.666666666666668
350.0   60.0   0.0
350.0   90.0   0.0
300.0   90.0   0.0
350.0   90.0   16.666666666666668
300.0   60.0   16.666666666666668
300.0   90.0   16.666666666666668
350.0   90.0   16.666666666666668
300.0   90.0   0.0
300.0   60.0   16.666666666666668
350.0   90.0   16.666666666666668
350.0   60.0   16.666666666666668
350.0   60.0   0.0
300.0   60.0   16.666666666666668
350.0   90.0   16.666666666666668
350.0   60.0   0.0
300.0   90.0   0.0
300.0   60.0   16.666666666666668
350.0   60.0   16.666666666666668
300.0   90.0   16.666666666666668
300.0   60.0   33.333333333333336
350.0   60.0   16.666666666666668
350.0   90.0   16.666666666666668
300.0   90.0   16.666666666666668
350.0   90.0   33.333333333333336
300.0   60.0   33.333333333333336
300.0   90.0   33.333333333333336
350.0   90.0   33.333333333333336
300.0   90.0   16.666666666666668
300.0   60.0   33.333333333333336
350.0   90.0   33.333333333333336
350.0   60.0   33.333333333333336
350.0   60.0   16.666666666666668
300.0   60.0   33.333333333333336
350.0   90.0   33.333333333333336
350.0   60.0   16.666666666666668
300.0   90.0   16.666666666666668
300.0   60.0   33.333333333333336
350.0   60.0   33.333333333333336
300.0   90.0   33.333333333333336
300.0   60.0   50.0
350.0   60.0   33.333333333333336
350.0   90.0   33.333333333333336
300.0   90.0   33.333333333333336
350.0   90.0   50.0
300.0   60.0   50.0
300.0   90.0   50.0
350.0   90.0   50.0
300.0   90.0   33.333333333333336
300.0   60.0   50.0
350.0   90.0   50.0
350.0   60.0   50.0
350.0   60.0   33.333333333333336
300.0   60.0   50.0
350.0   90.0   50.0
350.0   60.0   33.333333333333336
300.0   90.0   33.333333333333336
300.0   90.0   0.0
350.0   90.0   0.0
300.0   120.0   0.0
300.0   90.0   16.666666666666668
350.0   90.0   0.0
350.0   120.0   0.0
300.0   120.0   0.0
350.0   120.0   16.666666666666668
300.0   90.0   16.666666666666668
300.0   120.0   16.666666666666668
350.0   120.0   16.666666666666668
300.0   120.0   0.0
300.0   90.0   16.666666666666668
350.0   120.0   16.666666666666668
350.0   90.0   16.666666666666668
350.0   90.0   0.0
300.0   90.0   16.666666666666668
350.0   120.0   16.666666666666668
350.0   90.0   0.0
300.0   120.0   0.0
300.0   90.0   16.666666666666668
350.0   90.0   16.666666666666668
300.0   120.0   16.666666666666668
300.0   90.0   33.333333333333336
350.0   90.0   16.666666666666668
350.0   120.0   16.666666666666668
300.0   120.0   16.666666666666668
350.0   120.0   33.333333333333336
300.0   90.0   33.333333333333336
300.0   120.0   33.333333333333336
350.0   120.0   33.333333333333336
300.0   120.0   16.666666666666668
300.0   90.0   33.333333333333336
350.0   120.0   33.333333333333336
350.0   90.0   33.333333333333336
350.0   90.0   16.666666666666668
300.0   90.0   33.333333333333336
350.0   120.0   33.333333333333336
350.0   90.0   16.666666666666668
300.0   120.0   16.666666666666668
300.0   90.0   33.333333333333336
350.0   90.0   33.333333333333336
300.0   120.0   33.333333333333336
300.0   90.0   50.0
350.0   90.0   33.333333333333336
350.0   120.0   33.333333333333336
300.0   120.0   33.333333333333336
350.0   120.0   50.0
300.0   90.0   50.0
300.0   120.0   50.0
350.0   120.0   50.0
300.0   120.0   33.333333333333336
300.0   90.0   50.0
350.0   120.0   50.0
350.0   90.0   50.0
350.0   90.0   33.333333333333336
300.0   90.0   50.0
350.0   120.0   50.0
350.0   90.0   33.333333333333336
300.0   120.0   33.333333333333336
300.0   120.0   0.0
350.0   120.0   0.0
300.0   150.0   0.0
300.0   120.0   16.666666666666668
350.0   120.0   0.0
350.0   150.0   0.0
300.0   150.0   0.0
350.0   150.0   16.666666666666668
300.0   120.0   16.666666666666668
300.0   150.0   16.666666666666668
350.0   150.0   16.666666666666668
300.0   150.0   0.0
300.0   120.0   16.666666666666668
350.0   150.0   16.666666666666668
350.0   120.0   16.666666666666668
350.0   120.0   0.0
300.0   120.0   16.666666666666668
350.0   150.0   16.666666666666668
350.0   120.0   0.0
300.0   150.0   0.0
300.0   120.0   16.666666666666668
350.0   120.0   16.666666666666668
300.0   150.0   16.666666666666668
300.0   120.0   33.333333333333336
350.0   120.0   16.666666666666668
350.0   150.0   16.666666666666668
300.0   150.0   16.666666666666668
350.0   150.0   33.333333333333336
300.0   120.0   33.333333333333336
300.0   150.0   33.333333333333336
350.0   150.0   33.333333333333336
300.0   150.0   16.666666666666668
300.0   120.0   33.333333333333336
350.0   150.0   33.333333333333336
350.0   120.0   33.333333333333336
350.0   120.0   16.666666666666668
300.0   120.0   33.333333333333336
350.0   150.0   33.333333333333336
350.0   120.0   16.666666666666668
300.0   150.0   16.666666666666668
300.0   120.0   33.333333333333336
350.0   120.0   33.333333333333336
300.0   150.0   33.333333333333336
300.0   120.0   50.0
350.0   120.0   33.333333333333336
350.0   150.0   33.333333333333336
300.0   150.0   33.333333333333336
350.0   150.0   50.0
300.0   120.0   50.0
300.0   150.0   50.0
350.0   150.0   50.0
300.0   150.0   33.333333333333336
300.0   120.0   50.0
350.0   150.0   50.0
350.0   120.0   50.0
350.0   120.0   33.333333333333336
300.0   120.0   50.0
350.0   150.0   50.0
350.0   120.0   33.333333333333336
300.0   150.0   33.333333333333336
350.0   0.0   0.0
400.0   0.0   0.0
350.0   30.0   0.0
350.0   0.0   16.666666666666668
400.0   0.0   0.0
400.0   30.0   0.0
350.0   30.0   0.0
400.0   30.0   16.666666666666668
350.0   0.0   16.666666666666668
350.0   30.0   16.666666666666668
400.0   30.0   16.666666666666668
350.0   30.0   0.0
350.0   0.0   16.666666666666668
400.0   30.0   16.666666666666668
400.0   0.0   16.666666666666668
400.0   0.0   0.0
350.0   0.0   16.666666666666668
400.0   30.0   16.666666666666668
400.0   0.0   0.0
350.0   30.0   0.0
350.0   0.0   16.666666666666668
400.0   0.0   16.666666666666668
350.0   30.0   16.666666666666668
350.0   0.0   33.333333333333336
400.0   0.0   16.666666666666668
400.0   30.0   16.666666666666668
350.0   30.0   16.666666666666668
400.0   30.0   33.333333333333336
350.0   0.0   33.333333333333336
350.0   30.0   33.333333333333336
400.0   30.0   33.333333333333336
350.0   30.0   16.666666666666668
350.0   0.0   33.333333333333336
400.0   30.0   33.333333333333336
400.0   0.0   33.333333333333336
400.0   0.0   16.666666666666668
350.0   0.0   33.333333333333336
400.0   30.0   33.333333333333336
400.0   0.0   16.666666666666668
350.0   30.0   16.666666666666668
350.0   0.0   33.333333333333336
400.0   0.0   33.333333333333336
350.0   30.0   33.333333333333336
350.0   0.0   50.0
400.0   0.0   33.333333333333336
400.0   30.0   33.333333333333336
350.0   30.0   33.333333333333336
400.0   30.0   50.0
350.0   0.0   50.0
350.0   30.0   50.0
400.0   30.0   50.0
350.0   30.0   33.333333333333336
350.0   0.0   50.0
400.0   30.0   50.0
400.0   0.0   50.0
400.0   0.0   33.333333333333336
350.0   0.0   50.0
400.0   30.0   50.0
400.0   0.0   33.333333333333336
350.0   30.0   33.333333333333336
350.0   30.0   0.0
400.0   30.0   0.0
350.0   60.0   0.0
350.0   30.0   16.666666666666668
400.0   30.0   0.0
400.0   60.0   0.0
350.0   60.0   0.0
400.0   60.0   16.666666666666668
350.0   30.0   16.666666666666668
350.0   60.0   16.666666666666668
400.0   60.0   16.666666666666668
350.0   60.0   0.0
350.0   30.0   16.666666666666668
400.0   60.0   16.666666666666668
400.0   30.0   16.666666666666668
400.0   30.0   0.0
350.0   30.0   16.666666666666668
400.0   60.0   16.666666666666668
400.0   30.0   0.0
350.0   60.0   0.0
350.0   30.0   16.666666666666668
400.0   30.0   16.666666666666668
350.0   60.0   16.666666666666668
350.0   30.0   33.333333333333336
400.0   30.0   16.666666666666668
400.0   60.0   16.666666666666668
350.0   60.0   16.666666666666668
400.0   60.0   33.333333333333336
350.0   30.0   33.333333333333336
350.0   60.0   33.333333333333336
400.0   60.0   33.333333333333336
350.0   60.0   16.666666666666668
350.0   30.0   33.333333333333336
400.0   60.0   33.333333333333336
400.0   30.0   33.333333333333336
400.0   30.0   16.666666666666668
350.0   30.0   33.333333333333336
400.0   60.0   33.333333333333336
400.0   30.0   16.666666666666668
350.0   60.0   16.666666666666668
350.0   30.0   33.333333333333336
400.0   30.0   33.333333333333336
350.0   60.0   33.333333333333336
350.0   30.0   50.0
400.0   30.0   33.333333333333336
400.0   60.0   33.333333333333336
350.0   60.0   33.333333333333336
400.0   60.0   50.0
350.0   30.0   50.0
350.0   60.0   50.0
400.0   60.0   50.0
350.0   60.0   33.333333333333336
350.0   30.0   50.0
400.0   60.0   50.0
400.0   30.0   50.0
400.0   30.0   33.333333333333336
350.0   30.0   50.0
400.0   60.0   50.0
400.0   30.0   33.333333333333336
350.0   60.0   33.333333333333336
350.0   60.0   0.0
400.0   60.0   0.0
350.0   90.0   0.0
350.0   60.0   16.666666666666668
400.0   60.0   0.0
400.0   90.0   0.0
350.0   90.0   0.0
400.0   90.0   16.666666666666668
350.0   60.0   16.666666666666668
350.0   90.0   16.666666666666668
400.0   90.0   16.666666666666668
350.0   90.0   0.0
350.0   60.0   16.666666666666668
400.0   90.0   16.666666666666668
400.0   60.0   16.666666666666668
400.0   60.0   0.0
350.0   60.0   16.666666666666668
400.0   90.0   16.666666666666668
400.0   60.0   0.0
350.0   90.0   0.0
350.0   60.0   16.666666666666668
400.0   60.0   16.666666666666668
350.0   90.0   16.666666666666668
350.0   60.0   33.333333333333336
400.0   60.0   16.666666666666668
400.0   90.0   16.666666666666668
350.0   90.0   16.666666666666668
400.0   90.0   33.333333333333336
350.0   60.0   33.333333333333336
350.0   90.0   33.333333333333336
400.0   90.0   33.333333333333336
350.0   90.0   16.666666666666668
350.0   60.0   33.333333333333336
400.0   90.0   33.333333333333336
400.0   60.0   33.333333333333336
400.0   60.0   16.666666666666668
350.0   60.0   33.333333333333336
400.0   90.0   33.333333333333336
400.0   60.0   16.666666666666668
350.0   90.0   16.666666666666668
350.0   60.0   33.333333333333336
400.0   60.0   33.333333333333336
350.0   90.0   33.333333333333336
350.0   60.0   50.0
400.0   60.0   33.333333333333336
400.0   90.0   33.333333333333336
350.0   90.0   33.333333333333336
400.0   90.0   50.0
350.0   60.0   50.0
350.0   90.0   50.0
400.0   90.0   50.0
350.0   90.0   33.333333333333336
350.0   60.0   50.0
400.0   90.0   50.0
400.0   60.0   50.0
400.0   60.0   33.333333333333336
350.0   60.0   50.0
400.0   90.0   50.0
400.0   60.0   33.333333333333336
350.0   90.0   33.333333333333336
350.0   90.0   0.0
400.0   90.0   0.0
350.0   120.0   0.0
350.0   90.0   16.666666666666668
400.0   90.0   0.0
400.0   120.0   0.0
350.0   120.0   0.0
400.0   120.0   16.666666666666668
350.0   90.0   16.666666666666668
350.0   120.0   16.666666666666668
400.0   120.0   16.666666666666668
350.0   120.0   0.0
350.0   90.0   16.666666666666668
400.0   120.0   16.666666666666668
400.0   90.0   16.666666666666668
400.0   90.0   0.0
350.0   90.0   16.666666666666668
400.0   120.0   16.666666666666668
400.0   90.0   0.0
350.0   120.0   0.0
350.0   90.0   16.666666666666668
400.0   90.0   16.666666666666668
350.0   120.0   16.666666666666668
350.0   90.0   33.333333333333336
400.0   90.0   16.666666666666668
400.0   120.0   16.666666666666668
350.0   120.0   16.666666666666668
400.0   120.0   33.333333333333336
350.0   90.0   33.333333333333336
350.0   120.0   33.333333333333336
400.0   120.0   33.333333333333336
350.0   120.0   16.666666666666668
350.0   90.0   33.333333333333336
400.0   120.0   33.333333333333336
400.0   90.0   33.333333333333336
400.0   90.0   16.666666666666668
350.0   90.0   33.333333333333336
400.0   120.0   33.333333333333336
400.0   90.0   16.666666666666668
350.0   120.0   16.666666666666668
350.0   90.0   33.333333333333336
400.0   90.0   33.333333333333336
350.0   120.0   33.333333333333336
350.0   90.0   50.0
400.0   90.0   33.333333333333336
400.0   120.0   33.333333333333336
350.0   120.0   33.333333333333336
400.0   120.0   50.0
350.0   90.0   50.0
350.0   120.0   50.0
400.0   120.0   50.0
350.0   120.0   33.333333333333336
350.0   90.0   50.0
400.0   120.0   50.0
400.0   90.0   50.0
400.0   90.0   33.333333333333336
350.0   90.0   50.0
400.0   120.0   50.0
400.0   90.0   33.333333333333336
350.0   120.0   33.333333333333336
350.0   120.0   0.0
400.0   120.0   0.0
350.0   150.0   0.0
350.0   120.0   16.666666666666668
400.0   120.0   0.0
400.0   150.0   0.0
350.0   150.0   0.0
400.0   150.0   16.666666666666668
350.0   120.0   16.666666666666668
350.0   150.0   16.666666666666668
400.0   150.0   16.666666666666668
350.0   150.0   0.0
350.0   120.0   16.666666666666668
400.0   150.0   16.666666666666668
400.0   120.0   16.666666666666668
400.0   120.0   0.0
350.0   120.0   16.666666666666668
400.0   150.0   16.666666666666668
400.0   120.0   0.0
350.0   150.0   0.0
350.0   120.0   16.666666666666668
400.0   120.0   16.666666666666668
350.0   150.0   16.666666666666668
350.0   120.0   33.333333333333336
400.0   120.0   16.666666666666668
400.0   150.0   16.666666666666668
350.0   150.0   16.666666666666668
400.0   150.0   33.333333333333336
350.0   120.0   33.333333333333336
350.0   150.0   33.333333333333336
400.0   150.0   33.333333333333336
350.0   150.0   16.666666666666668
350.0   120.0   33.333333333333336
400.0   150.0   33.333333333333336
400.0   120.0   33.333333333333336
400.0   120.0   16.666666666666668
350.0   120.0   33.333333333333336
400.0   150.0   33.333333333333336
400.0   120.0   16.666666666666668
350.0   150.0   16.666666666666668
350.0   120.0   33.333333333333336
400.0   120.0   33.333333333333336
350.0   150.0   33.333333333333336
350.0   120.0   50.0
400.0   120.0   33.333333333333336
400.0   150.0   33.333333333333336
350.0   150.0   33.333333333333336
400.0   150.0   50.0
350.0   120.0   50.0
350.0   150.0   50.0
400.0   150.0   50.0
350.0   150.0   33.333333333333336
350.0   120.0   50.0
400.0   150.0   50.0
400.0   120.0   50.0
400.0   120.0   33.333333333333336
350.0   120.0   50.0
400.0   150.0   50.0
400.0   120.0   33.333333333333336
350.0   150.0   33.333333333333336
400.0   0.0   0.0
450.0   0.0   0.0
400.0   30.0   0.0
400.0   0.0   16.666666666666668
450.0   0.0   0.0
450.0   30.0   0.0
400.0   30.0   0.0
450.0   30.0   16.666666666666668
400.0   0.0   16.666666666666668
400.0   30.0   16.666666666666668
450.0   30.0   16.666666666666668
400.0   30.0   0.0
400.0   0.0   16.666666666666668
450.0   30.0   16.666666666666668
450.0   0.0   16.666666666666668
450.0   0.0   0.0
400.0   0.0   16.666666666666668
450.0   30.0   16.666666666666668
450.0   0.0   0.0
400.0   30.0   0.0
400.0   0.0   16.666666666666668
450.0   0.0   16.666666666666668
400.0   30.0   16.666666666666668
400.0   0.0   33.333333333333336
450.0   0.0   16.666666666666668
450.0   30.0   16.666666666666668
400.0   30.0   16.666666666666668
450.0   30.0   33.333333333333336
400.0   0.0   33.333333333333336
400.0   30.0   33.333333333333336
450.0   30.0   33.333333333333336
400.0   30.0   16.666666666666668
400.0   0.0   33.333333333333336
450.0   30.0   33.333333333333336
450.0   0.0   33.333333333333336
450.0   0.0   16.666666666666668
400.0   0.0   33.333333333333336
450.0   30.0   33.333333333333336
450.0   0.0   16.666666666666668
400.0   30.0   16.666666666666668
400.0   0.0   33.333333333333336
450.0   0.0   33.333333333333336
400.0   30.0   33.333333333333336
400.0   0.0   50.0
450.0   0.0   33.333333333333336
450.0   30.0   33.333333333333336
400.0   30.0   33.333333333333336
450.0   30.0   50.0
400.0   0.0   50.0
400.0   30.0   50.0
450.0   30.0   50.0
400.0   30.0   33.333333333333336
400.0   0.0   50.0
450.0   30.0   50.0
450.0   0.0   50.0
450.0   0.0   33.333333333333336
400.0   0.0   50.0
450.0   30.0   50.0
450.0   0.0   33.333333333333336
400.0   30.0   33.333333333333336
400.0   30.0   0.0
450.0   30.0   0.0
400.0   60.0   0.0
400.0   30.0   16.666666666666668
450.0   30.0   0.0
450.0   60.0   0.0
400.0   60.0   0.0
450.0   60.0   16.666666666666668
400.0   30.0   16.666666666666668
400.0   60.0   16.666666666666668
450.0   60.0   16.666666666666668
400.0   60.0   0.0
400.0   30.0   16.666666666666668
450.0   60.0   16.666666666666668
450.0   30.0   16.666666666666668
450.0   30.0   0.0
400.0   30.0   16.666666666666668
450.0   60.0   16.666666666666668
450.0   30.0   0.0
400.0   60.0   0.0
400.0   30.0   16.666666666666668
450.0   30.0   16.666666666666668
400.0   60.0   16.666666666666668
400.0   30.0   33.333333333333336
450.0   30.0   16.666666666666668
450.0   60.0   16.666666666666668
400.0   60.0   16.666666666666668
450.0   60.0   33.333333333333336
400.0   30.0   33.333333333333336
400.0   60.0   33.333333333333336
450.0   60.0   33.333333333333336
400.0   60.0   16.666666666666668
400.0   30.0   33.333333333333336
450.0   60.0   33.333333333333336
450.0   30.0   33.333333333333336
450.0   30.0   16.666666666666668
400.0   30.0   33.333333333333336
450.0   60.0   33.333333333333336
450.0   30.0   16.666666666666668
400.0   60.0   16.666666666666668
400.0   30.0   33.333333333333336
450.0   30.0   33.333333333333336
400.0   60.0   33.333333333333336
400.0   30.0   50.0
450.0   30.0   33.333333333333336
450.0   60.0   33.333333333333336
400.0   60.0   33.333333333333336
450.0   60.0   50.0
400.0   30.0   50.0
400.0   60.0   50.0
450.0   60.0   50.0
400.0   60.0   33.333333333333336
400.0   30.0   50.0
450.0   60.0   50.0
450.0   30.0   50.0
450.0   30.0   33.333333333333336
400.0   30.0   50.0
450.0   60.0   50.0
450.0   30.0   33.333333333333336
400.0   60.0   33.333333333333336
400.0   60.0   0.0
450.0   60.0   0.0
400.0   90.0   0.0
400.0   60.0   16.666666666666668
450.0   60.0   0.0
450.0   90.0   0.0
400.0   90.0   0.0
450.0   90.0   16.666666666666668
400.0   60.0   16.666666666666668
400.0   90.0   16.666666666666668
450.0   90.0   16.666666666666668
400.0   90.0   0.0
400.0   60.0   16.666666666666668
450.0   90.0   16.666666666666668
450.0   60.0   16.666666666666668
450.0   60.0   0.0
400.0   60.0   16.666666666666668
450.0   90.0   16.666666666666668
450.0   60.0   0.0
400.0   90.0   0.0
400.0   60.0   16.666666666666668
450.0   60.0   16.666666666666668
400.0   90.0   16.666666666666668
400.0   60.0   33.333333333333336
450.0   60.0   16.666666666666668
450.0   90.0   16.666666666666668
400.0   90.0   16.666666666666668
450.0   90.0   33.333333333333336
400.0   60.0   33.333333333333336
400.0   90.0   33.333333333333336
450.0   90.0   33.333333333333336
400.0   90.0   16.666666666666668
400.0   60.0   33.333333333333336
450.0   90.0   33.333333333333336
450.0   60.0   33.333333333333336
450.0   60.0   16.666666666666668
400.0   60.0   33.333333333333336
450.0   90.0   33.333333333333336
450.0   60.0   16.666666666666668
400.0   90.0   16.666666666666668
400.0   60.0   33.333333333333336
450.0   60.0   33.333333333333336
400.0   90.0   33.333333333333336
400.0   60.0   50.0
450.0   60.0   33.333333333333336
450.0   90.0   33.333333333333336
400.0   90.0   33.333333333333336
450.0   90.0   50.0
400.0   60.0   50.0
400.0   90.0   50.0
450.0   90.0   50.0
400.0   90.0   33.333333333333336
400.0   60.0   50.0
450.0   90.0   50.0
450.0   60.0   50.0
450.0   60.0   33.333333333333336
400.0   60.0   50.0
450.0   90.0   50.0
450.0   60.0   33.333333333333336
400.0   90.0   33.333333333333336
400.0   90.0   0.0
450.0   90.0   0.0
400.0   120.0   0.0
400.0   90.0   16.666666666666668
450.0   90.0   0.0
450.0   120.0   0.0
400.0   120.0   0.0
450.0   120.0   16.666666666666668
400.0   90.0   16.666666666666668
400.0   120.0   16.666666666666668
450.0   120.0   16.666666666666668
400.0   120.0   0.0
400.0   90.0   16.666666666666668
450.0   120.0   16.666666666666668
450.0   90.0   16.666666666666668
450.0   90.0   0.0
400.0   90.0   16.666666666666668
450.0   120.0   16.666666666666668
450.0   90.0   0.0
400.0   120.0   0.0
400.0   90.0   16.666666666666668
450.0   90.0   16.666666666666668
400.0   120.0   16.666666666666668
400.0   90.0   33.333333333333336
450.0   90.0   16.666666666666668
450.0   120.0   16.666666666666668
400.0   120.0   16.666666666666668
450.0   120.0   33.333333333333336
400.0   90.0   33.333333333333336
400.0   120.0   33.333333333333336
450.0   120.0   33.333333333333336
400.0   120.0   16.666666666666668
400.0   90.0   33.333333333333336
450.0   120.0   33.333333333333336
450.0   90.0   33.333333333333336
450.0   90.0   16.666666666666668
400.0   90.0   33.333333333333336
450.0   120.0   33.333333333333336
450.0   90.0   16.666666666666668
400.0   120.0   16.666666666666668
400.0   90.0   33.333333333333336
450.0   90.0   33.333333333333336
400.0   120.0   33.333333333333336
400.0   90.0   50.0
450.0   90.0   33.333333333333336
450.0   120.0   33.333333333333336
400.0   120.0   33.333333333333336
450.0   120.0   50.0
400.0   90.0   50.0
400.0   120.0   50.0
450.0   120.0   50.0
400.0   120.0   33.333333333333336
400.0   90.0   50.0
450.0   120.0   50.0
450.0   90.0   50.0
450.0   90.0   33.333333333333336
400.0   90.0   50.0
450.0   120.0   50.0
450.0   90.0   33.333333333333336
400.0   120.0   33.333333333333336
400.0   120.0   0.0
450.0   120.0   0.0
400.0   150.0   0.0
400.0   120.0   16.666666666666668
450.0   120.0   0.0
450.0   150.0   0.0
400.0   150.0   0.0
450.0   150.0   16.666666666666668
400.0   120.0   16.666666666666668
400.0   150.0   16.666666666666668
450.0   150.0   16.666666666666668
400.0   150.0   0.0
400.0   120.0   16.666666666666668
450.0   150.0   16.666666666666668
450.0   120.0   16.666666666666668
450.0   120.0   0.0
400.0   120.0   16.666666666666668
450.0   150.0   16.666666666666668
450.0   120.0   0.0
400.0   150.0   0.0
400.0   120.0   16.666666666666668
450.0   120.0   16.666666666666668
400.0   150.0   16.666666666666668
400.0   120.0   33.333333333333336
450.0   120.0   16.666666666666668
450.0   150.0   16.666666666666668
400.0   150.0   16.666666666666668
450.0   150.0   33.333333333333336
400.0   120.0   33.333333333333336
400.0   150.0   33.333333333333336
450.0   150.0   33.333333333333336
400.0   150.0   16.666666666666668
400.0   120.0   33.333333333333336
450.0   150.0   33.333333333333336
450.0   120.0   33.333333333333336
450.0   120.0   16.666666666666668
400.0   120.0   33.333333333333336
450.0   150.0   33.333333333333336
450.0   120.0   16.666666666666668
400.0   150.0   16.666666666666668
400.0   120.0   33.333333333333336
450.0   120.0   33.333333333333336
400.0   150.0   33.333333333333336
400.0   120.0   50.0
450.0   120.0   33.333333333333336
450.0   150.0   33.333333333333336
400.0   150.0   33.333333333333336
450.0   150.0   50.0
400.0   120.0   50.0
400.0   150.0   50.0
450.0   150.0   50.0
400.0   150.0   33.333333333333336
400.0   120.0   50.0
450.0   150.0   50.0
450.0   120.0   50.0
450.0   120.0   33.333333333333336
400.0   120.0   50.0
450.0   150.0   50.0
450.0   120.0   33.333333333333336
400.0   150.0   33.333333333333336
450.0   0.0   0.0
500.0   0.0   0.0
450.0   30.0   0.0
450.0   0.0   16.666666666666668
500.0   0.0   0.0
500.0   30.0   0.0
450.0   30.0   0.0
500.0   30.0   16.666666666666668
450.0   0.0   16.666666666666668
450.0   30.0   16.666666666666668
500.0   30.0   16.666666666666668
450.0   30.0   0.0
450.0   0.0   16.666666666666668
500.0   30.0   16.666666666666668
500.0   0.0   16.666666666666668
500.0   0.0   0.0
450.0   0.0   16.666666666666668
500.0   30.0   16.666666666666668
500.0   0.0   0.0
450.0   30.0   0.0
450.0   0.0   16.666666666666668
500.0   0.0   16.666666666666668
450.0   30.0   16.666666666666668
450.0   0.0   33.333333333333336
500.0   0.0   16.666666666666668
500.0   30.0   16.666666666666668
450.0   30.0   16.666666666666668
500.0   30.0   33.333333333333336
450.0   0.0   33.333333333333336
450.0   30.0   33.333333333333336
500.0   30.0   33.333333333333336
450.0   30.0   16.666666666666668
450.0   0.0   33.333333333333336
500.0   30.0   33.333333333333336
500.0   0.0   33.333333333333336
500.0   0.0   16.666666666666668
450.0   0.0   33.333333333333336
500.0   30.0   33.333333333333336
500.0   0.0   16.666666666666668
450.0   30.0   16.666666666666668
450.0   0.0   33.333333333333336
500.0   0.0   33.333333333333336
450.0   30.0   33.333333333333336
450.0   0.0   50.0
500.0   0.0   33.333333333333336
500.0   30.0   33.333333333333336
450.0   30.0   33.333333333333336
500.0   30.0   50.0
450.0   0.0   50.0
450.0   30.0   50.0
500.0   30.0   50.0
450.0   30.0   33.333333333333336
450.0   0.0   50.0
500.0   30.0   50.0
500.0   0.0   50.0
500.0   0.0   33.333333333333336
450.0   0.0   50.0
500.0   30.0   50.0
500.0   0.0   33.333333333333336
450.0   30.0   33.333333333333336
450.0   30.0   0.0
500.0   30.0   0.0
450.0   60.0   0.0
450.0   30.0   16.666666666666668
500.0   30.0   0.0
500.0   60.0   0.0
450.0   60.0   0.0
500.0   60.0   16.666666666666668
450.0   30.0   16.666666666666668
450.0   60.0   16.666666666666668
500.0   60.0   16.666666666666668
450.0   60.0   0.0
450.0   30.0   16.666666666666668
500.0   60.0   16.666666666666668
500.0   30.0   16.666666666666668
500.0   30.0   0.0
450.0   30.0   16.666666666666668
500.0   60.0   16.666666666666668
500.0   30.0   0.0
450.0   60.0   0.0
450.0   30.0   16.666666666666668
500.0   30.0   16.666666666666668
450.0   60.0   16.666666666666668
450.0   30.0   33.333333333333336
500.0   30.0   16.666666666666668
500.0   60.0   16.666666666666668
450.0   60.0   16.666666666666668
500.0   60.0   33.333333333333336
450.0   30.0   33.333333333333336
450.0   60.0   33.333333333333336
500.0   60.0   33.333333333333336
450.0   60.0   16.666666666666668
450.0   30.0   33.333333333333336
500.0   60.0   33.333333333333336
500.0   30.0   33.333333333333336
500.0   30.0   16.666666666666668
450.0   30.0   33.333333333333336
500.0   60.0   33.333333333333336
500.0   30.0   16.666666666666668
450.0   60.0   16.666666666666668
450.0   30.0   33.333333333333336
500.0   30.0   33.333333333333336
450.0   60.0   33.333333333333336
450.0   30.0   50.0
500.0   30.0   33.333333333333336
500.0   60.0   33.333333333333336
450.0   60.0   33.333333333333336
500.0   60.0   50.0
450.0   30.0   50.0
450.0   60.0   50.0
500.0   60.0   50.0
450.0   60.0   33.333333333333336
450.0   30.0   50.0
500.0   60.0   50.0
500.0   30.0   50.0
500.0   30.0   33.333333333333336
450.0   30.0   50.0
500.0   60.0   50.0
500.0   30.0   33.333333333333336
450.0   60.0   33.333333333333336
450.0   60.0   0.0
500.0   60.0   0.0
450.0   90.0   0.0
450.0   60.0   16.666666666666668
500.0   60.0   0.0
500.0   90.0   0.0
450.0   90.0   0.0
500.0   90.0   16.666666666666668
450.0   60.0   16.666666666666668
450.0   90.0   16.666666666666668
500.0   90.0   16.666666666666668
450.0   90.0   0.0
450.0   60.0   16.666666666666668
500.0   90.0   16.666666666666668
500.0   60.0   16.666666666666668
500.0   60.0   0.0
450.0   60.0   16.666666666666668
500.0   90.0   16.666666666666668
500.0   60.0   0.0
450.0   90.0   0.0
450.0   60.0   16.666666666666668
500.0   60.0   16.666666666666668
450.0   90.0   16.666666666666668
450.0   60.0   33.333333333333336
500.0   60.0   16.666666666666668
500.0   90.0   16.666666666666668
450.0   90.0   16.666666666666668
500.0   90.0   33.333333333333336
450.0   60.0   33.333333333333336
450.0   90.0   33.333333333333336
500.0   90.0   33.333333333333336
450.0   90.0   16.666666666666668
450.0   60.0   33.333333333333336
500.0   90.0   33.333333333333336
500.0   60.0   33.333333333333336
500.0   60.0   16.666666666666668
450.0   60.0   33.333333333333336
500.0   90.0   33.333333333333336
500.0   60.0   16.666666666666668
450.0   90.0   16.666666666666668
450.0   60.0   33.333333333333336
500.0   60.0   33.333333333333336
450.0   90.0   33.333333333333336
450.0   60.0   50.0
500.0   60.0   33.333333333333336
500.0   90.0   33.333333333333336
450.0   90.0   33.333333333333336
500.0   90.0   50.0
450.0   60.0   50.0
450.0   90.0   50.0
500.0   90.0   50.0
450.0   90.0   33.333333333333336
450.0   60.0   50.0
500.0   90.0   50.0
500.0   60.0   50.0
500.0   60.0   33.333333333333336
450.0   60.0   50.0
500.0   90.0   50.0
500.0   60.0   33.333333333333336
450.0   90.0   33.333333333333336
450.0   90.0   0.0
500.0   90.0   0.0
450.0   120.0   0.0
450.0   90.0   16.666666666666668
500.0   90.0   0.0
500.0   120.0   0.0
450.0   120.0   0.0
500.0   120.0   16.666666666666668
450.0   90.0   16.666666666666668
450.0   120.0   16.666666666666668
500.0   120.0   16.666666666666668
450.0   120.0   0.0
450.0   90.0   16.666666666666668
500.0   120.0   16.666666666666668
500.0   90.0   16.666666666666668
500.0   90.0   0.0
450.0   90.0   16.666666666666668
500.0   120.0   16.666666666666668
500.0   90.0   0.0
450.0   120.0   0.0
450.0   90.0   16.666666666666668
500.0   90.0   16.666666666666668
450.0   120.0   16.666666666666668
450.0   90.0   33.333333333333336
500.0   90.0   16.666666666666668
500.0   120.0   16.666666666666668
450.0   120.0   16.666666666666668
500.0   120.0   33.333333333333336
450.0   90.0   33.333333333333336
450.0   120.0   33.333333333333336
500.0   120.0   33.333333333333336
450.0   120.0   16.666666666666668
450.0   90.0   33.333333333333336
500.0   120.0   33.333333333333336
500.0   90.0   33.333333333333336
500.0   90.0   16.666666666666668
450.0   90.0   33.333333333333336
500.0   120.0   33.333333333333336
500.0   90.0   16.666666666666668
450.0   120.0   16.666666666666668
450.0   90.0   33.333333333333336
500.0   90.0   33.333333333333336
450.0   120.0   33.333333333333336
450.0   90.0   50.0
500.0   90.0   33.333333333333336
500.0   120.0   33.333333333333336
450.0   120.0   33.333333333333336
500.0   120.0   50.0
450.0   90.0   50.0
450.0   120.0   50.0
500.0   120.0   50.0
450.0   120.0   33.333333333333336
450.0   90.0   50.0
500.0   120.0   50.0
500.0   90.0   50.0
500.0   90.0   33.333333333333336
450.0   90.0   50.0
500.0   120.0   50.0
500.0   90.0   33.333333333333336
450.0   120.0   33.333333333333336
450.0   120.0   0.0
500.0   120.0   0.0
450.0   150.0   0.0
450.0   120.0   16.666666666666668
500.0   120.0   0.0
500.0   150.0   0.0
450.0   150.0   0.0
500.0   150.0   16.666666666666668
450.0   120.0   16.666666666666668
450.0   150.0   16.666666666666668
500.0   150.0   16.666666666666668
450.0   150.0   0.0
450.0   120.0   16.666666666666668
500.0   150.0   16.666666666666668
500.0   120.0   16.666666666666668
500.0   120.0   0.0
450.0   120.0   16.666666666666668
500.0   150.0   16.666666666666668
500.0   120.0   0.0
450.0   150.0   0.0
450.0   120.0   16.666666666666668
500.0   120.0   16.666666666666668
450.0   150.0   16.666666666666668
450.0   120.0   33.333333333333336
500.0   120.0   16.666666666666668
500.0   150.0   16.666666666666668
450.0   150.0   16.666666666666668
500.0   150.0   33.333333333333336
450.0   120.0   33.333333333333336
450.0   150.0   33.333333333333336
500.0   150.0   33.333333333333336
450.0   150.0   16.666666666666668
450.0   120.0   33.333333333333336
500.0   150.0   33.333333333333336
500.0   120.0   33.333333333333336
500.0   120.0   16.666666666666668
450.0   120.0   33.333333333333336
500.0   150.0   33.333333333333336
500.0   120.0   16.666666666666668
450.0   150.0   16.666666666666668
450.0   120.0   33.333333333333336
500.0   120.0   33.333333333333336
450.0   150.0   33.333333333333336
450.0   120.0   50.0
500.0   120.0   33.333333333333336
500.0   150.0   33.333333333333336
450.0   150.0   33.333333333333336
500.0   150.0   50.0
450.0   120.0   50.0
450.0   150.0   50.0
500.0   150.0   50.0
450.0   150.0   33.333333333333336
450.0   120.0   50.0
500.0   150.0   50.0
500.0   120.0   50.0
500.0   120.0   33.333333333333336
450.0   120.0   50.0
500.0   150.0   50.0
500.0   120.0   33.333333333333336
450.0   150.0   33.333333333333336
             </DataArray>   
          </Points>  
          <Cells>  
             <DataArray type="Int32" Name="connectivity" format="ascii">   
0   1   2   3
4   5   6   7
8   9   10   11
12   13   14   15
16   17   18   19
20   21   22   23
24   25   26   27
28   29   30   31
32   33   34   35
36   37   38   39
40   41   42   43
44   45   46   47
48   49   50   51
52   53   54   55
56   57   58   59
60   61   62   63
64   65   66   67
68   69   70   71
72   73   74   75
76   77   78   79
80   81   82   83
84   85   86   87
88   89   90   91
92   93   94   95
96   97   98   99
100   101   102   103
104   105   106   107
108   109   110   111
112   113   114   115
116   117   118   119
120   121   122   123
124   125   126   127
128   129   130   131
132   133   134   135
136   137   138   139
140   141   142   143
144   145   146   147
148   149   150   151
152   153   154   155
156   157   158   159
160   161   162   163
164   165   166   167
168   169   170   171
172   173   174   175
176   177   178   179
180   181   182   183
184   185   186   187
188   189   190   191
192   193   194   195
196   197   198   199
200   201   202   203
204   205   206   207
208   209   210   211
212   213   214   215
216   217   218   219
220   221   222   223
224   225   226   227
228   229   230   231
232   233   234   235
236   237   238   239
240   241   242   243
244   245   246   247
248   249   250   251
252   253   254   255
256   257   258   259
260   261   262   263
264   265   266   267
268   269   270   271
272   273   274   275
276   277   278   279
280   281   282   283
284   285   286   287
288   289   290   291
292   293   294   295
296   297   298   299
300   301   302   303
304   305   306   307
308   309   310   311
312   313   314   315
316   317   318   319
320   321   322   323
324   325   326   327
328   329   330   331
332   333   334   335
336   337   338   339
340   341   342   343
344   345   346   347
348   349   350   351
352   353   354   355
356   357   358   359
360   361   362   363
364   365   366   367
368   369   370   371
372   373   374   375
376   377   378   379
380   381   382   383
384   385   386   387
388   389   390   391
392   393   394   395
396   397   398   399
400   401   402   403
404   405   406   407
408   409   410   411
412   413   414   415
416   417   418   419
420   421   422   423
424   425   426   427
428   429   430   431
432   433   434   435
436   437   438   439
440   441   442   443
444   445   446   447
448   449   450   451
452   453   454   455
456   457   458   459
460   461   462   463
464   465   466   467
468   469   470   471
472   473   474   475
476   477   478   479
480   481   482   483
484   485   486   487
488   489   490   491
492   493   494   495
496   497   498   499
500   501   502   503
504   505   506   507
508   509   510   511
512   513   514   515
516   517   518   519
520   521   522   523
524   525   526   527
528   529   530   531
532   533   534   535
536   537   538   539
540   541   542   543
544   545   546   547
548   549   550   551
552   553   554   555
556   557   558   559
560   561   562   563
564   565   566   567
568   569   570   571
572   573   574   575
576   577   578   579
580   581   582   583
584   585   586   587
588   589   590   591
592   593   594   595
596   597   598   599
600   601   602   603
604   605   606   607
608   609   610   611
612   613   614   615
616   617   618   619
620   621   622   623
624   625   626   627
628   629   630   631
632   633   634   635
636   637   638   639
640   641   642   643
644   645   646   647
648   649   650   651
652   653   654   655
656   657   658   659
660   661   662   663
664   665   666   667
668   669   670   671
672   673   674   675
676   677   678   679
680   681   682   683
684   685   686   687
688   689   690   691
692   693   694   695
696   697   698   699
700   701   702   703
704   705   706   707
708   709   710   711
712   713   714   715
716   717   718   719
720   721   722   723
724   725   726   727
728   729   730   731
732   733   734   735
736   737   738   739
740   741   742   743
744   745   746   747
748   749   750   751
752   753   754   755
756   757   758   759
760   761   762   763
764   765   766   767
768   769   770   771
772   773   774   775
776   777   778   779
780   781   782   783
784   785   786   787
788   789   790   791
792   793   794   795
796   797   798   799
800   801   802   803
804   805   806   807
808   809   810   811
812   813   814   815
816   817   818   819
820   821   822   823
824   825   826   827
828   829   830   831
832   833   834   835
836   837   838   839
840   841   842   843
844   845   846   847
848   849   850   851
852   853   854   855
856   857   858   859
860   861   862   863
864   865   866   867
868   869   870   871
872   873   874   875
876   877   878   879
880   881   882   883
884   885   886   887
888   889   890   891
892   893   894   895
896   897   898   899
900   901   902   903
904   905   906   907
908   909   910   911
912   913   914   915
916   917   918   919
920   921   922   923
924   925   926   927
928   929   930   931
932   933   934   935
936   937   938   939
940   941   942   943
944   945   946   947
948   949   950   951
952   953   954   955
956   957   958   959
960   961   962   963
964   965   966   967
968   969   970   971
972   973   974   975
976   977   978   979
980   981   982   983
984   985   986   987
988   989   990   991
992   993   994   995
996   997   998   999
1000   1001   1002   1003
1004   1005   1006   1007
1008   1009   1010   1011
1012   1013   1014   1015
1016   1017   1018   1019
1020   1021   1022   1023
1024   1025   1026   1027
1028   1029   1030   1031
1032   1033   1034   1035
1036   1037   1038   1039
1040   1041   1042   1043
1044   1045   1046   1047
1048   1049   1050   1051
1052   1053   1054   1055
1056   1057   1058   1059
1060   1061   1062   1063
1064   1065   1066   1067
1068   1069   1070   1071
1072   1073   1074   1075
1076   1077   1078   1079
1080   1081   1082   1083
1084   1085   1086   1087
1088   1089   1090   1091
1092   1093   1094   1095
1096   1097   1098   1099
1100   1101   1102   1103
1104   1105   1106   1107
1108   1109   1110   1111
1112   1113   1114   1115
1116   1117   1118   1119
1120   1121   1122   1123
1124   1125   1126   1127
1128   1129   1130   1131
1132   1133   1134   1135
1136   1137   1138   1139
1140   1141   1142   1143
1144   1145   1146   1147
1148   1149   1150   1151
1152   1153   1154   1155
1156   1157   1158   1159
1160   1161   1162   1163
1164   1165   1166   1167
1168   1169   1170   1171
1172   1173   1174   1175
1176   1177   1178   1179
1180   1181   1182   1183
1184   1185   1186   1187
1188   1189   1190   1191
1192   1193   1194   1195
1196   1197   1198   1199
1200   1201   1202   1203
1204   1205   1206   1207
1208   1209   1210   1211
1212   1213   1214   1215
1216   1217   1218   1219
1220   1221   1222   1223
1224   1225   1226   1227
1228   1229   1230   1231
1232   1233   1234   1235
1236   1237   1238   1239
1240   1241   1242   1243
1244   1245   1246   1247
1248   1249   1250   1251
1252   1253   1254   1255
1256   1257   1258   1259
1260   1261   1262   1263
1264   1265   1266   1267
1268   1269   1270   1271
1272   1273   1274   1275
1276   1277   1278   1279
1280   1281   1282   1283
1284   1285   1286   1287
1288   1289   1290   1291
1292   1293   1294   1295
1296   1297   1298   1299
1300   1301   1302   1303
1304   1305   1306   1307
1308   1309   1310   1311
1312   1313   1314   1315
1316   1317   1318   1319
1320   1321   1322   1323
1324   1325   1326   1327
1328   1329   1330   1331
1332   1333   1334   1335
1336   1337   1338   1339
1340   1341   1342   1343
1344   1345   1346   1347
1348   1349   1350   1351
1352   1353   1354   1355
1356   1357   1358   1359
1360   1361   1362   1363
1364   1365   1366   1367
1368   1369   1370   1371
1372   1373   1374   1375
1376   1377   1378   1379
1380   1381   1382   1383
1384   1385   1386   1387
1388   1389   1390   1391
1392   1393   1394   1395
1396   1397   1398   1399
1400   1401   1402   1403
1404   1405   1406   1407
1408   1409   1410   1411
1412   1413   1414   1415
1416   1417   1418   1419
1420   1421   1422   1423
1424   1425   1426   1427
1428   1429   1430   1431
1432   1433   1434   1435
1436   1437   1438   1439
1440   1441   1442   1443
1444   1445   1446   1447
1448   1449   1450   1451
1452   1453   1454   1455
1456   1457   1458   1459
1460   1461   1462   1463
1464   1465   1466   1467
1468   1469   1470   1471
1472   1473   1474   1475
1476   1477   1478   1479
1480   1481   1482   1483
1484   1485   1486   1487
1488   1489   1490   1491
1492   1493   1494   1495
1496   1497   1498   1499
1500   1501   1502   1503
1504   1505   1506   1507
1508   1509   1510   1511
1512   1513   1514   1515
1516   1517   1518   1519
1520   1521   1522   1523
1524   1525   1526   1527
1528   1529   1530   1531
1532   1533   1534   1535
1536   1537   1538   1539
1540   1541   1542   1543
1544   1545   1546   1547
1548   1549   1550   1551
1552   1553   1554   1555
1556   1557   1558   1559
1560   1561   1562   1563
1564   1565   1566   1567
1568   1569   1570   1571
1572   1573   1574   1575
1576   1577   1578   1579
1580   1581   1582   1583
1584   1585   1586   1587
1588   1589   1590   1591
1592   1593   1594   1595
1596   1597   1598   1599
1600   1601   1602   1603
1604   1605   1606   1607
1608   1609   1610   1611
1612   1613   1614   1615
1616   1617   1618   1619
1620   1621   1622   1623
1624   1625   1626   1627
1628   1629   1630   1631
1632   1633   1634   1635
1636   1637   1638   1639
1640   1641   1642   1643
1644   1645   1646   1647
1648   1649   1650   1651
1652   1653   1654   1655
1656   1657   1658   1659
1660   1661   1662   1663
1664   1665   1666   1667
1668   1669   1670   1671
1672   1673   1674   1675
1676   1677   1678   1679
1680   1681   1682   1683
1684   1685   1686   1687
1688   1689   1690   1691
1692   1693   1694   1695
1696   1697   1698   1699
1700   1701   1702   1703
1704   1705   1706   1707
1708   1709   1710   1711
1712   1713   1714   1715
1716   1717   1718   1719
1720   1721   1722   1723
1724   1725   1726   1727
1728   1729   1730   1731
1732   1733   1734   1735
1736   1737   1738   1739
1740   1741   1742   1743
1744   1745   1746   1747
1748   1749   1750   1751
1752   1753   1754   1755
1756   1757   1758   1759
1760   1761   1762   1763
1764   1765   1766   1767
1768   1769   1770   1771
1772   1773   1774   1775
1776   1777   1778   1779
1780   1781   1782   1783
1784   1785   1786   1787
1788   1789   1790   1791
1792   1793   1794   1795
1796   1797   1798   1799
1800   1801   1802   1803
1804   1805   1806   1807
1808   1809   1810   1811
1812   1813   1814   1815
1816   1817   1818   1819
1820   1821   1822   1823
1824   1825   1826   1827
1828   1829   1830   1831
1832   1833   1834   1835
1836   1837   1838   1839
1840   1841   1842   1843
1844   1845   1846   1847
1848   1849   1850   1851
1852   1853   1854   1855
1856   1857   1858   1859
1860   1861   1862   1863
1864   1865   1866   1867
1868   1869   1870   1871
1872   1873   1874   1875
1876   1877   1878   1879
1880   1881   1882   1883
1884   1885   1886   1887
1888   1889   1890   1891
1892   1893   1894   1895
1896   1897   1898   1899
1900   1901   1902   1903
1904   1905   1906   1907
1908   1909   1910   1911
1912   1913   1914   1915
1916   1917   1918   1919
1920   1921   1922   1923
1924   1925   1926   1927
1928   1929   1930   1931
1932   1933   1934   1935
1936   1937   1938   1939
1940   1941   1942   1943
1944   1945   1946   1947
1948   1949   1950   1951
1952   1953   1954   1955
1956   1957   1958   1959
1960   1961   1962   1963
1964   1965   1966   1967
1968   1969   1970   1971
1972   1973   1974   1975
1976   1977   1978   1979
1980   1981   1982   1983
1984   1985   1986   1987
1988   1989   1990   1991
1992   1993   1994   1995
1996   1997   1998   1999
2000   2001   2002   2003
2004   2005   2006   2007
2008   2009   2010   2011
2012   2013   2014   2015
2016   2017   2018   2019
2020   2021   2022   2023
2024   2025   2026   2027
2028   2029   2030   2031
2032   2033   2034   2035
2036   2037   2038   2039
2040   2041   2042   2043
2044   2045   2046   2047
2048   2049   2050   2051
2052   2053   2054   2055
2056   2057   2058   2059
2060   2061   2062   2063
2064   2065   2066   2067
2068   2069   2070   2071
2072   2073   2074   2075
2076   2077   2078   2079
2080   2081   2082   2083
2084   2085   2086   2087
2088   2089   2090   2091
2092   2093   2094   2095
2096   2097   2098   2099
2100   2101   2102   2103
2104   2105   2106   2107
2108   2109   2110   2111
2112   2113   2114   2115
2116   2117   2118   2119
2120   2121   2122   2123
2124   2125   2126   2127
2128   2129   2130   2131
2132   2133   2134   2135
2136   2137   2138   2139
2140   2141   2142   2143
2144   2145   2146   2147
2148   2149   2150   2151
2152   2153   2154   2155
2156   2157   2158   2159
2160   2161   2162   2163
2164   2165   2166   2167
2168   2169   2170   2171
2172   2173   2174   2175
2176   2177   2178   2179
2180   2181   2182   2183
2184   2185   2186   2187
2188   2189   2190   2191
2192   2193   2194   2195
2196   2197   2198   2199
2200   2201   2202   2203
2204   2205   2206   2207
2208   2209   2210   2211
2212   2213   2214   2215
2216   2217   2218   2219
2220   2221   2222   2223
2224   2225   2226   2227
2228   2229   2230   2231
2232   2233   2234   2235
2236   2237   2238   2239
2240   2241   2242   2243
2244   2245   2246   2247
2248   2249   2250   2251
2252   2253   2254   2255
2256   2257   2258   2259
2260   2261   2262   2263
2264   2265   2266   2267
2268   2269   2270   2271
2272   2273   2274   2275
2276   2277   2278   2279
2280   2281   2282   2283
2284   2285   2286   2287
2288   2289   2290   2291
2292   2293   2294   2295
2296   2297   2298   2299
2300   2301   2302   2303
2304   2305   2306   2307
2308   2309   2310   2311
2312   2313   2314   2315
2316   2317   2318   2319
2320   2321   2322   2323
2324   2325   2326   2327
2328   2329   2330   2331
2332   2333   2334   2335
2336   2337   2338   2339
2340   2341   2342   2343
2344   2345   2346   2347
2348   2349   2350   2351
2352   2353   2354   2355
2356   2357   2358   2359
2360   2361   2362   2363
2364   2365   2366   2367
2368   2369   2370   2371
2372   2373   2374   2375
2376   2377   2378   2379
2380   2381   2382   2383
2384   2385   2386   2387
2388   2389   2390   2391
2392   2393   2394   2395
2396   2397   2398   2399
2400   2401   2402   2403
2404   2405   2406   2407
2408   2409   2410   2411
2412   2413   2414   2415
2416   2417   2418   2419
2420   2421   2422   2423
2424   2425   2426   2427
2428   2429   2430   2431
2432   2433   2434   2435
2436   2437   2438   2439
2440   2441   2442   2443
2444   2445   2446   2447
2448   2449   2450   2451
2452   2453   2454   2455
2456   2457   2458   2459
2460   2461   2462   2463
2464   2465   2466   2467
2468   2469   2470   2471
2472   2473   2474   2475
2476   2477   2478   2479
2480   2481   2482   2483
2484   2485   2486   2487
2488   2489   2490   2491
2492   2493   2494   2495
2496   2497   2498   2499
2500   2501   2502   2503
2504   2505   2506   2507
2508   2509   2510   2511
2512   2513   2514   2515
2516   2517   2518   2519
2520   2521   2522   2523
2524   2525   2526   2527
2528   2529   2530   2531
2532   2533   2534   2535
2536   2537   2538   2539
2540   2541   2542   2543
2544   2545   2546   2547
2548   2549   2550   2551
2552   2553   2554   2555
2556   2557   2558   2559
2560   2561   2562   2563
2564   2565   2566   2567
2568   2569   2570   2571
2572   2573   2574   2575
2576   2577   2578   2579
2580   2581   2582   2583
2584   2585   2586   2587
2588   2589   2590   2591
2592   2593   2594   2595
2596   2597   2598   2599
2600   2601   2602   2603
2604   2605   2606   2607
2608   2609   2610   2611
2612   2613   2614   2615
2616   2617   2618   2619
2620   2621   2622   2623
2624   2625   2626   2627
2628   2629   2630   2631
2632   2633   2634   2635
2636   2637   2638   2639
2640   2641   2642   2643
2644   2645   2646   2647
2648   2649   2650   2651
2652   2653   2654   2655
2656   2657   2658   2659
2660   2661   2662   2663
2664   2665   2666   2667
2668   2669   2670   2671
2672   2673   2674   2675
2676   2677   2678   2679
2680   2681   2682   2683
2684   2685   2686   2687
2688   2689   2690   2691
2692   2693   2694   2695
2696   2697   2698   2699
2700   2701   2702   2703
2704   2705   2706   2707
2708   2709   2710   2711
2712   2713   2714   2715
2716   2717   2718   2719
2720   2721   2722   2723
2724   2725   2726   2727
2728   2729   2730   2731
2732   2733   2734   2735
2736   2737   2738   2739
2740   2741   2742   2743
2744   2745   2746   2747
2748   2749   2750   2751
2752   2753   2754   2755
2756   2757   2758   2759
2760   2761   2762   2763
2764   2765   2766   2767
2768   2769   2770   2771
2772   2773   2774   2775
2776   2777   2778   2779
2780   2781   2782   2783
2784   2785   2786   2787
2788   2789   2790   2791
2792   2793   2794   2795
2796   2797   2798   2799
2800   2801   2802   2803
2804   2805   2806   2807
2808   2809   2810   2811
2812   2813   2814   2815
2816   2817   2818   2819
2820   2821   2822   2823
2824   2825   2826   2827
2828   2829   2830   2831
2832   2833   2834   2835
2836   2837   2838   2839
2840   2841   2842   2843
2844   2845   2846   2847
2848   2849   2850   2851
2852   2853   2854   2855
2856   2857   2858   2859
2860   2861   2862   2863
2864   2865   2866   2867
2868   2869   2870   2871
2872   2873   2874   2875
2876   2877   2878   2879
2880   2881   2882   2883
2884   2885   2886   2887
2888   2889   2890   2891
2892   2893   2894   2895
2896   2897   2898   2899
2900   2901   2902   2903
2904   2905   2906   2907
2908   2909   2910   2911
2912   2913   2914   2915
2916   2917   2918   2919
2920   2921   2922   2923
2924   2925   2926   2927
2928   2929   2930   2931
2932   2933   2934   2935
2936   2937   2938   2939
2940   2941   2942   2943
2944   2945   2946   2947
2948   2949   2950   2951
2952   2953   2954   2955
2956   2957   2958   2959
2960   2961   2962   2963
2964   2965   2966   2967
2968   2969   2970   2971
2972   2973   2974   2975
2976   2977   2978   2979
2980   2981   2982   2983
2984   2985   2986   2987
2988   2989   2990   2991
2992   2993   2994   2995
2996   2997   2998   2999
3000   3001   3002   3003
3004   3005   3006   3007
3008   3009   3010   3011
3012   3013   3014   3015
3016   3017   3018   3019
3020   3021   3022   3023
3024   3025   3026   3027
3028   3029   3030   3031
3032   3033   3034   3035
3036   3037   3038   3039
3040   3041   3042   3043
3044   3045   3046   3047
3048   3049   3050   3051
3052   3053   3054   3055
3056   3057   3058   3059
3060   3061   3062   3063
3064   3065   3066   3067
3068   3069   3070   3071
3072   3073   3074   3075
3076   3077   3078   3079
3080   3081   3082   3083
3084   3085   3086   3087
3088   3089   3090   3091
3092   3093   3094   3095
3096   3097   3098   3099
3100   3101   3102   3103
3104   3105   3106   3107
3108   3109   3110   3111
3112   3113   3114   3115
3116   3117   3118   3119
3120   3121   3122   3123
3124   3125   3126   3127
3128   3129   3130   3131
3132   3133   3134   3135
3136   3137   3138   3139
3140   3141   3142   3143
3144   3145   3146   3147
3148   3149   3150   3151
3152   3153   3154   3155
3156   3157   3158   3159
3160   3161   3162   3163
3164   3165   3166   3167
3168   3169   3170   3171
3172   3173   3174   3175
3176   3177   3178   3179
3180   3181   3182   3183
3184   3185   3186   3187
3188   3189   3190   3191
3192   3193   3194   3195
3196   3197   3198   3199
3200   3201   3202   3203
3204   3205   3206   3207
3208   3209   3210   3211
3212   3213   3214   3215
3216   3217   3218   3219
3220   3221   3222   3223
3224   3225   3226   3227
3228   3229   3230   3231
3232   3233   3234   3235
3236   3237   3238   3239
3240   3241   3242   3243
3244   3245   3246   3247
3248   3249   3250   3251
3252   3253   3254   3255
3256   3257   3258   3259
3260   3261   3262   3263
3264   3265   3266   3267
3268   3269   3270   3271
3272   3273   3274   3275
3276   3277   3278   3279
3280   3281   3282   3283
3284   3285   3286   3287
3288   3289   3290   3291
3292   3293   3294   3295
3296   3297   3298   3299
3300   3301   3302   3303
3304   3305   3306   3307
3308   3309   3310   3311
3312   3313   3314   3315
3316   3317   3318   3319
3320   3321   3322   3323
3324   3325   3326   3327
3328   3329   3330   3331
3332   3333   3334   3335
3336   3337   3338   3339
3340   3341   3342   3343
3344   3345   3346   3347
3348   3349   3350   3351
3352   3353   3354   3355
3356   3357   3358   3359
3360   3361   3362   3363
3364   3365   3366   3367
3368   3369   3370   3371
3372   3373   3374   3375
3376   3377   3378   3379
3380   3381   3382   3383
3384   3385   3386   3387
3388   3389   3390   3391
3392   3393   3394   3395
3396   3397   3398   3399
3400   3401   3402   3403
3404   3405   3406   3407
3408   3409   3410   3411
3412   3413   3414   3415
3416   3417   3418   3419
3420   3421   3422   3423
3424   3425   3426   3427
3428   3429   3430   3431
3432   3433   3434   3435
3436   3437   3438   3439
3440   3441   3442   3443
3444   3445   3446   3447
3448   3449   3450   3451
3452   3453   3454   3455
3456   3457   3458   3459
3460   3461   3462   3463
3464   3465   3466   3467
3468   3469   3470   3471
3472   3473   3474   3475
3476   3477   3478   3479
3480   3481   3482   3483
3484   3485   3486   3487
3488   3489   3490   3491
3492   3493   3494   3495
3496   3497   3498   3499
3500   3501   3502   3503
3504   3505   3506   3507
3508   3509   3510   3511
3512   3513   3514   3515
3516   3517   3518   3519
3520   3521   3522   3523
3524   3525   3526   3527
3528   3529   3530   3531
3532   3533   3534   3535
3536   3537   3538   3539
3540   3541   3542   3543
3544   3545   3546   3547
3548   3549   3550   3551
3552   3553   3554   3555
3556   3557   3558   3559
3560   3561   3562   3563
3564   3565   3566   3567
3568   3569   3570   3571
3572   3573   3574   3575
3576   3577   3578   3579
3580   3581   3582   3583
3584   3585   3586   3587
3588   3589   3590   3591
3592   3593   3594   3595
3596   3597   3598   3599
3600   3601   3602   3603
3604   3605   3606   3607
3608   3609   3610   3611
3612   3613   3614   3615
3616   3617   3618   3619
3620   3621   3622   3623
3624   3625   3626   3627
3628   3629   3630   3631
3632   3633   3634   3635
3636   3637   3638   3639
3640   3641   3642   3643
3644   3645   3646   3647
3648   3649   3650   3651
3652   3653   3654   3655
3656   3657   3658   3659
3660   3661   3662   3663
3664   3665   3666   3667
3668   3669   3670   3671
3672   3673   3674   3675
3676   3677   3678   3679
3680   3681   3682   3683
3684   3685   3686   3687
3688   3689   3690   3691
3692   3693   3694   3695
3696   3697   3698   3699
3700   3701   3702   3703
3704   3705   3706   3707
3708   3709   3710   3711
3712   3713   3714   3715
3716   3717   3718   3719
3720   3721   3722   3723
3724   3725   3726   3727
3728   3729   3730   3731
3732   3733   3734   3735
3736   3737   3738   3739
3740   3741   3742   3743
3744   3745   3746   3747
3748   3749   3750   3751
3752   3753   3754   3755
3756   3757   3758   3759
3760   3761   3762   3763
3764   3765   3766   3767
3768   3769   3770   3771
3772   3773   3774   3775
3776   3777   3778   3779
3780   3781   3782   3783
3784   3785   3786   3787
3788   3789   3790   3791
3792   3793   3794   3795
3796   3797   3798   3799
3800   3801   3802   3803
3804   3805   3806   3807
3808   3809   3810   3811
3812   3813   3814   3815
3816   3817   3818   3819
3820   3821   3822   3823
3824   3825   3826   3827
3828   3829   3830   3831
3832   3833   3834   3835
3836   3837   3838   3839
3840   3841   3842   3843
3844   3845   3846   3847
3848   3849   3850   3851
3852   3853   3854   3855
3856   3857   3858   3859
3860   3861   3862   3863
3864   3865   3866   3867
3868   3869   3870   3871
3872   3873   3874   3875
3876   3877   3878   3879
3880   3881   3882   3883
3884   3885   3886   3887
3888   3889   3890   3891
3892   3893   3894   3895
3896   3897   3898   3899
3900   3901   3902   3903
3904   3905   3906   3907
3908   3909   3910   3911
3912   3913   3914   3915
3916   3917   3918   3919
3920   3921   3922   3923
3924   3925   3926   3927
3928   3929   3930   3931
3932   3933   3934   3935
3936   3937   3938   3939
3940   3941   3942   3943
3944   3945   3946   3947
3948   3949   3950   3951
3952   3953   3954   3955
3956   3957   3958   3959
3960   3961   3962   3963
3964   3965   3966   3967
3968   3969   3970   3971
3972   3973   3974   3975
3976   3977   3978   3979
3980   3981   3982   3983
3984   3985   3986   3987
3988   3989   3990   3991
3992   3993   3994   3995
3996   3997   3998   3999
4000   4001   4002   4003
4004   4005   4006   4007
4008   4009   4010   4011
4012   4013   4014   4015
4016   4017   4018   4019
4020   4021   4022   4023
4024   4025   4026   4027
4028   4029   4030   4031
4032   4033   4034   4035
4036   4037   4038   4039
4040   4041   4042   4043
4044   4045   4046   4047
4048   4049   4050   4051
4052   4053   4054   4055
4056   4057   4058   4059
4060   4061   4062   4063
4064   4065   4066   4067
4068   4069   4070   4071
4072   4073   4074   4075
4076   4077   4078   4079
4080   4081   4082   4083
4084   4085   4086   4087
4088   4089   4090   4091
4092   4093   4094   4095
4096   4097   4098   4099
4100   4101   4102   4103
4104   4105   4106   4107
4108   4109   4110   4111
4112   4113   4114   4115
4116   4117   4118   4119
4120   4121   4122   4123
4124   4125   4126   4127
4128   4129   4130   4131
4132   4133   4134   4135
4136   4137   4138   4139
4140   4141   4142   4143
4144   4145   4146   4147
4148   4149   4150   4151
4152   4153   4154   4155
4156   4157   4158   4159
4160   4161   4162   4163
4164   4165   4166   4167
4168   4169   4170   4171
4172   4173   4174   4175
4176   4177   4178   4179
4180   4181   4182   4183
4184   4185   4186   4187
4188   4189   4190   4191
4192   4193   4194   4195
4196   4197   4198   4199
4200   4201   4202   4203
4204   4205   4206   4207
4208   4209   4210   4211
4212   4213   4214   4215
4216   4217   4218   4219
4220   4221   4222   4223
4224   4225   4226   4227
4228   4229   4230   4231
4232   4233   4234   4235
4236   4237   4238   4239
4240   4241   4242   4243
4244   4245   4246   4247
4248   4249   4250   4251
4252   4253   4254   4255
4256   4257   4258   4259
4260   4261   4262   4263
4264   4265   4266   4267
4268   4269   4270   4271
4272   4273   4274   4275
4276   4277   4278   4279
4280   4281   4282   4283
4284   4285   4286   4287
4288   4289   4290   4291
4292   4293   4294   4295
4296   4297   4298   4299
4300   4301   4302   4303
4304   4305   4306   4307
4308   4309   4310   4311
4312   4313   4314   4315
4316   4317   4318   4319
4320   4321   4322   4323
4324   4325   4326   4327
4328   4329   4330   4331
4332   4333   4334   4335
4336   4337   4338   4339
4340   4341   4342   4343
4344   4345   4346   4347
4348   4349   4350   4351
4352   4353   4354   4355
4356   4357   4358   4359
4360   4361   4362   4363
4364   4365   4366   4367
4368   4369   4370   4371
4372   4373   4374   4375
4376   4377   4378   4379
4380   4381   4382   4383
4384   4385   4386   4387
4388   4389   4390   4391
4392   4393   4394   4395
4396   4397   4398   4399
4400   4401   4402   4403
4404   4405   4406   4407
4408   4409   4410   4411
4412   4413   4414   4415
4416   4417   4418   4419
4420   4421   4422   4423
4424   4425   4426   4427
4428   4429   4430   4431
4432   4433   4434   4435
4436   4437   4438   4439
4440   4441   4442   4443
4444   4445   4446   4447
4448   4449   4450   4451
4452   4453   4454   4455
4456   4457   4458   4459
4460   4461   4462   4463
4464   4465   4466   4467
4468   4469   4470   4471
4472   4473   4474   4475
4476   4477   4478   4479
4480   4481   4482   4483
4484   4485   4486   4487
4488   4489   4490   4491
4492   4493   4494   4495
4496   4497   4498   4499
4500   4501   4502   4503
4504   4505   4506   4507
4508   4509   4510   4511
4512   4513   4514   4515
4516   4517   4518   4519
4520   4521   4522   4523
4524   4525   4526   4527
4528   4529   4530   4531
4532   4533   4534   4535
4536   4537   4538   4539
4540   4541   4542   4543
4544   4545   4546   4547
4548   4549   4550   4551
4552   4553   4554   4555
4556   4557   4558   4559
4560   4561   4562   4563
4564   4565   4566   4567
4568   4569   4570   4571
4572   4573   4574   4575
4576   4577   4578   4579
4580   4581   4582   4583
4584   4585   4586   4587
4588   4589   4590   4591
4592   4593   4594   4595
4596   4597   4598   4599
4600   4601   4602   4603
4604   4605   4606   4607
4608   4609   4610   4611
4612   4613   4614   4615
4616   4617   4618   4619
4620   4621   4622   4623
4624   4625   4626   4627
4628   4629   4630   4631
4632   4633   4634   4635
4636   4637   4638   4639
4640   4641   4642   4643
4644   4645   4646   4647
4648   4649   4650   4651
4652   4653   4654   4655
4656   4657   4658   4659
4660   4661   4662   4663
4664   4665   4666   4667
4668   4669   4670   4671
4672   4673   4674   4675
4676   4677   4678   4679
4680   4681   4682   4683
4684   4685   4686   4687
4688   4689   4690   4691
4692   4693   4694   4695
4696   4697   4698   4699
4700   4701   4702   4703
4704   4705   4706   4707
4708   4709   4710   4711
4712   4713   4714   4715
4716   4717   4718   4719
4720   4721   4722   4723
4724   4725   4726   4727
4728   4729   4730   4731
4732   4733   4734   4735
4736   4737   4738   4739
4740   4741   4742   4743
4744   4745   4746   4747
4748   4749   4750   4751
4752   4753   4754   4755
4756   4757   4758   4759
4760   4761   4762   4763
4764   4765   4766   4767
4768   4769   4770   4771
4772   4773   4774   4775
4776   4777   4778   4779
4780   4781   4782   4783
4784   4785   4786   4787
4788   4789   4790   4791
4792   4793   4794   4795
4796   4797   4798   4799
4800   4801   4802   4803
4804   4805   4806   4807
4808   4809   4810   4811
4812   4813   4814   4815
4816   4817   4818   4819
4820   4821   4822   4823
4824   4825   4826   4827
4828   4829   4830   4831
4832   4833   4834   4835
4836   4837   4838   4839
4840   4841   4842   4843
4844   4845   4846   4847
4848   4849   4850   4851
4852   4853   4854   4855
4856   4857   4858   4859
4860   4861   4862   4863
4864   4865   4866   4867
4868   4869   4870   4871
4872   4873   4874   4875
4876   4877   4878   4879
4880   4881   4882   4883
4884   4885   4886   4887
4888   4889   4890   4891
4892   4893   4894   4895
4896   4897   4898   4899
4900   4901   4902   4903
4904   4905   4906   4907
4908   4909   4910   4911
4912   4913   4914   4915
4916   4917   4918   4919
4920   4921   4922   4923
4924   4925   4926   4927
4928   4929   4930   4931
4932   4933   4934   4935
4936   4937   4938   4939
4940   4941   4942   4943
4944   4945   4946   4947
4948   4949   4950   4951
4952   4953   4954   4955
4956   4957   4958   4959
4960   4961   4962   4963
4964   4965   4966   4967
4968   4969   4970   4971
4972   4973   4974   4975
4976   4977   4978   4979
4980   4981   4982   4983
4984   4985   4986   4987
4988   4989   4990   4991
4992   4993   4994   4995
4996   4997   4998   4999
5000   5001   5002   5003
5004   5005   5006   5007
5008   5009   5010   5011
5012   5013   5014   5015
5016   5017   5018   5019
5020   5021   5022   5023
5024   5025   5026   5027
5028   5029   5030   5031
5032   5033   5034   5035
5036   5037   5038   5039
5040   5041   5042   5043
5044   5045   5046   5047
5048   5049   5050   5051
5052   5053   5054   5055
5056   5057   5058   5059
5060   5061   5062   5063
5064   5065   5066   5067
5068   5069   5070   5071
5072   5073   5074   5075
5076   5077   5078   5079
5080   5081   5082   5083
5084   5085   5086   5087
5088   5089   5090   5091
5092   5093   5094   5095
5096   5097   5098   5099
5100   5101   5102   5103
5104   5105   5106   5107
5108   5109   5110   5111
5112   5113   5114   5115
5116   5117   5118   5119
5120   5121   5122   5123
5124   5125   5126   5127
5128   5129   5130   5131
5132   5133   5134   5135
5136   5137   5138   5139
5140   5141   5142   5143
5144   5145   5146   5147
5148   5149   5150   5151
5152   5153   5154   5155
5156   5157   5158   5159
5160   5161   5162   5163
5164   5165   5166   5167
5168   5169   5170   5171
5172   5173   5174   5175
5176   5177   5178   5179
5180   5181   5182   5183
5184   5185   5186   5187
5188   5189   5190   5191
5192   5193   5194   5195
5196   5197   5198   5199
5200   5201   5202   5203
5204   5205   5206   5207
5208   5209   5210   5211
5212   5213   5214   5215
5216   5217   5218   5219
5220   5221   5222   5223
5224   5225   5226   5227
5228   5229   5230   5231
5232   5233   5234   5235
5236   5237   5238   5239
5240   5241   5242   5243
5244   5245   5246   5247
5248   5249   5250   5251
5252   5253   5254   5255
5256   5257   5258   5259
5260   5261   5262   5263
5264   5265   5266   5267
5268   5269   5270   5271
5272   5273   5274   5275
5276   5277   5278   5279
5280   5281   5282   5283
5284   5285   5286   5287
5288   5289   5290   5291
5292   5293   5294   5295
5296   5297   5298   5299
5300   5301   5302   5303
5304   5305   5306   5307
5308   5309   5310   5311
5312   5313   5314   5315
5316   5317   5318   5319
5320   5321   5322   5323
5324   5325   5326   5327
5328   5329   5330   5331
5332   5333   5334   5335
5336   5337   5338   5339
5340   5341   5342   5343
5344   5345   5346   5347
5348   5349   5350   5351
5352   5353   5354   5355
5356   5357   5358   5359
5360   5361   5362   5363
5364   5365   5366   5367
5368   5369   5370   5371
5372   5373   5374   5375
5376   5377   5378   5379
5380   5381   5382   5383
5384   5385   5386   5387
5388   5389   5390   5391
5392   5393   5394   5395
5396   5397   5398   5399
5400   5401   5402   5403
5404   5405   5406   5407
5408   5409   5410   5411
5412   5413   5414   5415
5416   5417   5418   5419
5420   5421   5422   5423
5424   5425   5426   5427
5428   5429   5430   5431
5432   5433   5434   5435
5436   5437   5438   5439
5440   5441   5442   5443
5444   5445   5446   5447
5448   5449   5450   5451
5452   5453   5454   5455
5456   5457   5458   5459
5460   5461   5462   5463
5464   5465   5466   5467
5468   5469   5470   5471
5472   5473   5474   5475
5476   5477   5478   5479
5480   5481   5482   5483
5484   5485   5486   5487
5488   5489   5490   5491
5492   5493   5494   5495
5496   5497   5498   5499
5500   5501   5502   5503
5504   5505   5506   5507
5508   5509   5510   5511
5512   5513   5514   5515
5516   5517   5518   5519
5520   5521   5522   5523
5524   5525   5526   5527
5528   5529   5530   5531
5532   5533   5534   5535
5536   5537   5538   5539
5540   5541   5542   5543
5544   5545   5546   5547
5548   5549   5550   5551
5552   5553   5554   5555
5556   5557   5558   5559
5560   5561   5562   5563
5564   5565   5566   5567
5568   5569   5570   5571
5572   5573   5574   5575
5576   5577   5578   5579
5580   5581   5582   5583
5584   5585   5586   5587
5588   5589   5590   5591
5592   5593   5594   5595
5596   5597   5598   5599
5600   5601   5602   5603
5604   5605   5606   5607
5608   5609   5610   5611
5612   5613   5614   5615
5616   5617   5618   5619
5620   5621   5622   5623
5624   5625   5626   5627
5628   5629   5630   5631
5632   5633   5634   5635
5636   5637   5638   5639
5640   5641   5642   5643
5644   5645   5646   5647
5648   5649   5650   5651
5652   5653   5654   5655
5656   5657   5658   5659
5660   5661   5662   5663
5664   5665   5666   5667
5668   5669   5670   5671
5672   5673   5674   5675
5676   5677   5678   5679
5680   5681   5682   5683
5684   5685   5686   5687
5688   5689   5690   5691
5692   5693   5694   5695
5696   5697   5698   5699
5700   5701   5702   5703
5704   5705   5706   5707
5708   5709   5710   5711
5712   5713   5714   5715
5716   5717   5718   5719
5720   5721   5722   5723
5724   5725   5726   5727
5728   5729   5730   5731
5732   5733   5734   5735
5736   5737   5738   5739
5740   5741   5742   5743
5744   5745   5746   5747
5748   5749   5750   5751
5752   5753   5754   5755
5756   5757   5758   5759
5760   5761   5762   5763
5764   5765   5766   5767
5768   5769   5770   5771
5772   5773   5774   5775
5776   5777   5778   5779
5780   5781   5782   5783
5784   5785   5786   5787
5788   5789   5790   5791
5792   5793   5794   5795
5796   5797   5798   5799
5800   5801   5802   5803
5804   5805   5806   5807
5808   5809   5810   5811
5812   5813   5814   5815
5816   5817   5818   5819
5820   5821   5822   5823
5824   5825   5826   5827
5828   5829   5830   5831
5832   5833   5834   5835
5836   5837   5838   5839
5840   5841   5842   5843
5844   5845   5846   5847
5848   5849   5850   5851
5852   5853   5854   5855
5856   5857   5858   5859
5860   5861   5862   5863
5864   5865   5866   5867
5868   5869   5870   5871
5872   5873   5874   5875
5876   5877   5878   5879
5880   5881   5882   5883
5884   5885   5886   5887
5888   5889   5890   5891
5892   5893   5894   5895
5896   5897   5898   5899
5900   5901   5902   5903
5904   5905   5906   5907
5908   5909   5910   5911
5912   5913   5914   5915
5916   5917   5918   5919
5920   5921   5922   5923
5924   5925   5926   5927
5928   5929   5930   5931
5932   5933   5934   5935
5936   5937   5938   5939
5940   5941   5942   5943
5944   5945   5946   5947
5948   5949   5950   5951
5952   5953   5954   5955
5956   5957   5958   5959
5960   5961   5962   5963
5964   5965   5966   5967
5968   5969   5970   5971
5972   5973   5974   5975
5976   5977   5978   5979
5980   5981   5982   5983
5984   5985   5986   5987
5988   5989   5990   5991
5992   5993   5994   5995
5996   5997   5998   5999
              </DataArray>   
              <DataArray type="Int32" Name="offsets" format="ascii">   
4
8
12
16
20
24
28
32
36
40
44
48
52
56
60
64
68
72
76
80
84
88
92
96
100
104
108
112
116
120
124
128
132
136
140
144
148
152
156
160
164
168
172
176
180
184
188
192
196
200
204
208
212
216
220
224
228
232
236
240
244
248
252
256
260
264
268
272
276
280
284
288
292
296
300
304
308
312
316
320
324
328
332
336
340
344
348
352
356
360
364
368
372
376
380
384
388
392
396
400
404
408
412
416
420
424
428
432
436
440
444
448
452
456
460
464
468
472
476
480
484
488
492
496
500
504
508
512
516
520
524
528
532
536
540
544
548
552
556
560
564
568
572
576
580
584
588
592
596
600
604
608
612
616
620
624
628
632
636
640
644
648
652
656
660
664
668
672
676
680
684
688
692
696
700
704
708
712
716
720
724
728
732
736
740
744
748
752
756
760
764
768
772
776
780
784
788
792
796
800
804
808
812
816
820
824
828
832
836
840
844
848
852
856
860
864
868
872
876
880
884
888
892
896
900
904
908
912
916
920
924
928
932
936
940
944
948
952
956
960
964
968
972
976
980
984
988
992
996
1000
1004
1008
1012
1016
1020
1024
1028
1032
1036
1040
1044
1048
1052
1056
1060
1064
1068
1072
1076
1080
1084
1088
1092
1096
1100
1104
1108
1112
1116
1120
1124
1128
1132
1136
1140
1144
1148
1152
1156
1160
1164
1168
1172
1176
1180
1184
1188
1192
1196
1200
1204
1208
1212
1216
1220
1224
1228
1232
1236
1240
1244
1248
1252
1256
1260
1264
1268
1272
1276
1280
1284
1288
1292
1296
1300
1304
1308
1312
1316
1320
1324
1328
1332
1336
1340
1344
1348
1352
1356
1360
1364
1368
1372
1376
1380
1384
1388
1392
1396
1400
1404
1408
1412
1416
1420
1424
1428
1432
1436
1440
1444
1448
1452
1456
1460
1464
1468
1472
1476
1480
1484
1488
1492
1496
1500
1504
1508
1512
1516
1520
1524
1528
1532
1536
1540
1544
1548
1552
1556
1560
1564
1568
1572
1576
1580
1584
1588
1592
1596
1600
1604
1608
1612
1616
1620
1624
1628
1632
1636
1640
1644
1648
1652
1656
1660
1664
1668
1672
1676
1680
1684
1688
1692
1696
1700
1704
1708
1712
1716
1720
1724
1728
1732
1736
1740
1744
1748
1752
1756
1760
1764
1768
1772
1776
1780
1784
1788
1792
1796
1800
1804
1808
1812
1816
1820
1824
1828
1832
1836
1840
1844
1848
1852
1856
1860
1864
1868
1872
1876
1880
1884
1888
1892
1896
1900
1904
1908
1912
1916
1920
1924
1928
1932
1936
1940
1944
1948
1952
1956
1960
1964
1968
1972
1976
1980
1984
1988
1992
1996
2000
2004
2008
2012
2016
2020
2024
2028
2032
2036
2040
2044
2048
2052
2056
2060
2064
2068
2072
2076
2080
2084
2088
2092
2096
2100
2104
2108
2112
2116
2120
2124
2128
2132
2136
2140
2144
2148
2152
2156
2160
2164
2168
2172
2176
2180
2184
2188
2192
2196
2200
2204
2208
2212
2216
2220
2224
2228
2232
2236
2240
2244
2248
2252
2256
2260
2264
2268
2272
2276
2280
2284
2288
2292
2296
2300
2304
2308
2312
2316
2320
2324
2328
2332
2336
2340
2344
2348
2352
2356
2360
2364
2368
2372
2376
2380
2384
2388
2392
2396
2400
2404
2408
2412
2416
2420
2424
2428
2432
2436
2440
2444
2448
2452
2456
2460
2464
2468
2472
2476
2480
2484
2488
2492
2496
2500
2504
2508
2512
2516
2520
2524
2528
2532
2536
2540
2544
2548
2552
2556
2560
2564
2568
2572
2576
2580
2584
2588
2592
2596
2600
2604
2608
2612
2616
2620
2624
2628
2632
2636
2640
2644
2648
2652
2656
2660
2664
2668
2672
2676
2680
2684
2688
2692
2696
2700
2704
2708
2712
2716
2720
2724
2728
2732
2736
2740
2744
2748
2752
2756
2760
2764
2768
2772
2776
2780
2784
2788
2792
2796
2800
2804
2808
2812
2816
2820
2824
2828
2832
2836
2840
2844
2848
2852
2856
2860
2864
2868
2872
2876
2880
2884
2888
2892
2896
2900
2904
2908
2912
2916
2920
2924
2928
2932
2936
2940
2944
2948
2952
2956
2960
2964
2968
2972
2976
2980
2984
2988
2992
2996
3000
3004
3008
3012
3016
3020
3024
3028
3032
3036
3040
3044
3048
3052
3056
3060
3064
3068
3072
3076
3080
3084
3088
3092
3096
3100
3104
3108
3112
3116
3120
3124
3128
3132
3136
3140
3144
3148
3152
3156
3160
3164
3168
3172
3176
3180
3184
3188
3192
3196
3200
3204
3208
3212
3216
3220
3224
3228
3232
3236
3240
3244
3248
3252
3256
3260
3264
3268
3272
3276
3280
3284
3288
3292
3296
3300
3304
3308
3312
3316
3320
3324
3328
3332
3336
3340
3344
3348
3352
3356
3360
3364
3368
3372
3376
3380
3384
3388
3392
3396
3400
3404
3408
3412
3416
3420
3424
3428
3432
3436
3440
3444
3448
3452
3456
3460
3464
3468
3472
3476
3480
3484
3488
3492
3496
3500
3504
3508
3512
3516
3520
3524
3528
3532
3536
3540
3544
3548
3552
3556
3560
3564
3568
3572
3576
3580
3584
3588
3592
3596
3600
3604
3608
3612
3616
3620
3624
3628
3632
3636
3640
3644
3648
3652
3656
3660
3664
3668
3672
3676
3680
3684
3688
3692
3696
3700
3704
3708
3712
3716
3720
3724
3728
3732
3736
3740
3744
3748
3752
3756
3760
3764
3768
3772
3776
3780
3784
3788
3792
3796
3800
3804
3808
3812
3816
3820
3824
3828
3832
3836
3840
3844
3848
3852
3856
3860
3864
3868
3872
3876
3880
3884
3888
3892
3896
3900
3904
3908
3912
3916
3920
3924
3928
3932
3936
3940
3944
3948
3952
3956
3960
3964
3968
3972
3976
3980
3984
3988
3992
3996
4000
4004
4008
4012
4016
4020
4024
4028
4032
4036
4040
4044
4048
4052
4056
4060
4064
4068
4072
4076
4080
4084
4088
4092
4096
4100
4104
4108
4112
4116
4120
4124
4128
4132
4136
4140
4144
4148
4152
4156
4160
4164
4168
4172
4176
4180
4184
4188
4192
4196
4200
4204
4208
4212
4216
4220
4224
4228
4232
4236
4240
4244
4248
4252
4256
4260
4264
4268
4272
4276
4280
4284
4288
4292
4296
4300
4304
4308
4312
4316
4320
4324
4328
4332
4336
4340
4344
4348
4352
4356
4360
4364
4368
4372
4376
4380
4384
4388
4392
4396
4400
4404
4408
4412
4416
4420
4424
4428
4432
4436
4440
4444
4448
4452
4456
4460
4464
4468
4472
4476
4480
4484
4488
4492
4496
4500
4504
4508
4512
4516
4520
4524
4528
4532
4536
4540
4544
4548
4552
4556
4560
4564
4568
4572
4576
4580
4584
4588
4592
4596
4600
4604
4608
4612
4616
4620
4624
4628
4632
4636
4640
4644
4648
4652
4656
4660
4664
4668
4672
4676
4680
4684
4688
4692
4696
4700
4704
4708
4712
4716
4720
4724
4728
4732
4736
4740
4744
4748
4752
4756
4760
4764
4768
4772
4776
4780
4784
4788
4792
4796
4800
4804
4808
4812
4816
4820
4824
4828
4832
4836
4840
4844
4848
4852
4856
4860
4864
4868
4872
4876
4880
4884
4888
4892
4896
4900
4904
4908
4912
4916
4920
4924
4928
4932
4936
4940
4944
4948
4952
4956
4960
4964
4968
4972
4976
4980
4984
4988
4992
4996
5000
5004
5008
5012
5016
5020
5024
5028
5032
5036
5040
5044
5048
5052
5056
5060
5064
5068
5072
5076
5080
5084
5088
5092
5096
5100
5104
5108
5112
5116
5120
5124
5128
5132
5136
5140
5144
5148
5152
5156
5160
5164
5168
5172
5176
5180
5184
5188
5192
5196
5200
5204
5208
5212
5216
5220
5224
5228
5232
5236
5240
5244
5248
5252
5256
5260
5264
5268
5272
5276
5280
5284
5288
5292
5296
5300
5304
5308
5312
5316
5320
5324
5328
5332
5336
5340
5344
5348
5352
5356
5360
5364
5368
5372
5376
5380
5384
5388
5392
5396
5400
5404
5408
5412
5416
5420
5424
5428
5432
5436
5440
5444
5448
5452
5456
5460
5464
5468
5472
5476
5480
5484
5488
5492
5496
5500
5504
5508
5512
5516
5520
5524
5528
5532
5536
5540
5544
5548
5552
5556
5560
5564
5568
5572
5576
5580
5584
5588
5592
5596
5600
5604
5608
5612
5616
5620
5624
5628
5632
5636
5640
5644
5648
5652
5656
5660
5664
5668
5672
5676
5680
5684
5688
5692
5696
5700
5704
5708
5712
5716
5720
5724
5728
5732
5736
5740
5744
5748
5752
5756
5760
5764
5768
5772
5776
5780
5784
5788
5792
5796
5800
5804
5808
5812
5816
5820
5824
5828
5832
5836
5840
5844
5848
5852
5856
5860
5864
5868
5872
5876
5880
5884
5888
5892
5896
5900
5904
5908
5912
5916
5920
5924
5928
5932
5936
5940
5944
5948
5952
5956
5960
5964
5968
5972
5976
5980
5984
5988
5992
5996
6000
              </DataArray>   
              <DataArray type="UInt8" Name="types" format="ascii">   
10
10
10
10
10
10
10
10
10
10
10
10
10
10
10
10
10
10
10
10
10
10
10
10
10
10
10
10
10
10
10
10
10
10
10
10
10
10
10
10
10
10
10
10
10
10
10
10
10
10
10
10
10
10
10
10
10
10
10
10
10
10
10
10
10
10
10
10
10
10
10
10
10
10
10
10
10
10
10
10
10
10
10
10
10
10
10
10
10
10
10
10
10
10
10
10
10
10
10
10
10
10
10
10
10
10
10
10
10
10
10
10
10
10
10
10
10
10
10
10
10
10
10
10
10
10
10
10
10
10
10
10
10
10
10
10
10
10
10
10
10
10
10
10
10
10
10
10
10
10
10
10
10
10
10
10
10
10
10
10
10
10
10
10
10
10
10
10
10
10
10
10
10
10
10
10
10
10
10
10
10
10
10
10
10
10
10
10
10
10
10
10
10
10
10
10
10
10
10
10
10
10
10
10
10
10
10
10
10
10
10
10
10
10
10
10
10
10
10
10
10
10
10
10
10
10
10
10
10
10
10
10
10
10
10
10
10
10
10
10
10
10
10
10
10
10
10
10
10
10
10
10
10
10
10
10
10
10
10
10
10
10
10
10
10
10
10
10
10
10
10
10
10
10
10
10
10
10
10
10
10
10
10
10
10
10
10
10
10
10
10
10
10
10
10
10
10
10
10
10
10
10
10
10
10
10
10
10
10
10
10
10
10
10
10
10
10
10
10
10
10
10
10
10
10
10
10
10
10
10
10
10
10
10
10
10
10
10
10
10
10
10
10
10
10
10
10
10
10
10
10
10
10
10
10
10
10
10
10
10
10
10
10
10
10
10
10
10
10
10
10
10
10
10
10
10
10
10
10
10
10
10
10
10
10
10
10
10
10
10
10
10
10
10
10
10
10
10
10
10
10
10
10
10
10
10
10
10
10
10
10
10
10
10
10
10
10
10
10
10
10
10
10
10
10
10
10
10
10
10
10
10
10
10
10
10
10
10
10
10
10
10
10
10
10
10
10
10
10
10
10
10
10
10
10
10
10
10
10
10
10
10
10
10
10
10
10
10
10
10
10
10
10
10
10
10
10
10
10
10
10
10
10
10
10
10
10
10
10
10
10
10
10
10
10
10
10
10
10
10
10
10
10
10
10
10
10
10
10
10
10
10
10
10
10
10
10
10
10
10
10
10
10
10
10
10
10
10
10
10
10
10
10
10
10
10
10
10
10
10
10
10
10
10
10
10
10
10
10
10
10
10
10
10
10
10
10
10
10
10
10
10
10
10
10
10
10
10
10
10
10
10
10
10
10
10
10
10
10
10
10
10
10
10
10
10
10
10
10
10
10
10
10
10
10
10
10
10
10
10
10
10
10
10
10
10
10
10
10
10
10
10
10
10
10
10
10
10
10
10
10
10
10
10
10
10
10
10
10
10
10
10
10
10
10
10
10
10
10
10
10
10
10
10
10
10
10
10
10
10
10
10
10
10
10
10
10
10
10
10
10
10
10
10
10
10
10
10
10
10
10
10
10
10
10
10
10
10
10
10
10
10
10
10
10
10
10
10
10
10
10
10
10
10
10
10
10
10
10
10
10
10
10
10
10
10
10
10
10
10
10
10
10
10
10
10
10
10
10
10
10
10
10
10
10
10
10
10
10
10
10
10
10
10
10
10
10
10
10
10
10
10
10
10
10
10
10
10
10
10
10
10
10
10
10
10
10
10
10
10
10
10
10
10
10
10
10
10
10
10
10
10
10
10
10
10
10
10
10
10
10
10
10
10
10
10
10
10
10
10
10
10
10
10
10
10
10
10
10
10
10
10
10
10
10
10
10
10
10
10
10
10
10
10
10
10
10
10
10
10
10
10
10
10
10
10
10
10
10
10
10
10
10
10
10
10
10
10
10
10
10
10
10
10
10
10
10
10
10
10
10
10
10
10
10
10
10
10
10
10
10
10
10
10
10
10
10
10
10
10
10
10
10
10
10
10
10
10
10
10
10
10
10
10
10
10
10
10
10
10
10
10
10
10
10
10
10
10
10
10
10
10
10
10
10
10
10
10
10
10
10
10
10
10
10
10
10
10
10
10
10
10
10
10
10
10
10
10
10
10
10
10
10
10
10
10
10
10
10
10
10
10
10
10
10
10
10
10
10
10
10
10
10
10
10
10
10
10
10
10
10
10
10
10
10
10
10
10
10
10
10
10
10
10
10
10
10
10
10
10
10
10
10
10
10
10
10
10
10
10
10
10
10
10
10
10
10
10
10
10
10
10
10
10
10
10
10
10
10
10
10
10
10
10
10
10
10
10
10
10
10
10
10
10
10
10
10
10
10
10
10
10
10
10
10
10
10
10
10
10
10
10
10
10
10
10
10
10
10
10
10
10
10
10
10
10
10
10
10
10
10
10
10
10
10
10
10
10
10
10
10
10
10
10
10
10
10
10
10
10
10
10
10
10
10
10
10
10
10
10
10
10
10
10
10
10
10
10
10
10
10
10
10
10
10
10
10
10
10
10
10
10
10
10
10
10
10
10
10
10
10
10
10
10
10
10
10
10
10
10
10
10
10
10
10
10
10
10
10
10
10
10
10
10
10
10
10
10
10
10
10
10
10
10
10
10
10
10
10
10
10
10
10
10
10
10
10
10
10
10
10
10
10
10
10
10
10
10
10
10
10
10
10
10
10
10
10
10
10
10
10
10
10
10
10
10
10
10
10
10
10
10
10
10
10
10
10
10
10
10
10
10
10
10
10
10
10
10
10
10
10
10
10
10
10
10
10
10
10
10
10
10
10
10
10
10
10
10
10
10
10
10
10
10
10
10
10
10
10
10
10
10
10
10
10
10
10
10
10
10
10
10
10
10
10
10
10
10
10
10
10
10
10
10
10
10
10
10
10
10
10
10
10
10
10
10
10
10
10
10
10
10
10
10
10
10
10
10
10
10
10
10
10
10
10
10
10
10
10
10
10
10
10
10
10
10
10
10
10
10
10
10
10
10
10
10
10
10
10
10
10
10
10
10
10
10
10
10
10
10
10
10
10
10
10
10
10
10
10
10
10
10
10
10
10
10
10
10
10
10
10
10
10
10
10
10
10
10
10
10
10
10
10
10
10
10
10
10
10
10
10
10
10
10
10
10
10
10
10
10
10
10
10
10
10
10
10
10
10
10
10
10
10
10
10
10
10
10
10
10
10
10
10
10
10
10
10
10
10
10
10
10
10
10
10
10
10
10
10
10
10
10
10
10
10
10
10
10
10
10
10
10
10
10
10
10
10
10
10
10
10
10
10
10
10
10
10
10
10
10
10
10
10
10
10
10
10
10
10
10
10
10
10
10
10
10
10
10
10
10
10
10
10
10
10
10
10
10
10
10
10
10
10
10
10
10
10
10
10
10
              </DataArray>   
          </Cells>  
          <PointData>  
             <DataArray type="Float64" NumberOfComponents="3" Name="Strains" format="ascii">   
-3.804594846542248e-05   0.0   -2.5126140459846665e-05
-3.804594846542248e-05   0.0   -2.5126140459846665e-05
-3.804594846542248e-05   0.0   -2.5126140459846665e-05
-3.804594846542248e-05   0.0   -2.5126140459846665e-05
-2.4193891593193362e-05   4.193993296948835e-06   4.770169720377912e-07
-2.4193891593193362e-05   4.193993296948835e-06   4.770169720377912e-07
-2.4193891593193362e-05   4.193993296948835e-06   4.770169720377912e-07
-2.4193891593193362e-05   4.193993296948835e-06   4.770169720377912e-07
-2.370477280359964e-05   0.0   -2.373473355581526e-05
-2.370477280359964e-05   0.0   -2.373473355581526e-05
-2.370477280359964e-05   0.0   -2.373473355581526e-05
-2.370477280359964e-05   0.0   -2.373473355581526e-05
-3.980372581660294e-05   5.042914426638824e-06   7.110614320705042e-08
-3.980372581660294e-05   5.042914426638824e-06   7.110614320705042e-08
-3.980372581660294e-05   5.042914426638824e-06   7.110614320705042e-08
-3.980372581660294e-05   5.042914426638824e-06   7.110614320705042e-08
-3.0875360634511e-05   1.1595057533595008e-06   -1.2479457289645227e-05
-3.0875360634511e-05   1.1595057533595008e-06   -1.2479457289645227e-05
-3.0875360634511e-05   1.1595057533595008e-06   -1.2479457289645227e-05
-3.0875360634511e-05   1.1595057533595008e-06   -1.2479457289645227e-05
-3.9803725816603006e-05   0.0   -2.676048221179856e-05
-3.9803725816603006e-05   0.0   -2.676048221179856e-05
-3.9803725816603006e-05   0.0   -2.676048221179856e-05
-3.9803725816603006e-05   0.0   -2.676048221179856e-05
-2.370477280359964e-05   5.042914426638831e-06   3.0968547991903393e-06
-2.370477280359964e-05   5.042914426638831e-06   3.0968547991903393e-06
-2.370477280359964e-05   5.042914426638831e-06   3.0968547991903393e-06
-2.370477280359964e-05   5.042914426638831e-06   3.0968547991903393e-06
-2.3760117061587972e-05   0.0   -2.4312579089178472e-05
-2.3760117061587972e-05   0.0   -2.4312579089178472e-05
-2.3760117061587972e-05   0.0   -2.4312579089178472e-05
-2.3760117061587972e-05   0.0   -2.4312579089178472e-05
-4.103291281029381e-05   5.4054215477786175e-06   1.2321608966641876e-06
-4.103291281029381e-05   5.4054215477786175e-06   1.2321608966641876e-06
-4.103291281029381e-05   5.4054215477786175e-06   1.2321608966641876e-06
-4.103291281029381e-05   5.4054215477786175e-06   1.2321608966641876e-06
-3.1781921439095434e-05   2.0399192688500693e-06   -1.2166856687975955e-05
-3.1781921439095434e-05   2.0399192688500693e-06   -1.2166856687975955e-05
-3.1781921439095434e-05   2.0399192688500693e-06   -1.2166856687975955e-05
-3.1781921439095434e-05   2.0399192688500693e-06   -1.2166856687975955e-05
-4.103291281029388e-05   0.0   -2.7555832017845648e-05
-4.103291281029388e-05   0.0   -2.7555832017845648e-05
-4.103291281029388e-05   0.0   -2.7555832017845648e-05
-4.103291281029388e-05   0.0   -2.7555832017845648e-05
-2.3760117061587972e-05   5.405421547778631e-06   4.475413825331377e-06
-2.3760117061587972e-05   5.405421547778631e-06   4.475413825331377e-06
-2.3760117061587972e-05   5.405421547778631e-06   4.475413825331377e-06
-2.3760117061587972e-05   5.405421547778631e-06   4.475413825331377e-06
-2.3734656170004745e-05   0.0   -2.4462876940899634e-05
-2.3734656170004745e-05   0.0   -2.4462876940899634e-05
-2.3734656170004745e-05   0.0   -2.4462876940899634e-05
-2.3734656170004745e-05   0.0   -2.4462876940899634e-05
-4.369234006006281e-05   6.166310537511058e-06   5.10014322002395e-06
-4.369234006006281e-05   6.166310537511058e-06   5.10014322002395e-06
-4.369234006006281e-05   6.166310537511058e-06   5.10014322002395e-06
-4.369234006006281e-05   6.166310537511058e-06   5.10014322002395e-06
-3.238378449014926e-05   2.577462564121676e-06   -1.1594140612465005e-05
-3.238378449014926e-05   2.577462564121676e-06   -1.1594140612465005e-05
-3.238378449014926e-05   2.577462564121676e-06   -1.1594140612465005e-05
-3.238378449014926e-05   2.577462564121676e-06   -1.1594140612465005e-05
-2.4193891593193403e-05   0.0   -2.260974448167736e-05
-2.4193891593193403e-05   0.0   -2.260974448167736e-05
-2.4193891593193403e-05   0.0   -2.260974448167736e-05
-2.4193891593193403e-05   0.0   -2.260974448167736e-05
-1.1031336526616737e-05   1.5341847438444045e-06   2.483581422570398e-07
-1.1031336526616737e-05   1.5341847438444045e-06   2.483581422570398e-07
-1.1031336526616737e-05   1.5341847438444045e-06   2.483581422570398e-07
-1.1031336526616737e-05   1.5341847438444045e-06   2.483581422570398e-07
-1.05985678588642e-05   0.0   -2.242010629487607e-05
-1.05985678588642e-05   0.0   -2.242010629487607e-05
-1.05985678588642e-05   0.0   -2.242010629487607e-05
-1.05985678588642e-05   0.0   -2.242010629487607e-05
-2.370477280359964e-05   2.191045434898648e-06   -1.8910586479228619e-06
-2.370477280359964e-05   2.191045434898648e-06   -1.8910586479228619e-06
-2.370477280359964e-05   2.191045434898648e-06   -1.8910586479228619e-06
-2.370477280359964e-05   2.191045434898648e-06   -1.8910586479228619e-06
-1.7396229726028772e-05   1.5803182233440737e-07   -1.1185488943002355e-05
-1.7396229726028772e-05   1.5803182233440737e-07   -1.1185488943002355e-05
-1.7396229726028772e-05   1.5803182233440737e-07   -1.1185488943002355e-05
-1.7396229726028772e-05   1.5803182233440737e-07   -1.1185488943002355e-05
-2.370477280359962e-05   0.0   -2.373473355581524e-05
-2.370477280359962e-05   0.0   -2.373473355581524e-05
-2.370477280359962e-05   0.0   -2.373473355581524e-05
-2.370477280359962e-05   0.0   -2.373473355581524e-05
-1.05985678588642e-05   2.191045434898648e-06   -5.764313869836732e-07
-1.05985678588642e-05   2.191045434898648e-06   -5.764313869836732e-07
-1.05985678588642e-05   2.191045434898648e-06   -5.764313869836732e-07
-1.05985678588642e-05   2.191045434898648e-06   -5.764313869836732e-07
-1.035080771618888e-05   0.0   -2.2699159367695256e-05
-1.035080771618888e-05   0.0   -2.2699159367695256e-05
-1.035080771618888e-05   0.0   -2.2699159367695256e-05
-1.035080771618888e-05   0.0   -2.2699159367695256e-05
-2.3760117061587972e-05   2.689032869138693e-06   -1.963730180179993e-06
-2.3760117061587972e-05   2.689032869138693e-06   -1.963730180179993e-06
-2.3760117061587972e-05   2.689032869138693e-06   -1.963730180179993e-06
-2.3760117061587972e-05   2.689032869138693e-06   -1.963730180179993e-06
-1.7027790259894224e-05   8.629784901000004e-07   -1.2088642222246251e-05
-1.7027790259894224e-05   8.629784901000004e-07   -1.2088642222246251e-05
-1.7027790259894224e-05   8.629784901000004e-07   -1.2088642222246251e-05
-1.7027790259894224e-05   8.629784901000004e-07   -1.2088642222246251e-05
-2.3760117061587972e-05   0.0   -2.4312579089178472e-05
-2.3760117061587972e-05   0.0   -2.4312579089178472e-05
-2.3760117061587972e-05   0.0   -2.4312579089178472e-05
-2.3760117061587972e-05   0.0   -2.4312579089178472e-05
-1.035080771618888e-05   2.689032869138693e-06   -3.5031045869677384e-07
-1.035080771618888e-05   2.689032869138693e-06   -3.5031045869677384e-07
-1.035080771618888e-05   2.689032869138693e-06   -3.5031045869677384e-07
-1.035080771618888e-05   2.689032869138693e-06   -3.5031045869677384e-07
-1.0123301742570083e-05   0.0   -2.2583837067842914e-05
-1.0123301742570083e-05   0.0   -2.2583837067842914e-05
-1.0123301742570083e-05   0.0   -2.2583837067842914e-05
-1.0123301742570083e-05   0.0   -2.2583837067842914e-05
-2.373465617000468e-05   3.1317331217611686e-06   -1.777286228508526e-06
-2.373465617000468e-05   3.1317331217611686e-06   -1.777286228508526e-06
-2.373465617000468e-05   3.1317331217611686e-06   -1.777286228508526e-06
-2.373465617000468e-05   3.1317331217611686e-06   -1.777286228508526e-06
-1.694170940207902e-05   1.4406183511129514e-06   -1.208419531266245e-05
-1.694170940207902e-05   1.4406183511129514e-06   -1.208419531266245e-05
-1.694170940207902e-05   1.4406183511129514e-06   -1.208419531266245e-05
-1.694170940207902e-05   1.4406183511129514e-06   -1.208419531266245e-05
-1.1031336526616757e-05   0.0   -2.1689233635370716e-05
-1.1031336526616757e-05   0.0   -2.1689233635370716e-05
-1.1031336526616757e-05   0.0   -2.1689233635370716e-05
-1.1031336526616757e-05   0.0   -2.1689233635370716e-05
1.3949707477912703e-06   -1.9956753938011858e-07   -1.098462034985385e-06
1.3949707477912703e-06   -1.9956753938011858e-07   -1.098462034985385e-06
1.3949707477912703e-06   -1.9956753938011858e-07   -1.098462034985385e-06
1.3949707477912703e-06   -1.9956753938011858e-07   -1.098462034985385e-06
1.6765405963480211e-06   0.0   -2.218624733319288e-05
1.6765405963480211e-06   0.0   -2.218624733319288e-05
1.6765405963480211e-06   0.0   -2.218624733319288e-05
1.6765405963480211e-06   0.0   -2.218624733319288e-05
-1.05985678588642e-05   3.897649361385254e-07   -1.9615922028556967e-06
-1.05985678588642e-05   3.897649361385254e-07   -1.9615922028556967e-06
-1.05985678588642e-05   3.897649361385254e-07   -1.9615922028556967e-06
-1.05985678588642e-05   3.897649361385254e-07   -1.9615922028556967e-06
-4.677397965134357e-06   -4.1417808151853556e-07   -1.1347842881811156e-05
-4.677397965134357e-06   -4.1417808151853556e-07   -1.1347842881811156e-05
-4.677397965134357e-06   -4.1417808151853556e-07   -1.1347842881811156e-05
-4.677397965134357e-06   -4.1417808151853556e-07   -1.1347842881811156e-05
-1.05985678588642e-05   0.0   -2.242010629487607e-05
-1.05985678588642e-05   0.0   -2.242010629487607e-05
-1.05985678588642e-05   0.0   -2.242010629487607e-05
-1.05985678588642e-05   0.0   -2.242010629487607e-05
1.676540596348024e-06   3.897649361385254e-07   -1.7277332411725802e-06
1.676540596348024e-06   3.897649361385254e-07   -1.7277332411725802e-06
1.676540596348024e-06   3.897649361385254e-07   -1.7277332411725802e-06
1.676540596348024e-06   3.897649361385254e-07   -1.7277332411725802e-06
1.9002943516376968e-06   0.0   -2.215362286898084e-05
1.9002943516376968e-06   0.0   -2.215362286898084e-05
1.9002943516376968e-06   0.0   -2.215362286898084e-05
1.9002943516376968e-06   0.0   -2.215362286898084e-05
-1.0350807716188861e-05   9.09227497857298e-07   -2.280655921317622e-06
-1.0350807716188861e-05   9.09227497857298e-07   -2.280655921317622e-06
-1.0350807716188861e-05   9.09227497857298e-07   -2.280655921317622e-06
-1.0350807716188861e-05   9.09227497857298e-07   -2.280655921317622e-06
-4.34913675361325e-06   2.2206952157932886e-07   -1.1871146073176882e-05
-4.34913675361325e-06   2.2206952157932886e-07   -1.1871146073176882e-05
-4.34913675361325e-06   2.2206952157932886e-07   -1.1871146073176882e-05
-4.34913675361325e-06   2.2206952157932886e-07   -1.1871146073176882e-05
-1.035080771618888e-05   0.0   -2.2699159367695256e-05
-1.035080771618888e-05   0.0   -2.2699159367695256e-05
-1.035080771618888e-05   0.0   -2.2699159367695256e-05
-1.035080771618888e-05   0.0   -2.2699159367695256e-05
1.9002943516377002e-06   9.09227497857298e-07   -1.7351194226032485e-06
1.9002943516377002e-06   9.09227497857298e-07   -1.7351194226032485e-06
1.9002943516377002e-06   9.09227497857298e-07   -1.7351194226032485e-06
1.9002943516377002e-06   9.09227497857298e-07   -1.7351194226032485e-06
2.1975361480574445e-06   0.0   -2.1677709060048536e-05
2.1975361480574445e-06   0.0   -2.1677709060048536e-05
2.1975361480574445e-06   0.0   -2.1677709060048536e-05
2.1975361480574445e-06   0.0   -2.1677709060048536e-05
-1.0123301742570074e-05   1.5102133463239286e-06   -2.0491072501303637e-06
-1.0123301742570074e-05   1.5102133463239286e-06   -2.0491072501303637e-06
-1.0123301742570074e-05   1.5102133463239286e-06   -2.0491072501303637e-06
-1.0123301742570074e-05   1.5102133463239286e-06   -2.0491072501303637e-06
-4.076635784065708e-06   8.512085897055693e-07   -1.1731480993666615e-05
-4.076635784065708e-06   8.512085897055693e-07   -1.1731480993666615e-05
-4.076635784065708e-06   8.512085897055693e-07   -1.1731480993666615e-05
-4.076635784065708e-06   8.512085897055693e-07   -1.1731480993666615e-05
1.3949707477912726e-06   0.0   -2.1808974158998787e-05
1.3949707477912726e-06   0.0   -2.1808974158998787e-05
1.3949707477912726e-06   0.0   -2.1808974158998787e-05
1.3949707477912726e-06   0.0   -2.1808974158998787e-05
1.4893329481920852e-05   -1.746896058947541e-06   -3.5984723748466174e-07
1.4893329481920852e-05   -1.746896058947541e-06   -3.5984723748466174e-07
1.4893329481920852e-05   -1.746896058947541e-06   -3.5984723748466174e-07
1.4893329481920852e-05   -1.746896058947541e-06   -3.5984723748466174e-07
1.4934040206123068e-05   0.0   -2.2974458247248416e-05
1.4934040206123068e-05   0.0   -2.2974458247248416e-05
1.4934040206123068e-05   0.0   -2.2974458247248416e-05
1.4934040206123068e-05   0.0   -2.2974458247248416e-05
1.676540596348027e-06   -1.3136848567590981e-06   -9.041465023456122e-08
1.676540596348027e-06   -1.3136848567590981e-06   -9.041465023456122e-08
1.676540596348027e-06   -1.3136848567590981e-06   -9.041465023456122e-08
1.676540596348027e-06   -1.3136848567590981e-06   -9.041465023456122e-08
8.16450547695717e-06   -9.712367402080253e-07   -1.1109158321180432e-05
8.16450547695717e-06   -9.712367402080253e-07   -1.1109158321180432e-05
8.16450547695717e-06   -9.712367402080253e-07   -1.1109158321180432e-05
8.16450547695717e-06   -9.712367402080253e-07   -1.1109158321180432e-05
1.676540596348027e-06   0.0   -2.218624733319296e-05
1.676540596348027e-06   0.0   -2.218624733319296e-05
1.676540596348027e-06   0.0   -2.218624733319296e-05
1.676540596348027e-06   0.0   -2.218624733319296e-05
1.4934040206123068e-05   -1.3136848567590981e-06   -8.786255642900193e-07
1.4934040206123068e-05   -1.3136848567590981e-06   -8.786255642900193e-07
1.4934040206123068e-05   -1.3136848567590981e-06   -8.786255642900193e-07
1.4934040206123068e-05   -1.3136848567590981e-06   -8.786255642900193e-07
1.4882341193301842e-05   0.0   -2.2646493588349138e-05
1.4882341193301842e-05   0.0   -2.2646493588349138e-05
1.4882341193301842e-05   0.0   -2.2646493588349138e-05
1.4882341193301842e-05   0.0   -2.2646493588349138e-05
1.9002943516377002e-06   -8.214511989470988e-07   -5.168781328739787e-07
1.9002943516377002e-06   -8.214511989470988e-07   -5.168781328739787e-07
1.9002943516377002e-06   -8.214511989470988e-07   -5.168781328739787e-07
1.9002943516377002e-06   -8.214511989470988e-07   -5.168781328739787e-07
8.279440894824935e-06   -3.835385459634832e-07   -1.1411536629976197e-05
8.279440894824935e-06   -3.835385459634832e-07   -1.1411536629976197e-05
8.279440894824935e-06   -3.835385459634832e-07   -1.1411536629976197e-05
8.279440894824935e-06   -3.835385459634832e-07   -1.1411536629976197e-05
1.9002943516376985e-06   0.0   -2.2153622868980856e-05
1.9002943516376985e-06   0.0   -2.2153622868980856e-05
1.9002943516376985e-06   0.0   -2.2153622868980856e-05
1.9002943516376985e-06   0.0   -2.2153622868980856e-05
1.4882341193301842e-05   -8.214511989470988e-07   -1.00974885224224e-06
1.4882341193301842e-05   -8.214511989470988e-07   -1.00974885224224e-06
1.4882341193301842e-05   -8.214511989470988e-07   -1.00974885224224e-06
1.4882341193301842e-05   -8.214511989470988e-07   -1.00974885224224e-06
1.5182348856750641e-05   0.0   -2.1774156812795152e-05
1.5182348856750641e-05   0.0   -2.1774156812795152e-05
1.5182348856750641e-05   0.0   -2.1774156812795152e-05
1.5182348856750641e-05   0.0   -2.1774156812795152e-05
2.1975361480574483e-06   -1.6074625457763525e-07   -3.63545455599243e-08
2.1975361480574483e-06   -1.6074625457763525e-07   -3.63545455599243e-08
2.1975361480574483e-06   -1.6074625457763525e-07   -3.63545455599243e-08
2.1975361480574483e-06   -1.6074625457763525e-07   -3.63545455599243e-08
8.541321604194164e-06   3.1622171348810266e-07   -1.0895511086627214e-05
8.541321604194164e-06   3.1622171348810266e-07   -1.0895511086627214e-05
8.541321604194164e-06   3.1622171348810266e-07   -1.0895511086627214e-05
8.541321604194164e-06   3.1622171348810266e-07   -1.0895511086627214e-05
1.4893329481920852e-05   0.0   -2.285711179436731e-05
1.4893329481920852e-05   0.0   -2.285711179436731e-05
1.4893329481920852e-05   0.0   -2.285711179436731e-05
1.4893329481920852e-05   0.0   -2.285711179436731e-05
3.3699046355806716e-05   -4.437945085597162e-06   5.822982610751025e-06
3.3699046355806716e-05   -4.437945085597162e-06   5.822982610751025e-06
3.3699046355806716e-05   -4.437945085597162e-06   5.822982610751025e-06
3.3699046355806716e-05   -4.437945085597162e-06   5.822982610751025e-06
3.1667323812465076e-05   0.0   -2.523554041305322e-05
3.1667323812465076e-05   0.0   -2.523554041305322e-05
3.1667323812465076e-05   0.0   -2.523554041305322e-05
3.1667323812465076e-05   0.0   -2.523554041305322e-05
1.4934040206123068e-05   -3.768470276341342e-06   4.914347763321589e-06
1.4934040206123068e-05   -3.768470276341342e-06   4.914347763321589e-06
1.4934040206123068e-05   -3.768470276341342e-06   4.914347763321589e-06
1.4934040206123068e-05   -3.768470276341342e-06   4.914347763321589e-06
2.3280326647192965e-05   -1.982023848904926e-06   -1.0067997494923402e-05
2.3280326647192965e-05   -1.982023848904926e-06   -1.0067997494923402e-05
2.3280326647192965e-05   -1.982023848904926e-06   -1.0067997494923402e-05
2.3280326647192965e-05   -1.982023848904926e-06   -1.0067997494923402e-05
1.4934040206123054e-05   0.0   -2.2974458247248396e-05
1.4934040206123054e-05   0.0   -2.2974458247248396e-05
1.4934040206123054e-05   0.0   -2.2974458247248396e-05
1.4934040206123054e-05   0.0   -2.2974458247248396e-05
3.166732381246496e-05   -3.7684702763413286e-06   2.653265597516775e-06
3.166732381246496e-05   -3.7684702763413286e-06   2.653265597516775e-06
3.166732381246496e-05   -3.7684702763413286e-06   2.653265597516775e-06
3.166732381246496e-05   -3.7684702763413286e-06   2.653265597516775e-06
3.073595362254963e-05   0.0   -2.4711014126057777e-05
3.073595362254963e-05   0.0   -2.4711014126057777e-05
3.073595362254963e-05   0.0   -2.4711014126057777e-05
3.073595362254963e-05   0.0   -2.4711014126057777e-05
1.4882341193301842e-05   -3.4408675628477277e-06   3.7761937937305094e-06
1.4882341193301842e-05   -3.4408675628477277e-06   3.7761937937305094e-06
1.4882341193301842e-05   -3.4408675628477277e-06   3.7761937937305094e-06
1.4882341193301842e-05   -3.4408675628477277e-06   3.7761937937305094e-06
2.2834996914336335e-05   -1.447129899007798e-06   -1.0674475006297608e-05
2.2834996914336335e-05   -1.447129899007798e-06   -1.0674475006297608e-05
2.2834996914336335e-05   -1.447129899007798e-06   -1.0674475006297608e-05
2.2834996914336335e-05   -1.447129899007798e-06   -1.0674475006297608e-05
1.4882341193301842e-05   0.0   -2.2646493588349138e-05
1.4882341193301842e-05   0.0   -2.2646493588349138e-05
1.4882341193301842e-05   0.0   -2.2646493588349138e-05
1.4882341193301842e-05   0.0   -2.2646493588349138e-05
3.073595362254953e-05   -3.440867562847714e-06   1.7116732560218598e-06
3.073595362254953e-05   -3.440867562847714e-06   1.7116732560218598e-06
3.073595362254953e-05   -3.440867562847714e-06   1.7116732560218598e-06
3.073595362254953e-05   -3.440867562847714e-06   1.7116732560218598e-06
2.934083541868154e-05   0.0   -2.3373452197186368e-05
2.934083541868154e-05   0.0   -2.3373452197186368e-05
2.934083541868154e-05   0.0   -2.3373452197186368e-05
2.934083541868154e-05   0.0   -2.3373452197186368e-05
1.5182348856750641e-05   -2.665492307318761e-06   1.823320790423094e-06
1.5182348856750641e-05   -2.665492307318761e-06   1.823320790423094e-06
1.5182348856750641e-05   -2.665492307318761e-06   1.823320790423094e-06
1.5182348856750641e-05   -2.665492307318761e-06   1.823320790423094e-06
2.2111588305991717e-05   -6.05798840697725e-07   -1.0961227704951307e-05
2.2111588305991717e-05   -6.05798840697725e-07   -1.0961227704951307e-05
2.2111588305991717e-05   -6.05798840697725e-07   -1.0961227704951307e-05
2.2111588305991717e-05   -6.05798840697725e-07   -1.0961227704951307e-05
-3.2894396921760474e-05   4.193993296948828e-06   -2.168706439975278e-05
-3.2894396921760474e-05   4.193993296948828e-06   -2.168706439975278e-05
-3.2894396921760474e-05   4.193993296948828e-06   -2.168706439975278e-05
-3.2894396921760474e-05   4.193993296948828e-06   -2.168706439975278e-05
-2.107901172970548e-05   3.7645709132961034e-06   -2.252409176519393e-06
-2.107901172970548e-05   3.7645709132961034e-06   -2.252409176519393e-06
-2.107901172970548e-05   3.7645709132961034e-06   -2.252409176519393e-06
-2.107901172970548e-05   3.7645709132961034e-06   -2.252409176519393e-06
-2.1603227561004873e-05   5.042914426638817e-06   -1.822352984910302e-05
-2.1603227561004873e-05   5.042914426638817e-06   -1.822352984910302e-05
-2.1603227561004873e-05   5.042914426638817e-06   -1.822352984910302e-05
-2.1603227561004873e-05   5.042914426638817e-06   -1.822352984910302e-05
-3.3237621128286846e-05   4.524724351154334e-06   1.4780401416576863e-06
-3.3237621128286846e-05   4.524724351154334e-06   1.4780401416576863e-06
-3.3237621128286846e-05   4.524724351154334e-06   1.4780401416576863e-06
-3.3237621128286846e-05   4.524724351154334e-06   1.4780401416576863e-06
-2.612536417099558e-05   4.384043569593223e-06   -1.029131298489126e-05
-2.612536417099558e-05   4.384043569593223e-06   -1.029131298489126e-05
-2.612536417099558e-05   4.384043569593223e-06   -1.029131298489126e-05
-2.612536417099558e-05   4.384043569593223e-06   -1.029131298489126e-05
-3.3237621128286846e-05   5.042914426638817e-06   -1.791261580381233e-05
-3.3237621128286846e-05   5.042914426638817e-06   -1.791261580381233e-05
-3.3237621128286846e-05   5.042914426638817e-06   -1.791261580381233e-05
-3.3237621128286846e-05   5.042914426638817e-06   -1.791261580381233e-05
-2.1603227561004948e-05   4.524724351154347e-06   1.1671260963670084e-06
-2.1603227561004948e-05   4.524724351154347e-06   1.1671260963670084e-06
-2.1603227561004948e-05   4.524724351154347e-06   1.1671260963670084e-06
-2.1603227561004948e-05   4.524724351154347e-06   1.1671260963670084e-06
-2.1706561520420454e-05   5.405421547778611e-06   -1.639118282601328e-05
-2.1706561520420454e-05   5.405421547778611e-06   -1.639118282601328e-05
-2.1706561520420454e-05   5.405421547778611e-06   -1.639118282601328e-05
-2.1706561520420454e-05   5.405421547778611e-06   -1.639118282601328e-05
-3.346043395757474e-05   4.868049398795067e-06   3.5210278586338795e-06
-3.346043395757474e-05   4.868049398795067e-06   3.5210278586338795e-06
-3.346043395757474e-05   4.868049398795067e-06   3.5210278586338795e-06
-3.346043395757474e-05   4.868049398795067e-06   3.5210278586338795e-06
-2.6885169956502428e-05   4.8616916691211e-06   -7.43393083868217e-06
-2.6885169956502428e-05   4.8616916691211e-06   -7.43393083868217e-06
-2.6885169956502428e-05   4.8616916691211e-06   -7.43393083868217e-06
-2.6885169956502428e-05   4.8616916691211e-06   -7.43393083868217e-06
-3.3460433957574676e-05   5.405421547778611e-06   -1.606875953662316e-05
-3.3460433957574676e-05   5.405421547778611e-06   -1.606875953662316e-05
-3.3460433957574676e-05   5.405421547778611e-06   -1.606875953662316e-05
-3.3460433957574676e-05   5.405421547778611e-06   -1.606875953662316e-05
-2.1706561520420495e-05   4.868049398795067e-06   3.1986045692437398e-06
-2.1706561520420495e-05   4.868049398795067e-06   3.1986045692437398e-06
-2.1706561520420495e-05   4.868049398795067e-06   3.1986045692437398e-06
-2.1706561520420495e-05   4.868049398795067e-06   3.1986045692437398e-06
-2.157606391525351e-05   6.1663105375110516e-06   -1.2133120622788153e-05
-2.157606391525351e-05   6.1663105375110516e-06   -1.2133120622788153e-05
-2.157606391525351e-05   6.1663105375110516e-06   -1.2133120622788153e-05
-2.157606391525351e-05   6.1663105375110516e-06   -1.2133120622788153e-05
-3.251637008924895e-05   5.144477269567255e-06   6.713822961303747e-06
-3.251637008924895e-05   5.144477269567255e-06   6.713822961303747e-06
-3.251637008924895e-05   5.144477269567255e-06   6.713822961303747e-06
-3.251637008924895e-05   5.144477269567255e-06   6.713822961303747e-06
-2.617580486573803e-05   5.336553830073698e-06   -3.969031680851629e-06
-2.617580486573803e-05   5.336553830073698e-06   -3.969031680851629e-06
-2.617580486573803e-05   5.336553830073698e-06   -3.969031680851629e-06
-2.617580486573803e-05   5.336553830073698e-06   -3.969031680851629e-06
-2.107901172970548e-05   1.5341847438444045e-06   -2.3093887506031798e-05
-2.107901172970548e-05   1.5341847438444045e-06   -2.3093887506031798e-05
-2.107901172970548e-05   1.5341847438444045e-06   -2.3093887506031798e-05
-2.107901172970548e-05   1.5341847438444045e-06   -2.3093887506031798e-05
-1.0007024254990192e-05   1.7519329842284256e-06   -4.509926103942532e-06
-1.0007024254990192e-05   1.7519329842284256e-06   -4.509926103942532e-06
-1.0007024254990192e-05   1.7519329842284256e-06   -4.509926103942532e-06
-1.0007024254990192e-05   1.7519329842284256e-06   -4.509926103942532e-06
-1.0239569656391113e-05   2.191045434898641e-06   -2.3055594594606572e-05
-1.0239569656391113e-05   2.191045434898641e-06   -2.3055594594606572e-05
-1.0239569656391113e-05   2.191045434898641e-06   -2.3055594594606572e-05
-1.0239569656391113e-05   2.191045434898641e-06   -2.3055594594606572e-05
-2.1603227561004873e-05   2.4507932709147006e-06   -4.27201345519322e-06
-2.1603227561004873e-05   2.4507932709147006e-06   -4.27201345519322e-06
-2.1603227561004873e-05   2.4507932709147006e-06   -4.27201345519322e-06
-2.1603227561004873e-05   2.4507932709147006e-06   -4.27201345519322e-06
-1.5687465753968925e-05   1.9727899070053116e-06   -1.3844814448574295e-05
-1.5687465753968925e-05   1.9727899070053116e-06   -1.3844814448574295e-05
-1.5687465753968925e-05   1.9727899070053116e-06   -1.3844814448574295e-05
-1.5687465753968925e-05   1.9727899070053116e-06   -1.3844814448574295e-05
-2.1603227561004853e-05   2.191045434898641e-06   -2.3211443296216174e-05
-2.1603227561004853e-05   2.191045434898641e-06   -2.3211443296216174e-05
-2.1603227561004853e-05   2.191045434898641e-06   -2.3211443296216174e-05
-2.1603227561004853e-05   2.191045434898641e-06   -2.3211443296216174e-05
-1.0239569656391131e-05   2.4507932709147006e-06   -4.116164753583596e-06
-1.0239569656391131e-05   2.4507932709147006e-06   -4.116164753583596e-06
-1.0239569656391131e-05   2.4507932709147006e-06   -4.116164753583596e-06
-1.0239569656391131e-05   2.4507932709147006e-06   -4.116164753583596e-06
-1.0307791239138865e-05   2.689032869138686e-06   -2.2625722759449953e-05
-1.0307791239138865e-05   2.689032869138686e-06   -2.2625722759449953e-05
-1.0307791239138865e-05   2.689032869138686e-06   -2.2625722759449953e-05
-1.0307791239138865e-05   2.689032869138686e-06   -2.2625722759449953e-05
-2.1706561520420454e-05   3.0300396559298153e-06   -3.832376362722007e-06
-2.1706561520420454e-05   3.0300396559298153e-06   -3.832376362722007e-06
-2.1706561520420454e-05   3.0300396559298153e-06   -3.832376362722007e-06
-2.1706561520420454e-05   3.0300396559298153e-06   -3.832376362722007e-06
-1.5803957199740068e-05   2.5071612650688527e-06   -1.3356323196006022e-05
-1.5803957199740068e-05   2.5071612650688527e-06   -1.3356323196006022e-05
-1.5803957199740068e-05   2.5071612650688527e-06   -1.3356323196006022e-05
-1.5803957199740068e-05   2.5071612650688527e-06   -1.3356323196006022e-05
-2.1706561520420454e-05   2.689032869138686e-06   -2.283032683152464e-05
-2.1706561520420454e-05   2.689032869138686e-06   -2.283032683152464e-05
-2.1706561520420454e-05   2.689032869138686e-06   -2.283032683152464e-05
-2.1706561520420454e-05   2.689032869138686e-06   -2.283032683152464e-05
-1.0307791239138904e-05   3.030039655929829e-06   -3.6277722906473444e-06
-1.0307791239138904e-05   3.030039655929829e-06   -3.6277722906473444e-06
-1.0307791239138904e-05   3.030039655929829e-06   -3.6277722906473444e-06
-1.0307791239138904e-05   3.030039655929829e-06   -3.6277722906473444e-06
-1.0276104382108417e-05   3.1317331217611686e-06   -2.2397011643900453e-05
-1.0276104382108417e-05   3.1317331217611686e-06   -2.2397011643900453e-05
-1.0276104382108417e-05   3.1317331217611686e-06   -2.2397011643900453e-05
-1.0276104382108417e-05   3.1317331217611686e-06   -2.2397011643900453e-05
-2.157606391525349e-05   3.6539410383057788e-06   -3.877070505252112e-06
-2.157606391525349e-05   3.6539410383057788e-06   -3.877070505252112e-06
-2.157606391525349e-05   3.6539410383057788e-06   -3.877070505252112e-06
-2.157606391525349e-05   3.6539410383057788e-06   -3.877070505252112e-06
-1.5890310410246673e-05   2.990860815642871e-06   -1.2955478213332466e-05
-1.5890310410246673e-05   2.990860815642871e-06   -1.2955478213332466e-05
-1.5890310410246673e-05   2.990860815642871e-06   -1.2955478213332466e-05
-1.5890310410246673e-05   2.990860815642871e-06   -1.2955478213332466e-05
-1.0007024254990173e-05   -1.9956753938011858e-07   -2.419031821541574e-05
-1.0007024254990173e-05   -1.9956753938011858e-07   -2.419031821541574e-05
-1.0007024254990173e-05   -1.9956753938011858e-07   -2.419031821541574e-05
-1.0007024254990173e-05   -1.9956753938011858e-07   -2.419031821541574e-05
9.241771778895772e-07   -5.403324592314143e-08   -5.884328584541964e-06
9.241771778895772e-07   -5.403324592314143e-08   -5.884328584541964e-06
9.241771778895772e-07   -5.403324592314143e-08   -5.884328584541964e-06
9.241771778895772e-07   -5.403324592314143e-08   -5.884328584541964e-06
8.854545084456524e-07   3.897649361385186e-07   -2.432048118954368e-05
8.854545084456524e-07   3.897649361385186e-07   -2.432048118954368e-05
8.854545084456524e-07   3.897649361385186e-07   -2.432048118954368e-05
8.854545084456524e-07   3.897649361385186e-07   -2.432048118954368e-05
-1.0239569656391113e-05   5.902219710301045e-07   -5.899048469083943e-06
-1.0239569656391113e-05   5.902219710301045e-07   -5.899048469083943e-06
-1.0239569656391113e-05   5.902219710301045e-07   -5.899048469083943e-06
-1.0239569656391113e-05   5.902219710301045e-07   -5.899048469083943e-06
-4.636384282870162e-06   1.966279132667746e-07   -1.500153432362757e-05
-4.636384282870162e-06   1.966279132667746e-07   -1.500153432362757e-05
-4.636384282870162e-06   1.966279132667746e-07   -1.500153432362757e-05
-4.636384282870162e-06   1.966279132667746e-07   -1.500153432362757e-05
-1.0239569656391113e-05   3.897649361385254e-07   -2.4440755410478602e-05
-1.0239569656391113e-05   3.897649361385254e-07   -2.4440755410478602e-05
-1.0239569656391113e-05   3.897649361385254e-07   -2.4440755410478602e-05
-1.0239569656391113e-05   3.897649361385254e-07   -2.4440755410478602e-05
8.854545084456524e-07   5.90221971030118e-07   -5.778774248149007e-06
8.854545084456524e-07   5.90221971030118e-07   -5.778774248149007e-06
8.854545084456524e-07   5.90221971030118e-07   -5.778774248149007e-06
8.854545084456524e-07   5.90221971030118e-07   -5.778774248149007e-06
8.310446671934569e-07   9.09227497857298e-07   -2.4369642994646273e-05
8.310446671934569e-07   9.09227497857298e-07   -2.4369642994646273e-05
8.310446671934569e-07   9.09227497857298e-07   -2.4369642994646273e-05
8.310446671934569e-07   9.09227497857298e-07   -2.4369642994646273e-05
-1.0307791239138865e-05   1.2199362102315075e-06   -5.9913417115169424e-06
-1.0307791239138865e-05   1.2199362102315075e-06   -5.9913417115169424e-06
-1.0307791239138865e-05   1.2199362102315075e-06   -5.9913417115169424e-06
-1.0307791239138865e-05   1.2199362102315075e-06   -5.9913417115169424e-06
-4.716265688291651e-06   7.420987682271724e-07   -1.5023848497726316e-05
-4.716265688291651e-06   7.420987682271724e-07   -1.5023848497726316e-05
-4.716265688291651e-06   7.420987682271724e-07   -1.5023848497726316e-05
-4.716265688291651e-06   7.420987682271724e-07   -1.5023848497726316e-05
-1.0307791239138865e-05   9.09227497857298e-07   -2.455606822207079e-05
-1.0307791239138865e-05   9.09227497857298e-07   -2.455606822207079e-05
-1.0307791239138865e-05   9.09227497857298e-07   -2.455606822207079e-05
-1.0307791239138865e-05   9.09227497857298e-07   -2.455606822207079e-05
8.310446671934584e-07   1.2199362102315075e-06   -5.804916484092434e-06
8.310446671934584e-07   1.2199362102315075e-06   -5.804916484092434e-06
8.310446671934584e-07   1.2199362102315075e-06   -5.804916484092434e-06
8.310446671934584e-07   1.2199362102315075e-06   -5.804916484092434e-06
7.140887859663752e-07   1.5102133463239218e-06   -2.4328540785473302e-05
7.140887859663752e-07   1.5102133463239218e-06   -2.4328540785473302e-05
7.140887859663752e-07   1.5102133463239218e-06   -2.4328540785473302e-05
7.140887859663752e-07   1.5102133463239218e-06   -2.4328540785473302e-05
-1.0276104382108425e-05   1.875766268166762e-06   -6.230883925121038e-06
-1.0276104382108425e-05   1.875766268166762e-06   -6.230883925121038e-06
-1.0276104382108425e-05   1.875766268166762e-06   -6.230883925121038e-06
-1.0276104382108425e-05   1.875766268166762e-06   -6.230883925121038e-06
-4.7619833151857645e-06   1.3024713098094126e-06   -1.5077108728311034e-05
-4.7619833151857645e-06   1.3024713098094126e-06   -1.5077108728311034e-05
-4.7619833151857645e-06   1.3024713098094126e-06   -1.5077108728311034e-05
-4.7619833151857645e-06   1.3024713098094126e-06   -1.5077108728311034e-05
9.241771778895772e-07   -1.7468960589475343e-06   -2.2316245206472312e-05
9.241771778895772e-07   -1.7468960589475343e-06   -2.2316245206472312e-05
9.241771778895772e-07   -1.7468960589475343e-06   -2.2316245206472312e-05
9.241771778895772e-07   -1.7468960589475343e-06   -2.2316245206472312e-05
1.2188634722007932e-05   -1.7954209816976549e-06   -3.5712642532584457e-06
1.2188634722007932e-05   -1.7954209816976549e-06   -3.5712642532584457e-06
1.2188634722007932e-05   -1.7954209816976549e-06   -3.5712642532584457e-06
1.2188634722007932e-05   -1.7954209816976549e-06   -3.5712642532584457e-06
1.2296100375159392e-05   -1.3136848567590914e-06   -2.2620204912603948e-05
1.2296100375159392e-05   -1.3136848567590914e-06   -2.2620204912603948e-05
1.2296100375159392e-05   -1.3136848567590914e-06   -2.2620204912603948e-05
1.2296100375159392e-05   -1.3136848567590914e-06   -2.2620204912603948e-05
8.854545084456524e-07   -1.2087553800897022e-06   -3.665419487415982e-06
8.854545084456524e-07   -1.2087553800897022e-06   -3.665419487415982e-06
8.854545084456524e-07   -1.2087553800897022e-06   -3.665419487415982e-06
8.854545084456524e-07   -1.2087553800897022e-06   -3.665419487415982e-06
6.489709214347226e-06   -1.449063651359539e-06   -1.2861659034490066e-05
6.489709214347226e-06   -1.449063651359539e-06   -1.2861659034490066e-05
6.489709214347226e-06   -1.449063651359539e-06   -1.2861659034490066e-05
6.489709214347226e-06   -1.449063651359539e-06   -1.2861659034490066e-05
8.854545084456511e-07   -1.3136848567590981e-06   -2.268316259860562e-05
8.854545084456511e-07   -1.3136848567590981e-06   -2.268316259860562e-05
8.854545084456511e-07   -1.3136848567590981e-06   -2.268316259860562e-05
8.854545084456511e-07   -1.3136848567590981e-06   -2.268316259860562e-05
1.2296100375159414e-05   -1.2087553800896886e-06   -3.602461801414326e-06
1.2296100375159414e-05   -1.2087553800896886e-06   -3.602461801414326e-06
1.2296100375159414e-05   -1.2087553800896886e-06   -3.602461801414326e-06
1.2296100375159414e-05   -1.2087553800896886e-06   -3.602461801414326e-06
1.2243249703306209e-05   -8.214511989470988e-07   -2.303946961136005e-05
1.2243249703306209e-05   -8.214511989470988e-07   -2.303946961136005e-05
1.2243249703306209e-05   -8.214511989470988e-07   -2.303946961136005e-05
1.2243249703306209e-05   -8.214511989470988e-07   -2.303946961136005e-05
8.310446671934569e-07   -6.34897709685567e-07   -4.131059978062409e-06
8.310446671934569e-07   -6.34897709685567e-07   -4.131059978062409e-06
8.310446671934569e-07   -6.34897709685567e-07   -4.131059978062409e-06
8.310446671934569e-07   -6.34897709685567e-07   -4.131059978062409e-06
6.426625721820491e-06   -9.81917249438875e-07   -1.3248816678588787e-05
6.426625721820491e-06   -9.81917249438875e-07   -1.3248816678588787e-05
6.426625721820491e-06   -9.81917249438875e-07   -1.3248816678588787e-05
6.426625721820491e-06   -9.81917249438875e-07   -1.3248816678588787e-05
8.310446671934561e-07   -8.214511989470988e-07   -2.3151401704916966e-05
8.310446671934561e-07   -8.214511989470988e-07   -2.3151401704916966e-05
8.310446671934561e-07   -8.214511989470988e-07   -2.3151401704916966e-05
8.310446671934561e-07   -8.214511989470988e-07   -2.3151401704916966e-05
1.2243249703306253e-05   -6.348977096855805e-07   -4.019127884505506e-06
1.2243249703306253e-05   -6.348977096855805e-07   -4.019127884505506e-06
1.2243249703306253e-05   -6.348977096855805e-07   -4.019127884505506e-06
1.2243249703306253e-05   -6.348977096855805e-07   -4.019127884505506e-06
1.189104730306095e-05   -1.6074625457762848e-07   -2.3081139247930015e-05
1.189104730306095e-05   -1.6074625457762848e-07   -2.3081139247930015e-05
1.189104730306095e-05   -1.6074625457762848e-07   -2.3081139247930015e-05
1.189104730306095e-05   -1.6074625457762848e-07   -2.3081139247930015e-05
7.140887859663752e-07   7.388181336764389e-08   -4.5936518935395825e-06
7.140887859663752e-07   7.388181336764389e-08   -4.5936518935395825e-06
7.140887859663752e-07   7.388181336764389e-08   -4.5936518935395825e-06
7.140887859663752e-07   7.388181336764389e-08   -4.5936518935395825e-06
6.36242891864174e-06   -4.3638816125802604e-07   -1.370139012988976e-05
6.36242891864174e-06   -4.3638816125802604e-07   -1.370139012988976e-05
6.36242891864174e-06   -4.3638816125802604e-07   -1.370139012988976e-05
6.36242891864174e-06   -4.3638816125802604e-07   -1.370139012988976e-05
1.2188634722007932e-05   -4.437945085597162e-06   -1.34997632605284e-05
1.2188634722007932e-05   -4.437945085597162e-06   -1.34997632605284e-05
1.2188634722007932e-05   -4.437945085597162e-06   -1.34997632605284e-05
1.2188634722007932e-05   -4.437945085597162e-06   -1.34997632605284e-05
2.3292190497197423e-05   -3.330965759976436e-06   5.6703506268264875e-06
2.3292190497197423e-05   -3.330965759976436e-06   5.6703506268264875e-06
2.3292190497197423e-05   -3.330965759976436e-06   5.6703506268264875e-06
2.3292190497197423e-05   -3.330965759976436e-06   5.6703506268264875e-06
2.4195963950267333e-05   -3.7684702763413354e-06   -1.6375612454601203e-05
2.4195963950267333e-05   -3.7684702763413354e-06   -1.6375612454601203e-05
2.4195963950267333e-05   -3.7684702763413354e-06   -1.6375612454601203e-05
2.4195963950267333e-05   -3.7684702763413354e-06   -1.6375612454601203e-05
1.2296100375159436e-05   -3.015771725689304e-06   3.005874373520801e-06
1.2296100375159436e-05   -3.015771725689304e-06   3.005874373520801e-06
1.2296100375159436e-05   -3.015771725689304e-06   3.005874373520801e-06
1.2296100375159436e-05   -3.015771725689304e-06   3.005874373520801e-06
1.7156082702365657e-05   -3.621369137774409e-06   -4.730737724571878e-06
1.7156082702365657e-05   -3.621369137774409e-06   -4.730737724571878e-06
1.7156082702365657e-05   -3.621369137774409e-06   -4.730737724571878e-06
1.7156082702365657e-05   -3.621369137774409e-06   -4.730737724571878e-06
1.2296100375159402e-05   -3.7684702763413286e-06   -1.682723158499236e-05
1.2296100375159402e-05   -3.7684702763413286e-06   -1.682723158499236e-05
1.2296100375159402e-05   -3.7684702763413286e-06   -1.682723158499236e-05
1.2296100375159402e-05   -3.7684702763413286e-06   -1.682723158499236e-05
2.4195963950267333e-05   -3.015771725689304e-06   3.457493503912016e-06
2.4195963950267333e-05   -3.015771725689304e-06   3.457493503912016e-06
2.4195963950267333e-05   -3.015771725689304e-06   3.457493503912016e-06
2.4195963950267333e-05   -3.015771725689304e-06   3.457493503912016e-06
2.4116616214784715e-05   -3.440867562847721e-06   -1.78004251712418e-05
2.4116616214784715e-05   -3.440867562847721e-06   -1.78004251712418e-05
2.4116616214784715e-05   -3.440867562847721e-06   -1.78004251712418e-05
2.4116616214784715e-05   -3.440867562847721e-06   -1.78004251712418e-05
1.2243249703306253e-05   -2.6856979059384226e-06   1.5354172204100266e-06
1.2243249703306253e-05   -2.6856979059384226e-06   1.5354172204100266e-06
1.2243249703306253e-05   -2.6856979059384226e-06   1.5354172204100266e-06
1.2243249703306253e-05   -2.6856979059384226e-06   1.5354172204100266e-06
1.7766522706424943e-05   -3.19389805106035e-06   -7.365117697714627e-06
1.7766522706424943e-05   -3.19389805106035e-06   -7.365117697714627e-06
1.7766522706424943e-05   -3.19389805106035e-06   -7.365117697714627e-06
1.7766522706424943e-05   -3.19389805106035e-06   -7.365117697714627e-06
1.224324970330623e-05   -3.440867562847721e-06   -1.825352696538736e-05
1.224324970330623e-05   -3.440867562847721e-06   -1.825352696538736e-05
1.224324970330623e-05   -3.440867562847721e-06   -1.825352696538736e-05
1.224324970330623e-05   -3.440867562847721e-06   -1.825352696538736e-05
2.4116616214784715e-05   -2.6856979059384226e-06   1.9885190145556124e-06
2.4116616214784715e-05   -2.6856979059384226e-06   1.9885190145556124e-06
2.4116616214784715e-05   -2.6856979059384226e-06   1.9885190145556124e-06
2.4116616214784715e-05   -2.6856979059384226e-06   1.9885190145556124e-06
2.3983801731723738e-05   -2.665492307318761e-06   -2.071128762150431e-05
2.3983801731723738e-05   -2.665492307318761e-06   -2.071128762150431e-05
2.3983801731723738e-05   -2.665492307318761e-06   -2.071128762150431e-05
2.3983801731723738e-05   -2.665492307318761e-06   -2.071128762150431e-05
1.1891047303060993e-05   -1.9759447444917514e-06   -9.704254447626164e-07
1.1891047303060993e-05   -1.9759447444917514e-06   -9.704254447626164e-07
1.1891047303060993e-05   -1.9759447444917514e-06   -9.704254447626164e-07
1.1891047303060993e-05   -1.9759447444917514e-06   -9.704254447626164e-07
1.7265962783856578e-05   -2.746972332796178e-06   -9.466001359772586e-06
1.7265962783856578e-05   -2.746972332796178e-06   -9.466001359772586e-06
1.7265962783856578e-05   -2.746972332796178e-06   -9.466001359772586e-06
1.7265962783856578e-05   -2.746972332796178e-06   -9.466001359772586e-06
-2.6108054209393716e-05   3.764570913296117e-06   -1.8092068795356485e-05
-2.6108054209393716e-05   3.764570913296117e-06   -1.8092068795356485e-05
-2.6108054209393716e-05   3.764570913296117e-06   -1.8092068795356485e-05
-2.6108054209393716e-05   3.764570913296117e-06   -1.8092068795356485e-05
-1.713923336042285e-05   2.868240488048421e-06   -3.6818323022203494e-06
-1.713923336042285e-05   2.868240488048421e-06   -3.6818323022203494e-06
-1.713923336042285e-05   2.868240488048421e-06   -3.6818323022203494e-06
-1.713923336042285e-05   2.868240488048421e-06   -3.6818323022203494e-06
-1.7218473440518408e-05   4.524724351154334e-06   -1.502616487925344e-05
-1.7218473440518408e-05   4.524724351154334e-06   -1.502616487925344e-05
-1.7218473440518408e-05   4.524724351154334e-06   -1.502616487925344e-05
-1.7218473440518408e-05   4.524724351154334e-06   -1.502616487925344e-05
-2.5701860159814608e-05   3.4742287647014376e-06   -2.568896618880155e-07
-2.5701860159814608e-05   3.4742287647014376e-06   -2.568896618880155e-07
-2.5701860159814608e-05   3.4742287647014376e-06   -2.568896618880155e-07
-2.5701860159814608e-05   3.4742287647014376e-06   -2.568896618880155e-07
-2.0630311566955467e-05   3.830255734531583e-06   -8.923086831884777e-06
-2.0630311566955467e-05   3.830255734531583e-06   -8.923086831884777e-06
-2.0630311566955467e-05   3.830255734531583e-06   -8.923086831884777e-06
-2.0630311566955467e-05   3.830255734531583e-06   -8.923086831884777e-06
-2.5701860159814608e-05   4.524724351154334e-06   -1.4395867527381692e-05
-2.5701860159814608e-05   4.524724351154334e-06   -1.4395867527381692e-05
-2.5701860159814608e-05   4.524724351154334e-06   -1.4395867527381692e-05
-2.5701860159814608e-05   4.524724351154334e-06   -1.4395867527381692e-05
-1.7218473440518408e-05   3.4742287647014376e-06   -8.871870137597301e-07
-1.7218473440518408e-05   3.4742287647014376e-06   -8.871870137597301e-07
-1.7218473440518408e-05   3.4742287647014376e-06   -8.871870137597301e-07
-1.7218473440518408e-05   3.4742287647014376e-06   -8.871870137597301e-07
-1.7197180995348576e-05   4.868049398795067e-06   -1.2858216686844172e-05
-1.7197180995348576e-05   4.868049398795067e-06   -1.2858216686844172e-05
-1.7197180995348576e-05   4.868049398795067e-06   -1.2858216686844172e-05
-1.7197180995348576e-05   4.868049398795067e-06   -1.2858216686844172e-05
-2.5307961588695043e-05   3.7412563237468723e-06   1.335826813762082e-06
-2.5307961588695043e-05   3.7412563237468723e-06   1.335826813762082e-06
-2.5307961588695043e-05   3.7412563237468723e-06   1.335826813762082e-06
-2.5307961588695043e-05   3.7412563237468723e-06   1.335826813762082e-06
-2.0802859774794195e-05   4.181482567679982e-06   -6.436811955765621e-06
-2.0802859774794195e-05   4.181482567679982e-06   -6.436811955765621e-06
-2.0802859774794195e-05   4.181482567679982e-06   -6.436811955765621e-06
-2.0802859774794195e-05   4.181482567679982e-06   -6.436811955765621e-06
-2.5307961588695043e-05   4.868049398795067e-06   -1.218214084181526e-05
-2.5307961588695043e-05   4.868049398795067e-06   -1.218214084181526e-05
-2.5307961588695043e-05   4.868049398795067e-06   -1.218214084181526e-05
-2.5307961588695043e-05   4.868049398795067e-06   -1.218214084181526e-05
-1.719718099534861e-05   3.7412563237468994e-06   6.597509687332858e-07
-1.719718099534861e-05   3.7412563237468994e-06   6.597509687332858e-07
-1.719718099534861e-05   3.7412563237468994e-06   6.597509687332858e-07
-1.719718099534861e-05   3.7412563237468994e-06   6.597509687332858e-07
-1.7211867293748627e-05   5.144477269567255e-06   -9.8287701580665e-06
-1.7211867293748627e-05   5.144477269567255e-06   -9.8287701580665e-06
-1.7211867293748627e-05   5.144477269567255e-06   -9.8287701580665e-06
-1.7211867293748627e-05   5.144477269567255e-06   -9.8287701580665e-06
-2.4796485068851254e-05   4.006662203705203e-06   3.4949485066216516e-06
-2.4796485068851254e-05   4.006662203705203e-06   3.4949485066216516e-06
-2.4796485068851254e-05   4.006662203705203e-06   3.4949485066216516e-06
-2.4796485068851254e-05   4.006662203705203e-06   3.4949485066216516e-06
-2.0324253502125142e-05   4.368347406481088e-06   -4.1757818929204655e-06
-2.0324253502125142e-05   4.368347406481088e-06   -4.1757818929204655e-06
-2.0324253502125142e-05   4.368347406481088e-06   -4.1757818929204655e-06
-2.0324253502125142e-05   4.368347406481088e-06   -4.1757818929204655e-06
-1.713923336042285e-05   1.7519329842284256e-06   -2.1018032922158646e-05
-1.713923336042285e-05   1.7519329842284256e-06   -2.1018032922158646e-05
-1.713923336042285e-05   1.7519329842284256e-06   -2.1018032922158646e-05
-1.713923336042285e-05   1.7519329842284256e-06   -2.1018032922158646e-05
-8.74827314781849e-06   1.433320855092371e-06   -7.224266511966346e-06
-8.74827314781849e-06   1.433320855092371e-06   -7.224266511966346e-06
-8.74827314781849e-06   1.433320855092371e-06   -7.224266511966346e-06
-8.74827314781849e-06   1.433320855092371e-06   -7.224266511966346e-06
-8.851563345373304e-06   2.4507932709147006e-06   -2.071779721554725e-05
-8.851563345373304e-06   2.4507932709147006e-06   -2.071779721554725e-05
-8.851563345373304e-06   2.4507932709147006e-06   -2.071779721554725e-05
-8.851563345373304e-06   2.4507932709147006e-06   -2.071779721554725e-05
-1.721847344051838e-05   2.0299719630253814e-06   -6.520454272238477e-06
-1.721847344051838e-05   2.0299719630253814e-06   -6.520454272238477e-06
-1.721847344051838e-05   2.0299719630253814e-06   -6.520454272238477e-06
-1.721847344051838e-05   2.0299719630253814e-06   -6.520454272238477e-06
-1.2877738198869449e-05   2.0247257885571226e-06   -1.3751865303639137e-05
-1.2877738198869449e-05   2.0247257885571226e-06   -1.3751865303639137e-05
-1.2877738198869449e-05   2.0247257885571226e-06   -1.3751865303639137e-05
-1.2877738198869449e-05   2.0247257885571226e-06   -1.3751865303639137e-05
-1.7218473440518394e-05   2.4507932709147006e-06   -2.0465304430813608e-05
-1.7218473440518394e-05   2.4507932709147006e-06   -2.0465304430813608e-05
-1.7218473440518394e-05   2.4507932709147006e-06   -2.0465304430813608e-05
-1.7218473440518394e-05   2.4507932709147006e-06   -2.0465304430813608e-05
-8.851563345373321e-06   2.0299719630253814e-06   -6.772947056972042e-06
-8.851563345373321e-06   2.0299719630253814e-06   -6.772947056972042e-06
-8.851563345373321e-06   2.0299719630253814e-06   -6.772947056972042e-06
-8.851563345373321e-06   2.0299719630253814e-06   -6.772947056972042e-06
-8.917522736033783e-06   3.0300396559298153e-06   -2.0170598590312346e-05
-8.917522736033783e-06   3.0300396559298153e-06   -2.0170598590312346e-05
-8.917522736033783e-06   3.0300396559298153e-06   -2.0170598590312346e-05
-8.917522736033783e-06   3.0300396559298153e-06   -2.0170598590312346e-05
-1.7197180995348576e-05   2.5610380367590906e-06   -6.089767186618679e-06
-1.7197180995348576e-05   2.5610380367590906e-06   -6.089767186618679e-06
-1.7197180995348576e-05   2.5610380367590906e-06   -6.089767186618679e-06
-1.7197180995348576e-05   2.5610380367590906e-06   -6.089767186618679e-06
-1.289888969961035e-05   2.5162591397686045e-06   -1.3226718674654535e-05
-1.289888969961035e-05   2.5162591397686045e-06   -1.3226718674654535e-05
-1.289888969961035e-05   2.5162591397686045e-06   -1.3226718674654535e-05
-1.289888969961035e-05   2.5162591397686045e-06   -1.3226718674654535e-05
-1.7197180995348576e-05   3.030039655929829e-06   -1.988919761880992e-05
-1.7197180995348576e-05   3.030039655929829e-06   -1.988919761880992e-05
-1.7197180995348576e-05   3.030039655929829e-06   -1.988919761880992e-05
-1.7197180995348576e-05   3.030039655929829e-06   -1.988919761880992e-05
-8.91752273603381e-06   2.5610380367590906e-06   -6.3711681581210274e-06
-8.91752273603381e-06   2.5610380367590906e-06   -6.3711681581210274e-06
-8.91752273603381e-06   2.5610380367590906e-06   -6.3711681581210274e-06
-8.91752273603381e-06   2.5610380367590906e-06   -6.3711681581210274e-06
-9.00397306739155e-06   3.653941038305806e-06   -2.012272297744841e-05
-9.00397306739155e-06   3.653941038305806e-06   -2.012272297744841e-05
-9.00397306739155e-06   3.653941038305806e-06   -2.012272297744841e-05
-9.00397306739155e-06   3.653941038305806e-06   -2.012272297744841e-05
-1.7211867293748614e-05   3.127008848985278e-06   -6.1267399532609926e-06
-1.7211867293748614e-05   3.127008848985278e-06   -6.1267399532609926e-06
-1.7211867293748614e-05   3.127008848985278e-06   -6.1267399532609926e-06
-1.7211867293748614e-05   3.127008848985278e-06   -6.1267399532609926e-06
-1.3048959864420514e-05   3.0040048622815847e-06   -1.2991116610118762e-05
-1.3048959864420514e-05   3.0040048622815847e-06   -1.2991116610118762e-05
-1.3048959864420514e-05   3.0040048622815847e-06   -1.2991116610118762e-05
-1.3048959864420514e-05   3.0040048622815847e-06   -1.2991116610118762e-05
-8.748273147818473e-06   -5.403324592314143e-08   -2.26709232563139e-05
-8.748273147818473e-06   -5.403324592314143e-08   -2.26709232563139e-05
-8.748273147818473e-06   -5.403324592314143e-08   -2.26709232563139e-05
-8.748273147818473e-06   -5.403324592314143e-08   -2.26709232563139e-05
-4.480038625064156e-07   7.692367204499562e-08   -8.758566963346239e-06
-4.480038625064156e-07   7.692367204499562e-08   -8.758566963346239e-06
-4.480038625064156e-07   7.692367204499562e-08   -8.758566963346239e-06
-4.480038625064156e-07   7.692367204499562e-08   -8.758566963346239e-06
-5.305059067059362e-07   5.902219710301045e-07   -2.2455724696860167e-05
-5.305059067059362e-07   5.902219710301045e-07   -2.2455724696860167e-05
-5.305059067059362e-07   5.902219710301045e-07   -2.2455724696860167e-05
-5.305059067059362e-07   5.902219710301045e-07   -2.2455724696860167e-05
-8.851563345373304e-06   6.651490280091253e-07   -8.632251866602005e-06
-8.851563345373304e-06   6.651490280091253e-07   -8.632251866602005e-06
-8.851563345373304e-06   6.651490280091253e-07   -8.632251866602005e-06
-8.851563345373304e-06   6.651490280091253e-07   -8.632251866602005e-06
-4.618077570881598e-06   3.8822661659656523e-07   -1.55219080439073e-05
-4.618077570881598e-06   3.8822661659656523e-07   -1.55219080439073e-05
-4.618077570881598e-06   3.8822661659656523e-07   -1.55219080439073e-05
-4.618077570881598e-06   3.8822661659656523e-07   -1.55219080439073e-05
-8.851563345373304e-06   5.902219710301045e-07   -2.250068093104761e-05
-8.851563345373304e-06   5.902219710301045e-07   -2.250068093104761e-05
-8.851563345373304e-06   5.902219710301045e-07   -2.250068093104761e-05
-8.851563345373304e-06   5.902219710301045e-07   -2.250068093104761e-05
-5.305059067059366e-07   6.651490280091253e-07   -8.587295632414549e-06
-5.305059067059366e-07   6.651490280091253e-07   -8.587295632414549e-06
-5.305059067059366e-07   6.651490280091253e-07   -8.587295632414549e-06
-5.305059067059366e-07   6.651490280091253e-07   -8.587295632414549e-06
-5.890892548627816e-07   1.2199362102315075e-06   -2.2515101006977966e-05
-5.890892548627816e-07   1.2199362102315075e-06   -2.2515101006977966e-05
-5.890892548627816e-07   1.2199362102315075e-06   -2.2515101006977966e-05
-5.890892548627816e-07   1.2199362102315075e-06   -2.2515101006977966e-05
-8.917522736033797e-06   1.251714550571509e-06   -8.653445542563699e-06
-8.917522736033797e-06   1.251714550571509e-06   -8.653445542563699e-06
-8.917522736033797e-06   1.251714550571509e-06   -8.653445542563699e-06
-8.917522736033797e-06   1.251714550571509e-06   -8.653445542563699e-06
-4.725423623063087e-06   9.072215910917994e-07   -1.5433581621826946e-05
-4.725423623063087e-06   9.072215910917994e-07   -1.5433581621826946e-05
-4.725423623063087e-06   9.072215910917994e-07   -1.5433581621826946e-05
-4.725423623063087e-06   9.072215910917994e-07   -1.5433581621826946e-05
-8.917522736033797e-06   1.2199362102315075e-06   -2.2534168011182005e-05
-8.917522736033797e-06   1.2199362102315075e-06   -2.2534168011182005e-05
-8.917522736033797e-06   1.2199362102315075e-06   -2.2534168011182005e-05
-8.917522736033797e-06   1.2199362102315075e-06   -2.2534168011182005e-05
-5.890892548627824e-07   1.251714550571482e-06   -8.634378538359606e-06
-5.890892548627824e-07   1.251714550571482e-06   -8.634378538359606e-06
-5.890892548627824e-07   1.251714550571482e-06   -8.634378538359606e-06
-5.890892548627824e-07   1.251714550571482e-06   -8.634378538359606e-06
-6.828247736692556e-07   1.875766268166762e-06   -2.2804231826958164e-05
-6.828247736692556e-07   1.875766268166762e-06   -2.2804231826958164e-05
-6.828247736692556e-07   1.875766268166762e-06   -2.2804231826958164e-05
-6.828247736692556e-07   1.875766268166762e-06   -2.2804231826958164e-05
-9.003973067391544e-06   1.8518151353098973e-06   -8.921280657706993e-06
-9.003973067391544e-06   1.8518151353098973e-06   -8.921280657706993e-06
-9.003973067391544e-06   1.8518151353098973e-06   -8.921280657706993e-06
-9.003973067391544e-06   1.8518151353098973e-06   -8.921280657706993e-06
-4.839627212579807e-06   1.4323909975198388e-06   -1.561020259971906e-05
-4.839627212579807e-06   1.4323909975198388e-06   -1.561020259971906e-05
-4.839627212579807e-06   1.4323909975198388e-06   -1.561020259971906e-05
-4.839627212579807e-06   1.4323909975198388e-06   -1.561020259971906e-05
-4.4800386250641624e-07   -1.7954209816976684e-06   -2.0250169820599454e-05
-4.4800386250641624e-07   -1.7954209816976684e-06   -2.0250169820599454e-05
-4.4800386250641624e-07   -1.7954209816976684e-06   -2.0250169820599454e-05
-4.4800386250641624e-07   -1.7954209816976684e-06   -2.0250169820599454e-05
7.804461048304357e-06   -1.1985105409102184e-06   -6.137915371442381e-06
7.804461048304357e-06   -1.1985105409102184e-06   -6.137915371442381e-06
7.804461048304357e-06   -1.1985105409102184e-06   -6.137915371442381e-06
7.804461048304357e-06   -1.1985105409102184e-06   -6.137915371442381e-06
7.801420397454108e-06   -1.2087553800897022e-06   -2.0011936731883367e-05
7.801420397454108e-06   -1.2087553800897022e-06   -2.0011936731883367e-05
7.801420397454108e-06   -1.2087553800897022e-06   -2.0011936731883367e-05
7.801420397454108e-06   -1.2087553800897022e-06   -2.0011936731883367e-05
-5.305059067059366e-07   -6.580333730166232e-07   -6.455826095860463e-06
-5.305059067059366e-07   -6.580333730166232e-07   -6.455826095860463e-06
-5.305059067059366e-07   -6.580333730166232e-07   -6.455826095860463e-06
-5.305059067059366e-07   -6.580333730166232e-07   -6.455826095860463e-06
3.6293728665942736e-06   -1.172073382298117e-06   -1.3080533379125233e-05
3.6293728665942736e-06   -1.172073382298117e-06   -1.3080533379125233e-05
3.6293728665942736e-06   -1.172073382298117e-06   -1.3080533379125233e-05
3.6293728665942736e-06   -1.172073382298117e-06   -1.3080533379125233e-05
-5.305059067059366e-07   -1.2087553800896886e-06   -2.034236993612717e-05
-5.305059067059366e-07   -1.2087553800896886e-06   -2.034236993612717e-05
-5.305059067059366e-07   -1.2087553800896886e-06   -2.034236993612717e-05
-5.305059067059366e-07   -1.2087553800896886e-06   -2.034236993612717e-05
7.801420397454108e-06   -6.580333730166232e-07   -6.125392891616593e-06
7.801420397454108e-06   -6.580333730166232e-07   -6.125392891616593e-06
7.801420397454108e-06   -6.580333730166232e-07   -6.125392891616593e-06
7.801420397454108e-06   -6.580333730166232e-07   -6.125392891616593e-06
7.842724571426605e-06   -6.348977096855805e-07   -2.0537137037903008e-05
7.842724571426605e-06   -6.348977096855805e-07   -2.0537137037903008e-05
7.842724571426605e-06   -6.348977096855805e-07   -2.0537137037903008e-05
7.842724571426605e-06   -6.348977096855805e-07   -2.0537137037903008e-05
-5.890892548627837e-07   -1.280519379439184e-07   -6.788221457132433e-06
-5.890892548627837e-07   -1.280519379439184e-07   -6.788221457132433e-06
-5.890892548627837e-07   -1.280519379439184e-07   -6.788221457132433e-06
-5.890892548627837e-07   -1.280519379439184e-07   -6.788221457132433e-06
3.519162533004383e-06   -7.037246870453002e-07   -1.3289904120783436e-05
3.519162533004383e-06   -7.037246870453002e-07   -1.3289904120783436e-05
3.519162533004383e-06   -7.037246870453002e-07   -1.3289904120783436e-05
3.519162533004383e-06   -7.037246870453002e-07   -1.3289904120783436e-05
-5.89089254862782e-07   -6.348977096855805e-07   -2.084124450094793e-05
-5.89089254862782e-07   -6.348977096855805e-07   -2.084124450094793e-05
-5.89089254862782e-07   -6.348977096855805e-07   -2.084124450094793e-05
-5.89089254862782e-07   -6.348977096855805e-07   -2.084124450094793e-05
7.842724571426605e-06   -1.280519379438913e-07   -6.484113994087323e-06
7.842724571426605e-06   -1.280519379438913e-07   -6.484113994087323e-06
7.842724571426605e-06   -1.280519379438913e-07   -6.484113994087323e-06
7.842724571426605e-06   -1.280519379438913e-07   -6.484113994087323e-06
7.785886430068749e-06   7.388181336764389e-08   -2.1136386471599347e-05
7.785886430068749e-06   7.388181336764389e-08   -2.1136386471599347e-05
7.785886430068749e-06   7.388181336764389e-08   -2.1136386471599347e-05
7.785886430068749e-06   7.388181336764389e-08   -2.1136386471599347e-05
-6.828247736692569e-07   4.90456941506243e-07   -7.271812875585864e-06
-6.828247736692569e-07   4.90456941506243e-07   -7.271812875585864e-06
-6.828247736692569e-07   4.90456941506243e-07   -7.271812875585864e-06
-6.828247736692569e-07   4.90456941506243e-07   -7.271812875585864e-06
3.4821582616084055e-06   -2.035697959389452e-07   -1.379703522524807e-05
3.4821582616084055e-06   -2.035697959389452e-07   -1.379703522524807e-05
3.4821582616084055e-06   -2.035697959389452e-07   -1.379703522524807e-05
3.4821582616084055e-06   -2.035697959389452e-07   -1.379703522524807e-05
7.804461048304344e-06   -3.3309657599764223e-06   -1.1314596271414494e-05
7.804461048304344e-06   -3.3309657599764223e-06   -1.1314596271414494e-05
7.804461048304344e-06   -3.3309657599764223e-06   -1.1314596271414494e-05
7.804461048304344e-06   -3.3309657599764223e-06   -1.1314596271414494e-05
1.5507869451100105e-05   -2.1654368735575297e-06   2.2237350650964737e-06
1.5507869451100105e-05   -2.1654368735575297e-06   2.2237350650964737e-06
1.5507869451100105e-05   -2.1654368735575297e-06   2.2237350650964737e-06
1.5507869451100105e-05   -2.1654368735575297e-06   2.2237350650964737e-06
1.6042527693039533e-05   -3.015771725689304e-06   -1.270530198241995e-05
1.6042527693039533e-05   -3.015771725689304e-06   -1.270530198241995e-05
1.6042527693039533e-05   -3.015771725689304e-06   -1.270530198241995e-05
1.6042527693039533e-05   -3.015771725689304e-06   -1.270530198241995e-05
7.801420397454094e-06   -1.851940768142241e-06   3.3157826902758636e-07
7.801420397454094e-06   -1.851940768142241e-06   3.3157826902758636e-07
7.801420397454094e-06   -1.851940768142241e-06   3.3157826902758636e-07
7.801420397454094e-06   -1.851940768142241e-06   3.3157826902758636e-07
1.1285431636859164e-05   -2.559893685857536e-06   -5.050335379351732e-06
1.1285431636859164e-05   -2.559893685857536e-06   -5.050335379351732e-06
1.1285431636859164e-05   -2.559893685857536e-06   -5.050335379351732e-06
1.1285431636859164e-05   -2.559893685857536e-06   -5.050335379351732e-06
7.80142039745409e-06   -3.015771725689304e-06   -1.3403600556948146e-05
7.80142039745409e-06   -3.015771725689304e-06   -1.3403600556948146e-05
7.80142039745409e-06   -3.015771725689304e-06   -1.3403600556948146e-05
7.80142039745409e-06   -3.015771725689304e-06   -1.3403600556948146e-05
1.6042527693039533e-05   -1.851940768142241e-06   1.029876843555846e-06
1.6042527693039533e-05   -1.851940768142241e-06   1.029876843555846e-06
1.6042527693039533e-05   -1.851940768142241e-06   1.029876843555846e-06
1.6042527693039533e-05   -1.851940768142241e-06   1.029876843555846e-06
1.645575975301473e-05   -2.6856979059384226e-06   -1.4322426272916246e-05
1.645575975301473e-05   -2.6856979059384226e-06   -1.4322426272916246e-05
1.645575975301473e-05   -2.6856979059384226e-06   -1.4322426272916246e-05
1.645575975301473e-05   -2.6856979059384226e-06   -1.4322426272916246e-05
7.842724571426577e-06   -1.5854218058197571e-06   -6.275332970072823e-07
7.842724571426577e-06   -1.5854218058197571e-06   -6.275332970072823e-07
7.842724571426577e-06   -1.5854218058197571e-06   -6.275332970072823e-07
7.842724571426577e-06   -1.5854218058197571e-06   -6.275332970072823e-07
1.1675505954872551e-05   -2.3578559114487087e-06   -6.552041806039778e-06
1.1675505954872551e-05   -2.3578559114487087e-06   -6.552041806039778e-06
1.1675505954872551e-05   -2.3578559114487087e-06   -6.552041806039778e-06
1.1675505954872551e-05   -2.3578559114487087e-06   -6.552041806039778e-06
7.842724571426591e-06   -2.6856979059384226e-06   -1.4982591932987462e-05
7.842724571426591e-06   -2.6856979059384226e-06   -1.4982591932987462e-05
7.842724571426591e-06   -2.6856979059384226e-06   -1.4982591932987462e-05
7.842724571426591e-06   -2.6856979059384226e-06   -1.4982591932987462e-05
1.645575975301469e-05   -1.58542180581973e-06   3.2632363064028164e-08
1.645575975301469e-05   -1.58542180581973e-06   3.2632363064028164e-08
1.645575975301469e-05   -1.58542180581973e-06   3.2632363064028164e-08
1.645575975301469e-05   -1.58542180581973e-06   3.2632363064028164e-08
1.6898062975073154e-05   -1.9759447444917514e-06   -1.707916669573265e-05
1.6898062975073154e-05   -1.9759447444917514e-06   -1.707916669573265e-05
1.6898062975073154e-05   -1.9759447444917514e-06   -1.707916669573265e-05
1.6898062975073154e-05   -1.9759447444917514e-06   -1.707916669573265e-05
7.785886430068722e-06   -1.0179944647303657e-06   -2.4669759552488536e-06
7.785886430068722e-06   -1.0179944647303657e-06   -2.4669759552488536e-06
7.785886430068722e-06   -1.0179944647303657e-06   -2.4669759552488536e-06
7.785886430068722e-06   -1.0179944647303657e-06   -2.4669759552488536e-06
1.1632524798183596e-05   -2.0283309189852224e-06   -8.271838029553984e-06
1.1632524798183596e-05   -2.0283309189852224e-06   -8.271838029553984e-06
1.1632524798183596e-05   -2.0283309189852224e-06   -8.271838029553984e-06
1.1632524798183596e-05   -2.0283309189852224e-06   -8.271838029553984e-06
-1.8679939304087e-05   2.868240488048421e-06   -1.4264668543860189e-05
-1.8679939304087e-05   2.868240488048421e-06   -1.4264668543860189e-05
-1.8679939304087e-05   2.868240488048421e-06   -1.4264668543860189e-05
-1.8679939304087e-05   2.868240488048421e-06   -1.4264668543860189e-05
-1.2750987170686854e-05   1.816779300710847e-06   -5.013958367262415e-06
-1.2750987170686854e-05   1.816779300710847e-06   -5.013958367262415e-06
-1.2750987170686854e-05   1.816779300710847e-06   -5.013958367262415e-06
-1.2750987170686854e-05   1.816779300710847e-06   -5.013958367262415e-06
-1.270394543590932e-05   3.4742287647014376e-06   -1.2119961989622886e-05
-1.270394543590932e-05   3.4742287647014376e-06   -1.2119961989622886e-05
-1.270394543590932e-05   3.4742287647014376e-06   -1.2119961989622886e-05
-1.270394543590932e-05   3.4742287647014376e-06   -1.2119961989622886e-05
-1.8113617767800505e-05   2.3166044367818584e-06   -2.409266839719168e-06
-1.8113617767800505e-05   2.3166044367818584e-06   -2.409266839719168e-06
-1.8113617767800505e-05   2.3166044367818584e-06   -2.409266839719168e-06
-1.8113617767800505e-05   2.3166044367818584e-06   -2.409266839719168e-06
-1.4901707176834864e-05   2.7633923294523733e-06   -8.03052389359752e-06
-1.4901707176834864e-05   2.7633923294523733e-06   -8.03052389359752e-06
-1.4901707176834864e-05   2.7633923294523733e-06   -8.03052389359752e-06
-1.4901707176834864e-05   2.7633923294523733e-06   -8.03052389359752e-06
-1.8113617767800505e-05   3.4742287647014376e-06   -1.1425387392871111e-05
-1.8113617767800505e-05   3.4742287647014376e-06   -1.1425387392871111e-05
-1.8113617767800505e-05   3.4742287647014376e-06   -1.1425387392871111e-05
-1.8113617767800505e-05   3.4742287647014376e-06   -1.1425387392871111e-05
-1.2703945435909347e-05   2.316604436781804e-06   -3.103841436470911e-06
-1.2703945435909347e-05   2.316604436781804e-06   -3.103841436470911e-06
-1.2703945435909347e-05   2.316604436781804e-06   -3.103841436470911e-06
-1.2703945435909347e-05   2.316604436781804e-06   -3.103841436470911e-06
-1.2607177823784679e-05   3.7412563237468723e-06   -1.056912793952181e-05
-1.2607177823784679e-05   3.7412563237468723e-06   -1.056912793952181e-05
-1.2607177823784679e-05   3.7412563237468723e-06   -1.056912793952181e-05
-1.2607177823784679e-05   3.7412563237468723e-06   -1.056912793952181e-05
-1.769162033650431e-05   2.5505921377178e-06   -1.3806585733715812e-06
-1.769162033650431e-05   2.5505921377178e-06   -1.3806585733715812e-06
-1.769162033650431e-05   2.5505921377178e-06   -1.3806585733715812e-06
-1.769162033650431e-05   2.5505921377178e-06   -1.3806585733715812e-06
-1.4900040055980088e-05   3.042520589202689e-06   -6.328449445136298e-06
-1.4900040055980088e-05   3.042520589202689e-06   -6.328449445136298e-06
-1.4900040055980088e-05   3.042520589202689e-06   -6.328449445136298e-06
-1.4900040055980088e-05   3.042520589202689e-06   -6.328449445136298e-06
-1.769162033650431e-05   3.7412563237468723e-06   -9.85472942790434e-06
-1.769162033650431e-05   3.7412563237468723e-06   -9.85472942790434e-06
-1.769162033650431e-05   3.7412563237468723e-06   -9.85472942790434e-06
-1.769162033650431e-05   3.7412563237468723e-06   -9.85472942790434e-06
-1.2607177823784692e-05   2.5505921377178e-06   -2.095057084988984e-06
-1.2607177823784692e-05   2.5505921377178e-06   -2.095057084988984e-06
-1.2607177823784692e-05   2.5505921377178e-06   -2.095057084988984e-06
-1.2607177823784692e-05   2.5505921377178e-06   -2.095057084988984e-06
-1.2569318564308919e-05   4.00666220370523e-06   -8.426498102298682e-06
-1.2569318564308919e-05   4.00666220370523e-06   -8.426498102298682e-06
-1.2569318564308919e-05   4.00666220370523e-06   -8.426498102298682e-06
-1.2569318564308919e-05   4.00666220370523e-06   -8.426498102298682e-06
-1.7141032965624158e-05   2.846527743046183e-06   -1.10893423711149e-07
-1.7141032965624158e-05   2.846527743046183e-06   -1.10893423711149e-07
-1.7141032965624158e-05   2.846527743046183e-06   -1.10893423711149e-07
-1.7141032965624158e-05   2.846527743046183e-06   -1.10893423711149e-07
-1.4457889920431861e-05   3.195875562911994e-06   -4.792407190951114e-06
-1.4457889920431861e-05   3.195875562911994e-06   -4.792407190951114e-06
-1.4457889920431861e-05   3.195875562911994e-06   -4.792407190951114e-06
-1.4457889920431861e-05   3.195875562911994e-06   -4.792407190951114e-06
-1.2750987170686827e-05   1.433320855092371e-06   -1.8246812188527073e-05
-1.2750987170686827e-05   1.433320855092371e-06   -1.8246812188527073e-05
-1.2750987170686827e-05   1.433320855092371e-06   -1.8246812188527073e-05
-1.2750987170686827e-05   1.433320855092371e-06   -1.8246812188527073e-05
-7.3670239542752825e-06   9.445185882566028e-07   -9.566821521275957e-06
-7.3670239542752825e-06   9.445185882566028e-07   -9.566821521275957e-06
-7.3670239542752825e-06   9.445185882566028e-07   -9.566821521275957e-06
-7.3670239542752825e-06   9.445185882566028e-07   -9.566821521275957e-06
-7.370910250658037e-06   2.0299719630253543e-06   -1.808743768819064e-05
-7.370910250658037e-06   2.0299719630253543e-06   -1.808743768819064e-05
-7.370910250658037e-06   2.0299719630253543e-06   -1.808743768819064e-05
-7.370910250658037e-06   2.0299719630253543e-06   -1.808743768819064e-05
-1.270394543590932e-05   1.472957896210352e-06   -8.864837272682747e-06
-1.270394543590932e-05   1.472957896210352e-06   -8.864837272682747e-06
-1.270394543590932e-05   1.472957896210352e-06   -8.864837272682747e-06
-1.270394543590932e-05   1.472957896210352e-06   -8.864837272682747e-06
-9.955313615373453e-06   1.5710276723976467e-06   -1.3504732172621629e-05
-9.955313615373453e-06   1.5710276723976467e-06   -1.3504732172621629e-05
-9.955313615373453e-06   1.5710276723976467e-06   -1.3504732172621629e-05
-9.955313615373453e-06   1.5710276723976467e-06   -1.3504732172621629e-05
-1.2703945435909306e-05   2.0299719630253814e-06   -1.775322924810153e-05
-1.2703945435909306e-05   2.0299719630253814e-06   -1.775322924810153e-05
-1.2703945435909306e-05   2.0299719630253814e-06   -1.775322924810153e-05
-1.2703945435909306e-05   2.0299719630253814e-06   -1.775322924810153e-05
-7.370910250658037e-06   1.4729578962104062e-06   -9.199045712771789e-06
-7.370910250658037e-06   1.4729578962104062e-06   -9.199045712771789e-06
-7.370910250658037e-06   1.4729578962104062e-06   -9.199045712771789e-06
-7.370910250658037e-06   1.4729578962104062e-06   -9.199045712771789e-06
-7.365909596686733e-06   2.5610380367590906e-06   -1.7682324272841527e-05
-7.365909596686733e-06   2.5610380367590906e-06   -1.7682324272841527e-05
-7.365909596686733e-06   2.5610380367590906e-06   -1.7682324272841527e-05
-7.365909596686733e-06   2.5610380367590906e-06   -1.7682324272841527e-05
-1.2607177823784679e-05   1.9549077401459915e-06   -8.583199049710412e-06
-1.2607177823784679e-05   1.9549077401459915e-06   -8.583199049710412e-06
-1.2607177823784679e-05   1.9549077401459915e-06   -8.583199049710412e-06
-1.2607177823784679e-05   1.9549077401459915e-06   -8.583199049710412e-06
-9.909445045547433e-06   2.006030060523983e-06   -1.3110093738999176e-05
-9.909445045547433e-06   2.006030060523983e-06   -1.3110093738999176e-05
-9.909445045547433e-06   2.006030060523983e-06   -1.3110093738999176e-05
-9.909445045547433e-06   2.006030060523983e-06   -1.3110093738999176e-05
-1.2607177823784679e-05   2.5610380367590906e-06   -1.7318646094873646e-05
-1.2607177823784679e-05   2.5610380367590906e-06   -1.7318646094873646e-05
-1.2607177823784679e-05   2.5610380367590906e-06   -1.7318646094873646e-05
-1.2607177823784679e-05   2.5610380367590906e-06   -1.7318646094873646e-05
-7.3659095966867435e-06   1.9549077401459915e-06   -8.946877227678266e-06
-7.3659095966867435e-06   1.9549077401459915e-06   -8.946877227678266e-06
-7.3659095966867435e-06   1.9549077401459915e-06   -8.946877227678266e-06
-7.3659095966867435e-06   1.9549077401459915e-06   -8.946877227678266e-06
-7.3724675092364864e-06   3.127008848985278e-06   -1.775398049965623e-05
-7.3724675092364864e-06   3.127008848985278e-06   -1.775398049965623e-05
-7.3724675092364864e-06   3.127008848985278e-06   -1.775398049965623e-05
-7.3724675092364864e-06   3.127008848985278e-06   -1.775398049965623e-05
-1.2569318564308932e-05   2.47953722066509e-06   -8.70407909754327e-06
-1.2569318564308932e-05   2.47953722066509e-06   -8.70407909754327e-06
-1.2569318564308932e-05   2.47953722066509e-06   -8.70407909754327e-06
-1.2569318564308932e-05   2.47953722066509e-06   -8.70407909754327e-06
-9.974087516039877e-06   2.4375360209125964e-06   -1.3004263458140205e-05
-9.974087516039877e-06   2.4375360209125964e-06   -1.3004263458140205e-05
-9.974087516039877e-06   2.4375360209125964e-06   -1.3004263458140205e-05
-9.974087516039877e-06   2.4375360209125964e-06   -1.3004263458140205e-05
-7.367023954275269e-06   7.692367204499562e-08   -2.0152968150789335e-05
-7.367023954275269e-06   7.692367204499562e-08   -2.0152968150789335e-05
-7.367023954275269e-06   7.692367204499562e-08   -2.0152968150789335e-05
-7.367023954275269e-06   7.692367204499562e-08   -2.0152968150789335e-05
-2.0530531607348093e-06   1.6587724094519135e-07   -1.124297802021512e-05
-2.0530531607348093e-06   1.6587724094519135e-07   -1.124297802021512e-05
-2.0530531607348093e-06   1.6587724094519135e-07   -1.124297802021512e-05
-2.0530531607348093e-06   1.6587724094519135e-07   -1.124297802021512e-05
-2.057470348731824e-06   6.651490280091253e-07   -1.992682805554614e-05
-2.057470348731824e-06   6.651490280091253e-07   -1.992682805554614e-05
-2.057470348731824e-06   6.651490280091253e-07   -1.992682805554614e-05
-2.057470348731824e-06   6.651490280091253e-07   -1.992682805554614e-05
-7.37091025065802e-06   6.983397651330603e-07   -1.1091009327943494e-05
-7.37091025065802e-06   6.983397651330603e-07   -1.1091009327943494e-05
-7.37091025065802e-06   6.983397651330603e-07   -1.1091009327943494e-05
-7.37091025065802e-06   6.983397651330603e-07   -1.1091009327943494e-05
-4.680541118445285e-06   4.714141153456283e-07   -1.5438802491758954e-05
-4.680541118445285e-06   4.714141153456283e-07   -1.5438802491758954e-05
-4.680541118445285e-06   4.714141153456283e-07   -1.5438802491758954e-05
-4.680541118445285e-06   4.714141153456283e-07   -1.5438802491758954e-05
-7.37091025065802e-06   6.651490280091253e-07   -1.9946742497820486e-05
-7.37091025065802e-06   6.651490280091253e-07   -1.9946742497820486e-05
-7.37091025065802e-06   6.651490280091253e-07   -1.9946742497820486e-05
-7.37091025065802e-06   6.651490280091253e-07   -1.9946742497820486e-05
-2.057470348731824e-06   6.983397651330603e-07   -1.1071094885669149e-05
-2.057470348731824e-06   6.983397651330603e-07   -1.1071094885669149e-05
-2.057470348731824e-06   6.983397651330603e-07   -1.1071094885669149e-05
-2.057470348731824e-06   6.983397651330603e-07   -1.1071094885669149e-05
-2.050802666996652e-06   1.251714550571482e-06   -1.9976116769557944e-05
-2.050802666996652e-06   1.251714550571482e-06   -1.9976116769557944e-05
-2.050802666996652e-06   1.251714550571482e-06   -1.9976116769557944e-05
-2.050802666996652e-06   1.251714550571482e-06   -1.9976116769557944e-05
-7.365909596686733e-06   1.2325226967817358e-06   -1.1106090107800627e-05
-7.365909596686733e-06   1.2325226967817358e-06   -1.1106090107800627e-05
-7.365909596686733e-06   1.2325226967817358e-06   -1.1106090107800627e-05
-7.365909596686733e-06   1.2325226967817358e-06   -1.1106090107800627e-05
-4.7122657605205586e-06   9.37867956434706e-07   -1.5352036990536066e-05
-4.7122657605205586e-06   9.37867956434706e-07   -1.5352036990536066e-05
-4.7122657605205586e-06   9.37867956434706e-07   -1.5352036990536066e-05
-4.7122657605205586e-06   9.37867956434706e-07   -1.5352036990536066e-05
-7.365909596686733e-06   1.251714550571482e-06   -1.996460165728408e-05
-7.365909596686733e-06   1.251714550571482e-06   -1.996460165728408e-05
-7.365909596686733e-06   1.251714550571482e-06   -1.996460165728408e-05
-7.365909596686733e-06   1.251714550571482e-06   -1.996460165728408e-05
-2.050802666996656e-06   1.2325226967817358e-06   -1.1117605220074464e-05
-2.050802666996656e-06   1.2325226967817358e-06   -1.1117605220074464e-05
-2.050802666996656e-06   1.2325226967817358e-06   -1.1117605220074464e-05
-2.050802666996656e-06   1.2325226967817358e-06   -1.1117605220074464e-05
-2.054199121696901e-06   1.8518151353099244e-06   -2.0277824194679677e-05
-2.054199121696901e-06   1.8518151353099244e-06   -2.0277824194679677e-05
-2.054199121696901e-06   1.8518151353099244e-06   -2.0277824194679677e-05
-2.054199121696901e-06   1.8518151353099244e-06   -2.0277824194679677e-05
-7.372467509236476e-06   1.7760446283603517e-06   -1.1368581244610552e-05
-7.372467509236476e-06   1.7760446283603517e-06   -1.1368581244610552e-05
-7.372467509236476e-06   1.7760446283603517e-06   -1.1368581244610552e-05
-7.372467509236476e-06   1.7760446283603517e-06   -1.1368581244610552e-05
-4.753150410644459e-06   1.4104573158129057e-06   -1.551475735473546e-05
-4.753150410644459e-06   1.4104573158129057e-06   -1.551475735473546e-05
-4.753150410644459e-06   1.4104573158129057e-06   -1.551475735473546e-05
-4.753150410644459e-06   1.4104573158129057e-06   -1.551475735473546e-05
-2.0530531607348055e-06   -1.1985105409101913e-06   -1.783709068201776e-05
-2.0530531607348055e-06   -1.1985105409101913e-06   -1.783709068201776e-05
-2.0530531607348055e-06   -1.1985105409101913e-06   -1.783709068201776e-05
-2.0530531607348055e-06   -1.1985105409101913e-06   -1.783709068201776e-05
3.176115885963577e-06   -5.453094396375038e-07   -8.729888276756882e-06
3.176115885963577e-06   -5.453094396375038e-07   -8.729888276756882e-06
3.176115885963577e-06   -5.453094396375038e-07   -8.729888276756882e-06
3.176115885963577e-06   -5.453094396375038e-07   -8.729888276756882e-06
3.2185436903976367e-06   -6.580333730166232e-07   -1.7426107698558587e-05
3.2185436903976367e-06   -6.580333730166232e-07   -1.7426107698558587e-05
3.2185436903976367e-06   -6.580333730166232e-07   -1.7426107698558587e-05
3.2185436903976367e-06   -6.580333730166232e-07   -1.7426107698558587e-05
-2.057470348731824e-06   -4.261533896089426e-08   -9.0020017871096e-06
-2.057470348731824e-06   -4.261533896089426e-08   -9.0020017871096e-06
-2.057470348731824e-06   -4.261533896089426e-08   -9.0020017871096e-06
-2.057470348731824e-06   -4.261533896089426e-08   -9.0020017871096e-06
5.75140560626489e-07   -5.646619590670863e-07   -1.307645866397641e-05
5.75140560626489e-07   -5.646619590670863e-07   -1.307645866397641e-05
5.75140560626489e-07   -5.646619590670863e-07   -1.307645866397641e-05
5.75140560626489e-07   -5.646619590670863e-07   -1.307645866397641e-05
-2.057470348731824e-06   -6.580333730166232e-07   -1.779535851899203e-05
-2.057470348731824e-06   -6.580333730166232e-07   -1.779535851899203e-05
-2.057470348731824e-06   -6.580333730166232e-07   -1.779535851899203e-05
-2.057470348731824e-06   -6.580333730166232e-07   -1.779535851899203e-05
3.2185436903976503e-06   -4.261533896089426e-08   -8.632750966676168e-06
3.2185436903976503e-06   -4.261533896089426e-08   -8.632750966676168e-06
3.2185436903976503e-06   -4.261533896089426e-08   -8.632750966676168e-06
3.2185436903976503e-06   -4.261533896089426e-08   -8.632750966676168e-06
3.3204193174925955e-06   -1.280519379438913e-07   -1.778918038980047e-05
3.3204193174925955e-06   -1.280519379438913e-07   -1.778918038980047e-05
3.3204193174925955e-06   -1.280519379438913e-07   -1.778918038980047e-05
3.3204193174925955e-06   -1.280519379438913e-07   -1.778918038980047e-05
-2.050802666996656e-06   4.3991355960640906e-07   -9.177923047515242e-06
-2.050802666996656e-06   4.3991355960640906e-07   -9.177923047515242e-06
-2.050802666996656e-06   4.3991355960640906e-07   -9.177923047515242e-06
-2.050802666996656e-06   4.3991355960640906e-07   -9.177923047515242e-06
5.444714460891161e-07   -1.4621910812267222e-07   -1.3151700302020742e-05
5.444714460891161e-07   -1.4621910812267222e-07   -1.3151700302020742e-05
5.444714460891161e-07   -1.4621910812267222e-07   -1.3151700302020742e-05
5.444714460891161e-07   -1.4621910812267222e-07   -1.3151700302020742e-05
-2.0508026669966538e-06   -1.280519379438913e-07   -1.8129959688330624e-05
-2.0508026669966538e-06   -1.280519379438913e-07   -1.8129959688330624e-05
-2.0508026669966538e-06   -1.280519379438913e-07   -1.8129959688330624e-05
-2.0508026669966538e-06   -1.280519379438913e-07   -1.8129959688330624e-05
3.320419317492609e-06   4.399135596064633e-07   -8.83714374898503e-06
3.320419317492609e-06   4.399135596064633e-07   -8.83714374898503e-06
3.320419317492609e-06   4.399135596064633e-07   -8.83714374898503e-06
3.320419317492609e-06   4.399135596064633e-07   -8.83714374898503e-06
3.3707574235669846e-06   4.904569415062159e-07   -1.8313209710919473e-05
3.3707574235669846e-06   4.904569415062159e-07   -1.8313209710919473e-05
3.3707574235669846e-06   4.904569415062159e-07   -1.8313209710919473e-05
3.3707574235669846e-06   4.904569415062159e-07   -1.8313209710919473e-05
-2.054199121696897e-06   9.917503113810507e-07   -9.572391490737864e-06
-2.054199121696897e-06   9.917503113810507e-07   -9.572391490737864e-06
-2.054199121696897e-06   9.917503113810507e-07   -9.572391490737864e-06
-2.054199121696897e-06   9.917503113810507e-07   -9.572391490737864e-06
5.621857410148971e-07   3.0013758648561465e-07   -1.3518065293653583e-05
5.621857410148971e-07   3.0013758648561465e-07   -1.3518065293653583e-05
5.621857410148971e-07   3.0013758648561465e-07   -1.3518065293653583e-05
5.621857410148971e-07   3.0013758648561465e-07   -1.3518065293653583e-05
3.17611588596357e-06   -2.1654368735575568e-06   -9.78283691656663e-06
3.17611588596357e-06   -2.1654368735575568e-06   -9.78283691656663e-06
3.17611588596357e-06   -2.1654368735575568e-06   -9.78283691656663e-06
3.17611588596357e-06   -2.1654368735575568e-06   -9.78283691656663e-06
7.792328514125268e-06   -9.953626342393686e-07   -1.3871046593729027e-06
7.792328514125268e-06   -9.953626342393686e-07   -1.3871046593729027e-06
7.792328514125268e-06   -9.953626342393686e-07   -1.3871046593729027e-06
7.792328514125268e-06   -9.953626342393686e-07   -1.3871046593729027e-06
8.350610024940473e-06   -1.8519407681422682e-06   -1.0249992269418368e-05
8.350610024940473e-06   -1.8519407681422682e-06   -1.0249992269418368e-05
8.350610024940473e-06   -1.8519407681422682e-06   -1.0249992269418368e-05
8.350610024940473e-06   -1.8519407681422682e-06   -1.0249992269418368e-05
3.2185436903976435e-06   -6.53366987315464e-07   -2.415692647009704e-06
3.2185436903976435e-06   -6.53366987315464e-07   -2.415692647009704e-06
3.2185436903976435e-06   -6.53366987315464e-07   -2.415692647009704e-06
3.2185436903976435e-06   -6.53366987315464e-07   -2.415692647009704e-06
5.394149668034086e-06   -1.3723924831764655e-06   -5.610287312220519e-06
5.394149668034086e-06   -1.3723924831764655e-06   -5.610287312220519e-06
5.394149668034086e-06   -1.3723924831764655e-06   -5.610287312220519e-06
5.394149668034086e-06   -1.3723924831764655e-06   -5.610287312220519e-06
3.2185436903976367e-06   -1.851940768142241e-06   -1.0969136537914326e-05
3.2185436903976367e-06   -1.851940768142241e-06   -1.0969136537914326e-05
3.2185436903976367e-06   -1.851940768142241e-06   -1.0969136537914326e-05
3.2185436903976367e-06   -1.851940768142241e-06   -1.0969136537914326e-05
8.350610024940446e-06   -6.533669873155182e-07   -1.696548378513638e-06
8.350610024940446e-06   -6.533669873155182e-07   -1.696548378513638e-06
8.350610024940446e-06   -6.533669873155182e-07   -1.696548378513638e-06
8.350610024940446e-06   -6.533669873155182e-07   -1.696548378513638e-06
8.781549454814922e-06   -1.58542180581973e-06   -1.1232512539971717e-05
8.781549454814922e-06   -1.58542180581973e-06   -1.1232512539971717e-05
8.781549454814922e-06   -1.58542180581973e-06   -1.1232512539971717e-05
8.781549454814922e-06   -1.58542180581973e-06   -1.1232512539971717e-05
3.320419317492609e-06   -4.186098845719577e-07   -2.8307161305165255e-06
3.320419317492609e-06   -4.186098845719577e-07   -2.8307161305165255e-06
3.320419317492609e-06   -4.186098845719577e-07   -2.8307161305165255e-06
3.320419317492609e-06   -4.186098845719577e-07   -2.8307161305165255e-06
5.7329263952457445e-06   -1.1961607960273924e-06   -6.385030713231831e-06
5.7329263952457445e-06   -1.1961607960273924e-06   -6.385030713231831e-06
5.7329263952457445e-06   -1.1961607960273924e-06   -6.385030713231831e-06
5.7329263952457445e-06   -1.1961607960273924e-06   -6.385030713231831e-06
3.3204193174926023e-06   -1.58542180581973e-06   -1.1932599692720402e-05
3.3204193174926023e-06   -1.58542180581973e-06   -1.1932599692720402e-05
3.3204193174926023e-06   -1.58542180581973e-06   -1.1932599692720402e-05
3.3204193174926023e-06   -1.58542180581973e-06   -1.1932599692720402e-05
8.781549454814895e-06   -4.186098845719577e-07   -2.130628977767854e-06
8.781549454814895e-06   -4.186098845719577e-07   -2.130628977767854e-06
8.781549454814895e-06   -4.186098845719577e-07   -2.130628977767854e-06
8.781549454814895e-06   -4.186098845719577e-07   -2.130628977767854e-06
9.355975267189145e-06   -1.0179944647303386e-06   -1.3123318738875384e-05
9.355975267189145e-06   -1.0179944647303386e-06   -1.3123318738875384e-05
9.355975267189145e-06   -1.0179944647303386e-06   -1.3123318738875384e-05
9.355975267189145e-06   -1.0179944647303386e-06   -1.3123318738875384e-05
3.3707574235669914e-06   4.033741625349965e-08   -3.7829547947620376e-06
3.3707574235669914e-06   4.033741625349965e-08   -3.7829547947620376e-06
3.3707574235669914e-06   4.033741625349965e-08   -3.7829547947620376e-06
3.3707574235669914e-06   4.033741625349965e-08   -3.7829547947620376e-06
5.849898998982741e-06   -9.375898588538266e-07   -7.328101055390586e-06
5.849898998982741e-06   -9.375898588538266e-07   -7.328101055390586e-06
5.849898998982741e-06   -9.375898588538266e-07   -7.328101055390586e-06
5.849898998982741e-06   -9.375898588538266e-07   -7.328101055390586e-06
-1.1234774023486603e-05   1.816779300710847e-06   -1.0577367066939944e-05
-1.1234774023486603e-05   1.816779300710847e-06   -1.0577367066939944e-05
-1.1234774023486603e-05   1.816779300710847e-06   -1.0577367066939944e-05
-1.1234774023486603e-05   1.816779300710847e-06   -1.0577367066939944e-05
-8.33861200837509e-06   7.330160932477142e-07   -6.400688299565299e-06
-8.33861200837509e-06   7.330160932477142e-07   -6.400688299565299e-06
-8.33861200837509e-06   7.330160932477142e-07   -6.400688299565299e-06
-8.33861200837509e-06   7.330160932477142e-07   -6.400688299565299e-06
-8.218359153081958e-06   2.3166044367818584e-06   -9.33142754615024e-06
-8.218359153081958e-06   2.3166044367818584e-06   -9.33142754615024e-06
-8.218359153081958e-06   2.3166044367818584e-06   -9.33142754615024e-06
-8.218359153081958e-06   2.3166044367818584e-06   -9.33142754615024e-06
-1.0618992661520906e-05   1.1473808059980707e-06   -4.62883752028168e-06
-1.0618992661520906e-05   1.1473808059980707e-06   -4.62883752028168e-06
-1.0618992661520906e-05   1.1473808059980707e-06   -4.62883752028168e-06
-1.0618992661520906e-05   1.1473808059980707e-06   -4.62883752028168e-06
-9.195971295875505e-06   1.6310989904907568e-06   -7.2907707070534e-06
-9.195971295875505e-06   1.6310989904907568e-06   -7.2907707070534e-06
-9.195971295875505e-06   1.6310989904907568e-06   -7.2907707070534e-06
-9.195971295875505e-06   1.6310989904907568e-06   -7.2907707070534e-06
-1.0618992661520906e-05   2.3166044367818584e-06   -8.629893367680005e-06
-1.0618992661520906e-05   2.3166044367818584e-06   -8.629893367680005e-06
-1.0618992661520906e-05   2.3166044367818584e-06   -8.629893367680005e-06
-1.0618992661520906e-05   2.3166044367818584e-06   -8.629893367680005e-06
-8.218359153081958e-06   1.1473808059980707e-06   -5.3303716987519555e-06
-8.218359153081958e-06   1.1473808059980707e-06   -5.3303716987519555e-06
-8.218359153081958e-06   1.1473808059980707e-06   -5.3303716987519555e-06
-8.218359153081958e-06   1.1473808059980707e-06   -5.3303716987519555e-06
-8.04599548169669e-06   2.5505921377178e-06   -8.331450295111893e-06
-8.04599548169669e-06   2.5505921377178e-06   -8.331450295111893e-06
-8.04599548169669e-06   2.5505921377178e-06   -8.331450295111893e-06
-8.04599548169669e-06   2.5505921377178e-06   -8.331450295111893e-06
-1.012995026501442e-05   1.3580872244478483e-06   -4.142689374953608e-06
-1.012995026501442e-05   1.3580872244478483e-06   -4.142689374953608e-06
-1.012995026501442e-05   1.3580872244478483e-06   -4.142689374953608e-06
-1.012995026501442e-05   1.3580872244478483e-06   -4.142689374953608e-06
-9.034751241382058e-06   1.8552374304267615e-06   -6.266311204594969e-06
-9.034751241382058e-06   1.8552374304267615e-06   -6.266311204594969e-06
-9.034751241382058e-06   1.8552374304267615e-06   -6.266311204594969e-06
-9.034751241382058e-06   1.8552374304267615e-06   -6.266311204594969e-06
-1.0129950265014406e-05   2.5505921377178e-06   -7.615947347149878e-06
-1.0129950265014406e-05   2.5505921377178e-06   -7.615947347149878e-06
-1.0129950265014406e-05   2.5505921377178e-06   -7.615947347149878e-06
-1.0129950265014406e-05   2.5505921377178e-06   -7.615947347149878e-06
-8.045995481696704e-06   1.3580872244478483e-06   -4.858192322915609e-06
-8.045995481696704e-06   1.3580872244478483e-06   -4.858192322915609e-06
-8.045995481696704e-06   1.3580872244478483e-06   -4.858192322915609e-06
-8.045995481696704e-06   1.3580872244478483e-06   -4.858192322915609e-06
-7.93049308163653e-06   2.846527743046183e-06   -7.051526930315893e-06
-7.93049308163653e-06   2.846527743046183e-06   -7.051526930315893e-06
-7.93049308163653e-06   2.846527743046183e-06   -7.051526930315893e-06
-7.93049308163653e-06   2.846527743046183e-06   -7.051526930315893e-06
-9.50774823839407e-06   1.692519003951168e-06   -3.7303630922628736e-06
-9.50774823839407e-06   1.692519003951168e-06   -3.7303630922628736e-06
-9.50774823839407e-06   1.692519003951168e-06   -3.7303630922628736e-06
-9.50774823839407e-06   1.692519003951168e-06   -3.7303630922628736e-06
-8.614006199052931e-06   2.012756192542036e-06   -5.412075470986145e-06
-8.614006199052931e-06   2.012756192542036e-06   -5.412075470986145e-06
-8.614006199052931e-06   2.012756192542036e-06   -5.412075470986145e-06
-8.614006199052931e-06   2.012756192542036e-06   -5.412075470986145e-06
-8.33861200837509e-06   9.445185882566028e-07   -1.5487206785329917e-05
-8.33861200837509e-06   9.445185882566028e-07   -1.5487206785329917e-05
-8.33861200837509e-06   9.445185882566028e-07   -1.5487206785329917e-05
-8.33861200837509e-06   9.445185882566028e-07   -1.5487206785329917e-05
-5.980151804556691e-06   4.2811304939906897e-07   -1.186628310228044e-05
-5.980151804556691e-06   4.2811304939906897e-07   -1.186628310228044e-05
-5.980151804556691e-06   4.2811304939906897e-07   -1.186628310228044e-05
-5.980151804556691e-06   4.2811304939906897e-07   -1.186628310228044e-05
-5.903063305265599e-06   1.4729578962104062e-06   -1.5433808057650604e-05
-5.903063305265599e-06   1.4729578962104062e-06   -1.5433808057650604e-05
-5.903063305265599e-06   1.4729578962104062e-06   -1.5433808057650604e-05
-5.903063305265599e-06   1.4729578962104062e-06   -1.5433808057650604e-05
-8.218359153081971e-06   9.039834373962032e-07   -1.1233596969334757e-05
-8.218359153081971e-06   9.039834373962032e-07   -1.1233596969334757e-05
-8.218359153081971e-06   9.039834373962032e-07   -1.1233596969334757e-05
-8.218359153081971e-06   9.039834373962032e-07   -1.1233596969334757e-05
-7.040666577101496e-06   1.0305397383024548e-06   -1.327235170984627e-05
-7.040666577101496e-06   1.0305397383024548e-06   -1.327235170984627e-05
-7.040666577101496e-06   1.0305397383024548e-06   -1.327235170984627e-05
-7.040666577101496e-06   1.0305397383024548e-06   -1.327235170984627e-05
-8.21835915308193e-06   1.472957896210352e-06   -1.5092423382362044e-05
-8.21835915308193e-06   1.472957896210352e-06   -1.5092423382362044e-05
-8.21835915308193e-06   1.472957896210352e-06   -1.5092423382362044e-05
-8.21835915308193e-06   1.472957896210352e-06   -1.5092423382362044e-05
-5.903063305265599e-06   9.039834373962574e-07   -1.1574981644623316e-05
-5.903063305265599e-06   9.039834373962574e-07   -1.1574981644623316e-05
-5.903063305265599e-06   9.039834373962574e-07   -1.1574981644623316e-05
-5.903063305265599e-06   9.039834373962574e-07   -1.1574981644623316e-05
-5.817700695562677e-06   1.9549077401459372e-06   -1.518397648384999e-05
-5.817700695562677e-06   1.9549077401459372e-06   -1.518397648384999e-05
-5.817700695562677e-06   1.9549077401459372e-06   -1.518397648384999e-05
-5.817700695562677e-06   1.9549077401459372e-06   -1.518397648384999e-05
-8.045995481696717e-06   1.3476007001181865e-06   -1.1105767616276528e-05
-8.045995481696717e-06   1.3476007001181865e-06   -1.1105767616276528e-05
-8.045995481696717e-06   1.3476007001181865e-06   -1.1105767616276528e-05
-8.045995481696717e-06   1.3476007001181865e-06   -1.1105767616276528e-05
-6.938430932648412e-06   1.4165302567331227e-06   -1.2993066265325857e-05
-6.938430932648412e-06   1.4165302567331227e-06   -1.2993066265325857e-05
-6.938430932648412e-06   1.4165302567331227e-06   -1.2993066265325857e-05
-6.938430932648412e-06   1.4165302567331227e-06   -1.2993066265325857e-05
-8.04599548169669e-06   1.9549077401459915e-06   -1.4819592259833253e-05
-8.04599548169669e-06   1.9549077401459915e-06   -1.4819592259833253e-05
-8.04599548169669e-06   1.9549077401459915e-06   -1.4819592259833253e-05
-8.04599548169669e-06   1.9549077401459915e-06   -1.4819592259833253e-05
-5.8177006955626635e-06   1.3476007001181323e-06   -1.1470151840293157e-05
-5.8177006955626635e-06   1.3476007001181323e-06   -1.1470151840293157e-05
-5.8177006955626635e-06   1.3476007001181323e-06   -1.1470151840293157e-05
-5.8177006955626635e-06   1.3476007001181323e-06   -1.1470151840293157e-05
-5.742428651134316e-06   2.47953722066509e-06   -1.5331367672592017e-05
-5.742428651134316e-06   2.47953722066509e-06   -1.5331367672592017e-05
-5.742428651134316e-06   2.47953722066509e-06   -1.5331367672592017e-05
-5.742428651134316e-06   2.47953722066509e-06   -1.5331367672592017e-05
-7.930493081636557e-06   1.8416443125993521e-06   -1.130185787691544e-05
-7.930493081636557e-06   1.8416443125993521e-06   -1.130185787691544e-05
-7.930493081636557e-06   1.8416443125993521e-06   -1.130185787691544e-05
-7.930493081636557e-06   1.8416443125993521e-06   -1.130185787691544e-05
-6.900685501957554e-06   1.8087247351676649e-06   -1.299845209658822e-05
-6.900685501957554e-06   1.8087247351676649e-06   -1.299845209658822e-05
-6.900685501957554e-06   1.8087247351676649e-06   -1.299845209658822e-05
-6.900685501957554e-06   1.8087247351676649e-06   -1.299845209658822e-05
-5.980151804556671e-06   1.6587724094519135e-07   -1.7526578748923725e-05
-5.980151804556671e-06   1.6587724094519135e-07   -1.7526578748923725e-05
-5.980151804556671e-06   1.6587724094519135e-07   -1.7526578748923725e-05
-5.980151804556671e-06   1.6587724094519135e-07   -1.7526578748923725e-05
-3.67744380257351e-06   2.5018458938032674e-07   -1.3638147669890727e-05
-3.67744380257351e-06   2.5018458938032674e-07   -1.3638147669890727e-05
-3.67744380257351e-06   2.5018458938032674e-07   -1.3638147669890727e-05
-3.67744380257351e-06   2.5018458938032674e-07   -1.3638147669890727e-05
-3.602710111143424e-06   6.983397651330603e-07   -1.7303092442181114e-05
-3.602710111143424e-06   6.983397651330603e-07   -1.7303092442181114e-05
-3.602710111143424e-06   6.983397651330603e-07   -1.7303092442181114e-05
-3.602710111143424e-06   6.983397651330603e-07   -1.7303092442181114e-05
-5.903063305265599e-06   7.361384828685519e-07   -1.3491849682618627e-05
-5.903063305265599e-06   7.361384828685519e-07   -1.3491849682618627e-05
-5.903063305265599e-06   7.361384828685519e-07   -1.3491849682618627e-05
-5.903063305265599e-06   7.361384828685519e-07   -1.3491849682618627e-05
-4.75999037059893e-06   5.310121274045617e-07   -1.5273895427118372e-05
-4.75999037059893e-06   5.310121274045617e-07   -1.5273895427118372e-05
-4.75999037059893e-06   5.310121274045617e-07   -1.5273895427118372e-05
-4.75999037059893e-06   5.310121274045617e-07   -1.5273895427118372e-05
-5.903063305265585e-06   6.983397651330603e-07   -1.732577167282235e-05
-5.903063305265585e-06   6.983397651330603e-07   -1.732577167282235e-05
-5.903063305265585e-06   6.983397651330603e-07   -1.732577167282235e-05
-5.903063305265585e-06   6.983397651330603e-07   -1.732577167282235e-05
-3.602710111143424e-06   7.361384828684977e-07   -1.3469170451977432e-05
-3.602710111143424e-06   7.361384828684977e-07   -1.3469170451977432e-05
-3.602710111143424e-06   7.361384828684977e-07   -1.3469170451977432e-05
-3.602710111143424e-06   7.361384828684977e-07   -1.3469170451977432e-05
-3.517911199895348e-06   1.2325226967816816e-06   -1.7346928157136658e-05
-3.517911199895348e-06   1.2325226967816816e-06   -1.7346928157136658e-05
-3.517911199895348e-06   1.2325226967816816e-06   -1.7346928157136658e-05
-3.517911199895348e-06   1.2325226967816816e-06   -1.7346928157136658e-05
-5.8177006955626635e-06   1.2262913748411434e-06   -1.3510206871193364e-05
-5.8177006955626635e-06   1.2262913748411434e-06   -1.3510206871193364e-05
-5.8177006955626635e-06   1.2262913748411434e-06   -1.3510206871193364e-05
-5.8177006955626635e-06   1.2262913748411434e-06   -1.3510206871193364e-05
-4.711063040391753e-06   9.494002379490459e-07   -1.5188468281009676e-05
-4.711063040391753e-06   9.494002379490459e-07   -1.5188468281009676e-05
-4.711063040391753e-06   9.494002379490459e-07   -1.5188468281009676e-05
-4.711063040391753e-06   9.494002379490459e-07   -1.5188468281009676e-05
-5.81770069556265e-06   1.2325226967816816e-06   -1.7343189363972243e-05
-5.81770069556265e-06   1.2325226967816816e-06   -1.7343189363972243e-05
-5.81770069556265e-06   1.2325226967816816e-06   -1.7343189363972243e-05
-5.81770069556265e-06   1.2325226967816816e-06   -1.7343189363972243e-05
-3.517911199895354e-06   1.2262913748410892e-06   -1.3513945664357765e-05
-3.517911199895354e-06   1.2262913748410892e-06   -1.3513945664357765e-05
-3.517911199895354e-06   1.2262913748410892e-06   -1.3513945664357765e-05
-3.517911199895354e-06   1.2262913748410892e-06   -1.3513945664357765e-05
-3.4419327670324198e-06   1.7760446283603517e-06   -1.7638668258760715e-05
-3.4419327670324198e-06   1.7760446283603517e-06   -1.7638668258760715e-05
-3.4419327670324198e-06   1.7760446283603517e-06   -1.7638668258760715e-05
-3.4419327670324198e-06   1.7760446283603517e-06   -1.7638668258760715e-05
-5.742428651134323e-06   1.7239089348710778e-06   -1.377322703583053e-05
-5.742428651134323e-06   1.7239089348710778e-06   -1.377322703583053e-05
-5.742428651134323e-06   1.7239089348710778e-06   -1.377322703583053e-05
-5.742428651134323e-06   1.7239089348710778e-06   -1.377322703583053e-05
-4.671332053825432e-06   1.3733715906025148e-06   -1.5348065624784337e-05
-4.671332053825432e-06   1.3733715906025148e-06   -1.5348065624784337e-05
-4.671332053825432e-06   1.3733715906025148e-06   -1.5348065624784337e-05
-4.671332053825432e-06   1.3733715906025148e-06   -1.5348065624784337e-05
-3.6774438025734972e-06   -5.453094396375038e-07   -1.5354825257167998e-05
-3.6774438025734972e-06   -5.453094396375038e-07   -1.5354825257167998e-05
-3.6774438025734972e-06   -5.453094396375038e-07   -1.5354825257167998e-05
-3.6774438025734972e-06   -5.453094396375038e-07   -1.5354825257167998e-05
-1.4530554405532115e-06   1.1561617296412764e-07   -1.1250955952906599e-05
-1.4530554405532115e-06   1.1561617296412764e-07   -1.1250955952906599e-05
-1.4530554405532115e-06   1.1561617296412764e-07   -1.1250955952906599e-05
-1.4530554405532115e-06   1.1561617296412764e-07   -1.1250955952906599e-05
-1.3396708990725387e-06   -4.261533896094847e-08   -1.4856035212809957e-05
-1.3396708990725387e-06   -4.261533896094847e-08   -1.4856035212809957e-05
-1.3396708990725387e-06   -4.261533896094847e-08   -1.4856035212809957e-05
-1.3396708990725387e-06   -4.261533896094847e-08   -1.4856035212809957e-05
-3.6027101111434177e-06   5.87324879058361e-07   -1.1462267323503248e-05
-3.6027101111434177e-06   5.87324879058361e-07   -1.1462267323503248e-05
-3.6027101111434177e-06   5.87324879058361e-07   -1.1462267323503248e-05
-3.6027101111434177e-06   5.87324879058361e-07   -1.1462267323503248e-05
-2.4927395588124054e-06   7.775766985824257e-08   -1.3006477918535168e-05
-2.4927395588124054e-06   7.775766985824257e-08   -1.3006477918535168e-05
-2.4927395588124054e-06   7.775766985824257e-08   -1.3006477918535168e-05
-2.4927395588124054e-06   7.775766985824257e-08   -1.3006477918535168e-05
-3.6027101111434118e-06   -4.261533896089426e-08   -1.5233999343621494e-05
-3.6027101111434118e-06   -4.261533896089426e-08   -1.5233999343621494e-05
-3.6027101111434118e-06   -4.261533896089426e-08   -1.5233999343621494e-05
-3.6027101111434118e-06   -4.261533896089426e-08   -1.5233999343621494e-05
-1.3396708990725387e-06   5.87324879058361e-07   -1.1084303192691782e-05
-1.3396708990725387e-06   5.87324879058361e-07   -1.1084303192691782e-05
-1.3396708990725387e-06   5.87324879058361e-07   -1.1084303192691782e-05
-1.3396708990725387e-06   5.87324879058361e-07   -1.1084303192691782e-05
-1.168530822267123e-06   4.399135596064633e-07   -1.505267453392434e-05
-1.168530822267123e-06   4.399135596064633e-07   -1.505267453392434e-05
-1.168530822267123e-06   4.399135596064633e-07   -1.505267453392434e-05
-1.168530822267123e-06   4.399135596064633e-07   -1.505267453392434e-05
-3.517911199895348e-06   1.030865977361497e-06   -1.1491612021863646e-05
-3.517911199895348e-06   1.030865977361497e-06   -1.1491612021863646e-05
-3.517911199895348e-06   1.030865977361497e-06   -1.1491612021863646e-05
-3.517911199895348e-06   1.030865977361497e-06   -1.1491612021863646e-05
-2.425019532316648e-06   4.591949673242576e-07   -1.2970095528472427e-05
-2.425019532316648e-06   4.591949673242576e-07   -1.2970095528472427e-05
-2.425019532316648e-06   4.591949673242576e-07   -1.2970095528472427e-05
-2.425019532316648e-06   4.591949673242576e-07   -1.2970095528472427e-05
-3.5179111998953387e-06   4.399135596064633e-07   -1.540724598457735e-05
-3.5179111998953387e-06   4.399135596064633e-07   -1.540724598457735e-05
-3.5179111998953387e-06   4.399135596064633e-07   -1.540724598457735e-05
-3.5179111998953387e-06   4.399135596064633e-07   -1.540724598457735e-05
-1.1685308222671297e-06   1.0308659773615512e-06   -1.1137040571210601e-05
-1.1685308222671297e-06   1.0308659773615512e-06   -1.1137040571210601e-05
-1.1685308222671297e-06   1.0308659773615512e-06   -1.1137040571210601e-05
-1.1685308222671297e-06   1.0308659773615512e-06   -1.1137040571210601e-05
-1.0495157361157362e-06   9.917503113810507e-07   -1.547337482663035e-05
-1.0495157361157362e-06   9.917503113810507e-07   -1.547337482663035e-05
-1.0495157361157362e-06   9.917503113810507e-07   -1.547337482663035e-05
-1.0495157361157362e-06   9.917503113810507e-07   -1.547337482663035e-05
-3.4419327670324198e-06   1.531152601527534e-06   -1.180965448252372e-05
-3.4419327670324198e-06   1.531152601527534e-06   -1.180965448252372e-05
-3.4419327670324198e-06   1.531152601527534e-06   -1.180965448252372e-05
-3.4419327670324198e-06   1.531152601527534e-06   -1.180965448252372e-05
-2.3546378248884976e-06   8.577366695687117e-07   -1.3217763160254994e-05
-2.3546378248884976e-06   8.577366695687117e-07   -1.3217763160254994e-05
-2.3546378248884976e-06   8.577366695687117e-07   -1.3217763160254994e-05
-2.3546378248884976e-06   8.577366695687117e-07   -1.3217763160254994e-05
-1.4530554405532115e-06   -9.953626342393686e-07   -8.317530815813974e-06
-1.4530554405532115e-06   -9.953626342393686e-07   -8.317530815813974e-06
-1.4530554405532115e-06   -9.953626342393686e-07   -8.317530815813974e-06
-1.4530554405532115e-06   -9.953626342393686e-07   -8.317530815813974e-06
1.5646751842962635e-07   1.7001734062396584e-07   -4.9357645659245885e-06
1.5646751842962635e-07   1.7001734062396584e-07   -4.9357645659245885e-06
1.5646751842962635e-07   1.7001734062396584e-07   -4.9357645659245885e-06
1.5646751842962635e-07   1.7001734062396584e-07   -4.9357645659245885e-06
7.728777557617093e-07   -6.53366987315464e-07   -7.920511630002272e-06
7.728777557617093e-07   -6.53366987315464e-07   -7.920511630002272e-06
7.728777557617093e-07   -6.53366987315464e-07   -7.920511630002272e-06
7.728777557617093e-07   -6.53366987315464e-07   -7.920511630002272e-06
-1.3396708990725387e-06   5.440751179198598e-07   -5.118062468419652e-06
-1.3396708990725387e-06   5.440751179198598e-07   -5.118062468419652e-06
-1.3396708990725387e-06   5.440751179198598e-07   -5.118062468419652e-06
-1.3396708990725387e-06   5.440751179198598e-07   -5.118062468419652e-06
-4.5137527662312754e-07   -1.8438650530299295e-07   -6.161478198568428e-06
-4.5137527662312754e-07   -1.8438650530299295e-07   -6.161478198568428e-06
-4.5137527662312754e-07   -1.8438650530299295e-07   -6.161478198568428e-06
-4.5137527662312754e-07   -1.8438650530299295e-07   -6.161478198568428e-06
-1.339670899072532e-06   -6.53366987315464e-07   -8.638976893143413e-06
-1.339670899072532e-06   -6.53366987315464e-07   -8.638976893143413e-06
-1.339670899072532e-06   -6.53366987315464e-07   -8.638976893143413e-06
-1.339670899072532e-06   -6.53366987315464e-07   -8.638976893143413e-06
7.728777557617093e-07   5.440751179198598e-07   -4.399597205278485e-06
7.728777557617093e-07   5.440751179198598e-07   -4.399597205278485e-06
7.728777557617093e-07   5.440751179198598e-07   -4.399597205278485e-06
7.728777557617093e-07   5.440751179198598e-07   -4.399597205278485e-06
1.260012789112676e-06   -4.186098845719577e-07   -8.34279377297966e-06
1.260012789112676e-06   -4.186098845719577e-07   -8.34279377297966e-06
1.260012789112676e-06   -4.186098845719577e-07   -8.34279377297966e-06
1.260012789112676e-06   -4.186098845719577e-07   -8.34279377297966e-06
-1.168530822267123e-06   7.538120195549878e-07   -4.998674229822779e-06
-1.168530822267123e-06   7.538120195549878e-07   -4.998674229822779e-06
-1.168530822267123e-06   7.538120195549878e-07   -4.998674229822779e-06
-1.168530822267123e-06   7.538120195549878e-07   -4.998674229822779e-06
-1.424173309507179e-07   -4.201735888473973e-09   -6.254055128750697e-06
-1.424173309507179e-07   -4.201735888473973e-09   -6.254055128750697e-06
-1.424173309507179e-07   -4.201735888473973e-09   -6.254055128750697e-06
-1.424173309507179e-07   -4.201735888473973e-09   -6.254055128750697e-06
-1.168530822267123e-06   -4.186098845719577e-07   -9.046246915455822e-06
-1.168530822267123e-06   -4.186098845719577e-07   -9.046246915455822e-06
-1.168530822267123e-06   -4.186098845719577e-07   -9.046246915455822e-06
-1.168530822267123e-06   -4.186098845719577e-07   -9.046246915455822e-06
1.260012789112676e-06   7.538120195549878e-07   -4.29522108734659e-06
1.260012789112676e-06   7.538120195549878e-07   -4.29522108734659e-06
1.260012789112676e-06   7.538120195549878e-07   -4.29522108734659e-06
1.260012789112676e-06   7.538120195549878e-07   -4.29522108734659e-06
1.8772408462500574e-06   4.033741625349965e-08   -9.335235970983738e-06
1.8772408462500574e-06   4.033741625349965e-08   -9.335235970983738e-06
1.8772408462500574e-06   4.033741625349965e-08   -9.335235970983738e-06
1.8772408462500574e-06   4.033741625349965e-08   -9.335235970983738e-06
-1.0495157361157362e-06   1.1228010522463389e-06   -5.106786515303029e-06
-1.0495157361157362e-06   1.1228010522463389e-06   -5.106786515303029e-06
-1.0495157361157362e-06   1.1228010522463389e-06   -5.106786515303029e-06
-1.0495157361157362e-06   1.1228010522463389e-06   -5.106786515303029e-06
1.2810057178324813e-07   1.9852410903462838e-07   -6.5149141958744506e-06
1.2810057178324813e-07   1.9852410903462838e-07   -6.5149141958744506e-06
1.2810057178324813e-07   1.9852410903462838e-07   -6.5149141958744506e-06
1.2810057178324813e-07   1.9852410903462838e-07   -6.5149141958744506e-06
-3.8360197026669155e-06   7.330160932477142e-07   -6.990767814447994e-06
-3.8360197026669155e-06   7.330160932477142e-07   -6.990767814447994e-06
-3.8360197026669155e-06   7.330160932477142e-07   -6.990767814447994e-06
-3.8360197026669155e-06   7.330160932477142e-07   -6.990767814447994e-06
-3.962668383629639e-06   -3.5234881966446363e-07   -7.85306789713325e-06
-3.962668383629639e-06   -3.5234881966446363e-07   -7.85306789713325e-06
-3.962668383629639e-06   -3.5234881966446363e-07   -7.85306789713325e-06
-3.962668383629639e-06   -3.5234881966446363e-07   -7.85306789713325e-06
-3.768555725675989e-06   1.1473808059980707e-06   -6.57018136409975e-06
-3.768555725675989e-06   1.1473808059980707e-06   -6.57018136409975e-06
-3.768555725675989e-06   1.1473808059980707e-06   -6.57018136409975e-06
-3.768555725675989e-06   1.1473808059980707e-06   -6.57018136409975e-06
-3.152662191296642e-06   -1.8620380017497946e-08   -6.897069876455952e-06
-3.152662191296642e-06   -1.8620380017497946e-08   -6.897069876455952e-06
-3.152662191296642e-06   -1.8620380017497946e-08   -6.897069876455952e-06
-3.152662191296642e-06   -1.8620380017497946e-08   -6.897069876455952e-06
-3.519456675098932e-06   5.050453830447981e-07   -6.5999451946231e-06
-3.519456675098932e-06   5.050453830447981e-07   -6.5999451946231e-06
-3.519456675098932e-06   5.050453830447981e-07   -6.5999451946231e-06
-3.519456675098932e-06   5.050453830447981e-07   -6.5999451946231e-06
-3.152662191296642e-06   1.1473808059980707e-06   -5.870580652490387e-06
-3.152662191296642e-06   1.1473808059980707e-06   -5.870580652490387e-06
-3.152662191296642e-06   1.1473808059980707e-06   -5.870580652490387e-06
-3.152662191296642e-06   1.1473808059980707e-06   -5.870580652490387e-06
-3.7685557256760026e-06   -1.8620380017497946e-08   -7.596670588065315e-06
-3.7685557256760026e-06   -1.8620380017497946e-08   -7.596670588065315e-06
-3.7685557256760026e-06   -1.8620380017497946e-08   -7.596670588065315e-06
-3.7685557256760026e-06   -1.8620380017497946e-08   -7.596670588065315e-06
-3.522786639338098e-06   1.3580872244477941e-06   -6.0964887868133555e-06
-3.522786639338098e-06   1.3580872244477941e-06   -6.0964887868133555e-06
-3.522786639338098e-06   1.3580872244477941e-06   -6.0964887868133555e-06
-3.522786639338098e-06   1.3580872244477941e-06   -6.0964887868133555e-06
-2.5901031103311056e-06   1.7171977742124096e-07   -6.9391408669424825e-06
-2.5901031103311056e-06   1.7171977742124096e-07   -6.9391408669424825e-06
-2.5901031103311056e-06   1.7171977742124096e-07   -6.9391408669424825e-06
-2.5901031103311056e-06   1.7171977742124096e-07   -6.9391408669424825e-06
-3.19832094765124e-06   6.772453819919953e-07   -6.2287598341515666e-06
-3.19832094765124e-06   6.772453819919953e-07   -6.2287598341515666e-06
-3.19832094765124e-06   6.772453819919953e-07   -6.2287598341515666e-06
-3.19832094765124e-06   6.772453819919953e-07   -6.2287598341515666e-06
-2.5901031103311056e-06   1.3580872244477941e-06   -5.3846683185974995e-06
-2.5901031103311056e-06   1.3580872244477941e-06   -5.3846683185974995e-06
-2.5901031103311056e-06   1.3580872244477941e-06   -5.3846683185974995e-06
-2.5901031103311056e-06   1.3580872244477941e-06   -5.3846683185974995e-06
-3.522786639338098e-06   1.7171977742134938e-07   -7.650961335158311e-06
-3.522786639338098e-06   1.7171977742134938e-07   -7.650961335158311e-06
-3.522786639338098e-06   1.7171977742134938e-07   -7.650961335158311e-06
-3.522786639338098e-06   1.7171977742134938e-07   -7.650961335158311e-06
-3.3332018389147124e-06   1.692519003951168e-06   -5.659069273073261e-06
-3.3332018389147124e-06   1.692519003951168e-06   -5.659069273073261e-06
-3.3332018389147124e-06   1.692519003951168e-06   -5.659069273073261e-06
-3.3332018389147124e-06   1.692519003951168e-06   -5.659069273073261e-06
-1.8955199032479704e-06   5.508016730323062e-07   -7.3701754339663506e-06
-1.8955199032479704e-06   5.508016730323062e-07   -7.3701754339663506e-06
-1.8955199032479704e-06   5.508016730323062e-07   -7.3701754339663506e-06
-1.8955199032479704e-06   5.508016730323062e-07   -7.3701754339663506e-06
-2.7987868136304667e-06   8.44231038268548e-07   -6.040788202470621e-06
-2.7987868136304667e-06   8.44231038268548e-07   -6.040788202470621e-06
-2.7987868136304667e-06   8.44231038268548e-07   -6.040788202470621e-06
-2.7987868136304667e-06   8.44231038268548e-07   -6.040788202470621e-06
-3.962668383629625e-06   4.2811304939906897e-07   -1.2797738241595886e-05
-3.962668383629625e-06   4.2811304939906897e-07   -1.2797738241595886e-05
-3.962668383629625e-06   4.2811304939906897e-07   -1.2797738241595886e-05
-3.962668383629625e-06   4.2811304939906897e-07   -1.2797738241595886e-05
-4.623960202988572e-06   -7.125131295724046e-08   -1.4199509891274579e-05
-4.623960202988572e-06   -7.125131295724046e-08   -1.4199509891274579e-05
-4.623960202988572e-06   -7.125131295724046e-08   -1.4199509891274579e-05
-4.623960202988572e-06   -7.125131295724046e-08   -1.4199509891274579e-05
-4.468800376236653e-06   9.039834373962574e-07   -1.280529195199151e-05
-4.468800376236653e-06   9.039834373962574e-07   -1.280529195199151e-05
-4.468800376236653e-06   9.039834373962574e-07   -1.280529195199151e-05
-4.468800376236653e-06   9.039834373962574e-07   -1.280529195199151e-05
-3.7685557256760026e-06   3.508412418814751e-07   -1.3640481052283685e-05
-3.7685557256760026e-06   3.508412418814751e-07   -1.3640481052283685e-05
-3.7685557256760026e-06   3.508412418814751e-07   -1.3640481052283685e-05
-3.7685557256760026e-06   3.508412418814751e-07   -1.3640481052283685e-05
-4.157145478215321e-06   4.970065355183479e-07   -1.3080530640900432e-05
-4.157145478215321e-06   4.970065355183479e-07   -1.3080530640900432e-05
-4.157145478215321e-06   4.970065355183479e-07   -1.3080530640900432e-05
-4.157145478215321e-06   4.970065355183479e-07   -1.3080530640900432e-05
-3.768555725675989e-06   9.039834373962032e-07   -1.247340663468251e-05
-3.768555725675989e-06   9.039834373962032e-07   -1.247340663468251e-05
-3.768555725675989e-06   9.039834373962032e-07   -1.247340663468251e-05
-3.768555725675989e-06   9.039834373962032e-07   -1.247340663468251e-05
-4.468800376236647e-06   3.508412418814751e-07   -1.3972366369592522e-05
-4.468800376236647e-06   3.508412418814751e-07   -1.3972366369592522e-05
-4.468800376236647e-06   3.508412418814751e-07   -1.3972366369592522e-05
-4.468800376236647e-06   3.508412418814751e-07   -1.3972366369592522e-05
-4.3072789491481e-06   1.3476007001181865e-06   -1.2697676141946513e-05
-4.3072789491481e-06   1.3476007001181865e-06   -1.2697676141946513e-05
-4.3072789491481e-06   1.3476007001181865e-06   -1.2697676141946513e-05
-4.3072789491481e-06   1.3476007001181865e-06   -1.2697676141946513e-05
-3.5227866393381117e-06   7.582472638310552e-07   -1.365155126319088e-05
-3.5227866393381117e-06   7.582472638310552e-07   -1.365155126319088e-05
-3.5227866393381117e-06   7.582472638310552e-07   -1.365155126319088e-05
-3.5227866393381117e-06   7.582472638310552e-07   -1.365155126319088e-05
-4.001818876579298e-06   8.386273103905576e-07   -1.2901392229057953e-05
-4.001818876579298e-06   8.386273103905576e-07   -1.2901392229057953e-05
-4.001818876579298e-06   8.386273103905576e-07   -1.2901392229057953e-05
-4.001818876579298e-06   8.386273103905576e-07   -1.2901392229057953e-05
-3.522786639338098e-06   1.3476007001181865e-06   -1.234406408017418e-05
-3.522786639338098e-06   1.3476007001181865e-06   -1.234406408017418e-05
-3.522786639338098e-06   1.3476007001181865e-06   -1.234406408017418e-05
-3.522786639338098e-06   1.3476007001181865e-06   -1.234406408017418e-05
-4.307278949148087e-06   7.582472638310552e-07   -1.4005163324963077e-05
-4.307278949148087e-06   7.582472638310552e-07   -1.4005163324963077e-05
-4.307278949148087e-06   7.582472638310552e-07   -1.4005163324963077e-05
-4.307278949148087e-06   7.582472638310552e-07   -1.4005163324963077e-05
-4.155741788856899e-06   1.8416443125994063e-06   -1.2908436669739327e-05
-4.155741788856899e-06   1.8416443125994063e-06   -1.2908436669739327e-05
-4.155741788856899e-06   1.8416443125994063e-06   -1.2908436669739327e-05
-4.155741788856899e-06   1.8416443125994063e-06   -1.2908436669739327e-05
-3.3332018389147124e-06   1.2245145534817191e-06   -1.3909058730839004e-05
-3.3332018389147124e-06   1.2245145534817191e-06   -1.3909058730839004e-05
-3.3332018389147124e-06   1.2245145534817191e-06   -1.3909058730839004e-05
-3.3332018389147124e-06   1.2245145534817191e-06   -1.3909058730839004e-05
-3.865852827455453e-06   1.1981692743822693e-06   -1.30054999158114e-05
-3.865852827455453e-06   1.1981692743822693e-06   -1.30054999158114e-05
-3.865852827455453e-06   1.1981692743822693e-06   -1.30054999158114e-05
-3.865852827455453e-06   1.1981692743822693e-06   -1.30054999158114e-05
-4.623960202988558e-06   2.5018458938038095e-07   -1.4919805835681072e-05
-4.623960202988558e-06   2.5018458938038095e-07   -1.4919805835681072e-05
-4.623960202988558e-06   2.5018458938038095e-07   -1.4919805835681072e-05
-4.623960202988558e-06   2.5018458938038095e-07   -1.4919805835681072e-05
-5.312378662411595e-06   3.570846815985221e-07   -1.600302987938857e-05
-5.312378662411595e-06   3.570846815985221e-07   -1.600302987938857e-05
-5.312378662411595e-06   3.570846815985221e-07   -1.600302987938857e-05
-5.312378662411595e-06   3.570846815985221e-07   -1.600302987938857e-05
-5.160290284849097e-06   7.361384828685519e-07   -1.4687038017920941e-05
-5.160290284849097e-06   7.361384828685519e-07   -1.4687038017920941e-05
-5.160290284849097e-06   7.361384828685519e-07   -1.4687038017920941e-05
-5.160290284849097e-06   7.361384828685519e-07   -1.4687038017920941e-05
-4.468800376236653e-06   7.946751029784364e-07   -1.5874643171007532e-05
-4.468800376236653e-06   7.946751029784364e-07   -1.5874643171007532e-05
-4.468800376236653e-06   7.946751029784364e-07   -1.5874643171007532e-05
-4.468800376236653e-06   7.946751029784364e-07   -1.5874643171007532e-05
-4.8618620605982035e-06   6.030703194781668e-07   -1.5104577493638328e-05
-4.8618620605982035e-06   6.030703194781668e-07   -1.5104577493638328e-05
-4.8618620605982035e-06   6.030703194781668e-07   -1.5104577493638328e-05
-4.8618620605982035e-06   6.030703194781668e-07   -1.5104577493638328e-05
-4.46880037623664e-06   7.361384828685519e-07   -1.4722159989986753e-05
-4.46880037623664e-06   7.361384828685519e-07   -1.4722159989986753e-05
-4.46880037623664e-06   7.361384828685519e-07   -1.4722159989986753e-05
-4.46880037623664e-06   7.361384828685519e-07   -1.4722159989986753e-05
-5.160290284849106e-06   7.94675102978328e-07   -1.5839521198941667e-05
-5.160290284849106e-06   7.94675102978328e-07   -1.5839521198941667e-05
-5.160290284849106e-06   7.94675102978328e-07   -1.5839521198941667e-05
-5.160290284849106e-06   7.94675102978328e-07   -1.5839521198941667e-05
-4.999728106869753e-06   1.2262913748410892e-06   -1.4728500758119417e-05
-4.999728106869753e-06   1.2262913748410892e-06   -1.4728500758119417e-05
-4.999728106869753e-06   1.2262913748410892e-06   -1.4728500758119417e-05
-4.999728106869753e-06   1.2262913748410892e-06   -1.4728500758119417e-05
-4.3072789491481e-06   1.241675399386616e-06   -1.5891813102382747e-05
-4.3072789491481e-06   1.241675399386616e-06   -1.5891813102382747e-05
-4.3072789491481e-06   1.241675399386616e-06   -1.5891813102382747e-05
-4.3072789491481e-06   1.241675399386616e-06   -1.5891813102382747e-05
-4.735121878591916e-06   9.783132805181753e-07   -1.502072428198896e-05
-4.735121878591916e-06   9.783132805181753e-07   -1.502072428198896e-05
-4.735121878591916e-06   9.783132805181753e-07   -1.502072428198896e-05
-4.735121878591916e-06   9.783132805181753e-07   -1.502072428198896e-05
-4.307278949148087e-06   1.2262913748410892e-06   -1.473773117284668e-05
-4.307278949148087e-06   1.2262913748410892e-06   -1.473773117284668e-05
-4.307278949148087e-06   1.2262913748410892e-06   -1.473773117284668e-05
-4.307278949148087e-06   1.2262913748410892e-06   -1.473773117284668e-05
-4.999728106869753e-06   1.241675399386616e-06   -1.5882582687655445e-05
-4.999728106869753e-06   1.241675399386616e-06   -1.5882582687655445e-05
-4.999728106869753e-06   1.241675399386616e-06   -1.5882582687655445e-05
-4.999728106869753e-06   1.241675399386616e-06   -1.5882582687655445e-05
-4.848452679502817e-06   1.7239089348710236e-06   -1.5014437219896723e-05
-4.848452679502817e-06   1.7239089348710236e-06   -1.5014437219896723e-05
-4.848452679502817e-06   1.7239089348710236e-06   -1.5014437219896723e-05
-4.848452679502817e-06   1.7239089348710236e-06   -1.5014437219896723e-05
-4.155741788856905e-06   1.6949637080683174e-06   -1.6151588234891517e-05
-4.155741788856905e-06   1.6949637080683174e-06   -1.6151588234891517e-05
-4.155741788856905e-06   1.6949637080683174e-06   -1.6151588234891517e-05
-4.155741788856905e-06   1.6949637080683174e-06   -1.6151588234891517e-05
-4.619027942636062e-06   1.3588510276216605e-06   -1.5177777036991643e-05
-4.619027942636062e-06   1.3588510276216605e-06   -1.5177777036991643e-05
-4.619027942636062e-06   1.3588510276216605e-06   -1.5177777036991643e-05
-4.619027942636062e-06   1.3588510276216605e-06   -1.5177777036991643e-05
-5.312378662411577e-06   1.1561617296412764e-07   -1.2865029430926967e-05
-5.312378662411577e-06   1.1561617296412764e-07   -1.2865029430926967e-05
-5.312378662411577e-06   1.1561617296412764e-07   -1.2865029430926967e-05
-5.312378662411577e-06   1.1561617296412764e-07   -1.2865029430926967e-05
-6.044905377966309e-06   7.908362842267347e-07   -1.3680775223427353e-05
-6.044905377966309e-06   7.908362842267347e-07   -1.3680775223427353e-05
-6.044905377966309e-06   7.908362842267347e-07   -1.3680775223427353e-05
-6.044905377966309e-06   7.908362842267347e-07   -1.3680775223427353e-05
-5.859706736272822e-06   5.87324879058361e-07   -1.2294167642847075e-05
-5.859706736272822e-06   5.87324879058361e-07   -1.2294167642847075e-05
-5.859706736272822e-06   5.87324879058361e-07   -1.2294167642847075e-05
-5.859706736272822e-06   5.87324879058361e-07   -1.2294167642847075e-05
-5.160290284849097e-06   1.2306036233912477e-06   -1.3845828975152963e-05
-5.160290284849097e-06   1.2306036233912477e-06   -1.3845828975152963e-05
-5.160290284849097e-06   1.2306036233912477e-06   -1.3845828975152963e-05
-5.160290284849097e-06   1.2306036233912477e-06   -1.3845828975152963e-05
-5.5508994823063e-06   7.295686354223717e-07   -1.2894192653276418e-05
-5.5508994823063e-06   7.295686354223717e-07   -1.2894192653276418e-05
-5.5508994823063e-06   7.295686354223717e-07   -1.2894192653276418e-05
-5.5508994823063e-06   7.295686354223717e-07   -1.2894192653276418e-05
-5.160290284849087e-06   5.87324879058361e-07   -1.2680134889446774e-05
-5.160290284849087e-06   5.87324879058361e-07   -1.2680134889446774e-05
-5.160290284849087e-06   5.87324879058361e-07   -1.2680134889446774e-05
-5.160290284849087e-06   5.87324879058361e-07   -1.2680134889446774e-05
-5.859706736272822e-06   1.2306036233913561e-06   -1.3459861728553268e-05
-5.859706736272822e-06   1.2306036233913561e-06   -1.3459861728553268e-05
-5.859706736272822e-06   1.2306036233913561e-06   -1.3459861728553268e-05
-5.859706736272822e-06   1.2306036233913561e-06   -1.3459861728553268e-05
-5.617674349669486e-06   1.0308659773615512e-06   -1.2343417559029725e-05
-5.617674349669486e-06   1.0308659773615512e-06   -1.2343417559029725e-05
-5.617674349669486e-06   1.0308659773615512e-06   -1.2343417559029725e-05
-5.617674349669486e-06   1.0308659773615512e-06   -1.2343417559029725e-05
-4.999728106869746e-06   1.6354485716874381e-06   -1.3736077520291495e-05
-4.999728106869746e-06   1.6354485716874381e-06   -1.3736077520291495e-05
-4.999728106869746e-06   1.6354485716874381e-06   -1.3736077520291495e-05
-4.999728106869746e-06   1.6354485716874381e-06   -1.3736077520291495e-05
-5.385210800091996e-06   1.0792167669815018e-06   -1.275986728209761e-05
-5.385210800091996e-06   1.0792167669815018e-06   -1.275986728209761e-05
-5.385210800091996e-06   1.0792167669815018e-06   -1.275986728209761e-05
-5.385210800091996e-06   1.0792167669815018e-06   -1.275986728209761e-05
-4.9997281068697324e-06   1.030865977361497e-06   -1.2706167115625181e-05
-4.9997281068697324e-06   1.030865977361497e-06   -1.2706167115625181e-05
-4.9997281068697324e-06   1.030865977361497e-06   -1.2706167115625181e-05
-4.9997281068697324e-06   1.030865977361497e-06   -1.2706167115625181e-05
-5.617674349669493e-06   1.6354485716875465e-06   -1.3373327963695923e-05
-5.617674349669493e-06   1.6354485716875465e-06   -1.3373327963695923e-05
-5.617674349669493e-06   1.6354485716875465e-06   -1.3373327963695923e-05
-5.617674349669493e-06   1.6354485716875465e-06   -1.3373327963695923e-05
-5.428219327142673e-06   1.531152601527534e-06   -1.2685581052556674e-05
-5.428219327142673e-06   1.531152601527534e-06   -1.2685581052556674e-05
-5.428219327142673e-06   1.531152601527534e-06   -1.2685581052556674e-05
-5.428219327142673e-06   1.531152601527534e-06   -1.2685581052556674e-05
-4.848452679502817e-06   2.087822931426896e-06   -1.3985860996562658e-05
-4.848452679502817e-06   2.087822931426896e-06   -1.3985860996562658e-05
-4.848452679502817e-06   2.087822931426896e-06   -1.3985860996562658e-05
-4.848452679502817e-06   2.087822931426896e-06   -1.3985860996562658e-05
-5.2633797472449354e-06   1.435403314886956e-06   -1.2902864113735149e-05
-5.2633797472449354e-06   1.435403314886956e-06   -1.2902864113735149e-05
-5.2633797472449354e-06   1.435403314886956e-06   -1.2902864113735149e-05
-5.2633797472449354e-06   1.435403314886956e-06   -1.2902864113735149e-05
-6.044905377966288e-06   1.7001734062396584e-07   -6.843933962105437e-06
-6.044905377966288e-06   1.7001734062396584e-07   -6.843933962105437e-06
-6.044905377966288e-06   1.7001734062396584e-07   -6.843933962105437e-06
-6.044905377966288e-06   1.7001734062396584e-07   -6.843933962105437e-06
-7.371342621956205e-06   1.3341726538710968e-06   -8.356169514140463e-06
-7.371342621956205e-06   1.3341726538710968e-06   -8.356169514140463e-06
-7.371342621956205e-06   1.3341726538710968e-06   -8.356169514140463e-06
-7.371342621956205e-06   1.3341726538710968e-06   -8.356169514140463e-06
-6.696223893652118e-06   5.440751179198598e-07   -5.613950140188873e-06
-6.696223893652118e-06   5.440751179198598e-07   -5.613950140188873e-06
-6.696223893652118e-06   5.440751179198598e-07   -5.613950140188873e-06
-6.696223893652118e-06   5.440751179198598e-07   -5.613950140188873e-06
-5.859706736272809e-06   1.7340364152300782e-06   -7.72212218087376e-06
-5.859706736272809e-06   1.7340364152300782e-06   -7.72212218087376e-06
-5.859706736272809e-06   1.7340364152300782e-06   -7.72212218087376e-06
-5.859706736272809e-06   1.7340364152300782e-06   -7.72212218087376e-06
-6.230338222110871e-06   9.92514931706873e-07   -6.659490147696565e-06
-6.230338222110871e-06   9.92514931706873e-07   -6.659490147696565e-06
-6.230338222110871e-06   9.92514931706873e-07   -6.659490147696565e-06
-6.230338222110871e-06   9.92514931706873e-07   -6.659490147696565e-06
-5.859706736272795e-06   5.440751179198598e-07   -6.3279269185749715e-06
-5.859706736272795e-06   5.440751179198598e-07   -6.3279269185749715e-06
-5.859706736272795e-06   5.440751179198598e-07   -6.3279269185749715e-06
-5.859706736272795e-06   5.440751179198598e-07   -6.3279269185749715e-06
-6.696223893652104e-06   1.7340364152300782e-06   -7.0081454024876555e-06
-6.696223893652104e-06   1.7340364152300782e-06   -7.0081454024876555e-06
-6.696223893652104e-06   1.7340364152300782e-06   -7.0081454024876555e-06
-6.696223893652104e-06   1.7340364152300782e-06   -7.0081454024876555e-06
-6.147111144029778e-06   7.538120195549878e-07   -5.507129143897507e-06
-6.147111144029778e-06   7.538120195549878e-07   -5.507129143897507e-06
-6.147111144029778e-06   7.538120195549878e-07   -5.507129143897507e-06
-6.147111144029778e-06   7.538120195549878e-07   -5.507129143897507e-06
-5.617674349669486e-06   1.9170154757957095e-06   -7.087445874909004e-06
-5.617674349669486e-06   1.9170154757957095e-06   -7.087445874909004e-06
-5.617674349669486e-06   1.9170154757957095e-06   -7.087445874909004e-06
-5.617674349669486e-06   1.9170154757957095e-06   -7.087445874909004e-06
-5.947999737849311e-06   1.179027263462887e-06   -6.094110633876314e-06
-5.947999737849311e-06   1.179027263462887e-06   -6.094110633876314e-06
-5.947999737849311e-06   1.179027263462887e-06   -6.094110633876314e-06
-5.947999737849311e-06   1.179027263462887e-06   -6.094110633876314e-06
-5.6176743496694724e-06   7.538120195549878e-07   -6.205051217641848e-06
-5.6176743496694724e-06   7.538120195549878e-07   -6.205051217641848e-06
-5.6176743496694724e-06   7.538120195549878e-07   -6.205051217641848e-06
-5.6176743496694724e-06   7.538120195549878e-07   -6.205051217641848e-06
-6.147111144029778e-06   1.917015475795601e-06   -6.3895238011645885e-06
-6.147111144029778e-06   1.917015475795601e-06   -6.3895238011645885e-06
-6.147111144029778e-06   1.917015475795601e-06   -6.3895238011645885e-06
-6.147111144029778e-06   1.917015475795601e-06   -6.3895238011645885e-06
-5.472591079502175e-06   1.1228010522463389e-06   -5.661660831542901e-06
-5.472591079502175e-06   1.1228010522463389e-06   -5.661660831542901e-06
-5.472591079502175e-06   1.1228010522463389e-06   -5.661660831542901e-06
-5.472591079502175e-06   1.1228010522463389e-06   -5.661660831542901e-06
-5.428219327142673e-06   2.1972904320481006e-06   -6.380307380022988e-06
-5.428219327142673e-06   2.1972904320481006e-06   -6.380307380022988e-06
-5.428219327142673e-06   2.1972904320481006e-06   -6.380307380022988e-06
-5.428219327142673e-06   2.1972904320481006e-06   -6.380307380022988e-06
-5.522280669301045e-06   1.3276539540810683e-06   -5.701756589645513e-06
-5.522280669301045e-06   1.3276539540810683e-06   -5.701756589645513e-06
-5.522280669301045e-06   1.3276539540810683e-06   -5.701756589645513e-06
-5.522280669301045e-06   1.3276539540810683e-06   -5.701756589645513e-06
3.577491242146892e-06   -3.5234881966446363e-07   -3.4696691818053766e-06
3.577491242146892e-06   -3.5234881966446363e-07   -3.4696691818053766e-06
3.577491242146892e-06   -3.5234881966446363e-07   -3.4696691818053766e-06
3.577491242146892e-06   -3.5234881966446363e-07   -3.4696691818053766e-06
3.809083262604321e-07   -1.4501232764496576e-06   -9.455972049020523e-06
3.809083262604321e-07   -1.4501232764496576e-06   -9.455972049020523e-06
3.809083262604321e-07   -1.4501232764496576e-06   -9.455972049020523e-06
3.809083262604321e-07   -1.4501232764496576e-06   -9.455972049020523e-06
6.459904524628619e-07   -1.8620380017497946e-08   -3.849713833166835e-06
6.459904524628619e-07   -1.8620380017497946e-08   -3.849713833166835e-06
6.459904524628619e-07   -1.8620380017497946e-08   -3.849713833166835e-06
6.459904524628619e-07   -1.8620380017497946e-08   -3.849713833166835e-06
4.332318317221796e-06   -1.1935397182105808e-06   -9.288642004849304e-06
4.332318317221796e-06   -1.1935397182105808e-06   -9.288642004849304e-06
4.332318317221796e-06   -1.1935397182105808e-06   -9.288642004849304e-06
4.332318317221796e-06   -1.1935397182105808e-06   -9.288642004849304e-06
2.149949459669065e-06   -6.083235103206694e-07   -6.002490300328699e-06
2.149949459669065e-06   -6.083235103206694e-07   -6.002490300328699e-06
2.149949459669065e-06   -6.083235103206694e-07   -6.002490300328699e-06
2.149949459669065e-06   -6.083235103206694e-07   -6.002490300328699e-06
4.332318317221823e-06   -1.8620380017497946e-08   -3.1447622302510398e-06
4.332318317221823e-06   -1.8620380017497946e-08   -3.1447622302510398e-06
4.332318317221823e-06   -1.8620380017497946e-08   -3.1447622302510398e-06
4.332318317221823e-06   -1.8620380017497946e-08   -3.1447622302510398e-06
6.459904524628619e-07   -1.1935397182105808e-06   -9.993593607765208e-06
6.459904524628619e-07   -1.1935397182105808e-06   -9.993593607765208e-06
6.459904524628619e-07   -1.1935397182105808e-06   -9.993593607765208e-06
6.459904524628619e-07   -1.1935397182105808e-06   -9.993593607765208e-06
9.592821219741405e-07   1.7171977742124096e-07   -3.884699515216265e-06
9.592821219741405e-07   1.7171977742124096e-07   -3.884699515216265e-06
9.592821219741405e-07   1.7171977742124096e-07   -3.884699515216265e-06
9.592821219741405e-07   1.7171977742124096e-07   -3.884699515216265e-06
4.967662537536506e-06   -1.020677570816417e-06   -9.849895132210928e-06
4.967662537536506e-06   -1.020677570816417e-06   -9.849895132210928e-06
4.967662537536506e-06   -1.020677570816417e-06   -9.849895132210928e-06
4.967662537536506e-06   -1.020677570816417e-06   -9.849895132210928e-06
2.626808689950296e-06   -4.873104564148863e-07   -6.2684923215418256e-06
2.626808689950296e-06   -4.873104564148863e-07   -6.2684923215418256e-06
2.626808689950296e-06   -4.873104564148863e-07   -6.2684923215418256e-06
2.626808689950296e-06   -4.873104564148863e-07   -6.2684923215418256e-06
4.967662537536506e-06   1.7171977742124096e-07   -3.16926110627367e-06
4.967662537536506e-06   1.7171977742124096e-07   -3.16926110627367e-06
4.967662537536506e-06   1.7171977742124096e-07   -3.16926110627367e-06
4.967662537536506e-06   1.7171977742124096e-07   -3.16926110627367e-06
9.592821219741405e-07   -1.020677570816417e-06   -1.0565333541153604e-05
9.592821219741405e-07   -1.020677570816417e-06   -1.0565333541153604e-05
9.592821219741405e-07   -1.020677570816417e-06   -1.0565333541153604e-05
9.592821219741405e-07   -1.020677570816417e-06   -1.0565333541153604e-05
1.215116392311419e-06   5.508016730323062e-07   -4.271184024146426e-06
1.215116392311419e-06   5.508016730323062e-07   -4.271184024146426e-06
1.215116392311419e-06   5.508016730323062e-07   -4.271184024146426e-06
1.215116392311419e-06   5.508016730323062e-07   -4.271184024146426e-06
5.731102407016328e-06   -5.868674175921922e-07   -1.1115225927613333e-05
5.731102407016328e-06   -5.868674175921922e-07   -1.1115225927613333e-05
5.731102407016328e-06   -5.868674175921922e-07   -1.1115225927613333e-05
5.731102407016328e-06   -5.868674175921922e-07   -1.1115225927613333e-05
3.0017559225865303e-06   -3.0802631095241083e-07   -6.733619784214434e-06
3.0017559225865303e-06   -3.0802631095241083e-07   -6.733619784214434e-06
3.0017559225865303e-06   -3.0802631095241083e-07   -6.733619784214434e-06
3.0017559225865303e-06   -3.0802631095241083e-07   -6.733619784214434e-06
3.8090832626044564e-07   -7.125131295724046e-08   -1.0175157232603961e-05
3.8090832626044564e-07   -7.125131295724046e-08   -1.0175157232603961e-05
3.8090832626044564e-07   -7.125131295724046e-08   -1.0175157232603961e-05
3.8090832626044564e-07   -7.125131295724046e-08   -1.0175157232603961e-05
-3.3161187004321265e-06   -5.66184027743586e-07   -1.663382857263005e-05
-3.3161187004321265e-06   -5.66184027743586e-07   -1.663382857263005e-05
-3.3161187004321265e-06   -5.66184027743586e-07   -1.663382857263005e-05
-3.3161187004321265e-06   -5.66184027743586e-07   -1.663382857263005e-05
-3.0851488743868463e-06   3.508412418814751e-07   -1.023149000884782e-05
-3.0851488743868463e-06   3.508412418814751e-07   -1.023149000884782e-05
-3.0851488743868463e-06   3.508412418814751e-07   -1.023149000884782e-05
-3.0851488743868463e-06   3.508412418814751e-07   -1.023149000884782e-05
6.459904524628619e-07   -2.1243494388947532e-07   -1.6112089842134746e-05
6.459904524628619e-07   -2.1243494388947532e-07   -1.6112089842134746e-05
6.459904524628619e-07   -2.1243494388947532e-07   -1.6112089842134746e-05
6.459904524628619e-07   -2.1243494388947532e-07   -1.6112089842134746e-05
-1.3130077879462344e-06   -1.579481051028689e-08   -1.2965076854813755e-05
-1.3130077879462344e-06   -1.579481051028689e-08   -1.2965076854813755e-05
-1.3130077879462344e-06   -1.579481051028689e-08   -1.2965076854813755e-05
-1.3130077879462344e-06   -1.579481051028689e-08   -1.2965076854813755e-05
6.459904524628619e-07   3.508412418814751e-07   -9.893524297385206e-06
6.459904524628619e-07   3.508412418814751e-07   -9.893524297385206e-06
6.459904524628619e-07   3.508412418814751e-07   -9.893524297385206e-06
6.459904524628619e-07   3.508412418814751e-07   -9.893524297385206e-06
-3.0851488743868463e-06   -2.1243494388947532e-07   -1.645005555359736e-05
-3.0851488743868463e-06   -2.1243494388947532e-07   -1.645005555359736e-05
-3.0851488743868463e-06   -2.1243494388947532e-07   -1.645005555359736e-05
-3.0851488743868463e-06   -2.1243494388947532e-07   -1.645005555359736e-05
-2.8527964007303623e-06   7.582472638310552e-07   -1.0247848073127903e-05
-2.8527964007303623e-06   7.582472638310552e-07   -1.0247848073127903e-05
-2.8527964007303623e-06   7.582472638310552e-07   -1.0247848073127903e-05
-2.8527964007303623e-06   7.582472638310552e-07   -1.0247848073127903e-05
9.592821219741405e-07   1.539828806993793e-07   -1.6238753647756387e-05
9.592821219741405e-07   1.539828806993793e-07   -1.6238753647756387e-05
9.592821219741405e-07   1.539828806993793e-07   -1.6238753647756387e-05
9.592821219741405e-07   1.539828806993793e-07   -1.6238753647756387e-05
-1.109428342925666e-06   2.7601157527026507e-07   -1.2864120089665985e-05
-1.109428342925666e-06   2.7601157527026507e-07   -1.2864120089665985e-05
-1.109428342925666e-06   2.7601157527026507e-07   -1.2864120089665985e-05
-1.109428342925666e-06   2.7601157527026507e-07   -1.2864120089665985e-05
9.592821219741405e-07   7.582472638310552e-07   -9.885289443248887e-06
9.592821219741405e-07   7.582472638310552e-07   -9.885289443248887e-06
9.592821219741405e-07   7.582472638310552e-07   -9.885289443248887e-06
9.592821219741405e-07   7.582472638310552e-07   -9.885289443248887e-06
-2.8527964007303623e-06   1.539828806993793e-07   -1.660131227763543e-05
-2.8527964007303623e-06   1.539828806993793e-07   -1.660131227763543e-05
-2.8527964007303623e-06   1.539828806993793e-07   -1.660131227763543e-05
-2.8527964007303623e-06   1.539828806993793e-07   -1.660131227763543e-05
-2.631335747780844e-06   1.2245145534817191e-06   -1.050641250177533e-05
-2.631335747780844e-06   1.2245145534817191e-06   -1.050641250177533e-05
-2.631335747780844e-06   1.2245145534817191e-06   -1.050641250177533e-05
-2.631335747780844e-06   1.2245145534817191e-06   -1.050641250177533e-05
1.215116392311419e-06   5.888885879688733e-07   -1.653579048928818e-05
1.215116392311419e-06   5.888885879688733e-07   -1.653579048928818e-05
1.215116392311419e-06   5.888885879688733e-07   -1.653579048928818e-05
1.215116392311419e-06   5.888885879688733e-07   -1.653579048928818e-05
-8.816392463273948e-07   6.004795638397172e-07   -1.304815234374614e-05
-8.816392463273948e-07   6.004795638397172e-07   -1.304815234374614e-05
-8.816392463273948e-07   6.004795638397172e-07   -1.304815234374614e-05
-8.816392463273948e-07   6.004795638397172e-07   -1.304815234374614e-05
-3.3161187004321333e-06   3.5708468159863054e-07   -1.2339776904920759e-05
-3.3161187004321333e-06   3.5708468159863054e-07   -1.2339776904920759e-05
-3.3161187004321333e-06   3.5708468159863054e-07   -1.2339776904920759e-05
-3.3161187004321333e-06   3.5708468159863054e-07   -1.2339776904920759e-05
-6.978178843980962e-06   4.4967738942473974e-07   -1.838765485280634e-05
-6.978178843980962e-06   4.4967738942473974e-07   -1.838765485280634e-05
-6.978178843980962e-06   4.4967738942473974e-07   -1.838765485280634e-05
-6.978178843980962e-06   4.4967738942473974e-07   -1.838765485280634e-05
-6.745917028015958e-06   7.946751029784364e-07   -1.2115440986460715e-05
-6.745917028015958e-06   7.946751029784364e-07   -1.2115440986460715e-05
-6.745917028015958e-06   7.946751029784364e-07   -1.2115440986460715e-05
-6.745917028015958e-06   7.946751029784364e-07   -1.2115440986460715e-05
-3.085148874386853e-06   8.252181426485639e-07   -1.823504706631145e-05
-3.085148874386853e-06   8.252181426485639e-07   -1.823504706631145e-05
-3.085148874386853e-06   8.252181426485639e-07   -1.823504706631145e-05
-3.085148874386853e-06   8.252181426485639e-07   -1.823504706631145e-05
-5.002290405498138e-06   6.830279945443116e-07   -1.495449709226334e-05
-5.002290405498138e-06   6.830279945443116e-07   -1.495449709226334e-05
-5.002290405498138e-06   6.830279945443116e-07   -1.495449709226334e-05
-5.002290405498138e-06   6.830279945443116e-07   -1.495449709226334e-05
-3.085148874386853e-06   7.946751029784364e-07   -1.2133766810262965e-05
-3.085148874386853e-06   7.946751029784364e-07   -1.2133766810262965e-05
-3.085148874386853e-06   7.946751029784364e-07   -1.2133766810262965e-05
-3.085148874386853e-06   7.946751029784364e-07   -1.2133766810262965e-05
-6.745917028015958e-06   8.252181426485639e-07   -1.8216721242509336e-05
-6.745917028015958e-06   8.252181426485639e-07   -1.8216721242509336e-05
-6.745917028015958e-06   8.252181426485639e-07   -1.8216721242509336e-05
-6.745917028015958e-06   8.252181426485639e-07   -1.8216721242509336e-05
-6.509426860300992e-06   1.241675399386616e-06   -1.2146162199726783e-05
-6.509426860300992e-06   1.241675399386616e-06   -1.2146162199726783e-05
-6.509426860300992e-06   1.241675399386616e-06   -1.2146162199726783e-05
-6.509426860300992e-06   1.241675399386616e-06   -1.2146162199726783e-05
-2.852796400730369e-06   1.2222348174212002e-06   -1.8228881949831907e-05
-2.852796400730369e-06   1.2222348174212002e-06   -1.8228881949831907e-05
-2.852796400730369e-06   1.2222348174212002e-06   -1.8228881949831907e-05
-2.852796400730369e-06   1.2222348174212002e-06   -1.8228881949831907e-05
-4.798625128937235e-06   1.0115603754993477e-06   -1.4859429404334235e-05
-4.798625128937235e-06   1.0115603754993477e-06   -1.4859429404334235e-05
-4.798625128937235e-06   1.0115603754993477e-06   -1.4859429404334235e-05
-4.798625128937235e-06   1.0115603754993477e-06   -1.4859429404334235e-05
-2.852796400730369e-06   1.241675399386616e-06   -1.2134497850547533e-05
-2.852796400730369e-06   1.241675399386616e-06   -1.2134497850547533e-05
-2.852796400730369e-06   1.241675399386616e-06   -1.2134497850547533e-05
-2.852796400730369e-06   1.241675399386616e-06   -1.2134497850547533e-05
-6.50942686030098e-06   1.2222348174212002e-06   -1.824054629901117e-05
-6.50942686030098e-06   1.2222348174212002e-06   -1.824054629901117e-05
-6.50942686030098e-06   1.2222348174212002e-06   -1.824054629901117e-05
-6.50942686030098e-06   1.2222348174212002e-06   -1.824054629901117e-05
-6.284014018080297e-06   1.6949637080683174e-06   -1.2419935282881583e-05
-6.284014018080297e-06   1.6949637080683174e-06   -1.2419935282881583e-05
-6.284014018080297e-06   1.6949637080683174e-06   -1.2419935282881583e-05
-6.284014018080297e-06   1.6949637080683174e-06   -1.2419935282881583e-05
-2.6313357477808507e-06   1.6261784871946568e-06   -1.8466461267523034e-05
-2.6313357477808507e-06   1.6261784871946568e-06   -1.8466461267523034e-05
-2.6313357477808507e-06   1.6261784871946568e-06   -1.8466461267523034e-05
-2.6313357477808507e-06   1.6261784871946568e-06   -1.8466461267523034e-05
-4.609698204178066e-06   1.3451577900397502e-06   -1.500057808856832e-05
-4.609698204178066e-06   1.3451577900397502e-06   -1.500057808856832e-05
-4.609698204178066e-06   1.3451577900397502e-06   -1.500057808856832e-05
-4.609698204178066e-06   1.3451577900397502e-06   -1.500057808856832e-05
-6.978178843980974e-06   7.908362842266262e-07   -1.0367098691021343e-05
-6.978178843980974e-06   7.908362842266262e-07   -1.0367098691021343e-05
-6.978178843980974e-06   7.908362842266262e-07   -1.0367098691021343e-05
-6.978178843980974e-06   7.908362842266262e-07   -1.0367098691021343e-05
-1.0607758233205039e-05   1.43887877260729e-06   -1.6027572180033064e-05
-1.0607758233205039e-05   1.43887877260729e-06   -1.6027572180033064e-05
-1.0607758233205039e-05   1.43887877260729e-06   -1.6027572180033064e-05
-1.0607758233205039e-05   1.43887877260729e-06   -1.6027572180033064e-05
-1.0341503158742381e-05   1.2306036233912477e-06   -9.756210995619176e-06
-1.0341503158742381e-05   1.2306036233912477e-06   -9.756210995619176e-06
-1.0341503158742381e-05   1.2306036233912477e-06   -9.756210995619176e-06
-1.0341503158742381e-05   1.2306036233912477e-06   -9.756210995619176e-06
-6.745917028015958e-06   1.8398332351462522e-06   -1.6114392313882805e-05
-6.745917028015958e-06   1.8398332351462522e-06   -1.6114392313882805e-05
-6.745917028015958e-06   1.8398332351462522e-06   -1.6114392313882805e-05
-6.745917028015958e-06   1.8398332351462522e-06   -1.6114392313882805e-05
-8.608142652260264e-06   1.3761865080290543e-06   -1.2732494903872033e-05
-8.608142652260264e-06   1.3761865080290543e-06   -1.2732494903872033e-05
-8.608142652260264e-06   1.3761865080290543e-06   -1.2732494903872033e-05
-8.608142652260264e-06   1.3761865080290543e-06   -1.2732494903872033e-05
-6.7459170280159695e-06   1.2306036233912477e-06   -1.0121748762672125e-05
-6.7459170280159695e-06   1.2306036233912477e-06   -1.0121748762672125e-05
-6.7459170280159695e-06   1.2306036233912477e-06   -1.0121748762672125e-05
-6.7459170280159695e-06   1.2306036233912477e-06   -1.0121748762672125e-05
-1.0341503158742401e-05   1.8398332351461438e-06   -1.574885454683e-05
-1.0341503158742401e-05   1.8398332351461438e-06   -1.574885454683e-05
-1.0341503158742401e-05   1.8398332351461438e-06   -1.574885454683e-05
-1.0341503158742401e-05   1.8398332351461438e-06   -1.574885454683e-05
-1.002026867277133e-05   1.6354485716875465e-06   -9.660738081786755e-06
-1.002026867277133e-05   1.6354485716875465e-06   -9.660738081786755e-06
-1.002026867277133e-05   1.6354485716875465e-06   -9.660738081786755e-06
-1.002026867277133e-05   1.6354485716875465e-06   -9.660738081786755e-06
-6.509426860300992e-06   2.2003134893143136e-06   -1.5851060053146742e-05
-6.509426860300992e-06   2.2003134893143136e-06   -1.5851060053146742e-05
-6.509426860300992e-06   2.2003134893143136e-06   -1.5851060053146742e-05
-6.509426860300992e-06   2.2003134893143136e-06   -1.5851060053146742e-05
-8.33858622891437e-06   1.6935721608345384e-06   -1.2498416308370075e-05
-8.33858622891437e-06   1.6935721608345384e-06   -1.2498416308370075e-05
-8.33858622891437e-06   1.6935721608345384e-06   -1.2498416308370075e-05
-8.33858622891437e-06   1.6935721608345384e-06   -1.2498416308370075e-05
-6.509426860300985e-06   1.6354485716875465e-06   -9.999657032362772e-06
-6.509426860300985e-06   1.6354485716875465e-06   -9.999657032362772e-06
-6.509426860300985e-06   1.6354485716875465e-06   -9.999657032362772e-06
-6.509426860300985e-06   1.6354485716875465e-06   -9.999657032362772e-06
-1.002026867277133e-05   2.2003134893143136e-06   -1.5512141102570732e-05
-1.002026867277133e-05   2.2003134893143136e-06   -1.5512141102570732e-05
-1.002026867277133e-05   2.2003134893143136e-06   -1.5512141102570732e-05
-1.002026867277133e-05   2.2003134893143136e-06   -1.5512141102570732e-05
-9.753269091868633e-06   2.087822931426896e-06   -9.928244541497922e-06
-9.753269091868633e-06   2.087822931426896e-06   -9.928244541497922e-06
-9.753269091868633e-06   2.087822931426896e-06   -9.928244541497922e-06
-9.753269091868633e-06   2.087822931426896e-06   -9.928244541497922e-06
-6.284014018080297e-06   2.6021502097154205e-06   -1.601893269811831e-05
-6.284014018080297e-06   2.6021502097154205e-06   -1.601893269811831e-05
-6.284014018080297e-06   2.6021502097154205e-06   -1.601893269811831e-05
-6.284014018080297e-06   2.6021502097154205e-06   -1.601893269811831e-05
-8.161664208743579e-06   2.005357917996475e-06   -1.2531440338648064e-05
-8.161664208743579e-06   2.005357917996475e-06   -1.2531440338648064e-05
-8.161664208743579e-06   2.005357917996475e-06   -1.2531440338648064e-05
-8.161664208743579e-06   2.005357917996475e-06   -1.2531440338648064e-05
-1.0607758233205039e-05   1.3341726538710968e-06   -5.352160676654245e-06
-1.0607758233205039e-05   1.3341726538710968e-06   -5.352160676654245e-06
-1.0607758233205039e-05   1.3341726538710968e-06   -5.352160676654245e-06
-1.0607758233205039e-05   1.3341726538710968e-06   -5.352160676654245e-06
-1.4756486925835562e-05   2.4759015906387818e-06   -1.1581671135644546e-05
-1.4756486925835562e-05   2.4759015906387818e-06   -1.1581671135644546e-05
-1.4756486925835562e-05   2.4759015906387818e-06   -1.1581671135644546e-05
-1.4756486925835562e-05   2.4759015906387818e-06   -1.1581671135644546e-05
-1.400950605494006e-05   1.7340364152300782e-06   -3.3228599615484165e-06
-1.400950605494006e-05   1.7340364152300782e-06   -3.3228599615484165e-06
-1.400950605494006e-05   1.7340364152300782e-06   -3.3228599615484165e-06
-1.400950605494006e-05   1.7340364152300782e-06   -3.3228599615484165e-06
-1.0341503158742381e-05   2.8933888925490375e-06   -1.0131809608269167e-05
-1.0341503158742381e-05   2.8933888925490375e-06   -1.0131809608269167e-05
-1.0341503158742381e-05   2.8933888925490375e-06   -1.0131809608269167e-05
-1.0341503158742381e-05   2.8933888925490375e-06   -1.0131809608269167e-05
-1.1923445687068913e-05   2.155226083239907e-06   -7.052341042139502e-06
-1.1923445687068913e-05   2.155226083239907e-06   -7.052341042139502e-06
-1.1923445687068913e-05   2.155226083239907e-06   -7.052341042139502e-06
-1.1923445687068913e-05   2.155226083239907e-06   -7.052341042139502e-06
-1.0341503158742391e-05   1.7340364152300782e-06   -4.01847144793977e-06
-1.0341503158742391e-05   1.7340364152300782e-06   -4.01847144793977e-06
-1.0341503158742391e-05   1.7340364152300782e-06   -4.01847144793977e-06
-1.0341503158742391e-05   1.7340364152300782e-06   -4.01847144793977e-06
-1.4009506054940012e-05   2.8933888925490375e-06   -9.436198121877881e-06
-1.4009506054940012e-05   2.8933888925490375e-06   -9.436198121877881e-06
-1.4009506054940012e-05   2.8933888925490375e-06   -9.436198121877881e-06
-1.4009506054940012e-05   2.8933888925490375e-06   -9.436198121877881e-06
-1.3392220997742225e-05   1.9170154757957095e-06   -2.6990387430647416e-06
-1.3392220997742225e-05   1.9170154757957095e-06   -2.6990387430647416e-06
-1.3392220997742225e-05   1.9170154757957095e-06   -2.6990387430647416e-06
-1.3392220997742225e-05   1.9170154757957095e-06   -2.6990387430647416e-06
-1.0020268672771313e-05   3.0433775590208226e-06   -8.994776534618043e-06
-1.0020268672771313e-05   3.0433775590208226e-06   -8.994776534618043e-06
-1.0020268672771313e-05   3.0433775590208226e-06   -8.994776534618043e-06
-1.0020268672771313e-05   3.0433775590208226e-06   -8.994776534618043e-06
-1.1657912694430806e-05   2.3446382445430894e-06   -5.846126243165577e-06
-1.1657912694430806e-05   2.3446382445430894e-06   -5.846126243165577e-06
-1.1657912694430806e-05   2.3446382445430894e-06   -5.846126243165577e-06
-1.1657912694430806e-05   2.3446382445430894e-06   -5.846126243165577e-06
-1.002026867277133e-05   1.9170154757957095e-06   -3.3748559929998962e-06
-1.002026867277133e-05   1.9170154757957095e-06   -3.3748559929998962e-06
-1.002026867277133e-05   1.9170154757957095e-06   -3.3748559929998962e-06
-1.002026867277133e-05   1.9170154757957095e-06   -3.3748559929998962e-06
-1.3392220997742197e-05   3.0433775590208226e-06   -8.31895928468299e-06
-1.3392220997742197e-05   3.0433775590208226e-06   -8.31895928468299e-06
-1.3392220997742197e-05   3.0433775590208226e-06   -8.31895928468299e-06
-1.3392220997742197e-05   3.0433775590208226e-06   -8.31895928468299e-06
-1.2659045406885692e-05   2.1972904320481006e-06   -2.037025485009591e-06
-1.2659045406885692e-05   2.1972904320481006e-06   -2.037025485009591e-06
-1.2659045406885692e-05   2.1972904320481006e-06   -2.037025485009591e-06
-1.2659045406885692e-05   2.1972904320481006e-06   -2.037025485009591e-06
-9.753269091868633e-06   3.2300698285284927e-06   -7.499653647926249e-06
-9.753269091868633e-06   3.2300698285284927e-06   -7.499653647926249e-06
-9.753269091868633e-06   3.2300698285284927e-06   -7.499653647926249e-06
-9.753269091868633e-06   3.2300698285284927e-06   -7.499653647926249e-06
-1.1074272473543309e-05   2.434832359787917e-06   -4.820838863890946e-06
-1.1074272473543309e-05   2.434832359787917e-06   -4.820838863890946e-06
-1.1074272473543309e-05   2.434832359787917e-06   -4.820838863890946e-06
-1.1074272473543309e-05   2.434832359787917e-06   -4.820838863890946e-06
1.1092732990794087e-05   -1.4501232764496576e-06   3.6028774652715687e-08
1.1092732990794087e-05   -1.4501232764496576e-06   3.6028774652715687e-08
1.1092732990794087e-05   -1.4501232764496576e-06   3.6028774652715687e-08
1.1092732990794087e-05   -1.4501232764496576e-06   3.6028774652715687e-08
4.706639849707457e-06   -2.599933220960517e-06   -1.129734576053149e-05
4.706639849707457e-06   -2.599933220960517e-06   -1.129734576053149e-05
4.706639849707457e-06   -2.599933220960517e-06   -1.129734576053149e-05
4.706639849707457e-06   -2.599933220960517e-06   -1.129734576053149e-05
5.029190515221961e-06   -1.1935397182104724e-06   -1.12892976950735e-06
5.029190515221961e-06   -1.1935397182104724e-06   -1.12892976950735e-06
5.029190515221961e-06   -1.1935397182104724e-06   -1.12892976950735e-06
5.029190515221961e-06   -1.1935397182104724e-06   -1.12892976950735e-06
1.1913070654279945e-05   -2.4197752156968977e-06   -1.1866322036112239e-05
1.1913070654279945e-05   -2.4197752156968977e-06   -1.1866322036112239e-05
1.1913070654279945e-05   -2.4197752156968977e-06   -1.1866322036112239e-05
1.1913070654279945e-05   -2.4197752156968977e-06   -1.1866322036112239e-05
7.854297890935961e-06   -1.7185640005967133e-06   -5.522427492932322e-06
7.854297890935961e-06   -1.7185640005967133e-06   -5.522427492932322e-06
7.854297890935961e-06   -1.7185640005967133e-06   -5.522427492932322e-06
7.854297890935961e-06   -1.7185640005967133e-06   -5.522427492932322e-06
1.1913070654279959e-05   -1.1935397182104724e-06   -3.931884710156033e-07
1.1913070654279959e-05   -1.1935397182104724e-06   -3.931884710156033e-07
1.1913070654279959e-05   -1.1935397182104724e-06   -3.931884710156033e-07
1.1913070654279959e-05   -1.1935397182104724e-06   -3.931884710156033e-07
5.029190515221948e-06   -2.4197752156968977e-06   -1.2602063334604013e-05
5.029190515221948e-06   -2.4197752156968977e-06   -1.2602063334604013e-05
5.029190515221948e-06   -2.4197752156968977e-06   -1.2602063334604013e-05
5.029190515221948e-06   -2.4197752156968977e-06   -1.2602063334604013e-05
5.387098464641613e-06   -1.020677570816417e-06   -1.6428991633250095e-06
5.387098464641613e-06   -1.020677570816417e-06   -1.6428991633250095e-06
5.387098464641613e-06   -1.020677570816417e-06   -1.6428991633250095e-06
5.387098464641613e-06   -1.020677570816417e-06   -1.6428991633250095e-06
1.2599810677730436e-05   -2.262671385793477e-06   -1.2918889896153647e-05
1.2599810677730436e-05   -2.262671385793477e-06   -1.2918889896153647e-05
1.2599810677730436e-05   -2.262671385793477e-06   -1.2918889896153647e-05
1.2599810677730436e-05   -2.262671385793477e-06   -1.2918889896153647e-05
8.470066754411384e-06   -1.6484847629676504e-06   -6.404495330984076e-06
8.470066754411384e-06   -1.6484847629676504e-06   -6.404495330984076e-06
8.470066754411384e-06   -1.6484847629676504e-06   -6.404495330984076e-06
8.470066754411384e-06   -1.6484847629676504e-06   -6.404495330984076e-06
1.2599810677730463e-05   -1.020677570816417e-06   -8.977028743388927e-07
1.2599810677730463e-05   -1.020677570816417e-06   -8.977028743388927e-07
1.2599810677730463e-05   -1.020677570816417e-06   -8.977028743388927e-07
1.2599810677730463e-05   -1.020677570816417e-06   -8.977028743388927e-07
5.3870984646415995e-06   -2.262671385793477e-06   -1.36640861851399e-05
5.3870984646415995e-06   -2.262671385793477e-06   -1.36640861851399e-05
5.3870984646415995e-06   -2.262671385793477e-06   -1.36640861851399e-05
5.3870984646415995e-06   -2.262671385793477e-06   -1.36640861851399e-05
5.681068304004138e-06   -5.868674175921922e-07   -2.8216722603949945e-06
5.681068304004138e-06   -5.868674175921922e-07   -2.8216722603949945e-06
5.681068304004138e-06   -5.868674175921922e-07   -2.8216722603949945e-06
5.681068304004138e-06   -5.868674175921922e-07   -2.8216722603949945e-06
1.3397532356303118e-05   -1.7684002770461827e-06   -1.4973525965220915e-05
1.3397532356303118e-05   -1.7684002770461827e-06   -1.4973525965220915e-05
1.3397532356303118e-05   -1.7684002770461827e-06   -1.4973525965220915e-05
1.3397532356303118e-05   -1.7684002770461827e-06   -1.4973525965220915e-05
8.797003148958576e-06   -1.4530904772828935e-06   -7.495163166171704e-06
8.797003148958576e-06   -1.4530904772828935e-06   -7.495163166171704e-06
8.797003148958576e-06   -1.4530904772828935e-06   -7.495163166171704e-06
8.797003148958576e-06   -1.4530904772828935e-06   -7.495163166171704e-06
4.706639849707457e-06   -5.661840277436945e-07   -7.534754086791612e-06
4.706639849707457e-06   -5.661840277436945e-07   -7.534754086791612e-06
4.706639849707457e-06   -5.661840277436945e-07   -7.534754086791612e-06
4.706639849707457e-06   -5.661840277436945e-07   -7.534754086791612e-06
-2.0310309990014357e-06   -1.2057507988509327e-06   -1.9147945563970775e-05
-2.0310309990014357e-06   -1.2057507988509327e-06   -1.9147945563970775e-05
-2.0310309990014357e-06   -1.2057507988509327e-06   -1.9147945563970775e-05
-2.0310309990014357e-06   -1.2057507988509327e-06   -1.9147945563970775e-05
-1.7322621859873336e-06   -2.1243494388947532e-07   -7.691082573518218e-06
-1.7322621859873336e-06   -2.1243494388947532e-07   -7.691082573518218e-06
-1.7322621859873336e-06   -2.1243494388947532e-07   -7.691082573518218e-06
-1.7322621859873336e-06   -2.1243494388947532e-07   -7.691082573518218e-06
5.029190515221948e-06   -9.518625599581497e-07   -1.8516513839225777e-05
5.029190515221948e-06   -9.518625599581497e-07   -1.8516513839225777e-05
5.029190515221948e-06   -9.518625599581497e-07   -1.8516513839225777e-05
5.029190515221948e-06   -9.518625599581497e-07   -1.8516513839225777e-05
1.509245167898463e-06   -5.808508248619781e-07   -1.2872545301410913e-05
1.509245167898463e-06   -5.808508248619781e-07   -1.2872545301410913e-05
1.509245167898463e-06   -5.808508248619781e-07   -1.2872545301410913e-05
1.509245167898463e-06   -5.808508248619781e-07   -1.2872545301410913e-05
5.029190515221948e-06   -2.1243494388947532e-07   -7.247426003876862e-06
5.029190515221948e-06   -2.1243494388947532e-07   -7.247426003876862e-06
5.029190515221948e-06   -2.1243494388947532e-07   -7.247426003876862e-06
5.029190515221948e-06   -2.1243494388947532e-07   -7.247426003876862e-06
-1.7322621859873269e-06   -9.518625599581497e-07   -1.896017040886697e-05
-1.7322621859873269e-06   -9.518625599581497e-07   -1.896017040886697e-05
-1.7322621859873269e-06   -9.518625599581497e-07   -1.896017040886697e-05
-1.7322621859873269e-06   -9.518625599581497e-07   -1.896017040886697e-05
-1.4470481871912586e-06   1.539828806993793e-07   -7.793824850917466e-06
-1.4470481871912586e-06   1.539828806993793e-07   -7.793824850917466e-06
-1.4470481871912586e-06   1.539828806993793e-07   -7.793824850917466e-06
-1.4470481871912586e-06   1.539828806993793e-07   -7.793824850917466e-06
5.3870984646415995e-06   -6.418597542830759e-07   -1.87065636896493e-05
5.3870984646415995e-06   -6.418597542830759e-07   -1.87065636896493e-05
5.3870984646415995e-06   -6.418597542830759e-07   -1.87065636896493e-05
5.3870984646415995e-06   -6.418597542830759e-07   -1.87065636896493e-05
1.7445761972960348e-06   -3.554057187971603e-07   -1.2807565665364634e-05
1.7445761972960348e-06   -3.554057187971603e-07   -1.2807565665364634e-05
1.7445761972960348e-06   -3.554057187971603e-07   -1.2807565665364634e-05
1.7445761972960348e-06   -3.554057187971603e-07   -1.2807565665364634e-05
5.387098464641613e-06   1.539828806993793e-07   -7.316319269927928e-06
5.387098464641613e-06   1.539828806993793e-07   -7.316319269927928e-06
5.387098464641613e-06   1.539828806993793e-07   -7.316319269927928e-06
5.387098464641613e-06   1.539828806993793e-07   -7.316319269927928e-06
-1.4470481871912586e-06   -6.418597542830759e-07   -1.9184069270638865e-05
-1.4470481871912586e-06   -6.418597542830759e-07   -1.9184069270638865e-05
-1.4470481871912586e-06   -6.418597542830759e-07   -1.9184069270638865e-05
-1.4470481871912586e-06   -6.418597542830759e-07   -1.9184069270638865e-05
-1.1796316770491653e-06   5.888885879689817e-07   -8.06358016591758e-06
-1.1796316770491653e-06   5.888885879689817e-07   -8.06358016591758e-06
-1.1796316770491653e-06   5.888885879689817e-07   -8.06358016591758e-06
-1.1796316770491653e-06   5.888885879689817e-07   -8.06358016591758e-06
5.681068304004124e-06   -2.510194090683685e-07   -1.8994135336117355e-05
5.681068304004124e-06   -2.510194090683685e-07   -1.8994135336117355e-05
5.681068304004124e-06   -2.510194090683685e-07   -1.8994135336117355e-05
5.681068304004124e-06   -2.510194090683685e-07   -1.8994135336117355e-05
2.040934151678287e-06   -7.683933977455353e-08   -1.303175312381756e-05
2.040934151678287e-06   -7.683933977455353e-08   -1.303175312381756e-05
2.040934151678287e-06   -7.683933977455353e-08   -1.303175312381756e-05
2.040934151678287e-06   -7.683933977455353e-08   -1.303175312381756e-05
-2.0310309990014357e-06   4.4967738942484816e-07   -9.727876054327995e-06
-2.0310309990014357e-06   4.4967738942484816e-07   -9.727876054327995e-06
-2.0310309990014357e-06   4.4967738942484816e-07   -9.727876054327995e-06
-2.0310309990014357e-06   4.4967738942484816e-07   -9.727876054327995e-06
-8.64993480614274e-06   2.4280445450530416e-07   -2.0883506160515163e-05
-8.64993480614274e-06   2.4280445450530416e-07   -2.0883506160515163e-05
-8.64993480614274e-06   2.4280445450530416e-07   -2.0883506160515163e-05
-8.64993480614274e-06   2.4280445450530416e-07   -2.0883506160515163e-05
-8.32852969288882e-06   8.252181426485639e-07   -9.653895791096991e-06
-8.32852969288882e-06   8.252181426485639e-07   -9.653895791096991e-06
-8.32852969288882e-06   8.252181426485639e-07   -9.653895791096991e-06
-8.32852969288882e-06   8.252181426485639e-07   -9.653895791096991e-06
-1.7322621859873269e-06   5.288486345407517e-07   -2.0469853264401324e-05
-1.7322621859873269e-06   5.288486345407517e-07   -2.0469853264401324e-05
-1.7322621859873269e-06   5.288486345407517e-07   -2.0469853264401324e-05
-1.7322621859873269e-06   5.288486345407517e-07   -2.0469853264401324e-05
-5.150406892259352e-06   6.175050584908632e-07   -1.4826139274984784e-05
-5.150406892259352e-06   6.175050584908632e-07   -1.4826139274984784e-05
-5.150406892259352e-06   6.175050584908632e-07   -1.4826139274984784e-05
-5.150406892259352e-06   6.175050584908632e-07   -1.4826139274984784e-05
-1.7322621859873336e-06   8.252181426485639e-07   -9.476074086232228e-06
-1.7322621859873336e-06   8.252181426485639e-07   -9.476074086232228e-06
-1.7322621859873336e-06   8.252181426485639e-07   -9.476074086232228e-06
-1.7322621859873336e-06   8.252181426485639e-07   -9.476074086232228e-06
-8.32852969288882e-06   5.288486345407517e-07   -2.0647674969266128e-05
-8.32852969288882e-06   5.288486345407517e-07   -2.0647674969266128e-05
-8.32852969288882e-06   5.288486345407517e-07   -2.0647674969266128e-05
-8.32852969288882e-06   5.288486345407517e-07   -2.0647674969266128e-05
-8.018218644173313e-06   1.2222348174212002e-06   -9.639459038648327e-06
-8.018218644173313e-06   1.2222348174212002e-06   -9.639459038648327e-06
-8.018218644173313e-06   1.2222348174212002e-06   -9.639459038648327e-06
-8.018218644173313e-06   1.2222348174212002e-06   -9.639459038648327e-06
-1.4470481871912586e-06   8.587939581971042e-07   -2.0373345284750637e-05
-1.4470481871912586e-06   8.587939581971042e-07   -2.0373345284750637e-05
-1.4470481871912586e-06   8.587939581971042e-07   -2.0373345284750637e-05
-1.4470481871912586e-06   8.587939581971042e-07   -2.0373345284750637e-05
-4.8745088296443865e-06   8.855401712548963e-07   -1.4676958608496842e-05
-4.8745088296443865e-06   8.855401712548963e-07   -1.4676958608496842e-05
-4.8745088296443865e-06   8.855401712548963e-07   -1.4676958608496842e-05
-4.8745088296443865e-06   8.855401712548963e-07   -1.4676958608496842e-05
-1.4470481871912586e-06   1.2222348174212002e-06   -9.421394523113902e-06
-1.4470481871912586e-06   1.2222348174212002e-06   -9.421394523113902e-06
-1.4470481871912586e-06   1.2222348174212002e-06   -9.421394523113902e-06
-1.4470481871912586e-06   1.2222348174212002e-06   -9.421394523113902e-06
-8.018218644173313e-06   8.587939581971042e-07   -2.0591409800285103e-05
-8.018218644173313e-06   8.587939581971042e-07   -2.0591409800285103e-05
-8.018218644173313e-06   8.587939581971042e-07   -2.0591409800285103e-05
-8.018218644173313e-06   8.587939581971042e-07   -2.0591409800285103e-05
-7.731527693680865e-06   1.6261784871946568e-06   -9.868861196097082e-06
-7.731527693680865e-06   1.6261784871946568e-06   -9.868861196097082e-06
-7.731527693680865e-06   1.6261784871946568e-06   -9.868861196097082e-06
-7.731527693680865e-06   1.6261784871946568e-06   -9.868861196097082e-06
-1.1796316770491653e-06   1.1995354351075063e-06   -2.0532702059231062e-05
-1.1796316770491653e-06   1.1995354351075063e-06   -2.0532702059231062e-05
-1.1796316770491653e-06   1.1995354351075063e-06   -2.0532702059231062e-05
-1.1796316770491653e-06   1.1995354351075063e-06   -2.0532702059231062e-05
-4.628604840573207e-06   1.160531369646901e-06   -1.4761011014081482e-05
-4.628604840573207e-06   1.160531369646901e-06   -1.4761011014081482e-05
-4.628604840573207e-06   1.160531369646901e-06   -1.4761011014081482e-05
-4.628604840573207e-06   1.160531369646901e-06   -1.4761011014081482e-05
-8.649934806142757e-06   1.43887877260729e-06   -7.880742635534704e-06
-8.649934806142757e-06   1.43887877260729e-06   -7.880742635534704e-06
-8.649934806142757e-06   1.43887877260729e-06   -7.880742635534704e-06
-8.649934806142757e-06   1.43887877260729e-06   -7.880742635534704e-06
-1.5159706895403055e-05   1.7436589620253677e-06   -1.8547494670650955e-05
-1.5159706895403055e-05   1.7436589620253677e-06   -1.8547494670650955e-05
-1.5159706895403055e-05   1.7436589620253677e-06   -1.8547494670650955e-05
-1.5159706895403055e-05   1.7436589620253677e-06   -1.8547494670650955e-05
-1.4771461431372825e-05   1.8398332351462522e-06   -7.392301902812591e-06
-1.4771461431372825e-05   1.8398332351462522e-06   -7.392301902812591e-06
-1.4771461431372825e-05   1.8398332351462522e-06   -7.392301902812591e-06
-1.4771461431372825e-05   1.8398332351462522e-06   -7.392301902812591e-06
-8.328529692888834e-06   2.105274834575963e-06   -1.828978642661058e-05
-8.328529692888834e-06   2.105274834575963e-06   -1.828978642661058e-05
-8.328529692888834e-06   2.105274834575963e-06   -1.828978642661058e-05
-8.328529692888834e-06   2.105274834575963e-06   -1.828978642661058e-05
-1.164200314040758e-05   1.8555705635055555e-06   -1.2617508118103722e-05
-1.164200314040758e-05   1.8555705635055555e-06   -1.2617508118103722e-05
-1.164200314040758e-05   1.8555705635055555e-06   -1.2617508118103722e-05
-1.164200314040758e-05   1.8555705635055555e-06   -1.2617508118103722e-05
-8.328529692888834e-06   1.8398332351462522e-06   -7.551566862470547e-06
-8.328529692888834e-06   1.8398332351462522e-06   -7.551566862470547e-06
-8.328529692888834e-06   1.8398332351462522e-06   -7.551566862470547e-06
-8.328529692888834e-06   1.8398332351462522e-06   -7.551566862470547e-06
-1.4771461431372849e-05   2.105274834575963e-06   -1.8130521466952617e-05
-1.4771461431372849e-05   2.105274834575963e-06   -1.8130521466952617e-05
-1.4771461431372849e-05   2.105274834575963e-06   -1.8130521466952617e-05
-1.4771461431372849e-05   2.105274834575963e-06   -1.8130521466952617e-05
-1.4339970978683032e-05   2.2003134893143136e-06   -7.120290358871115e-06
-1.4339970978683032e-05   2.2003134893143136e-06   -7.120290358871115e-06
-1.4339970978683032e-05   2.2003134893143136e-06   -7.120290358871115e-06
-1.4339970978683032e-05   2.2003134893143136e-06   -7.120290358871115e-06
-8.018218644173328e-06   2.4164508791689465e-06   -1.7786226683633414e-05
-8.018218644173328e-06   2.4164508791689465e-06   -1.7786226683633414e-05
-8.018218644173328e-06   2.4164508791689465e-06   -1.7786226683633414e-05
-8.018218644173328e-06   2.4164508791689465e-06   -1.7786226683633414e-05
-1.1247371555178605e-05   2.138140502431574e-06   -1.2237318939248884e-05
-1.1247371555178605e-05   2.138140502431574e-06   -1.2237318939248884e-05
-1.1247371555178605e-05   2.138140502431574e-06   -1.2237318939248884e-05
-1.1247371555178605e-05   2.138140502431574e-06   -1.2237318939248884e-05
-8.018218644173322e-06   2.2003134893143136e-06   -7.249972792783906e-06
-8.018218644173322e-06   2.2003134893143136e-06   -7.249972792783906e-06
-8.018218644173322e-06   2.2003134893143136e-06   -7.249972792783906e-06
-8.018218644173322e-06   2.2003134893143136e-06   -7.249972792783906e-06
-1.4339970978683032e-05   2.4164508791689465e-06   -1.7656544249720657e-05
-1.4339970978683032e-05   2.4164508791689465e-06   -1.7656544249720657e-05
-1.4339970978683032e-05   2.4164508791689465e-06   -1.7656544249720657e-05
-1.4339970978683032e-05   2.4164508791689465e-06   -1.7656544249720657e-05
-1.3975856258787951e-05   2.6021502097154205e-06   -7.285704498333364e-06
-1.3975856258787951e-05   2.6021502097154205e-06   -7.285704498333364e-06
-1.3975856258787951e-05   2.6021502097154205e-06   -7.285704498333364e-06
-1.3975856258787951e-05   2.6021502097154205e-06   -7.285704498333364e-06
-7.731527693680879e-06   2.7594118694399938e-06   -1.778727576934657e-05
-7.731527693680879e-06   2.7594118694399938e-06   -1.778727576934657e-05
-7.731527693680879e-06   2.7594118694399938e-06   -1.778727576934657e-05
-7.731527693680879e-06   2.7594118694399938e-06   -1.778727576934657e-05
-1.1006560314798414e-05   2.397907826328337e-06   -1.2111985641616969e-05
-1.1006560314798414e-05   2.397907826328337e-06   -1.2111985641616969e-05
-1.1006560314798414e-05   2.397907826328337e-06   -1.2111985641616969e-05
-1.1006560314798414e-05   2.397907826328337e-06   -1.2111985641616969e-05
-1.5159706895403055e-05   2.47590159063889e-06   -3.937010839556005e-06
-1.5159706895403055e-05   2.47590159063889e-06   -3.937010839556005e-06
-1.5159706895403055e-05   2.47590159063889e-06   -3.937010839556005e-06
-1.5159706895403055e-05   2.47590159063889e-06   -3.937010839556005e-06
-2.2035010893620277e-05   3.4080953152238044e-06   -1.4836534601833781e-05
-2.2035010893620277e-05   3.4080953152238044e-06   -1.4836534601833781e-05
-2.2035010893620277e-05   3.4080953152238044e-06   -1.4836534601833781e-05
-2.2035010893620277e-05   3.4080953152238044e-06   -1.4836534601833781e-05
-2.113012833278713e-05   2.8933888925490375e-06   -1.1780048385879802e-06
-2.113012833278713e-05   2.8933888925490375e-06   -1.1780048385879802e-06
-2.113012833278713e-05   2.8933888925490375e-06   -1.1780048385879802e-06
-2.113012833278713e-05   2.8933888925490375e-06   -1.1780048385879802e-06
-1.4771461431372825e-05   3.888809101988927e-06   -1.237303513327578e-05
-1.4771461431372825e-05   3.888809101988927e-06   -1.237303513327578e-05
-1.4771461431372825e-05   3.888809101988927e-06   -1.237303513327578e-05
-1.4771461431372825e-05   3.888809101988927e-06   -1.237303513327578e-05
-1.7519368258874983e-05   3.2461798112337625e-06   -7.407612846319067e-06
-1.7519368258874983e-05   3.2461798112337625e-06   -7.407612846319067e-06
-1.7519368258874983e-05   3.2461798112337625e-06   -7.407612846319067e-06
-1.7519368258874983e-05   3.2461798112337625e-06   -7.407612846319067e-06
-1.4771461431372837e-05   2.8933888925490375e-06   -1.7752569642518813e-06
-1.4771461431372837e-05   2.8933888925490375e-06   -1.7752569642518813e-06
-1.4771461431372837e-05   2.8933888925490375e-06   -1.7752569642518813e-06
-1.4771461431372837e-05   2.8933888925490375e-06   -1.7752569642518813e-06
-2.1130128332787088e-05   3.888809101988927e-06   -1.1775783007611875e-05
-2.1130128332787088e-05   3.888809101988927e-06   -1.1775783007611875e-05
-2.1130128332787088e-05   3.888809101988927e-06   -1.1775783007611875e-05
-2.1130128332787088e-05   3.888809101988927e-06   -1.1775783007611875e-05
-2.0385771984827194e-05   3.0433775590208226e-06   -1.9357564665133456e-08
-2.0385771984827194e-05   3.0433775590208226e-06   -1.9357564665133456e-08
-2.0385771984827194e-05   3.0433775590208226e-06   -1.9357564665133456e-08
-2.0385771984827194e-05   3.0433775590208226e-06   -1.9357564665133456e-08
-1.4339970978683032e-05   4.015991269443165e-06   -1.0679260801158775e-05
-1.4339970978683032e-05   4.015991269443165e-06   -1.0679260801158775e-05
-1.4339970978683032e-05   4.015991269443165e-06   -1.0679260801158775e-05
-1.4339970978683032e-05   4.015991269443165e-06   -1.0679260801158775e-05
-1.7221642038675138e-05   3.4400364214826453e-06   -5.530902792395375e-06
-1.7221642038675138e-05   3.4400364214826453e-06   -5.530902792395375e-06
-1.7221642038675138e-05   3.4400364214826453e-06   -5.530902792395375e-06
-1.7221642038675138e-05   3.4400364214826453e-06   -5.530902792395375e-06
-1.4339970978683032e-05   3.0433775590208226e-06   -6.029257909184738e-07
-1.4339970978683032e-05   3.0433775590208226e-06   -6.029257909184738e-07
-1.4339970978683032e-05   3.0433775590208226e-06   -6.029257909184738e-07
-1.4339970978683032e-05   3.0433775590208226e-06   -6.029257909184738e-07
-2.038577198482712e-05   4.015991269443165e-06   -1.0095692574905416e-05
-2.038577198482712e-05   4.015991269443165e-06   -1.0095692574905416e-05
-2.038577198482712e-05   4.015991269443165e-06   -1.0095692574905416e-05
-2.038577198482712e-05   4.015991269443165e-06   -1.0095692574905416e-05
-1.9579413807359083e-05   3.2300698285284927e-06   1.4598864093016322e-06
-1.9579413807359083e-05   3.2300698285284927e-06   1.4598864093016322e-06
-1.9579413807359083e-05   3.2300698285284927e-06   1.4598864093016322e-06
-1.9579413807359083e-05   3.2300698285284927e-06   1.4598864093016322e-06
-1.3975856258787951e-05   4.121583535888606e-06   -8.41428439606639e-06
-1.3975856258787951e-05   4.121583535888606e-06   -8.41428439606639e-06
-1.3975856258787951e-05   4.121583535888606e-06   -8.41428439606639e-06
-1.3975856258787951e-05   4.121583535888606e-06   -8.41428439606639e-06
-1.646121982175892e-05   3.4710878293405965e-06   -3.88171436718624e-06
-1.646121982175892e-05   3.4710878293405965e-06   -3.88171436718624e-06
-1.646121982175892e-05   3.4710878293405965e-06   -3.88171436718624e-06
-1.646121982175892e-05   3.4710878293405965e-06   -3.88171436718624e-06
1.8694689850844046e-05   -2.5999332209606252e-06   3.824488905912319e-06
1.8694689850844046e-05   -2.5999332209606252e-06   3.824488905912319e-06
1.8694689850844046e-05   -2.5999332209606252e-06   3.824488905912319e-06
1.8694689850844046e-05   -2.5999332209606252e-06   3.824488905912319e-06
8.982803147203464e-06   -3.8318679232292015e-06   -1.3101149754849697e-05
8.982803147203464e-06   -3.8318679232292015e-06   -1.3101149754849697e-05
8.982803147203464e-06   -3.8318679232292015e-06   -1.3101149754849697e-05
8.982803147203464e-06   -3.8318679232292015e-06   -1.3101149754849697e-05
9.339540018074569e-06   -2.4197752156968977e-06   1.9065136607640748e-06
9.339540018074569e-06   -2.4197752156968977e-06   1.9065136607640748e-06
9.339540018074569e-06   -2.4197752156968977e-06   1.9065136607640748e-06
9.339540018074569e-06   -2.4197752156968977e-06   1.9065136607640748e-06
1.9533345783027338e-05   -3.744485808180112e-06   -1.4288336258667337e-05
1.9533345783027338e-05   -3.744485808180112e-06   -1.4288336258667337e-05
1.9533345783027338e-05   -3.744485808180112e-06   -1.4288336258667337e-05
1.9533345783027338e-05   -3.744485808180112e-06   -1.4288336258667337e-05
1.356155757340154e-05   -2.842729808569776e-06   -4.876409509057265e-06
1.356155757340154e-05   -2.842729808569776e-06   -4.876409509057265e-06
1.356155757340154e-05   -2.842729808569776e-06   -4.876409509057265e-06
1.356155757340154e-05   -2.842729808569776e-06   -4.876409509057265e-06
1.9533345783027378e-05   -2.4197752156968977e-06   2.7013400162540033e-06
1.9533345783027378e-05   -2.4197752156968977e-06   2.7013400162540033e-06
1.9533345783027378e-05   -2.4197752156968977e-06   2.7013400162540033e-06
1.9533345783027378e-05   -2.4197752156968977e-06   2.7013400162540033e-06
9.339540018074542e-06   -3.744485808180112e-06   -1.5083162614157374e-05
9.339540018074542e-06   -3.744485808180112e-06   -1.5083162614157374e-05
9.339540018074542e-06   -3.744485808180112e-06   -1.5083162614157374e-05
9.339540018074542e-06   -3.744485808180112e-06   -1.5083162614157374e-05
9.694700467251726e-06   -2.262671385793477e-06   9.632345830170577e-07
9.694700467251726e-06   -2.262671385793477e-06   9.632345830170577e-07
9.694700467251726e-06   -2.262671385793477e-06   9.632345830170577e-07
9.694700467251726e-06   -2.262671385793477e-06   9.632345830170577e-07
2.0175474761165374e-05   -3.6137789711606543e-06   -1.5694058022285343e-05
2.0175474761165374e-05   -3.6137789711606543e-06   -1.5694058022285343e-05
2.0175474761165374e-05   -3.6137789711606543e-06   -1.5694058022285343e-05
2.0175474761165374e-05   -3.6137789711606543e-06   -1.5694058022285343e-05
1.4269589283074745e-05   -2.8328838227071078e-06   -6.319452647873114e-06
1.4269589283074745e-05   -2.8328838227071078e-06   -6.319452647873114e-06
1.4269589283074745e-05   -2.8328838227071078e-06   -6.319452647873114e-06
1.4269589283074745e-05   -2.8328838227071078e-06   -6.319452647873114e-06
2.0175474761165374e-05   -2.262671385793477e-06   1.7738991342373858e-06
2.0175474761165374e-05   -2.262671385793477e-06   1.7738991342373858e-06
2.0175474761165374e-05   -2.262671385793477e-06   1.7738991342373858e-06
2.0175474761165374e-05   -2.262671385793477e-06   1.7738991342373858e-06
9.694700467251726e-06   -3.613778971160546e-06   -1.6504722573505725e-05
9.694700467251726e-06   -3.613778971160546e-06   -1.6504722573505725e-05
9.694700467251726e-06   -3.613778971160546e-06   -1.6504722573505725e-05
9.694700467251726e-06   -3.613778971160546e-06   -1.6504722573505725e-05
9.934126386490903e-06   -1.7684002770461827e-06   -9.283927677203405e-07
9.934126386490903e-06   -1.7684002770461827e-06   -9.283927677203405e-07
9.934126386490903e-06   -1.7684002770461827e-06   -9.283927677203405e-07
9.934126386490903e-06   -1.7684002770461827e-06   -9.283927677203405e-07
2.085507698773955e-05   -3.1065327601576117e-06   -1.8327097613267894e-05
2.085507698773955e-05   -3.1065327601576117e-06   -1.8327097613267894e-05
2.085507698773955e-05   -3.1065327601576117e-06   -1.8327097613267894e-05
2.085507698773955e-05   -3.1065327601576117e-06   -1.8327097613267894e-05
1.4459488312314376e-05   -2.613800578846648e-06   -7.963422463012752e-06
1.4459488312314376e-05   -2.613800578846648e-06   -7.963422463012752e-06
1.4459488312314376e-05   -2.613800578846648e-06   -7.963422463012752e-06
1.4459488312314376e-05   -2.613800578846648e-06   -7.963422463012752e-06
8.982803147203464e-06   -1.2057507988509327e-06   -4.381531656223628e-06
8.982803147203464e-06   -1.2057507988509327e-06   -4.381531656223628e-06
8.982803147203464e-06   -1.2057507988509327e-06   -4.381531656223628e-06
8.982803147203464e-06   -1.2057507988509327e-06   -4.381531656223628e-06
-5.91044850190356e-07   -2.454750049430917e-06   -2.108734453556136e-05
-5.91044850190356e-07   -2.454750049430917e-06   -2.108734453556136e-05
-5.91044850190356e-07   -2.454750049430917e-06   -2.108734453556136e-05
-5.91044850190356e-07   -2.454750049430917e-06   -2.108734453556136e-05
-2.258902298285734e-07   -9.518625599581497e-07   -4.836780045345082e-06
-2.258902298285734e-07   -9.518625599581497e-07   -4.836780045345082e-06
-2.258902298285734e-07   -9.518625599581497e-07   -4.836780045345082e-06
-2.258902298285734e-07   -9.518625599581497e-07   -4.836780045345082e-06
9.339540018074569e-06   -2.3332678957704335e-06   -1.9950320590363105e-05
9.339540018074569e-06   -2.3332678957704335e-06   -1.9950320590363105e-05
9.339540018074569e-06   -2.3332678957704335e-06   -1.9950320590363105e-05
9.339540018074569e-06   -2.3332678957704335e-06   -1.9950320590363105e-05
4.388621868475652e-06   -1.4864175864174635e-06   -1.2206900526643311e-05
4.388621868475652e-06   -1.4864175864174635e-06   -1.2206900526643311e-05
4.388621868475652e-06   -1.4864175864174635e-06   -1.2206900526643311e-05
4.388621868475652e-06   -1.4864175864174635e-06   -1.2206900526643311e-05
9.339540018074555e-06   -9.518625599581497e-07   -4.007936843857798e-06
9.339540018074555e-06   -9.518625599581497e-07   -4.007936843857798e-06
9.339540018074555e-06   -9.518625599581497e-07   -4.007936843857798e-06
9.339540018074555e-06   -9.518625599581497e-07   -4.007936843857798e-06
-2.258902298285734e-07   -2.3332678957704335e-06   -2.0779163791850375e-05
-2.258902298285734e-07   -2.3332678957704335e-06   -2.0779163791850375e-05
-2.258902298285734e-07   -2.3332678957704335e-06   -2.0779163791850375e-05
-2.258902298285734e-07   -2.3332678957704335e-06   -2.0779163791850375e-05
9.557473416720475e-08   -6.418597542830759e-07   -4.960129053312775e-06
9.557473416720475e-08   -6.418597542830759e-07   -4.960129053312775e-06
9.557473416720475e-08   -6.418597542830759e-07   -4.960129053312775e-06
9.557473416720475e-08   -6.418597542830759e-07   -4.960129053312775e-06
9.694700467251726e-06   -2.110003307316923e-06   -2.0077785809966662e-05
9.694700467251726e-06   -2.110003307316923e-06   -2.0077785809966662e-05
9.694700467251726e-06   -2.110003307316923e-06   -2.0077785809966662e-05
9.694700467251726e-06   -2.110003307316923e-06   -2.0077785809966662e-05
4.634715434089789e-06   -1.3602381593578496e-06   -1.2094336510138693e-05
4.634715434089789e-06   -1.3602381593578496e-06   -1.2094336510138693e-05
4.634715434089789e-06   -1.3602381593578496e-06   -1.2094336510138693e-05
4.634715434089789e-06   -1.3602381593578496e-06   -1.2094336510138693e-05
9.694700467251726e-06   -6.418597542831844e-07   -4.0792429214924235e-06
9.694700467251726e-06   -6.418597542831844e-07   -4.0792429214924235e-06
9.694700467251726e-06   -6.418597542831844e-07   -4.0792429214924235e-06
9.694700467251726e-06   -6.418597542831844e-07   -4.0792429214924235e-06
9.557473416721153e-08   -2.1100033073170313e-06   -2.0958671941786946e-05
9.557473416721153e-08   -2.1100033073170313e-06   -2.0958671941786946e-05
9.557473416721153e-08   -2.1100033073170313e-06   -2.0958671941786946e-05
9.557473416721153e-08   -2.1100033073170313e-06   -2.0958671941786946e-05
3.2355409009148027e-07   -2.510194090683685e-07   -5.1647441618020516e-06
3.2355409009148027e-07   -2.510194090683685e-07   -5.1647441618020516e-06
3.2355409009148027e-07   -2.510194090683685e-07   -5.1647441618020516e-06
3.2355409009148027e-07   -2.510194090683685e-07   -5.1647441618020516e-06
9.93412638649093e-06   -1.7921223071644225e-06   -2.025770291694353e-05
9.93412638649093e-06   -1.7921223071644225e-06   -2.025770291694353e-05
9.93412638649093e-06   -1.7921223071644225e-06   -2.025770291694353e-05
9.93412638649093e-06   -1.7921223071644225e-06   -2.025770291694353e-05
4.933051371943454e-06   -1.1397019854669788e-06   -1.231403008571642e-05
4.933051371943454e-06   -1.1397019854669788e-06   -1.231403008571642e-05
4.933051371943454e-06   -1.1397019854669788e-06   -1.231403008571642e-05
4.933051371943454e-06   -1.1397019854669788e-06   -1.231403008571642e-05
-5.91044850190356e-07   2.428044545054126e-07   -6.742368042164356e-06
-5.91044850190356e-07   2.428044545054126e-07   -6.742368042164356e-06
-5.91044850190356e-07   2.428044545054126e-07   -6.742368042164356e-06
-5.91044850190356e-07   2.428044545054126e-07   -6.742368042164356e-06
-1.0023602929679462e-05   -1.2448390840151232e-06   -2.3355884297758523e-05
-1.0023602929679462e-05   -1.2448390840151232e-06   -2.3355884297758523e-05
-1.0023602929679462e-05   -1.2448390840151232e-06   -2.3355884297758523e-05
-1.0023602929679462e-05   -1.2448390840151232e-06   -2.3355884297758523e-05
-9.585101870588114e-06   5.288486345407517e-07   -7.324048887058748e-06
-9.585101870588114e-06   5.288486345407517e-07   -7.324048887058748e-06
-9.585101870588114e-06   5.288486345407517e-07   -7.324048887058748e-06
-9.585101870588114e-06   5.288486345407517e-07   -7.324048887058748e-06
-2.258902298285734e-07   -1.1004613424245215e-06   -2.194514896881208e-05
-2.258902298285734e-07   -1.1004613424245215e-06   -2.194514896881208e-05
-2.258902298285734e-07   -1.1004613424245215e-06   -2.194514896881208e-05
-2.258902298285734e-07   -1.1004613424245215e-06   -2.194514896881208e-05
-5.0473817565835435e-06   -2.1193972568243034e-07   -1.4442442727599029e-05
-5.0473817565835435e-06   -2.1193972568243034e-07   -1.4442442727599029e-05
-5.0473817565835435e-06   -2.1193972568243034e-07   -1.4442442727599029e-05
-5.0473817565835435e-06   -2.1193972568243034e-07   -1.4442442727599029e-05
-2.258902298285734e-07   5.288486345407517e-07   -6.346462900879584e-06
-2.258902298285734e-07   5.288486345407517e-07   -6.346462900879584e-06
-2.258902298285734e-07   5.288486345407517e-07   -6.346462900879584e-06
-2.258902298285734e-07   5.288486345407517e-07   -6.346462900879584e-06
-9.585101870588114e-06   -1.1004613424245215e-06   -2.2922734954991324e-05
-9.585101870588114e-06   -1.1004613424245215e-06   -2.2922734954991324e-05
-9.585101870588114e-06   -1.1004613424245215e-06   -2.2922734954991324e-05
-9.585101870588114e-06   -1.1004613424245215e-06   -2.2922734954991324e-05
-9.182846095980121e-06   8.587939581971042e-07   -7.192613772669131e-06
-9.182846095980121e-06   8.587939581971042e-07   -7.192613772669131e-06
-9.182846095980121e-06   8.587939581971042e-07   -7.192613772669131e-06
-9.182846095980121e-06   8.587939581971042e-07   -7.192613772669131e-06
9.557473416721153e-08   -8.79887217210577e-07   -2.161343978433682e-05
9.557473416721153e-08   -8.79887217210577e-07   -2.161343978433682e-05
9.557473416721153e-08   -8.79887217210577e-07   -2.161343978433682e-05
9.557473416721153e-08   -8.79887217210577e-07   -2.161343978433682e-05
-4.691088052508694e-06   -4.819362566584485e-08   -1.413468462813707e-05
-4.691088052508694e-06   -4.819362566584485e-08   -1.413468462813707e-05
-4.691088052508694e-06   -4.819362566584485e-08   -1.413468462813707e-05
-4.691088052508694e-06   -4.819362566584485e-08   -1.413468462813707e-05
9.557473416721153e-08   8.587939581971042e-07   -6.149405067424696e-06
9.557473416721153e-08   8.587939581971042e-07   -6.149405067424696e-06
9.557473416721153e-08   8.587939581971042e-07   -6.149405067424696e-06
9.557473416721153e-08   8.587939581971042e-07   -6.149405067424696e-06
-9.182846095980134e-06   -8.79887217210577e-07   -2.2656648489581446e-05
-9.182846095980134e-06   -8.79887217210577e-07   -2.2656648489581446e-05
-9.182846095980134e-06   -8.79887217210577e-07   -2.2656648489581446e-05
-9.182846095980134e-06   -8.79887217210577e-07   -2.2656648489581446e-05
-8.911977686730426e-06   1.1995354351076147e-06   -7.321163844963658e-06
-8.911977686730426e-06   1.1995354351076147e-06   -7.321163844963658e-06
-8.911977686730426e-06   1.1995354351076147e-06   -7.321163844963658e-06
-8.911977686730426e-06   1.1995354351076147e-06   -7.321163844963658e-06
3.2355409009148027e-07   -6.701274953430916e-07   -2.1591919048063148e-05
3.2355409009148027e-07   -6.701274953430916e-07   -2.1591919048063148e-05
3.2355409009148027e-07   -6.701274953430916e-07   -2.1591919048063148e-05
3.2355409009148027e-07   -6.701274953430916e-07   -2.1591919048063148e-05
-4.4378811562435755e-06   1.3514260415261898e-07   -1.4139355697202332e-05
-4.4378811562435755e-06   1.3514260415261898e-07   -1.4139355697202332e-05
-4.4378811562435755e-06   1.3514260415261898e-07   -1.4139355697202332e-05
-4.4378811562435755e-06   1.3514260415261898e-07   -1.4139355697202332e-05
-1.0023602929679445e-05   1.7436589620253677e-06   -5.481810789063381e-06
-1.0023602929679445e-05   1.7436589620253677e-06   -5.481810789063381e-06
-1.0023602929679445e-05   1.7436589620253677e-06   -5.481810789063381e-06
-1.0023602929679445e-05   1.7436589620253677e-06   -5.481810789063381e-06
-1.9593520392761862e-05   4.106479319687705e-07   -2.22314798455679e-05
-1.9593520392761862e-05   4.106479319687705e-07   -2.22314798455679e-05
-1.9593520392761862e-05   4.106479319687705e-07   -2.22314798455679e-05
-1.9593520392761862e-05   4.106479319687705e-07   -2.22314798455679e-05
-1.896879590282463e-05   2.105274834575963e-06   -5.826277773896883e-06
-1.896879590282463e-05   2.105274834575963e-06   -5.826277773896883e-06
-1.896879590282463e-05   2.105274834575963e-06   -5.826277773896883e-06
-1.896879590282463e-05   2.105274834575963e-06   -5.826277773896883e-06
-9.585101870588093e-06   6.717457854197965e-07   -2.0605650398130715e-05
-9.585101870588093e-06   6.717457854197965e-07   -2.0605650398130715e-05
-9.585101870588093e-06   6.717457854197965e-07   -2.0605650398130715e-05
-9.585101870588093e-06   6.717457854197965e-07   -2.0605650398130715e-05
-1.4394084262513672e-05   1.3537578727773917e-06   -1.2999886997335961e-05
-1.4394084262513672e-05   1.3537578727773917e-06   -1.2999886997335961e-05
-1.4394084262513672e-05   1.3537578727773917e-06   -1.2999886997335961e-05
-1.4394084262513672e-05   1.3537578727773917e-06   -1.2999886997335961e-05
-9.585101870588093e-06   2.105274834575963e-06   -4.9661603444031395e-06
-9.585101870588093e-06   2.105274834575963e-06   -4.9661603444031395e-06
-9.585101870588093e-06   2.105274834575963e-06   -4.9661603444031395e-06
-9.585101870588093e-06   2.105274834575963e-06   -4.9661603444031395e-06
-1.8968795902824663e-05   6.717457854197965e-07   -2.1465767827624478e-05
-1.8968795902824663e-05   6.717457854197965e-07   -2.1465767827624478e-05
-1.8968795902824663e-05   6.717457854197965e-07   -2.1465767827624478e-05
-1.8968795902824663e-05   6.717457854197965e-07   -2.1465767827624478e-05
-1.836290282031954e-05   2.4164508791689465e-06   -5.290407116718184e-06
-1.836290282031954e-05   2.4164508791689465e-06   -5.290407116718184e-06
-1.836290282031954e-05   2.4164508791689465e-06   -5.290407116718184e-06
-1.836290282031954e-05   2.4164508791689465e-06   -5.290407116718184e-06
-9.182846095980134e-06   9.114901113343619e-07   -1.96875251965831e-05
-9.182846095980134e-06   9.114901113343619e-07   -1.96875251965831e-05
-9.182846095980134e-06   9.114901113343619e-07   -1.96875251965831e-05
-9.182846095980134e-06   9.114901113343619e-07   -1.96875251965831e-05
-1.3826533862859333e-05   1.5810225394029178e-06   -1.2349765041959023e-05
-1.3826533862859333e-05   1.5810225394029178e-06   -1.2349765041959023e-05
-1.3826533862859333e-05   1.5810225394029178e-06   -1.2349765041959023e-05
-1.3826533862859333e-05   1.5810225394029178e-06   -1.2349765041959023e-05
-9.182846095980114e-06   2.4164508791689465e-06   -4.387430656017477e-06
-9.182846095980114e-06   2.4164508791689465e-06   -4.387430656017477e-06
-9.182846095980114e-06   2.4164508791689465e-06   -4.387430656017477e-06
-9.182846095980114e-06   2.4164508791689465e-06   -4.387430656017477e-06
-1.836290282031957e-05   9.114901113343619e-07   -2.0590501657283982e-05
-1.836290282031957e-05   9.114901113343619e-07   -2.0590501657283982e-05
-1.836290282031957e-05   9.114901113343619e-07   -2.0590501657283982e-05
-1.836290282031957e-05   9.114901113343619e-07   -2.0590501657283982e-05
-1.7906162440529304e-05   2.7594118694398853e-06   -5.307613422882878e-06
-1.7906162440529304e-05   2.7594118694398853e-06   -5.307613422882878e-06
-1.7906162440529304e-05   2.7594118694398853e-06   -5.307613422882878e-06
-1.7906162440529304e-05   2.7594118694398853e-06   -5.307613422882878e-06
-8.911977686730443e-06   1.112975704346689e-06   -1.9310059646825127e-05
-8.911977686730443e-06   1.112975704346689e-06   -1.9310059646825127e-05
-8.911977686730443e-06   1.112975704346689e-06   -1.9310059646825127e-05
-8.911977686730443e-06   1.112975704346689e-06   -1.9310059646825127e-05
-1.3515315246871161e-05   1.7400317869620263e-06   -1.2014064029492995e-05
-1.3515315246871161e-05   1.7400317869620263e-06   -1.2014064029492995e-05
-1.3515315246871161e-05   1.7400317869620263e-06   -1.2014064029492995e-05
-1.3515315246871161e-05   1.7400317869620263e-06   -1.2014064029492995e-05
-1.9593520392761862e-05   3.408095315223913e-06   -3.1299735730311567e-06
-1.9593520392761862e-05   3.408095315223913e-06   -3.1299735730311567e-06
-1.9593520392761862e-05   3.408095315223913e-06   -3.1299735730311567e-06
-1.9593520392761862e-05   3.408095315223913e-06   -3.1299735730311567e-06
-2.960907761242916e-05   3.2358846129155582e-06   -1.9925895360528405e-05
-2.960907761242916e-05   3.2358846129155582e-06   -1.9925895360528405e-05
-2.960907761242916e-05   3.2358846129155582e-06   -1.9925895360528405e-05
-2.960907761242916e-05   3.2358846129155582e-06   -1.9925895360528405e-05
-2.8360866710333937e-05   3.888809101988927e-06   4.067387219955712e-08
-2.8360866710333937e-05   3.888809101988927e-06   4.067387219955712e-08
-2.8360866710333937e-05   3.888809101988927e-06   4.067387219955712e-08
-2.8360866710333937e-05   3.888809101988927e-06   4.067387219955712e-08
-1.8968795902824595e-05   4.0712512893547985e-06   -1.5722242786068965e-05
-1.8968795902824595e-05   4.0712512893547985e-06   -1.5722242786068965e-05
-1.8968795902824595e-05   4.0712512893547985e-06   -1.5722242786068965e-05
-1.8968795902824595e-05   4.0712512893547985e-06   -1.5722242786068965e-05
-2.309332564792632e-05   3.835469791794218e-06   -8.706557645696365e-06
-2.309332564792632e-05   3.835469791794218e-06   -8.706557645696365e-06
-2.309332564792632e-05   3.835469791794218e-06   -8.706557645696365e-06
-2.309332564792632e-05   3.835469791794218e-06   -8.706557645696365e-06
-1.8968795902824646e-05   3.888809101988927e-06   -6.879144021998754e-08
-1.8968795902824646e-05   3.888809101988927e-06   -6.879144021998754e-08
-1.8968795902824646e-05   3.888809101988927e-06   -6.879144021998754e-08
-1.8968795902824646e-05   3.888809101988927e-06   -6.879144021998754e-08
-2.8360866710333937e-05   4.0712512893547985e-06   -1.561277747364929e-05
-2.8360866710333937e-05   4.0712512893547985e-06   -1.561277747364929e-05
-2.8360866710333937e-05   4.0712512893547985e-06   -1.561277747364929e-05
-2.8360866710333937e-05   4.0712512893547985e-06   -1.561277747364929e-05
-2.7327994447088076e-05   4.015991269443165e-06   1.8333602914176526e-06
-2.7327994447088076e-05   4.015991269443165e-06   1.8333602914176526e-06
-2.7327994447088076e-05   4.015991269443165e-06   1.8333602914176526e-06
-2.7327994447088076e-05   4.015991269443165e-06   1.8333602914176526e-06
-1.836290282031954e-05   4.260131202066643e-06   -1.325494304610393e-05
-1.836290282031954e-05   4.260131202066643e-06   -1.325494304610393e-05
-1.836290282031954e-05   4.260131202066643e-06   -1.325494304610393e-05
-1.836290282031954e-05   4.260131202066643e-06   -1.325494304610393e-05
-2.2634987557896384e-05   4.111394359136277e-06   -6.045559711050877e-06
-2.2634987557896384e-05   4.111394359136277e-06   -6.045559711050877e-06
-2.2634987557896384e-05   4.111394359136277e-06   -6.045559711050877e-06
-2.2634987557896384e-05   4.111394359136277e-06   -6.045559711050877e-06
-1.836290282031957e-05   4.015991269443273e-06   1.6868763318437716e-06
-1.836290282031957e-05   4.015991269443273e-06   1.6868763318437716e-06
-1.836290282031957e-05   4.015991269443273e-06   1.6868763318437716e-06
-1.836290282031957e-05   4.015991269443273e-06   1.6868763318437716e-06
-2.7327994447088025e-05   4.260131202066535e-06   -1.3108459086529816e-05
-2.7327994447088025e-05   4.260131202066535e-06   -1.3108459086529816e-05
-2.7327994447088025e-05   4.260131202066535e-06   -1.3108459086529816e-05
-2.7327994447088025e-05   4.260131202066535e-06   -1.3108459086529816e-05
-2.6245225992598374e-05   4.1215835358884975e-06   4.244262642664272e-06
-2.6245225992598374e-05   4.1215835358884975e-06   4.244262642664272e-06
-2.6245225992598374e-05   4.1215835358884975e-06   4.244262642664272e-06
-2.6245225992598374e-05   4.1215835358884975e-06   4.244262642664272e-06
-1.7906162440529304e-05   4.576986349391328e-06   -9.927418298885938e-06
-1.7906162440529304e-05   4.576986349391328e-06   -9.927418298885938e-06
-1.7906162440529304e-05   4.576986349391328e-06   -9.927418298885938e-06
-1.7906162440529304e-05   4.576986349391328e-06   -9.927418298885938e-06
-2.1584470106410358e-05   4.201069605992095e-06   -3.571355476378053e-06
-2.1584470106410358e-05   4.201069605992095e-06   -3.571355476378053e-06
-2.1584470106410358e-05   4.201069605992095e-06   -3.571355476378053e-06
-2.1584470106410358e-05   4.201069605992095e-06   -3.571355476378053e-06
2.5599329064085547e-05   -3.8318679232292015e-06   8.826503075482287e-06
2.5599329064085547e-05   -3.8318679232292015e-06   8.826503075482287e-06
2.5599329064085547e-05   -3.8318679232292015e-06   8.826503075482287e-06
2.5599329064085547e-05   -3.8318679232292015e-06   8.826503075482287e-06
1.2839433832173944e-05   -4.8320566907237e-06   -1.3040102238200406e-05
1.2839433832173944e-05   -4.8320566907237e-06   -1.3040102238200406e-05
1.2839433832173944e-05   -4.8320566907237e-06   -1.3040102238200406e-05
1.2839433832173944e-05   -4.8320566907237e-06   -1.3040102238200406e-05
1.3143722821314514e-05   -3.744485808180112e-06   6.354181722685701e-06
1.3143722821314514e-05   -3.744485808180112e-06   6.354181722685701e-06
1.3143722821314514e-05   -3.744485808180112e-06   6.354181722685701e-06
1.3143722821314514e-05   -3.744485808180112e-06   6.354181722685701e-06
2.622502447258528e-05   -4.953032011015181e-06   -1.4722859974398007e-05
2.622502447258528e-05   -4.953032011015181e-06   -1.4722859974398007e-05
2.622502447258528e-05   -4.953032011015181e-06   -1.4722859974398007e-05
2.622502447258528e-05   -4.953032011015181e-06   -1.4722859974398007e-05
1.8675009050986177e-05   -3.9136755160523035e-06   -2.7631148353771562e-06
1.8675009050986177e-05   -3.9136755160523035e-06   -2.7631148353771562e-06
1.8675009050986177e-05   -3.9136755160523035e-06   -2.7631148353771562e-06
1.8675009050986177e-05   -3.9136755160523035e-06   -2.7631148353771562e-06
2.622502447258528e-05   -3.744485808180112e-06   7.079309444386677e-06
2.622502447258528e-05   -3.744485808180112e-06   7.079309444386677e-06
2.622502447258528e-05   -3.744485808180112e-06   7.079309444386677e-06
2.622502447258528e-05   -3.744485808180112e-06   7.079309444386677e-06
1.3143722821314514e-05   -4.953032011015181e-06   -1.544798769609893e-05
1.3143722821314514e-05   -4.953032011015181e-06   -1.544798769609893e-05
1.3143722821314514e-05   -4.953032011015181e-06   -1.544798769609893e-05
1.3143722821314514e-05   -4.953032011015181e-06   -1.544798769609893e-05
1.3400700988106083e-05   -3.613778971160546e-06   5.025834486120911e-06
1.3400700988106083e-05   -3.613778971160546e-06   5.025834486120911e-06
1.3400700988106083e-05   -3.613778971160546e-06   5.025834486120911e-06
1.3400700988106083e-05   -3.613778971160546e-06   5.025834486120911e-06
2.6614005683054084e-05   -4.9063229707363605e-06   -1.6220813605713634e-05
2.6614005683054084e-05   -4.9063229707363605e-06   -1.6220813605713634e-05
2.6614005683054084e-05   -4.9063229707363605e-06   -1.6220813605713634e-05
2.6614005683054084e-05   -4.9063229707363605e-06   -1.6220813605713634e-05
1.9324944623800455e-05   -4.035033447821659e-06   -4.595152220706396e-06
1.9324944623800455e-05   -4.035033447821659e-06   -4.595152220706396e-06
1.9324944623800455e-05   -4.035033447821659e-06   -4.595152220706396e-06
1.9324944623800455e-05   -4.035033447821659e-06   -4.595152220706396e-06
2.6614005683054084e-05   -3.613778971160546e-06   5.801360885866378e-06
2.6614005683054084e-05   -3.613778971160546e-06   5.801360885866378e-06
2.6614005683054084e-05   -3.613778971160546e-06   5.801360885866378e-06
2.6614005683054084e-05   -3.613778971160546e-06   5.801360885866378e-06
1.3400700988106083e-05   -4.9063229707363605e-06   -1.699634000545898e-05
1.3400700988106083e-05   -4.9063229707363605e-06   -1.699634000545898e-05
1.3400700988106083e-05   -4.9063229707363605e-06   -1.699634000545898e-05
1.3400700988106083e-05   -4.9063229707363605e-06   -1.699634000545898e-05
1.3667799935451432e-05   -3.1065327601575033e-06   2.4591457230251296e-06
1.3667799935451432e-05   -3.1065327601575033e-06   2.4591457230251296e-06
1.3667799935451432e-05   -3.1065327601575033e-06   2.4591457230251296e-06
1.3667799935451432e-05   -3.1065327601575033e-06   2.4591457230251296e-06
2.6997131187521864e-05   -4.628039931675815e-06   -1.884350206084793e-05
2.6997131187521864e-05   -4.628039931675815e-06   -1.884350206084793e-05
2.6997131187521864e-05   -4.628039931675815e-06   -1.884350206084793e-05
2.6997131187521864e-05   -4.628039931675815e-06   -1.884350206084793e-05
1.932550239407147e-05   -3.880334014745492e-06   -6.506077621922245e-06
1.932550239407147e-05   -3.880334014745492e-06   -6.506077621922245e-06
1.932550239407147e-05   -3.880334014745492e-06   -6.506077621922245e-06
1.932550239407147e-05   -3.880334014745492e-06   -6.506077621922245e-06
1.2839433832173944e-05   -2.454750049430917e-06   9.895945846219488e-07
1.2839433832173944e-05   -2.454750049430917e-06   9.895945846219488e-07
1.2839433832173944e-05   -2.454750049430917e-06   9.895945846219488e-07
1.2839433832173944e-05   -2.454750049430917e-06   9.895945846219488e-07
1.4476030630892884e-06   -4.779495327600228e-06   -1.9391637197420754e-05
1.4476030630892884e-06   -4.779495327600228e-06   -1.9391637197420754e-05
1.4476030630892884e-06   -4.779495327600228e-06   -1.9391637197420754e-05
1.4476030630892884e-06   -4.779495327600228e-06   -1.9391637197420754e-05
1.8013519770520629e-06   -2.3332678957704335e-06   3.6207271428018856e-08
1.8013519770520629e-06   -2.3332678957704335e-06   3.6207271428018856e-08
1.8013519770520629e-06   -2.3332678957704335e-06   3.6207271428018856e-08
1.8013519770520629e-06   -2.3332678957704335e-06   3.6207271428018856e-08
1.3143722821314534e-05   -4.751295354190428e-06   -1.741692766062404e-05
1.3143722821314534e-05   -4.751295354190428e-06   -1.741692766062404e-05
1.3143722821314534e-05   -4.751295354190428e-06   -1.741692766062404e-05
1.3143722821314534e-05   -4.751295354190428e-06   -1.741692766062404e-05
7.334767189146549e-06   -3.228426968411016e-06   -8.649055971811826e-06
7.334767189146549e-06   -3.228426968411016e-06   -8.649055971811826e-06
7.334767189146549e-06   -3.228426968411016e-06   -8.649055971811826e-06
7.334767189146549e-06   -3.228426968411016e-06   -8.649055971811826e-06
1.3143722821314494e-05   -2.3332678957704335e-06   1.4870237464801456e-06
1.3143722821314494e-05   -2.3332678957704335e-06   1.4870237464801456e-06
1.3143722821314494e-05   -2.3332678957704335e-06   1.4870237464801456e-06
1.3143722821314494e-05   -2.3332678957704335e-06   1.4870237464801456e-06
1.8013519770520629e-06   -4.751295354190428e-06   -1.8867744135676033e-05
1.8013519770520629e-06   -4.751295354190428e-06   -1.8867744135676033e-05
1.8013519770520629e-06   -4.751295354190428e-06   -1.8867744135676033e-05
1.8013519770520629e-06   -4.751295354190428e-06   -1.8867744135676033e-05
2.1205556775389896e-06   -2.110003307316923e-06   -9.076197289971475e-08
2.1205556775389896e-06   -2.110003307316923e-06   -9.076197289971475e-08
2.1205556775389896e-06   -2.110003307316923e-06   -9.076197289971475e-08
2.1205556775389896e-06   -2.110003307316923e-06   -9.076197289971475e-08
1.3400700988106083e-05   -4.682558678249923e-06   -1.7347470934618472e-05
1.3400700988106083e-05   -4.682558678249923e-06   -1.7347470934618472e-05
1.3400700988106083e-05   -4.682558678249923e-06   -1.7347470934618472e-05
1.3400700988106083e-05   -4.682558678249923e-06   -1.7347470934618472e-05
7.532449564804971e-06   -3.2595412437439733e-06   -8.420862356486462e-06
7.532449564804971e-06   -3.2595412437439733e-06   -8.420862356486462e-06
7.532449564804971e-06   -3.2595412437439733e-06   -8.420862356486462e-06
7.532449564804971e-06   -3.2595412437439733e-06   -8.420862356486462e-06
1.3400700988106083e-05   -2.1100033073170313e-06   1.452771249660042e-06
1.3400700988106083e-05   -2.1100033073170313e-06   1.452771249660042e-06
1.3400700988106083e-05   -2.1100033073170313e-06   1.452771249660042e-06
1.3400700988106083e-05   -2.1100033073170313e-06   1.452771249660042e-06
2.1205556775389896e-06   -4.682558678249923e-06   -1.889100415717823e-05
2.1205556775389896e-06   -4.682558678249923e-06   -1.889100415717823e-05
2.1205556775389896e-06   -4.682558678249923e-06   -1.889100415717823e-05
2.1205556775389896e-06   -4.682558678249923e-06   -1.889100415717823e-05
2.5977183040200874e-06   -1.7921223071644225e-06   -3.223757034020655e-07
2.5977183040200874e-06   -1.7921223071644225e-06   -3.223757034020655e-07
2.5977183040200874e-06   -1.7921223071644225e-06   -3.223757034020655e-07
2.5977183040200874e-06   -1.7921223071644225e-06   -3.223757034020655e-07
1.3667799935451412e-05   -4.54844832819515e-06   -1.711871614316908e-05
1.3667799935451412e-05   -4.54844832819515e-06   -1.711871614316908e-05
1.3667799935451412e-05   -4.54844832819515e-06   -1.711871614316908e-05
1.3667799935451412e-05   -4.54844832819515e-06   -1.711871614316908e-05
7.917410457677482e-06   -3.2031319670545967e-06   -8.341923496896881e-06
7.917410457677482e-06   -3.2031319670545967e-06   -8.341923496896881e-06
7.917410457677482e-06   -3.2031319670545967e-06   -8.341923496896881e-06
7.917410457677482e-06   -3.2031319670545967e-06   -8.341923496896881e-06
1.4476030630892884e-06   -1.2448390840151232e-06   -1.7812062213644906e-06
1.4476030630892884e-06   -1.2448390840151232e-06   -1.7812062213644906e-06
1.4476030630892884e-06   -1.2448390840151232e-06   -1.7812062213644906e-06
1.4476030630892884e-06   -1.2448390840151232e-06   -1.7812062213644906e-06
-9.823276946687064e-06   -5.693569540071979e-06   -2.323524451129243e-05
-9.823276946687064e-06   -5.693569540071979e-06   -2.323524451129243e-05
-9.823276946687064e-06   -5.693569540071979e-06   -2.323524451129243e-05
-9.823276946687064e-06   -5.693569540071979e-06   -2.323524451129243e-05
-9.271420315574846e-06   -1.1004613424245215e-06   -3.957819565662802e-06
-9.271420315574846e-06   -1.1004613424245215e-06   -3.957819565662802e-06
-9.271420315574846e-06   -1.1004613424245215e-06   -3.957819565662802e-06
-9.271420315574846e-06   -1.1004613424245215e-06   -3.957819565662802e-06
1.8013519770520629e-06   -5.813864109306373e-06   -1.958439839324524e-05
1.8013519770520629e-06   -5.813864109306373e-06   -1.958439839324524e-05
1.8013519770520629e-06   -5.813864109306373e-06   -1.958439839324524e-05
1.8013519770520629e-06   -5.813864109306373e-06   -1.958439839324524e-05
-3.834543803072313e-06   -3.201396953386379e-06   -1.1758719053256558e-05
-3.834543803072313e-06   -3.201396953386379e-06   -1.1758719053256558e-05
-3.834543803072313e-06   -3.201396953386379e-06   -1.1758719053256558e-05
-3.834543803072313e-06   -3.201396953386379e-06   -1.1758719053256558e-05
1.8013519770520629e-06   -1.1004613424245215e-06   -1.1297779055337125e-06
1.8013519770520629e-06   -1.1004613424245215e-06   -1.1297779055337125e-06
1.8013519770520629e-06   -1.1004613424245215e-06   -1.1297779055337125e-06
1.8013519770520629e-06   -1.1004613424245215e-06   -1.1297779055337125e-06
-9.27142031557486e-06   -5.81386410930659e-06   -2.2412440053374357e-05
-9.27142031557486e-06   -5.81386410930659e-06   -2.2412440053374357e-05
-9.27142031557486e-06   -5.81386410930659e-06   -2.2412440053374357e-05
-9.27142031557486e-06   -5.81386410930659e-06   -2.2412440053374357e-05
-8.794926775565725e-06   -8.798872172104686e-07   -3.685528598300347e-06
-8.794926775565725e-06   -8.798872172104686e-07   -3.685528598300347e-06
-8.794926775565725e-06   -8.798872172104686e-07   -3.685528598300347e-06
-8.794926775565725e-06   -8.798872172104686e-07   -3.685528598300347e-06
2.1205556775389896e-06   -5.77988518862837e-06   -1.8938000570624047e-05
2.1205556775389896e-06   -5.77988518862837e-06   -1.8938000570624047e-05
2.1205556775389896e-06   -5.77988518862837e-06   -1.8938000570624047e-05
2.1205556775389896e-06   -5.77988518862837e-06   -1.8938000570624047e-05
-3.4431118835550947e-06   -3.2690651785167437e-06   -1.117171330820095e-05
-3.4431118835550947e-06   -3.2690651785167437e-06   -1.117171330820095e-05
-3.4431118835550947e-06   -3.2690651785167437e-06   -1.117171330820095e-05
-3.4431118835550947e-06   -3.2690651785167437e-06   -1.117171330820095e-05
2.1205556775389896e-06   -8.798872172104686e-07   -7.455298154494545e-07
2.1205556775389896e-06   -8.798872172104686e-07   -7.455298154494545e-07
2.1205556775389896e-06   -8.798872172104686e-07   -7.455298154494545e-07
2.1205556775389896e-06   -8.798872172104686e-07   -7.455298154494545e-07
-8.79492677556576e-06   -5.779885188628587e-06   -2.187799935347498e-05
-8.79492677556576e-06   -5.779885188628587e-06   -2.187799935347498e-05
-8.79492677556576e-06   -5.779885188628587e-06   -2.187799935347498e-05
-8.79492677556576e-06   -5.779885188628587e-06   -2.187799935347498e-05
-7.972208008748874e-06   -6.701274953429832e-07   -3.6714153976143225e-06
-7.972208008748874e-06   -6.701274953429832e-07   -3.6714153976143225e-06
-7.972208008748874e-06   -6.701274953429832e-07   -3.6714153976143225e-06
-7.972208008748874e-06   -6.701274953429832e-07   -3.6714153976143225e-06
2.597718304020094e-06   -5.569269665260147e-06   -1.8348473950279055e-05
2.597718304020094e-06   -5.569269665260147e-06   -1.8348473950279055e-05
2.597718304020094e-06   -5.569269665260147e-06   -1.8348473950279055e-05
2.597718304020094e-06   -5.569269665260147e-06   -1.8348473950279055e-05
-2.9340613189042044e-06   -3.1903699155828944e-06   -1.0556181095211579e-05
-2.9340613189042044e-06   -3.1903699155828944e-06   -1.0556181095211579e-05
-2.9340613189042044e-06   -3.1903699155828944e-06   -1.0556181095211579e-05
-2.9340613189042044e-06   -3.1903699155828944e-06   -1.0556181095211579e-05
-9.823276946687043e-06   4.106479319688789e-07   -2.5262334247739583e-06
-9.823276946687043e-06   4.106479319688789e-07   -2.5262334247739583e-06
-9.823276946687043e-06   4.106479319688789e-07   -2.5262334247739583e-06
-9.823276946687043e-06   4.106479319688789e-07   -2.5262334247739583e-06
-2.2368866871375728e-05   -7.0285421874107055e-06   -2.7899064037549635e-05
-2.2368866871375728e-05   -7.0285421874107055e-06   -2.7899064037549635e-05
-2.2368866871375728e-05   -7.0285421874107055e-06   -2.7899064037549635e-05
-2.2368866871375728e-05   -7.0285421874107055e-06   -2.7899064037549635e-05
-2.1704244967460414e-05   6.717457854196881e-07   -6.769888650289533e-06
-2.1704244967460414e-05   6.717457854196881e-07   -6.769888650289533e-06
-2.1704244967460414e-05   6.717457854196881e-07   -6.769888650289533e-06
-2.1704244967460414e-05   6.717457854196881e-07   -6.769888650289533e-06
-9.271420315574846e-06   -7.876843617059216e-06   -2.2362109428611477e-05
-9.271420315574846e-06   -7.876843617059216e-06   -2.2362109428611477e-05
-9.271420315574846e-06   -7.876843617059216e-06   -2.2362109428611477e-05
-9.271420315574846e-06   -7.876843617059216e-06   -2.2362109428611477e-05
-1.556853408791242e-05   -3.537479354683297e-06   -1.447053836547426e-05
-1.556853408791242e-05   -3.537479354683297e-06   -1.447053836547426e-05
-1.556853408791242e-05   -3.537479354683297e-06   -1.447053836547426e-05
-1.556853408791242e-05   -3.537479354683297e-06   -1.447053836547426e-05
-9.271420315574846e-06   6.717457854197965e-07   -1.6407350088022124e-06
-9.271420315574846e-06   6.717457854197965e-07   -1.6407350088022124e-06
-9.271420315574846e-06   6.717457854197965e-07   -1.6407350088022124e-06
-9.271420315574846e-06   6.717457854197965e-07   -1.6407350088022124e-06
-2.1704244967460414e-05   -7.876843617058999e-06   -2.749126307009884e-05
-2.1704244967460414e-05   -7.876843617058999e-06   -2.749126307009884e-05
-2.1704244967460414e-05   -7.876843617058999e-06   -2.749126307009884e-05
-2.1704244967460414e-05   -7.876843617058999e-06   -2.749126307009884e-05
-2.1067764545082585e-05   9.114901113343619e-07   -6.011657320568846e-06
-2.1067764545082585e-05   9.114901113343619e-07   -6.011657320568846e-06
-2.1067764545082585e-05   9.114901113343619e-07   -6.011657320568846e-06
-2.1067764545082585e-05   9.114901113343619e-07   -6.011657320568846e-06
-8.794926775565746e-06   -7.913929914110359e-06   -2.1171134921163452e-05
-8.794926775565746e-06   -7.913929914110359e-06   -2.1171134921163452e-05
-8.794926775565746e-06   -7.913929914110359e-06   -2.1171134921163452e-05
-8.794926775565746e-06   -7.913929914110359e-06   -2.1171134921163452e-05
-1.4920305293785674e-05   -3.5432815796035497e-06   -1.3584559724834269e-05
-1.4920305293785674e-05   -3.5432815796035497e-06   -1.3584559724834269e-05
-1.4920305293785674e-05   -3.5432815796035497e-06   -1.3584559724834269e-05
-1.4920305293785674e-05   -3.5432815796035497e-06   -1.3584559724834269e-05
-8.794926775565732e-06   9.114901113343619e-07   -7.164053053021219e-07
-8.794926775565732e-06   9.114901113343619e-07   -7.164053053021219e-07
-8.794926775565732e-06   9.114901113343619e-07   -7.164053053021219e-07
-8.794926775565732e-06   9.114901113343619e-07   -7.164053053021219e-07
-2.106776454508262e-05   -7.913929914110142e-06   -2.6466386936430325e-05
-2.106776454508262e-05   -7.913929914110142e-06   -2.6466386936430325e-05
-2.106776454508262e-05   -7.913929914110142e-06   -2.6466386936430325e-05
-2.106776454508262e-05   -7.913929914110142e-06   -2.6466386936430325e-05
-2.0020210305044045e-05   1.112975704346689e-06   -5.2444032958701755e-06
-2.0020210305044045e-05   1.112975704346689e-06   -5.2444032958701755e-06
-2.0020210305044045e-05   1.112975704346689e-06   -5.2444032958701755e-06
-2.0020210305044045e-05   1.112975704346689e-06   -5.2444032958701755e-06
-7.972208008748902e-06   -7.181432725260556e-06   -2.0347762065264422e-05
-7.972208008748902e-06   -7.181432725260556e-06   -2.0347762065264422e-05
-7.972208008748902e-06   -7.181432725260556e-06   -2.0347762065264422e-05
-7.972208008748902e-06   -7.181432725260556e-06   -2.0347762065264422e-05
-1.4285443533651068e-05   -3.1003348805602607e-06   -1.2274361563914115e-05
-1.4285443533651068e-05   -3.1003348805602607e-06   -1.2274361563914115e-05
-1.4285443533651068e-05   -3.1003348805602607e-06   -1.2274361563914115e-05
-1.4285443533651068e-05   -3.1003348805602607e-06   -1.2274361563914115e-05
-2.2368866871375728e-05   3.2358846129155582e-06   -4.58083658997732e-06
-2.2368866871375728e-05   3.2358846129155582e-06   -4.58083658997732e-06
-2.2368866871375728e-05   3.2358846129155582e-06   -4.58083658997732e-06
-2.2368866871375728e-05   3.2358846129155582e-06   -4.58083658997732e-06
-3.835580155146272e-05   0.0   -3.3167258491205074e-05
-3.835580155146272e-05   0.0   -3.3167258491205074e-05
-3.835580155146272e-05   0.0   -3.3167258491205074e-05
-3.835580155146272e-05   0.0   -3.3167258491205074e-05
-3.738845445955238e-05   4.0712512893547985e-06   -3.469114382346995e-06
-3.738845445955238e-05   4.0712512893547985e-06   -3.469114382346995e-06
-3.738845445955238e-05   4.0712512893547985e-06   -3.469114382346995e-06
-3.738845445955238e-05   4.0712512893547985e-06   -3.469114382346995e-06
-2.1704244967460373e-05   0.0   -2.7166712762220763e-05
-2.1704244967460373e-05   0.0   -2.7166712762220763e-05
-2.1704244967460373e-05   0.0   -2.7166712762220763e-05
-2.1704244967460373e-05   0.0   -2.7166712762220763e-05
-2.8683049555763437e-05   1.258861152769828e-06   -1.6290688473377614e-05
-2.8683049555763437e-05   1.258861152769828e-06   -1.6290688473377614e-05
-2.8683049555763437e-05   1.258861152769828e-06   -1.6290688473377614e-05
-2.8683049555763437e-05   1.258861152769828e-06   -1.6290688473377614e-05
-2.1704244967460387e-05   4.071251289354907e-06   -1.0263636087340508e-06
-2.1704244967460387e-05   4.071251289354907e-06   -1.0263636087340508e-06
-2.1704244967460387e-05   4.071251289354907e-06   -1.0263636087340508e-06
-2.1704244967460387e-05   4.071251289354907e-06   -1.0263636087340508e-06
-3.7388454459552315e-05   0.0   -2.9609463535833734e-05
-3.7388454459552315e-05   0.0   -2.9609463535833734e-05
-3.7388454459552315e-05   0.0   -2.9609463535833734e-05
-3.7388454459552315e-05   0.0   -2.9609463535833734e-05
-3.6566839384167345e-05   4.260131202066535e-06   -1.2321774306288825e-06
-3.6566839384167345e-05   4.260131202066535e-06   -1.2321774306288825e-06
-3.6566839384167345e-05   4.260131202066535e-06   -1.2321774306288825e-06
-3.6566839384167345e-05   4.260131202066535e-06   -1.2321774306288825e-06
-2.106776454508262e-05   0.0   -2.4507890107863583e-05
-2.106776454508262e-05   0.0   -2.4507890107863583e-05
-2.106776454508262e-05   0.0   -2.4507890107863583e-05
-2.106776454508262e-05   0.0   -2.4507890107863583e-05
-2.8408644968383463e-05   1.9750208179362223e-06   -1.3458101893123542e-05
-2.8408644968383463e-05   1.9750208179362223e-06   -1.3458101893123542e-05
-2.8408644968383463e-05   1.9750208179362223e-06   -1.3458101893123542e-05
-2.8408644968383463e-05   1.9750208179362223e-06   -1.3458101893123542e-05
-2.106776454508262e-05   4.260131202066643e-06   1.3239012906110601e-06
-2.106776454508262e-05   4.260131202066643e-06   1.3239012906110601e-06
-2.106776454508262e-05   4.260131202066643e-06   1.3239012906110601e-06
-2.106776454508262e-05   4.260131202066643e-06   1.3239012906110601e-06
-3.6566839384167284e-05   0.0   -2.7063968829103336e-05
-3.6566839384167284e-05   0.0   -2.7063968829103336e-05
-3.6566839384167284e-05   0.0   -2.7063968829103336e-05
-3.6566839384167284e-05   0.0   -2.7063968829103336e-05
-3.4924193949199874e-05   4.576986349391328e-06   2.379907941489948e-06
-3.4924193949199874e-05   4.576986349391328e-06   2.379907941489948e-06
-3.4924193949199874e-05   4.576986349391328e-06   2.379907941489948e-06
-3.4924193949199874e-05   4.576986349391328e-06   2.379907941489948e-06
-2.002021030504408e-05   0.0   -1.971387298913498e-05
-2.002021030504408e-05   0.0   -1.971387298913498e-05
-2.002021030504408e-05   0.0   -1.971387298913498e-05
-2.002021030504408e-05   0.0   -1.971387298913498e-05
-2.6963370909742894e-05   2.4302078253548957e-06   -9.600063343183092e-06
-2.6963370909742894e-05   2.4302078253548957e-06   -9.600063343183092e-06
-2.6963370909742894e-05   2.4302078253548957e-06   -9.600063343183092e-06
-2.6963370909742894e-05   2.4302078253548957e-06   -9.600063343183092e-06
2.8319158122199183e-05   -4.8320566907237e-06   1.6847880967075287e-05
2.8319158122199183e-05   -4.8320566907237e-06   1.6847880967075287e-05
2.8319158122199183e-05   -4.8320566907237e-06   1.6847880967075287e-05
2.8319158122199183e-05   -4.8320566907237e-06   1.6847880967075287e-05
1.4656525639745316e-05   -3.7516229823388644e-06   -5.274912945316991e-06
1.4656525639745316e-05   -3.7516229823388644e-06   -5.274912945316991e-06
1.4656525639745316e-05   -3.7516229823388644e-06   -5.274912945316991e-06
1.4656525639745316e-05   -3.7516229823388644e-06   -5.274912945316991e-06
1.4295233057894135e-05   -4.953032011015181e-06   1.4846975034237269e-05
1.4295233057894135e-05   -4.953032011015181e-06   1.4846975034237269e-05
1.4295233057894135e-05   -4.953032011015181e-06   1.4846975034237269e-05
1.4295233057894135e-05   -4.953032011015181e-06   1.4846975034237269e-05
2.8026569710849323e-05   -4.119509939192346e-06   -8.53869929711493e-06
2.8026569710849323e-05   -4.119509939192346e-06   -8.53869929711493e-06
2.8026569710849323e-05   -4.119509939192346e-06   -8.53869929711493e-06
2.8026569710849323e-05   -4.119509939192346e-06   -8.53869929711493e-06
2.0449975488653223e-05   -4.178799013252561e-06   4.124531184314704e-06
2.0449975488653223e-05   -4.178799013252561e-06   4.124531184314704e-06
2.0449975488653223e-05   -4.178799013252561e-06   4.124531184314704e-06
2.0449975488653223e-05   -4.178799013252561e-06   4.124531184314704e-06
2.8026569710849323e-05   -4.953032011015181e-06   1.4346861791143806e-05
2.8026569710849323e-05   -4.953032011015181e-06   1.4346861791143806e-05
2.8026569710849323e-05   -4.953032011015181e-06   1.4346861791143806e-05
2.8026569710849323e-05   -4.953032011015181e-06   1.4346861791143806e-05
1.4295233057894135e-05   -4.119509939192346e-06   -8.038586054021318e-06
1.4295233057894135e-05   -4.119509939192346e-06   -8.038586054021318e-06
1.4295233057894135e-05   -4.119509939192346e-06   -8.038586054021318e-06
1.4295233057894135e-05   -4.119509939192346e-06   -8.038586054021318e-06
1.3967702177267886e-05   -4.9063229707363605e-06   1.3313482409412262e-05
1.3967702177267886e-05   -4.9063229707363605e-06   1.3313482409412262e-05
1.3967702177267886e-05   -4.9063229707363605e-06   1.3313482409412262e-05
1.3967702177267886e-05   -4.9063229707363605e-06   1.3313482409412262e-05
2.768550424369651e-05   -4.15122478737923e-06   -1.000257994464972e-05
2.768550424369651e-05   -4.15122478737923e-06   -1.000257994464972e-05
2.768550424369651e-05   -4.15122478737923e-06   -1.000257994464972e-05
2.768550424369651e-05   -4.15122478737923e-06   -1.000257994464972e-05
2.044321631567476e-05   -4.252161341252369e-06   2.1284618677103954e-06
2.044321631567476e-05   -4.252161341252369e-06   2.1284618677103954e-06
2.044321631567476e-05   -4.252161341252369e-06   2.1284618677103954e-06
2.044321631567476e-05   -4.252161341252369e-06   2.1284618677103954e-06
2.768550424369655e-05   -4.9063229707363605e-06   1.2860423499398048e-05
2.768550424369655e-05   -4.9063229707363605e-06   1.2860423499398048e-05
2.768550424369655e-05   -4.9063229707363605e-06   1.2860423499398048e-05
2.768550424369655e-05   -4.9063229707363605e-06   1.2860423499398048e-05
1.3967702177267886e-05   -4.15122478737923e-06   -9.54952103463544e-06
1.3967702177267886e-05   -4.15122478737923e-06   -9.54952103463544e-06
1.3967702177267886e-05   -4.15122478737923e-06   -9.54952103463544e-06
1.3967702177267886e-05   -4.15122478737923e-06   -9.54952103463544e-06
1.3567729258311366e-05   -4.628039931675815e-06   1.0818540406831484e-05
1.3567729258311366e-05   -4.628039931675815e-06   1.0818540406831484e-05
1.3567729258311366e-05   -4.628039931675815e-06   1.0818540406831484e-05
1.3567729258311366e-05   -4.628039931675815e-06   1.0818540406831484e-05
2.7150868806993433e-05   -4.057338562130173e-06   -1.2162446329366081e-05
2.7150868806993433e-05   -4.057338562130173e-06   -1.2162446329366081e-05
2.7150868806993433e-05   -4.057338562130173e-06   -1.2162446329366081e-05
2.7150868806993433e-05   -4.057338562130173e-06   -1.2162446329366081e-05
1.9753203057261444e-05   -4.042601545726533e-06   1.581543770119004e-07
1.9753203057261444e-05   -4.042601545726533e-06   1.581543770119004e-07
1.9753203057261444e-05   -4.042601545726533e-06   1.581543770119004e-07
1.9753203057261444e-05   -4.042601545726533e-06   1.581543770119004e-07
1.4656525639745316e-05   -4.779495327600228e-06   1.2539453399787329e-05
1.4656525639745316e-05   -4.779495327600228e-06   1.2539453399787329e-05
1.4656525639745316e-05   -4.779495327600228e-06   1.2539453399787329e-05
1.4656525639745316e-05   -4.779495327600228e-06   1.2539453399787329e-05
3.0188870595613344e-06   -2.2874400747387082e-06   -5.36137774880235e-06
3.0188870595613344e-06   -2.2874400747387082e-06   -5.36137774880235e-06
3.0188870595613344e-06   -2.2874400747387082e-06   -5.36137774880235e-06
3.0188870595613344e-06   -2.2874400747387082e-06   -5.36137774880235e-06
2.4472579050638743e-06   -4.751295354190428e-06   1.4274471916229286e-05
2.4472579050638743e-06   -4.751295354190428e-06   1.4274471916229286e-05
2.4472579050638743e-06   -4.751295354190428e-06   1.4274471916229286e-05
2.4472579050638743e-06   -4.751295354190428e-06   1.4274471916229286e-05
1.4295233057894135e-05   -2.4239006099955294e-06   -6.868590185004928e-06
1.4295233057894135e-05   -2.4239006099955294e-06   -6.868590185004928e-06
1.4295233057894135e-05   -2.4239006099955294e-06   -6.868590185004928e-06
1.4295233057894135e-05   -2.4239006099955294e-06   -6.868590185004928e-06
8.590996019349243e-06   -3.428169485373417e-06   3.2410328711299902e-06
8.590996019349243e-06   -3.428169485373417e-06   3.2410328711299902e-06
8.590996019349243e-06   -3.428169485373417e-06   3.2410328711299902e-06
8.590996019349243e-06   -3.428169485373417e-06   3.2410328711299902e-06
1.4295233057894148e-05   -4.751295354190428e-06   1.287803506971213e-05
1.4295233057894148e-05   -4.751295354190428e-06   1.287803506971213e-05
1.4295233057894148e-05   -4.751295354190428e-06   1.287803506971213e-05
1.4295233057894148e-05   -4.751295354190428e-06   1.287803506971213e-05
2.4472579050638743e-06   -2.4239006099955294e-06   -5.472153338487813e-06
2.4472579050638743e-06   -2.4239006099955294e-06   -5.472153338487813e-06
2.4472579050638743e-06   -2.4239006099955294e-06   -5.472153338487813e-06
2.4472579050638743e-06   -2.4239006099955294e-06   -5.472153338487813e-06
2.03848728240698e-06   -4.682558678249923e-06   1.428285151084676e-05
2.03848728240698e-06   -4.682558678249923e-06   1.428285151084676e-05
2.03848728240698e-06   -4.682558678249923e-06   1.428285151084676e-05
2.03848728240698e-06   -4.682558678249923e-06   1.428285151084676e-05
1.3967702177267886e-05   -2.4817252939266215e-06   -6.919673344515324e-06
1.3967702177267886e-05   -2.4817252939266215e-06   -6.919673344515324e-06
1.3967702177267886e-05   -2.4817252939266215e-06   -6.919673344515324e-06
1.3967702177267886e-05   -2.4817252939266215e-06   -6.919673344515324e-06
8.098283252376445e-06   -3.3557552103465407e-06   3.3871094801559928e-06
8.098283252376445e-06   -3.3557552103465407e-06   3.3871094801559928e-06
8.098283252376445e-06   -3.3557552103465407e-06   3.3871094801559928e-06
8.098283252376445e-06   -3.3557552103465407e-06   3.3871094801559928e-06
1.3967702177267913e-05   -4.682558678249706e-06   1.2962351480252823e-05
1.3967702177267913e-05   -4.682558678249706e-06   1.2962351480252823e-05
1.3967702177267913e-05   -4.682558678249706e-06   1.2962351480252823e-05
1.3967702177267913e-05   -4.682558678249706e-06   1.2962351480252823e-05
2.03848728240698e-06   -2.4817252939266215e-06   -5.599173313921386e-06
2.03848728240698e-06   -2.4817252939266215e-06   -5.599173313921386e-06
2.03848728240698e-06   -2.4817252939266215e-06   -5.599173313921386e-06
2.03848728240698e-06   -2.4817252939266215e-06   -5.599173313921386e-06
1.5842372620427462e-06   -4.54844832819515e-06   1.4732889536565982e-05
1.5842372620427462e-06   -4.54844832819515e-06   1.4732889536565982e-05
1.5842372620427462e-06   -4.54844832819515e-06   1.4732889536565982e-05
1.5842372620427462e-06   -4.54844832819515e-06   1.4732889536565982e-05
1.3567729258311352e-05   -2.420683479620713e-06   -6.516256033026503e-06
1.3567729258311352e-05   -2.420683479620713e-06   -6.516256033026503e-06
1.3567729258311352e-05   -2.420683479620713e-06   -6.516256033026503e-06
1.3567729258311352e-05   -2.420683479620713e-06   -6.516256033026503e-06
7.799202370837598e-06   -3.204590265134654e-06   3.568299517404819e-06
7.799202370837598e-06   -3.204590265134654e-06   3.568299517404819e-06
7.799202370837598e-06   -3.204590265134654e-06   3.568299517404819e-06
7.799202370837598e-06   -3.204590265134654e-06   3.568299517404819e-06
3.0188870595613344e-06   -5.693569540071979e-06   1.2860317511266691e-05
3.0188870595613344e-06   -5.693569540071979e-06   1.2860317511266691e-05
3.0188870595613344e-06   -5.693569540071979e-06   1.2860317511266691e-05
3.0188870595613344e-06   -5.693569540071979e-06   1.2860317511266691e-05
-8.167910976322668e-06   -9.120558172274074e-07   -2.915437648166549e-06
-8.167910976322668e-06   -9.120558172274074e-07   -2.915437648166549e-06
-8.167910976322668e-06   -9.120558172274074e-07   -2.915437648166549e-06
-8.167910976322668e-06   -9.120558172274074e-07   -2.915437648166549e-06
-9.05629385788738e-06   -5.81386410930659e-06   1.6469237075164914e-05
-9.05629385788738e-06   -5.81386410930659e-06   1.6469237075164914e-05
-9.05629385788738e-06   -5.81386410930659e-06   1.6469237075164914e-05
-9.05629385788738e-06   -5.81386410930659e-06   1.6469237075164914e-05
2.4472579050638743e-06   -9.61498415131927e-07   -5.614768612925223e-06
2.4472579050638743e-06   -9.61498415131927e-07   -5.614768612925223e-06
2.4472579050638743e-06   -9.61498415131927e-07   -5.614768612925223e-06
2.4472579050638743e-06   -9.61498415131927e-07   -5.614768612925223e-06
-2.842284717417839e-06   -3.236335748510802e-06   4.566038157904852e-06
-2.842284717417839e-06   -3.236335748510802e-06   4.566038157904852e-06
-2.842284717417839e-06   -3.236335748510802e-06   4.566038157904852e-06
-2.842284717417839e-06   -3.236335748510802e-06   4.566038157904852e-06
2.4472579050638743e-06   -5.813864109306373e-06   1.355781765866016e-05
2.4472579050638743e-06   -5.813864109306373e-06   1.355781765866016e-05
2.4472579050638743e-06   -5.813864109306373e-06   1.355781765866016e-05
2.4472579050638743e-06   -5.813864109306373e-06   1.355781765866016e-05
-9.056293857887367e-06   -9.614984151317101e-07   -2.703349196420536e-06
-9.056293857887367e-06   -9.614984151317101e-07   -2.703349196420536e-06
-9.056293857887367e-06   -9.614984151317101e-07   -2.703349196420536e-06
-9.056293857887367e-06   -9.614984151317101e-07   -2.703349196420536e-06
-9.601164482834245e-06   -5.779885188628587e-06   1.7090089993938287e-05
-9.601164482834245e-06   -5.779885188628587e-06   1.7090089993938287e-05
-9.601164482834245e-06   -5.779885188628587e-06   1.7090089993938287e-05
-9.601164482834245e-06   -5.779885188628587e-06   1.7090089993938287e-05
2.03848728240698e-06   -1.0228270277328009e-06   -5.163564511334492e-06
2.03848728240698e-06   -1.0228270277328009e-06   -5.163564511334492e-06
2.03848728240698e-06   -1.0228270277328009e-06   -5.163564511334492e-06
2.03848728240698e-06   -1.0228270277328009e-06   -5.163564511334492e-06
-3.444632853422342e-06   -3.22087113474351e-06   5.293795512587517e-06
-3.444632853422342e-06   -3.22087113474351e-06   5.293795512587517e-06
-3.444632853422342e-06   -3.22087113474351e-06   5.293795512587517e-06
-3.444632853422342e-06   -3.22087113474351e-06   5.293795512587517e-06
2.03848728240698e-06   -5.779885188628587e-06   1.4235855097400794e-05
2.03848728240698e-06   -5.779885188628587e-06   1.4235855097400794e-05
2.03848728240698e-06   -5.779885188628587e-06   1.4235855097400794e-05
2.03848728240698e-06   -5.779885188628587e-06   1.4235855097400794e-05
-9.601164482834225e-06   -1.0228270277328009e-06   -2.3093296147971886e-06
-9.601164482834225e-06   -1.0228270277328009e-06   -2.3093296147971886e-06
-9.601164482834225e-06   -1.0228270277328009e-06   -2.3093296147971886e-06
-9.601164482834225e-06   -1.0228270277328009e-06   -2.3093296147971886e-06
-1.02397675965737e-05   -5.569269665260147e-06   1.7890868073509674e-05
-1.02397675965737e-05   -5.569269665260147e-06   1.7890868073509674e-05
-1.02397675965737e-05   -5.569269665260147e-06   1.7890868073509674e-05
-1.02397675965737e-05   -5.569269665260147e-06   1.7890868073509674e-05
1.5842372620427462e-06   -1.0127017795349795e-06   -4.5497474222861854e-06
1.5842372620427462e-06   -1.0127017795349795e-06   -4.5497474222861854e-06
1.5842372620427462e-06   -1.0127017795349795e-06   -4.5497474222861854e-06
1.5842372620427462e-06   -1.0127017795349795e-06   -4.5497474222861854e-06
-3.936097240214728e-06   -3.0857969381553347e-06   5.894667176648504e-06
-3.936097240214728e-06   -3.0857969381553347e-06   5.894667176648504e-06
-3.936097240214728e-06   -3.0857969381553347e-06   5.894667176648504e-06
-3.936097240214728e-06   -3.0857969381553347e-06   5.894667176648504e-06
-8.167910976322675e-06   -7.0285421874107055e-06   1.5528920290344152e-05
-8.167910976322675e-06   -7.0285421874107055e-06   1.5528920290344152e-05
-8.167910976322675e-06   -7.0285421874107055e-06   1.5528920290344152e-05
-8.167910976322675e-06   -7.0285421874107055e-06   1.5528920290344152e-05
-2.0850739501069354e-05   1.1231546963492729e-06   -7.181091206444074e-07
-2.0850739501069354e-05   1.1231546963492729e-06   -7.181091206444074e-07
-2.0850739501069354e-05   1.1231546963492729e-06   -7.181091206444074e-07
-2.0850739501069354e-05   1.1231546963492729e-06   -7.181091206444074e-07
-2.1925319499028313e-05   -7.876843617058999e-06   2.1887091747009027e-05
-2.1925319499028313e-05   -7.876843617058999e-06   2.1887091747009027e-05
-2.1925319499028313e-05   -7.876843617058999e-06   2.1887091747009027e-05
-2.1925319499028313e-05   -7.876843617058999e-06   2.1887091747009027e-05
-9.056293857887367e-06   1.0690297947426545e-06   -4.928808368640436e-06
-9.056293857887367e-06   1.0690297947426545e-06   -4.928808368640436e-06
-9.056293857887367e-06   1.0690297947426545e-06   -4.928808368640436e-06
-9.056293857887367e-06   1.0690297947426545e-06   -4.928808368640436e-06
-1.4795005732112647e-05   -2.8531319815775034e-06   6.989008487527301e-06
-1.4795005732112647e-05   -2.8531319815775034e-06   6.989008487527301e-06
-1.4795005732112647e-05   -2.8531319815775034e-06   6.989008487527301e-06
-1.4795005732112647e-05   -2.8531319815775034e-06   6.989008487527301e-06
-9.05629385788738e-06   -7.876843617058999e-06   1.6519567699927753e-05
-9.05629385788738e-06   -7.876843617058999e-06   1.6519567699927753e-05
-9.05629385788738e-06   -7.876843617058999e-06   1.6519567699927753e-05
-9.05629385788738e-06   -7.876843617058999e-06   1.6519567699927753e-05
-2.1925319499028313e-05   1.0690297947428713e-06   4.387156784407299e-07
-2.1925319499028313e-05   1.0690297947428713e-06   4.387156784407299e-07
-2.1925319499028313e-05   1.0690297947428713e-06   4.387156784407299e-07
-2.1925319499028313e-05   1.0690297947428713e-06   4.387156784407299e-07
-2.257888989642236e-05   -7.913929914110142e-06   2.3121483156135513e-05
-2.257888989642236e-05   -7.913929914110142e-06   2.3121483156135513e-05
-2.257888989642236e-05   -7.913929914110142e-06   2.3121483156135513e-05
-2.257888989642236e-05   -7.913929914110142e-06   2.3121483156135513e-05
-9.601164482834225e-06   9.602846356994953e-07   -3.8325879297305076e-06
-9.601164482834225e-06   9.602846356994953e-07   -3.8325879297305076e-06
-9.601164482834225e-06   9.602846356994953e-07   -3.8325879297305076e-06
-9.601164482834225e-06   9.602846356994953e-07   -3.8325879297305076e-06
-1.5488311299427457e-05   -3.3084588235434385e-06   8.540569506803827e-06
-1.5488311299427457e-05   -3.3084588235434385e-06   8.540569506803827e-06
-1.5488311299427457e-05   -3.3084588235434385e-06   8.540569506803827e-06
-1.5488311299427457e-05   -3.3084588235434385e-06   8.540569506803827e-06
-9.601164482834218e-06   -7.913929914110359e-06   1.7796954426249666e-05
-9.601164482834218e-06   -7.913929914110359e-06   1.7796954426249666e-05
-9.601164482834218e-06   -7.913929914110359e-06   1.7796954426249666e-05
-9.601164482834218e-06   -7.913929914110359e-06   1.7796954426249666e-05
-2.257888989642232e-05   9.602846356994953e-07   1.491940800155394e-06
-2.257888989642232e-05   9.602846356994953e-07   1.491940800155394e-06
-2.257888989642232e-05   9.602846356994953e-07   1.491940800155394e-06
-2.257888989642232e-05   9.602846356994953e-07   1.491940800155394e-06
-2.3284695779232568e-05   -7.181432725260556e-06   2.3641522192087774e-05
-2.3284695779232568e-05   -7.181432725260556e-06   2.3641522192087774e-05
-2.3284695779232568e-05   -7.181432725260556e-06   2.3641522192087774e-05
-2.3284695779232568e-05   -7.181432725260556e-06   2.3641522192087774e-05
-1.0239767596573666e-05   8.359954940947382e-07   -2.9104817106235766e-06
-1.0239767596573666e-05   8.359954940947382e-07   -2.9104817106235766e-06
-1.0239767596573666e-05   8.359954940947382e-07   -2.9104817106235766e-06
-1.0239767596573666e-05   8.359954940947382e-07   -2.9104817106235766e-06
-1.6208387387768698e-05   -3.3287158016665624e-06   9.536044718825253e-06
-1.6208387387768698e-05   -3.3287158016665624e-06   9.536044718825253e-06
-1.6208387387768698e-05   -3.3287158016665624e-06   9.536044718825253e-06
-1.6208387387768698e-05   -3.3287158016665624e-06   9.536044718825253e-06
-2.085073950106928e-05   0.0   1.7093274734693688e-05
-2.085073950106928e-05   0.0   1.7093274734693688e-05
-2.085073950106928e-05   0.0   1.7093274734693688e-05
-2.085073950106928e-05   0.0   1.7093274734693688e-05
-3.65563351191616e-05   4.812390911791524e-06   -6.195283415051862e-06
-3.65563351191616e-05   4.812390911791524e-06   -6.195283415051862e-06
-3.65563351191616e-05   4.812390911791524e-06   -6.195283415051862e-06
-3.65563351191616e-05   4.812390911791524e-06   -6.195283415051862e-06
-3.8025041307224164e-05   0.0   2.5007985408055026e-05
-3.8025041307224164e-05   0.0   2.5007985408055026e-05
-3.8025041307224164e-05   0.0   2.5007985408055026e-05
-3.8025041307224164e-05   0.0   2.5007985408055026e-05
-2.1925319499028272e-05   4.660572255280352e-06   -4.621227625439787e-06
-2.1925319499028272e-05   4.660572255280352e-06   -4.621227625439787e-06
-2.1925319499028272e-05   4.660572255280352e-06   -4.621227625439787e-06
-2.1925319499028272e-05   4.660572255280352e-06   -4.621227625439787e-06
-2.8090916700448637e-05   2.853998606417536e-06   6.738711899578569e-06
-2.8090916700448637e-05   2.853998606417536e-06   6.738711899578569e-06
-2.8090916700448637e-05   2.853998606417536e-06   6.738711899578569e-06
-2.8090916700448637e-05   2.853998606417536e-06   6.738711899578569e-06
-2.192531949902826e-05   0.0   2.2211642054886967e-05
-2.192531949902826e-05   0.0   2.2211642054886967e-05
-2.192531949902826e-05   0.0   2.2211642054886967e-05
-2.192531949902826e-05   0.0   2.2211642054886967e-05
-3.8025041307224245e-05   4.660572255280352e-06   -1.8248842722714967e-06
-3.8025041307224245e-05   4.660572255280352e-06   -1.8248842722714967e-06
-3.8025041307224245e-05   4.660572255280352e-06   -1.8248842722714967e-06
-3.8025041307224245e-05   4.660572255280352e-06   -1.8248842722714967e-06
-3.876309978439424e-05   0.0   2.7808141650417133e-05
-3.876309978439424e-05   0.0   2.7808141650417133e-05
-3.876309978439424e-05   0.0   2.7808141650417133e-05
-3.876309978439424e-05   0.0   2.7808141650417133e-05
-2.257888989642232e-05   4.546936109524986e-06   -1.8937031619178018e-06
-2.257888989642232e-05   4.546936109524986e-06   -1.8937031619178018e-06
-2.257888989642232e-05   4.546936109524986e-06   -1.8937031619178018e-06
-2.257888989642232e-05   4.546936109524986e-06   -1.8937031619178018e-06
-2.9524745107777257e-05   2.387459290903015e-06   1.0978408281513933e-05
-2.9524745107777257e-05   2.387459290903015e-06   1.0978408281513933e-05
-2.9524745107777257e-05   2.387459290903015e-06   1.0978408281513933e-05
-2.9524745107777257e-05   2.387459290903015e-06   1.0978408281513933e-05
-2.257888989642232e-05   0.0   2.5079979984702228e-05
-2.257888989642232e-05   0.0   2.5079979984702228e-05
-2.257888989642232e-05   0.0   2.5079979984702228e-05
-2.257888989642232e-05   0.0   2.5079979984702228e-05
-3.8763099784394365e-05   4.546936109524986e-06   8.34458503797225e-07
-3.8763099784394365e-05   4.546936109524986e-06   8.34458503797225e-07
-3.8763099784394365e-05   4.546936109524986e-06   8.34458503797225e-07
-3.8763099784394365e-05   4.546936109524986e-06   8.34458503797225e-07
-3.957873560394766e-05   0.0   3.1538836452073195e-05
-3.957873560394766e-05   0.0   3.1538836452073195e-05
-3.957873560394766e-05   0.0   3.1538836452073195e-05
-3.957873560394766e-05   0.0   3.1538836452073195e-05
-2.3284695779232568e-05   3.811300210152793e-06   2.0953232847895764e-06
-2.3284695779232568e-05   3.811300210152793e-06   2.0953232847895764e-06
-2.3284695779232568e-05   3.811300210152793e-06   2.0953232847895764e-06
-2.3284695779232568e-05   3.811300210152793e-06   2.0953232847895764e-06
-2.9748658815322226e-05   1.6875083481903645e-06   1.4142870128783182e-05
-2.9748658815322226e-05   1.6875083481903645e-06   1.4142870128783182e-05
-2.9748658815322226e-05   1.6875083481903645e-06   1.4142870128783182e-05
-2.9748658815322226e-05   1.6875083481903645e-06   1.4142870128783182e-05
2.5030917399938137e-05   -3.7516229823388644e-06   1.766330101426051e-05
2.5030917399938137e-05   -3.7516229823388644e-06   1.766330101426051e-05
2.5030917399938137e-05   -3.7516229823388644e-06   1.766330101426051e-05
2.5030917399938137e-05   -3.7516229823388644e-06   1.766330101426051e-05
1.26340211963573e-05   -2.8525897460189662e-06   -2.4587727165821223e-06
1.26340211963573e-05   -2.8525897460189662e-06   -2.4587727165821223e-06
1.26340211963573e-05   -2.8525897460189662e-06   -2.4587727165821223e-06
1.26340211963573e-05   -2.8525897460189662e-06   -2.4587727165821223e-06
1.2307773687308755e-05   -4.119509939192563e-06   1.539396962787912e-05
1.2307773687308755e-05   -4.119509939192563e-06   1.539396962787912e-05
1.2307773687308755e-05   -4.119509939192563e-06   1.539396962787912e-05
1.2307773687308755e-05   -4.119509939192563e-06   1.539396962787912e-05
2.4451583072700318e-05   -3.2268962949036925e-06   -5.381280867679959e-06
2.4451583072700318e-05   -3.2268962949036925e-06   -5.381280867679959e-06
2.4451583072700318e-05   -3.2268962949036925e-06   -5.381280867679959e-06
2.4451583072700318e-05   -3.2268962949036925e-06   -5.381280867679959e-06
1.7777773356979356e-05   -3.3500865420720656e-06   5.81564947348931e-06
1.7777773356979356e-05   -3.3500865420720656e-06   5.81564947348931e-06
1.7777773356979356e-05   -3.3500865420720656e-06   5.81564947348931e-06
1.7777773356979356e-05   -3.3500865420720656e-06   5.81564947348931e-06
2.4451583072700277e-05   -4.119509939192563e-06   1.485840144130595e-05
2.4451583072700277e-05   -4.119509939192563e-06   1.485840144130595e-05
2.4451583072700277e-05   -4.119509939192563e-06   1.485840144130595e-05
2.4451583072700277e-05   -4.119509939192563e-06   1.485840144130595e-05
1.2307773687308768e-05   -3.2268962949036925e-06   -4.845712681106795e-06
1.2307773687308768e-05   -3.2268962949036925e-06   -4.845712681106795e-06
1.2307773687308768e-05   -3.2268962949036925e-06   -4.845712681106795e-06
1.2307773687308768e-05   -3.2268962949036925e-06   -4.845712681106795e-06
1.1887523760237793e-05   -4.151224787379447e-06   1.3803095811425149e-05
1.1887523760237793e-05   -4.151224787379447e-06   1.3803095811425149e-05
1.1887523760237793e-05   -4.151224787379447e-06   1.3803095811425149e-05
1.1887523760237793e-05   -4.151224787379447e-06   1.3803095811425149e-05
2.386419753209499e-05   -3.281046561461336e-06   -6.680134077220928e-06
2.386419753209499e-05   -3.281046561461336e-06   -6.680134077220928e-06
2.386419753209499e-05   -3.281046561461336e-06   -6.680134077220928e-06
2.386419753209499e-05   -3.281046561461336e-06   -6.680134077220928e-06
1.7622401081348463e-05   -3.4949211239626316e-06   3.851184744857407e-06
1.7622401081348463e-05   -3.4949211239626316e-06   3.851184744857407e-06
1.7622401081348463e-05   -3.4949211239626316e-06   3.851184744857407e-06
1.7622401081348463e-05   -3.4949211239626316e-06   3.851184744857407e-06
2.386419753209499e-05   -4.15122478737923e-06   1.3280988875874478e-05
2.386419753209499e-05   -4.15122478737923e-06   1.3280988875874478e-05
2.386419753209499e-05   -4.15122478737923e-06   1.3280988875874478e-05
2.386419753209499e-05   -4.15122478737923e-06   1.3280988875874478e-05
1.1887523760237793e-05   -3.281046561461336e-06   -6.158027141670128e-06
1.1887523760237793e-05   -3.281046561461336e-06   -6.158027141670128e-06
1.1887523760237793e-05   -3.281046561461336e-06   -6.158027141670128e-06
1.1887523760237793e-05   -3.281046561461336e-06   -6.158027141670128e-06
1.144606433941382e-05   -4.057338562130173e-06   1.1437715665863044e-05
1.144606433941382e-05   -4.057338562130173e-06   1.1437715665863044e-05
1.144606433941382e-05   -4.057338562130173e-06   1.1437715665863044e-05
1.144606433941382e-05   -4.057338562130173e-06   1.1437715665863044e-05
2.312846569673119e-05   -3.2536873627237502e-06   -8.515143982643081e-06
2.312846569673119e-05   -3.2536873627237502e-06   -8.515143982643081e-06
2.312846569673119e-05   -3.2536873627237502e-06   -8.515143982643081e-06
2.312846569673119e-05   -3.2536873627237502e-06   -8.515143982643081e-06
1.6849048500885224e-05   -3.4012248084604657e-06   2.0390738112091643e-06
1.6849048500885224e-05   -3.4012248084604657e-06   2.0390738112091643e-06
1.6849048500885224e-05   -3.4012248084604657e-06   2.0390738112091643e-06
1.6849048500885224e-05   -3.4012248084604657e-06   2.0390738112091643e-06
1.263402119635732e-05   -2.2874400747387082e-06   1.662102300085033e-05
1.263402119635732e-05   -2.2874400747387082e-06   1.662102300085033e-05
1.263402119635732e-05   -2.2874400747387082e-06   1.662102300085033e-05
1.263402119635732e-05   -2.2874400747387082e-06   1.662102300085033e-05
1.323199076678347e-06   -9.984550010308773e-07   -1.4569561543899788e-06
1.323199076678347e-06   -9.984550010308773e-07   -1.4569561543899788e-06
1.323199076678347e-06   -9.984550010308773e-07   -1.4569561543899788e-06
1.323199076678347e-06   -9.984550010308773e-07   -1.4569561543899788e-06
9.983824716984838e-07   -2.4239006099953126e-06   1.7299418828580675e-05
9.983824716984838e-07   -2.4239006099953126e-06   1.7299418828580675e-05
9.983824716984838e-07   -2.4239006099953126e-06   1.7299418828580675e-05
9.983824716984838e-07   -2.4239006099953126e-06   1.7299418828580675e-05
1.2307773687308768e-05   -1.1981450571868545e-06   -2.2850198624548774e-06
1.2307773687308768e-05   -1.1981450571868545e-06   -2.2850198624548774e-06
1.2307773687308768e-05   -1.1981450571868545e-06   -2.2850198624548774e-06
1.2307773687308768e-05   -1.1981450571868545e-06   -2.2850198624548774e-06
6.7501377946493935e-06   -1.6068292654292451e-06   7.222917150256057e-06
6.7501377946493935e-06   -1.6068292654292451e-06   7.222917150256057e-06
6.7501377946493935e-06   -1.6068292654292451e-06   7.222917150256057e-06
6.7501377946493935e-06   -1.6068292654292451e-06   7.222917150256057e-06
1.2307773687308761e-05   -2.4239006099953126e-06   1.656396549689558e-05
1.2307773687308761e-05   -2.4239006099953126e-06   1.656396549689558e-05
1.2307773687308761e-05   -2.4239006099953126e-06   1.656396549689558e-05
1.2307773687308761e-05   -2.4239006099953126e-06   1.656396549689558e-05
9.983824716984838e-07   -1.1981450571868545e-06   -1.5495665307698825e-06
9.983824716984838e-07   -1.1981450571868545e-06   -1.5495665307698825e-06
9.983824716984838e-07   -1.1981450571868545e-06   -1.5495665307698825e-06
9.983824716984838e-07   -1.1981450571868545e-06   -1.5495665307698825e-06
5.845261509762422e-07   -2.4817252939266215e-06   1.712572404322316e-05
5.845261509762422e-07   -2.4817252939266215e-06   1.712572404322316e-05
5.845261509762422e-07   -2.4817252939266215e-06   1.712572404322316e-05
5.845261509762422e-07   -2.4817252939266215e-06   1.712572404322316e-05
1.1887523760237793e-05   -1.3270910577967967e-06   -2.4053858472239715e-06
1.1887523760237793e-05   -1.3270910577967967e-06   -2.4053858472239715e-06
1.1887523760237793e-05   -1.3270910577967967e-06   -2.4053858472239715e-06
1.1887523760237793e-05   -1.3270910577967967e-06   -2.4053858472239715e-06
6.33695313035307e-06   -1.6813564167171167e-06   7.058124417936402e-06
6.33695313035307e-06   -1.6813564167171167e-06   7.058124417936402e-06
6.33695313035307e-06   -1.6813564167171167e-06   7.058124417936402e-06
6.33695313035307e-06   -1.6813564167171167e-06   7.058124417936402e-06
1.1887523760237773e-05   -2.4817252939268383e-06   1.6432943501545373e-05
1.1887523760237773e-05   -2.4817252939268383e-06   1.6432943501545373e-05
1.1887523760237773e-05   -2.4817252939268383e-06   1.6432943501545373e-05
1.1887523760237773e-05   -2.4817252939268383e-06   1.6432943501545373e-05
5.845261509762422e-07   -1.3270910577967967e-06   -1.7126053055459885e-06
5.845261509762422e-07   -1.3270910577967967e-06   -1.7126053055459885e-06
5.845261509762422e-07   -1.3270910577967967e-06   -1.7126053055459885e-06
5.845261509762422e-07   -1.3270910577967967e-06   -1.7126053055459885e-06
1.2743334610811643e-07   -2.420683479620713e-06   1.7366242543269102e-05
1.2743334610811643e-07   -2.420683479620713e-06   1.7366242543269102e-05
1.2743334610811643e-07   -2.420683479620713e-06   1.7366242543269102e-05
1.2743334610811643e-07   -2.420683479620713e-06   1.7366242543269102e-05
1.1446064339413807e-05   -1.3794211416308204e-06   -2.1228998483675834e-06
1.1446064339413807e-05   -1.3794211416308204e-06   -2.1228998483675834e-06
1.1446064339413807e-05   -1.3794211416308204e-06   -2.1228998483675834e-06
1.1446064339413807e-05   -1.3794211416308204e-06   -2.1228998483675834e-06
6.003572653651373e-06   -1.6626054644435949e-06   7.117830221590972e-06
6.003572653651373e-06   -1.6626054644435949e-06   7.117830221590972e-06
6.003572653651373e-06   -1.6626054644435949e-06   7.117830221590972e-06
6.003572653651373e-06   -1.6626054644435949e-06   7.117830221590972e-06
1.323199076678347e-06   -9.120558172274074e-07   1.6971445912004e-05
1.323199076678347e-06   -9.120558172274074e-07   1.6971445912004e-05
1.323199076678347e-06   -9.120558172274074e-07   1.6971445912004e-05
1.323199076678347e-06   -9.120558172274074e-07   1.6971445912004e-05
-9.640491917828963e-06   9.048829537379325e-07   -2.1120914959560713e-07
-9.640491917828963e-06   9.048829537379325e-07   -2.1120914959560713e-07
-9.640491917828963e-06   9.048829537379325e-07   -2.1120914959560713e-07
-9.640491917828963e-06   9.048829537379325e-07   -2.1120914959560713e-07
-1.0006765082954502e-05   -9.61498415131927e-07   1.818651944375982e-05
-1.0006765082954502e-05   -9.61498415131927e-07   1.818651944375982e-05
-1.0006765082954502e-05   -9.61498415131927e-07   1.818651944375982e-05
-1.0006765082954502e-05   -9.61498415131927e-07   1.818651944375982e-05
9.983824716984838e-07   7.546947342290753e-07   -1.1851090369450237e-06
9.983824716984838e-07   7.546947342290753e-07   -1.1851090369450237e-06
9.983824716984838e-07   7.546947342290753e-07   -1.1851090369450237e-06
9.983824716984838e-07   7.546947342290753e-07   -1.1851090369450237e-06
-4.323741184926509e-06   2.5667998584683743e-08   8.122513098816528e-06
-4.323741184926509e-06   2.5667998584683743e-08   8.122513098816528e-06
-4.323741184926509e-06   2.5667998584683743e-08   8.122513098816528e-06
-4.323741184926509e-06   2.5667998584683743e-08   8.122513098816528e-06
9.983824716984906e-07   -9.61498415131927e-07   1.7156803554143306e-05
9.983824716984906e-07   -9.61498415131927e-07   1.7156803554143306e-05
9.983824716984906e-07   -9.61498415131927e-07   1.7156803554143306e-05
9.983824716984906e-07   -9.61498415131927e-07   1.7156803554143306e-05
-1.0006765082954502e-05   7.546947342290753e-07   -1.5539314732854973e-07
-1.0006765082954502e-05   7.546947342290753e-07   -1.5539314732854973e-07
-1.0006765082954502e-05   7.546947342290753e-07   -1.5539314732854973e-07
-1.0006765082954502e-05   7.546947342290753e-07   -1.5539314732854973e-07
-1.0496037727611131e-05   -1.0228270277328009e-06   1.8543974040406913e-05
-1.0496037727611131e-05   -1.0228270277328009e-06   1.8543974040406913e-05
-1.0496037727611131e-05   -1.0228270277328009e-06   1.8543974040406913e-05
-1.0496037727611131e-05   -1.0228270277328009e-06   1.8543974040406913e-05
5.845261509762422e-07   6.149082965952899e-07   -9.062736185021719e-07
5.845261509762422e-07   6.149082965952899e-07   -9.062736185021719e-07
5.845261509762422e-07   6.149082965952899e-07   -9.062736185021719e-07
5.845261509762422e-07   6.149082965952899e-07   -9.062736185021719e-07
-4.684557193638462e-06   -1.4716300428805652e-08   8.253306714070053e-06
-4.684557193638462e-06   -1.4716300428805652e-08   8.253306714070053e-06
-4.684557193638462e-06   -1.4716300428805652e-08   8.253306714070053e-06
-4.684557193638462e-06   -1.4716300428805652e-08   8.253306714070053e-06
5.845261509762422e-07   -1.0228270277328009e-06   1.7561332845809972e-05
5.845261509762422e-07   -1.0228270277328009e-06   1.7561332845809972e-05
5.845261509762422e-07   -1.0228270277328009e-06   1.7561332845809972e-05
5.845261509762422e-07   -1.0228270277328009e-06   1.7561332845809972e-05
-1.049603772761111e-05   6.149082965952899e-07   7.63675760946745e-08
-1.049603772761111e-05   6.149082965952899e-07   7.63675760946745e-08
-1.049603772761111e-05   6.149082965952899e-07   7.63675760946745e-08
-1.049603772761111e-05   6.149082965952899e-07   7.63675760946745e-08
-1.1017277508024094e-05   -1.0127017795349795e-06   1.897264092541476e-05
-1.1017277508024094e-05   -1.0127017795349795e-06   1.897264092541476e-05
-1.1017277508024094e-05   -1.0127017795349795e-06   1.897264092541476e-05
-1.1017277508024094e-05   -1.0127017795349795e-06   1.897264092541476e-05
1.2743334610811643e-07   5.148793547149824e-07   -5.184258453557069e-07
1.2743334610811643e-07   5.148793547149824e-07   -5.184258453557069e-07
1.2743334610811643e-07   5.148793547149824e-07   -5.184258453557069e-07
1.2743334610811643e-07   5.148793547149824e-07   -5.184258453557069e-07
-5.144009308342905e-06   -4.269203224369512e-08   8.601854744238124e-06
-5.144009308342905e-06   -4.269203224369512e-08   8.601854744238124e-06
-5.144009308342905e-06   -4.269203224369512e-08   8.601854744238124e-06
-5.144009308342905e-06   -4.269203224369512e-08   8.601854744238124e-06
-9.640491917828929e-06   1.123154696349056e-06   1.5367919571849403e-05
-9.640491917828929e-06   1.123154696349056e-06   1.5367919571849403e-05
-9.640491917828929e-06   1.123154696349056e-06   1.5367919571849403e-05
-9.640491917828929e-06   1.123154696349056e-06   1.5367919571849403e-05
-2.0401758162940974e-05   2.9249698259993084e-06   -1.4864350922138636e-06
-2.0401758162940974e-05   2.9249698259993084e-06   -1.4864350922138636e-06
-2.0401758162940974e-05   2.9249698259993084e-06   -1.4864350922138636e-06
-2.0401758162940974e-05   2.9249698259993084e-06   -1.4864350922138636e-06
-2.0931440864156325e-05   1.0690297947428713e-06   1.698516935274804e-05
-2.0931440864156325e-05   1.0690297947428713e-06   1.698516935274804e-05
-2.0931440864156325e-05   1.0690297947428713e-06   1.698516935274804e-05
-2.0931440864156325e-05   1.0690297947428713e-06   1.698516935274804e-05
-1.0006765082954468e-05   2.7758782634231417e-06   -2.2467326971298073e-06
-1.0006765082954468e-05   2.7758782634231417e-06   -2.2467326971298073e-06
-1.0006765082954468e-05   2.7758782634231417e-06   -2.2467326971298073e-06
-1.0006765082954468e-05   2.7758782634231417e-06   -2.2467326971298073e-06
-1.5127455443626897e-05   2.0034922091677256e-06   6.751182869877407e-06
-1.5127455443626897e-05   2.0034922091677256e-06   6.751182869877407e-06
-1.5127455443626897e-05   2.0034922091677256e-06   6.751182869877407e-06
-1.5127455443626897e-05   2.0034922091677256e-06   6.751182869877407e-06
-1.0006765082954481e-05   1.0690297947426545e-06   1.596106027153992e-05
-1.0006765082954481e-05   1.0690297947426545e-06   1.596106027153992e-05
-1.0006765082954481e-05   1.0690297947426545e-06   1.596106027153992e-05
-1.0006765082954481e-05   1.0690297947426545e-06   1.596106027153992e-05
-2.093144086415629e-05   2.7758782634230332e-06   -1.2226236159216478e-06
-2.093144086415629e-05   2.7758782634230332e-06   -1.2226236159216478e-06
-2.093144086415629e-05   2.7758782634230332e-06   -1.2226236159216478e-06
-2.093144086415629e-05   2.7758782634230332e-06   -1.2226236159216478e-06
-2.1581863680270798e-05   9.602846356994953e-07   1.802652683483832e-05
-2.1581863680270798e-05   9.602846356994953e-07   1.802652683483832e-05
-2.1581863680270798e-05   9.602846356994953e-07   1.802652683483832e-05
-2.1581863680270798e-05   9.602846356994953e-07   1.802652683483832e-05
-1.049603772761111e-05   2.6366364846407966e-06   -1.4556608622926567e-06
-1.049603772761111e-05   2.6366364846407966e-06   -1.4556608622926567e-06
-1.049603772761111e-05   2.6366364846407966e-06   -1.4556608622926567e-06
-1.049603772761111e-05   2.6366364846407966e-06   -1.4556608622926567e-06
-1.5519383690108855e-05   1.9721829860149453e-06   7.3152545077125465e-06
-1.5519383690108855e-05   1.9721829860149453e-06   7.3152545077125465e-06
-1.5519383690108855e-05   1.9721829860149453e-06   7.3152545077125465e-06
-1.5519383690108855e-05   1.9721829860149453e-06   7.3152545077125465e-06
-1.0496037727611104e-05   9.602846356994953e-07   1.702071572547354e-05
-1.0496037727611104e-05   9.602846356994953e-07   1.702071572547354e-05
-1.0496037727611104e-05   9.602846356994953e-07   1.702071572547354e-05
-1.0496037727611104e-05   9.602846356994953e-07   1.702071572547354e-05
-2.1581863680270798e-05   2.636636484640905e-06   -4.4984975292776744e-07
-2.1581863680270798e-05   2.636636484640905e-06   -4.4984975292776744e-07
-2.1581863680270798e-05   2.636636484640905e-06   -4.4984975292776744e-07
-2.1581863680270798e-05   2.636636484640905e-06   -4.4984975292776744e-07
-2.2268609999994287e-05   8.35995494094955e-07   1.8845112760243823e-05
-2.2268609999994287e-05   8.35995494094955e-07   1.8845112760243823e-05
-2.2268609999994287e-05   8.35995494094955e-07   1.8845112760243823e-05
-2.2268609999994287e-05   8.35995494094955e-07   1.8845112760243823e-05
-1.101727750802406e-05   2.4479069184310184e-06   -8.742549143082005e-07
-1.101727750802406e-05   2.4479069184310184e-06   -8.742549143082005e-07
-1.101727750802406e-05   2.4479069184310184e-06   -8.742549143082005e-07
-1.101727750802406e-05   2.4479069184310184e-06   -8.742549143082005e-07
-1.61813825050734e-05   1.8603004862915691e-06   8.085150606724969e-06
-1.61813825050734e-05   1.8603004862915691e-06   8.085150606724969e-06
-1.61813825050734e-05   1.8603004862915691e-06   8.085150606724969e-06
-1.61813825050734e-05   1.8603004862915691e-06   8.085150606724969e-06
-2.0401758162940974e-05   4.812390911791524e-06   8.084399808157175e-06
-2.0401758162940974e-05   4.812390911791524e-06   8.084399808157175e-06
-2.0401758162940974e-05   4.812390911791524e-06   8.084399808157175e-06
-2.0401758162940974e-05   4.812390911791524e-06   8.084399808157175e-06
-3.0733196130656047e-05   4.757012480602037e-06   -9.167890530081726e-06
-3.0733196130656047e-05   4.757012480602037e-06   -9.167890530081726e-06
-3.0733196130656047e-05   4.757012480602037e-06   -9.167890530081726e-06
-3.0733196130656047e-05   4.757012480602037e-06   -9.167890530081726e-06
-3.168620382253523e-05   4.660572255280352e-06   1.2041950110753706e-05
-3.168620382253523e-05   4.660572255280352e-06   1.2041950110753706e-05
-3.168620382253523e-05   4.660572255280352e-06   1.2041950110753706e-05
-3.168620382253523e-05   4.660572255280352e-06   1.2041950110753706e-05
-2.093144086415629e-05   4.855112358423787e-06   -5.999378881764065e-06
-2.093144086415629e-05   4.855112358423787e-06   -5.999378881764065e-06
-2.093144086415629e-05   4.855112358423787e-06   -5.999378881764065e-06
-2.093144086415629e-05   4.855112358423787e-06   -5.999378881764065e-06
-2.489407038409182e-05   4.8402440339044e-06   6.139246461735139e-07
-2.489407038409182e-05   4.8402440339044e-06   6.139246461735139e-07
-2.489407038409182e-05   4.8402440339044e-06   6.139246461735139e-07
-2.489407038409182e-05   4.8402440339044e-06   6.139246461735139e-07
-2.093144086415627e-05   4.660572255280352e-06   1.1925226048867536e-05
-2.093144086415627e-05   4.660572255280352e-06   1.1925226048867536e-05
-2.093144086415627e-05   4.660572255280352e-06   1.1925226048867536e-05
-2.093144086415627e-05   4.660572255280352e-06   1.1925226048867536e-05
-3.168620382253523e-05   4.855112358423679e-06   -5.882654819877977e-06
-3.168620382253523e-05   4.855112358423679e-06   -5.882654819877977e-06
-3.168620382253523e-05   4.855112358423679e-06   -5.882654819877977e-06
-3.168620382253523e-05   4.855112358423679e-06   -5.882654819877977e-06
-3.2620617311466385e-05   4.546936109524986e-06   1.4806150063415057e-05
-3.2620617311466385e-05   4.546936109524986e-06   1.4806150063415057e-05
-3.2620617311466385e-05   4.546936109524986e-06   1.4806150063415057e-05
-3.2620617311466385e-05   4.546936109524986e-06   1.4806150063415057e-05
-2.1581863680270757e-05   4.822381427274777e-06   -3.7570398458942823e-06
-2.1581863680270757e-05   4.822381427274777e-06   -3.7570398458942823e-06
-2.1581863680270757e-05   4.822381427274777e-06   -3.7570398458942823e-06
-2.1581863680270757e-05   4.822381427274777e-06   -3.7570398458942823e-06
-2.5998808593765327e-05   4.845578377731083e-06   3.59061683965654e-06
-2.5998808593765327e-05   4.845578377731083e-06   3.59061683965654e-06
-2.5998808593765327e-05   4.845578377731083e-06   3.59061683965654e-06
-2.5998808593765327e-05   4.845578377731083e-06   3.59061683965654e-06
-2.1581863680270757e-05   4.546936109524986e-06   1.4640882872765356e-05
-2.1581863680270757e-05   4.546936109524986e-06   1.4640882872765356e-05
-2.1581863680270757e-05   4.546936109524986e-06   1.4640882872765356e-05
-2.1581863680270757e-05   4.546936109524986e-06   1.4640882872765356e-05
-3.2620617311466385e-05   4.8223814272746685e-06   -3.5917726552444186e-06
-3.2620617311466385e-05   4.8223814272746685e-06   -3.5917726552444186e-06
-3.2620617311466385e-05   4.8223814272746685e-06   -3.5917726552444186e-06
-3.2620617311466385e-05   4.8223814272746685e-06   -3.5917726552444186e-06
-3.3723771190661056e-05   3.811300210152576e-06   1.9421382468508296e-05
-3.3723771190661056e-05   3.811300210152576e-06   1.9421382468508296e-05
-3.3723771190661056e-05   3.811300210152576e-06   1.9421382468508296e-05
-3.3723771190661056e-05   3.811300210152576e-06   1.9421382468508296e-05
-2.2268609999994213e-05   4.446169617593372e-06   -5.1474493734386846e-08
-2.2268609999994213e-05   4.446169617593372e-06   -5.1474493734386846e-08
-2.2268609999994213e-05   4.446169617593372e-06   -5.1474493734386846e-08
-2.2268609999994213e-05   4.446169617593372e-06   -5.1474493734386846e-08
-2.6377578468974743e-05   4.620537360482927e-06   6.692185642166444e-06
-2.6377578468974743e-05   4.620537360482927e-06   6.692185642166444e-06
-2.6377578468974743e-05   4.620537360482927e-06   6.692185642166444e-06
-2.6377578468974743e-05   4.620537360482927e-06   6.692185642166444e-06
2.0435567600120124e-05   -2.852589746018858e-06   1.565835877332289e-05
2.0435567600120124e-05   -2.852589746018858e-06   1.565835877332289e-05
2.0435567600120124e-05   -2.852589746018858e-06   1.565835877332289e-05
2.0435567600120124e-05   -2.852589746018858e-06   1.565835877332289e-05
1.009667926416964e-05   -2.109331476738774e-06   -1.1271668250265217e-06
1.009667926416964e-05   -2.109331476738774e-06   -1.1271668250265217e-06
1.009667926416964e-05   -2.109331476738774e-06   -1.1271668250265217e-06
1.009667926416964e-05   -2.109331476738774e-06   -1.1271668250265217e-06
9.720480901529876e-06   -3.2268962949036925e-06   1.3599870357635562e-05
9.720480901529876e-06   -3.2268962949036925e-06   1.3599870357635562e-05
9.720480901529876e-06   -3.2268962949036925e-06   1.3599870357635562e-05
9.720480901529876e-06   -3.2268962949036925e-06   1.3599870357635562e-05
1.9744692019575547e-05   -2.4418602240912314e-06   -3.5781698149279126e-06
1.9744692019575547e-05   -2.4418602240912314e-06   -3.5781698149279126e-06
1.9744692019575547e-05   -2.4418602240912314e-06   -3.5781698149279126e-06
1.9744692019575547e-05   -2.4418602240912314e-06   -3.5781698149279126e-06
1.4312995473275539e-05   -2.630070095896637e-06   5.5875836853219035e-06
1.4312995473275539e-05   -2.630070095896637e-06   5.5875836853219035e-06
1.4312995473275539e-05   -2.630070095896637e-06   5.5875836853219035e-06
1.4312995473275539e-05   -2.630070095896637e-06   5.5875836853219035e-06
1.9744692019575513e-05   -3.226896294903801e-06   1.312884871514802e-05
1.9744692019575513e-05   -3.226896294903801e-06   1.312884871514802e-05
1.9744692019575513e-05   -3.226896294903801e-06   1.312884871514802e-05
1.9744692019575513e-05   -3.226896294903801e-06   1.312884871514802e-05
9.72048090152991e-06   -2.4418602240912314e-06   -3.1071481724403776e-06
9.72048090152991e-06   -2.4418602240912314e-06   -3.1071481724403776e-06
9.72048090152991e-06   -2.4418602240912314e-06   -3.1071481724403776e-06
9.72048090152991e-06   -2.4418602240912314e-06   -3.1071481724403776e-06
9.301848933694637e-06   -3.2810465614612275e-06   1.2177050062416603e-05
9.301848933694637e-06   -3.2810465614612275e-06   1.2177050062416603e-05
9.301848933694637e-06   -3.2810465614612275e-06   1.2177050062416603e-05
9.301848933694637e-06   -3.2810465614612275e-06   1.2177050062416603e-05
1.9117822118095863e-05   -2.507655243434389e-06   -4.6469400357347875e-06
1.9117822118095863e-05   -2.507655243434389e-06   -4.6469400357347875e-06
1.9117822118095863e-05   -2.507655243434389e-06   -4.6469400357347875e-06
1.9117822118095863e-05   -2.507655243434389e-06   -4.6469400357347875e-06
1.405968594828169e-05   -2.759402171143791e-06   3.934335070581016e-06
1.405968594828169e-05   -2.759402171143791e-06   3.934335070581016e-06
1.405968594828169e-05   -2.759402171143791e-06   3.934335070581016e-06
1.405968594828169e-05   -2.759402171143791e-06   3.934335070581016e-06
1.91178221180958e-05   -3.281046561461336e-06   1.17130152716005e-05
1.91178221180958e-05   -3.281046561461336e-06   1.17130152716005e-05
1.91178221180958e-05   -3.281046561461336e-06   1.17130152716005e-05
1.91178221180958e-05   -3.281046561461336e-06   1.17130152716005e-05
9.301848933694661e-06   -2.507655243434389e-06   -4.182905244918666e-06
9.301848933694661e-06   -2.507655243434389e-06   -4.182905244918666e-06
9.301848933694661e-06   -2.507655243434389e-06   -4.182905244918666e-06
9.301848933694661e-06   -2.507655243434389e-06   -4.182905244918666e-06
8.898644815453248e-06   -3.2536873627237502e-06   1.0184560717544006e-05
8.898644815453248e-06   -3.2536873627237502e-06   1.0184560717544006e-05
8.898644815453248e-06   -3.2536873627237502e-06   1.0184560717544006e-05
8.898644815453248e-06   -3.2536873627237502e-06   1.0184560717544006e-05
1.8406651557777288e-05   -2.5291112211026697e-06   -6.096862871302064e-06
1.8406651557777288e-05   -2.5291112211026697e-06   -6.096862871302064e-06
1.8406651557777288e-05   -2.5291112211026697e-06   -6.096862871302064e-06
1.8406651557777288e-05   -2.5291112211026697e-06   -6.096862871302064e-06
1.3349287239175257e-05   -2.710672902696623e-06   2.4410146686579975e-06
1.3349287239175257e-05   -2.710672902696623e-06   2.4410146686579975e-06
1.3349287239175257e-05   -2.710672902696623e-06   2.4410146686579975e-06
1.3349287239175257e-05   -2.710672902696623e-06   2.4410146686579975e-06
1.009667926416964e-05   -9.984550010308773e-07   1.633273925285856e-05
1.009667926416964e-05   -9.984550010308773e-07   1.633273925285856e-05
1.009667926416964e-05   -9.984550010308773e-07   1.633273925285856e-05
1.009667926416964e-05   -9.984550010308773e-07   1.633273925285856e-05
3.910343834214201e-07   -4.054786882107947e-07   5.124502393035607e-07
3.910343834214201e-07   -4.054786882107947e-07   5.124502393035607e-07
3.910343834214201e-07   -4.054786882107947e-07   5.124502393035607e-07
3.910343834214201e-07   -4.054786882107947e-07   5.124502393035607e-07
2.9257014066973207e-08   -1.1981450571868545e-06   1.6495461521956445e-05
2.9257014066973207e-08   -1.1981450571868545e-06   1.6495461521956445e-05
2.9257014066973207e-08   -1.1981450571868545e-06   1.6495461521956445e-05
2.9257014066973207e-08   -1.1981450571868545e-06   1.6495461521956445e-05
9.72048090152991e-06   -6.399811477385536e-07   8.523363849265034e-09
9.72048090152991e-06   -6.399811477385536e-07   8.523363849265034e-09
9.72048090152991e-06   -6.399811477385536e-07   8.523363849265034e-09
9.72048090152991e-06   -6.399811477385536e-07   8.523363849265034e-09
4.997619551774143e-06   -7.811742844600648e-07   7.964674828808482e-06
4.997619551774143e-06   -7.811742844600648e-07   7.964674828808482e-06
4.997619551774143e-06   -7.811742844600648e-07   7.964674828808482e-06
4.997619551774143e-06   -7.811742844600648e-07   7.964674828808482e-06
9.720480901529903e-06   -1.198145057186963e-06   1.6160563176287378e-05
9.720480901529903e-06   -1.198145057186963e-06   1.6160563176287378e-05
9.720480901529903e-06   -1.198145057186963e-06   1.6160563176287378e-05
9.720480901529903e-06   -1.198145057186963e-06   1.6160563176287378e-05
2.9257014066973207e-08   -6.399811477385536e-07   3.434217095183052e-07
2.9257014066973207e-08   -6.399811477385536e-07   3.434217095183052e-07
2.9257014066973207e-08   -6.399811477385536e-07   3.434217095183052e-07
2.9257014066973207e-08   -6.399811477385536e-07   3.434217095183052e-07
-3.468348113711537e-07   -1.3270910577969051e-06   1.62384152714339e-05
-3.468348113711537e-07   -1.3270910577969051e-06   1.62384152714339e-05
-3.468348113711537e-07   -1.3270910577969051e-06   1.62384152714339e-05
-3.468348113711537e-07   -1.3270910577969051e-06   1.62384152714339e-05
9.301848933694661e-06   -8.125512001782654e-07   -1.5144821824679167e-07
9.301848933694661e-06   -8.125512001782654e-07   -1.5144821824679167e-07
9.301848933694661e-06   -8.125512001782654e-07   -1.5144821824679167e-07
9.301848933694661e-06   -8.125512001782654e-07   -1.5144821824679167e-07
4.580823059464303e-06   -9.032969070500675e-07   7.771375662927012e-06
4.580823059464303e-06   -9.032969070500675e-07   7.771375662927012e-06
4.580823059464303e-06   -9.032969070500675e-07   7.771375662927012e-06
4.580823059464303e-06   -9.032969070500675e-07   7.771375662927012e-06
9.301848933694637e-06   -1.3270910577969051e-06   1.5929691356862848e-05
9.301848933694637e-06   -1.3270910577969051e-06   1.5929691356862848e-05
9.301848933694637e-06   -1.3270910577969051e-06   1.5929691356862848e-05
9.301848933694637e-06   -1.3270910577969051e-06   1.5929691356862848e-05
-3.468348113711537e-07   -8.125512001783738e-07   1.5727569632425532e-07
-3.468348113711537e-07   -8.125512001783738e-07   1.5727569632425532e-07
-3.468348113711537e-07   -8.125512001783738e-07   1.5727569632425532e-07
-3.468348113711537e-07   -8.125512001783738e-07   1.5727569632425532e-07
-7.383907136956826e-07   -1.3794211416309288e-06   1.6354232632736533e-05
-7.383907136956826e-07   -1.3794211416309288e-06   1.6354232632736533e-05
-7.383907136956826e-07   -1.3794211416309288e-06   1.6354232632736533e-05
-7.383907136956826e-07   -1.3794211416309288e-06   1.6354232632736533e-05
8.898644815453265e-06   -9.467236406959095e-07   3.288825026059866e-08
8.898644815453265e-06   -9.467236406959095e-07   3.288825026059866e-08
8.898644815453265e-06   -9.467236406959095e-07   3.288825026059866e-08
8.898644815453265e-06   -9.467236406959095e-07   3.288825026059866e-08
4.270006518455805e-06   -9.669089488639065e-07   7.759396596824207e-06
4.270006518455805e-06   -9.669089488639065e-07   7.759396596824207e-06
4.270006518455805e-06   -9.669089488639065e-07   7.759396596824207e-06
4.270006518455805e-06   -9.669089488639065e-07   7.759396596824207e-06
3.9103438342141334e-07   9.048829537379325e-07   1.684410878276558e-05
3.9103438342141334e-07   9.048829537379325e-07   1.684410878276558e-05
3.9103438342141334e-07   9.048829537379325e-07   1.684410878276558e-05
3.9103438342141334e-07   9.048829537379325e-07   1.684410878276558e-05
-9.035549911177152e-06   1.3003306104588004e-06   1.3704035524672088e-06
-9.035549911177152e-06   1.3003306104588004e-06   1.3704035524672088e-06
-9.035549911177152e-06   1.3003306104588004e-06   1.3704035524672088e-06
-9.035549911177152e-06   1.3003306104588004e-06   1.3704035524672088e-06
-9.413925310271858e-06   7.546947342290753e-07   1.7071347930762122e-05
-9.413925310271858e-06   7.546947342290753e-07   1.7071347930762122e-05
-9.413925310271858e-06   7.546947342290753e-07   1.7071347930762122e-05
-9.413925310271858e-06   7.546947342290753e-07   1.7071347930762122e-05
2.9257014066973207e-08   1.107076259197065e-06   1.1212818085498487e-06
2.9257014066973207e-08   1.107076259197065e-06   1.1212818085498487e-06
2.9257014066973207e-08   1.107076259197065e-06   1.1212818085498487e-06
2.9257014066973207e-08   1.107076259197065e-06   1.1212818085498487e-06
-4.514131925286502e-06   1.0266171947062586e-06   8.741872146166826e-06
-4.514131925286502e-06   1.0266171947062586e-06   8.741872146166826e-06
-4.514131925286502e-06   1.0266171947062586e-06   8.741872146166826e-06
-4.514131925286502e-06   1.0266171947062586e-06   8.741872146166826e-06
2.9257014066973207e-08   7.546947342290753e-07   1.6859919015781264e-05
2.9257014066973207e-08   7.546947342290753e-07   1.6859919015781264e-05
2.9257014066973207e-08   7.546947342290753e-07   1.6859919015781264e-05
2.9257014066973207e-08   7.546947342290753e-07   1.6859919015781264e-05
-9.413925310271858e-06   1.107076259197065e-06   1.3327107235306399e-06
-9.413925310271858e-06   1.107076259197065e-06   1.3327107235306399e-06
-9.413925310271858e-06   1.107076259197065e-06   1.3327107235306399e-06
-9.413925310271858e-06   1.107076259197065e-06   1.3327107235306399e-06
-9.81298080244121e-06   6.149082965952899e-07   1.7227508894585193e-05
-9.81298080244121e-06   6.149082965952899e-07   1.7227508894585193e-05
-9.81298080244121e-06   6.149082965952899e-07   1.7227508894585193e-05
-9.81298080244121e-06   6.149082965952899e-07   1.7227508894585193e-05
-3.468348113711537e-07   9.195115234409508e-07   1.2678369733609793e-06
-3.468348113711537e-07   9.195115234409508e-07   1.2678369733609793e-06
-3.468348113711537e-07   9.195115234409508e-07   1.2678369733609793e-06
-3.468348113711537e-07   9.195115234409508e-07   1.2678369733609793e-06
-4.865299621836461e-06   9.173423245526207e-07   8.799913176802928e-06
-4.865299621836461e-06   9.173423245526207e-07   8.799913176802928e-06
-4.865299621836461e-06   9.173423245526207e-07   8.799913176802928e-06
-4.865299621836461e-06   9.173423245526207e-07   8.799913176802928e-06
-3.468348113711537e-07   6.149082965952899e-07   1.704474695847784e-05
-3.468348113711537e-07   6.149082965952899e-07   1.704474695847784e-05
-3.468348113711537e-07   6.149082965952899e-07   1.704474695847784e-05
-3.468348113711537e-07   6.149082965952899e-07   1.704474695847784e-05
-9.812980802441224e-06   9.195115234409508e-07   1.4505989094685222e-06
-9.812980802441224e-06   9.195115234409508e-07   1.4505989094685222e-06
-9.812980802441224e-06   9.195115234409508e-07   1.4505989094685222e-06
-9.812980802441224e-06   9.195115234409508e-07   1.4505989094685222e-06
-1.0224487981749947e-05   5.148793547150908e-07   1.7476626468944964e-05
-1.0224487981749947e-05   5.148793547150908e-07   1.7476626468944964e-05
-1.0224487981749947e-05   5.148793547150908e-07   1.7476626468944964e-05
-1.0224487981749947e-05   5.148793547150908e-07   1.7476626468944964e-05
-7.383907136956826e-07   7.5267474803221e-07   1.5237871195307467e-06
-7.383907136956826e-07   7.5267474803221e-07   1.5237871195307467e-06
-7.383907136956826e-07   7.5267474803221e-07   1.5237871195307467e-06
-7.383907136956826e-07   7.5267474803221e-07   1.5237871195307467e-06
-5.245368514151972e-06   8.128687443542237e-07   8.999300389164972e-06
-5.245368514151972e-06   8.128687443542237e-07   8.999300389164972e-06
-5.245368514151972e-06   8.128687443542237e-07   8.999300389164972e-06
-5.245368514151972e-06   8.128687443542237e-07   8.999300389164972e-06
-9.03554991117718e-06   2.9249698259994168e-06   1.4725062356389846e-05
-9.03554991117718e-06   2.9249698259994168e-06   1.4725062356389846e-05
-9.03554991117718e-06   2.9249698259994168e-06   1.4725062356389846e-05
-9.03554991117718e-06   2.9249698259994168e-06   1.4725062356389846e-05
-1.8184445235628965e-05   2.962440163734037e-06   -5.006143150556512e-07
-1.8184445235628965e-05   2.962440163734037e-06   -5.006143150556512e-07
-1.8184445235628965e-05   2.962440163734037e-06   -5.006143150556512e-07
-1.8184445235628965e-05   2.962440163734037e-06   -5.006143150556512e-07
-1.8623468231304872e-05   2.7758782634231417e-06   1.4982223341975204e-05
-1.8623468231304872e-05   2.7758782634231417e-06   1.4982223341975204e-05
-1.8623468231304872e-05   2.7758782634231417e-06   1.4982223341975204e-05
-1.8623468231304872e-05   2.7758782634231417e-06   1.4982223341975204e-05
-9.413925310271872e-06   2.779569865114036e-06   -3.6922982076088796e-07
-9.413925310271872e-06   2.779569865114036e-06   -3.6922982076088796e-07
-9.413925310271872e-06   2.779569865114036e-06   -3.6922982076088796e-07
-9.413925310271872e-06   2.779569865114036e-06   -3.6922982076088796e-07
-1.3752702891920157e-05   2.8513743679189386e-06   6.818983446969898e-06
-1.3752702891920157e-05   2.8513743679189386e-06   6.818983446969898e-06
-1.3752702891920157e-05   2.8513743679189386e-06   6.818983446969898e-06
-1.3752702891920157e-05   2.8513743679189386e-06   6.818983446969898e-06
-9.413925310271872e-06   2.7758782634231417e-06   1.4980008380960797e-05
-9.413925310271872e-06   2.7758782634231417e-06   1.4980008380960797e-05
-9.413925310271872e-06   2.7758782634231417e-06   1.4980008380960797e-05
-9.413925310271872e-06   2.7758782634231417e-06   1.4980008380960797e-05
-1.8623468231304845e-05   2.7795698651139275e-06   -3.6701485974638664e-07
-1.8623468231304845e-05   2.7795698651139275e-06   -3.6701485974638664e-07
-1.8623468231304845e-05   2.7795698651139275e-06   -3.6701485974638664e-07
-1.8623468231304845e-05   2.7795698651139275e-06   -3.6701485974638664e-07
-1.91091154138557e-05   2.636636484640905e-06   1.5679225500209973e-05
-1.91091154138557e-05   2.636636484640905e-06   1.5679225500209973e-05
-1.91091154138557e-05   2.636636484640905e-06   1.5679225500209973e-05
-1.91091154138557e-05   2.636636484640905e-06   1.5679225500209973e-05
-9.812980802441224e-06   2.609544891327251e-06   2.0192277050722952e-07
-9.812980802441224e-06   2.609544891327251e-06   2.0192277050722952e-07
-9.812980802441224e-06   2.609544891327251e-06   2.0192277050722952e-07
-9.812980802441224e-06   2.609544891327251e-06   2.0192277050722952e-07
-1.4067164756288913e-05   2.7490616240316394e-06   7.208519320630772e-06
-1.4067164756288913e-05   2.7490616240316394e-06   7.208519320630772e-06
-1.4067164756288913e-05   2.7490616240316394e-06   7.208519320630772e-06
-1.4067164756288913e-05   2.7490616240316394e-06   7.208519320630772e-06
-9.81298080244121e-06   2.636636484640905e-06   1.569548045619808e-05
-9.81298080244121e-06   2.636636484640905e-06   1.569548045619808e-05
-9.81298080244121e-06   2.636636484640905e-06   1.569548045619808e-05
-9.81298080244121e-06   2.636636484640905e-06   1.569548045619808e-05
-1.9109115413855674e-05   2.609544891327251e-06   1.8566781451905597e-07
-1.9109115413855674e-05   2.609544891327251e-06   1.8566781451905597e-07
-1.9109115413855674e-05   2.609544891327251e-06   1.8566781451905597e-07
-1.9109115413855674e-05   2.609544891327251e-06   1.8566781451905597e-07
-1.957140326324576e-05   2.44790691843091e-06   1.6175863917680775e-05
-1.957140326324576e-05   2.44790691843091e-06   1.6175863917680775e-05
-1.957140326324576e-05   2.44790691843091e-06   1.6175863917680775e-05
-1.957140326324576e-05   2.44790691843091e-06   1.6175863917680775e-05
-1.0224487981749988e-05   2.4005989154947307e-06   6.260565836162143e-07
-1.0224487981749988e-05   2.4005989154947307e-06   6.260565836162143e-07
-1.0224487981749988e-05   2.4005989154947307e-06   6.260565836162143e-07
-1.0224487981749988e-05   2.4005989154947307e-06   6.260565836162143e-07
-1.4574003943769427e-05   2.6142910053440207e-06   7.747034599739583e-06
-1.4574003943769427e-05   2.6142910053440207e-06   7.747034599739583e-06
-1.4574003943769427e-05   2.6142910053440207e-06   7.747034599739583e-06
-1.4574003943769427e-05   2.6142910053440207e-06   7.747034599739583e-06
-1.8184445235628924e-05   4.757012480602037e-06   7.0993161798765456e-06
-1.8184445235628924e-05   4.757012480602037e-06   7.0993161798765456e-06
-1.8184445235628924e-05   4.757012480602037e-06   7.0993161798765456e-06
-1.8184445235628924e-05   4.757012480602037e-06   7.0993161798765456e-06
-2.6911696006124507e-05   4.281575570488916e-06   -7.731363917017314e-06
-2.6911696006124507e-05   4.281575570488916e-06   -7.731363917017314e-06
-2.6911696006124507e-05   4.281575570488916e-06   -7.731363917017314e-06
-2.6911696006124507e-05   4.281575570488916e-06   -7.731363917017314e-06
-2.7603458495397247e-05   4.855112358423679e-06   9.89175384295566e-06
-2.7603458495397247e-05   4.855112358423679e-06   9.89175384295566e-06
-2.7603458495397247e-05   4.855112358423679e-06   9.89175384295566e-06
-2.7603458495397247e-05   4.855112358423679e-06   9.89175384295566e-06
-1.8623468231304872e-05   4.3322553031284764e-06   -4.761182364021281e-06
-1.8623468231304872e-05   4.3322553031284764e-06   -4.761182364021281e-06
-1.8623468231304872e-05   4.3322553031284764e-06   -4.761182364021281e-06
-1.8623468231304872e-05   4.3322553031284764e-06   -4.761182364021281e-06
-2.195570375219873e-05   4.52684904620566e-06   6.757872582889709e-07
-2.195570375219873e-05   4.52684904620566e-06   6.757872582889709e-07
-2.195570375219873e-05   4.52684904620566e-06   6.757872582889709e-07
-2.195570375219873e-05   4.52684904620566e-06   6.757872582889709e-07
-1.862346823130483e-05   4.855112358423679e-06   1.020546807613276e-05
-1.862346823130483e-05   4.855112358423679e-06   1.020546807613276e-05
-1.862346823130483e-05   4.855112358423679e-06   1.020546807613276e-05
-1.862346823130483e-05   4.855112358423679e-06   1.020546807613276e-05
-2.7603458495397342e-05   4.3322553031284764e-06   -5.074896597198381e-06
-2.7603458495397342e-05   4.3322553031284764e-06   -5.074896597198381e-06
-2.7603458495397342e-05   4.3322553031284764e-06   -5.074896597198381e-06
-2.7603458495397342e-05   4.3322553031284764e-06   -5.074896597198381e-06
-2.8277546111131713e-05   4.822381427274777e-06   1.2050236634254395e-05
-2.8277546111131713e-05   4.822381427274777e-06   1.2050236634254395e-05
-2.8277546111131713e-05   4.822381427274777e-06   1.2050236634254395e-05
-2.8277546111131713e-05   4.822381427274777e-06   1.2050236634254395e-05
-1.91091154138557e-05   4.286050138959654e-06   -2.9086824215500482e-06
-1.91091154138557e-05   4.286050138959654e-06   -2.9086824215500482e-06
-1.91091154138557e-05   4.286050138959654e-06   -2.9086824215500482e-06
-1.91091154138557e-05   4.286050138959654e-06   -2.9086824215500482e-06
-2.2815282013580583e-05   4.611539697845727e-06   3.0729681759933565e-06
-2.2815282013580583e-05   4.611539697845727e-06   3.0729681759933565e-06
-2.2815282013580583e-05   4.611539697845727e-06   3.0729681759933565e-06
-2.2815282013580583e-05   4.611539697845727e-06   3.0729681759933565e-06
-1.91091154138557e-05   4.822381427274777e-06   1.2372035407243512e-05
-1.91091154138557e-05   4.822381427274777e-06   1.2372035407243512e-05
-1.91091154138557e-05   4.822381427274777e-06   1.2372035407243512e-05
-1.91091154138557e-05   4.822381427274777e-06   1.2372035407243512e-05
-2.8277546111131794e-05   4.286050138959654e-06   -3.230481194539138e-06
-2.8277546111131794e-05   4.286050138959654e-06   -3.230481194539138e-06
-2.8277546111131794e-05   4.286050138959654e-06   -3.230481194539138e-06
-2.8277546111131794e-05   4.286050138959654e-06   -3.230481194539138e-06
-2.9063407641608012e-05   4.446169617593372e-06   1.573938390821085e-05
-2.9063407641608012e-05   4.446169617593372e-06   1.573938390821085e-05
-2.9063407641608012e-05   4.446169617593372e-06   1.573938390821085e-05
-2.9063407641608012e-05   4.446169617593372e-06   1.573938390821085e-05
-1.957140326324576e-05   3.95931365852341e-06   2.1149018638225007e-07
-1.957140326324576e-05   3.95931365852341e-06   2.1149018638225007e-07
-1.957140326324576e-05   3.95931365852341e-06   2.1149018638225007e-07
-1.957140326324576e-05   3.95931365852341e-06   2.1149018638225007e-07
-2.3019226340976266e-05   4.476412643364034e-06   5.647602591695816e-06
-2.3019226340976266e-05   4.476412643364034e-06   5.647602591695816e-06
-2.3019226340976266e-05   4.476412643364034e-06   5.647602591695816e-06
-2.3019226340976266e-05   4.476412643364034e-06   5.647602591695816e-06
1.564096147662776e-05   -2.109331476738774e-06   1.316508361637542e-05
1.564096147662776e-05   -2.109331476738774e-06   1.316508361637542e-05
1.564096147662776e-05   -2.109331476738774e-06   1.316508361637542e-05
1.564096147662776e-05   -2.109331476738774e-06   1.316508361637542e-05
7.351966688413648e-06   -1.409725380318379e-06   -2.3014403946247566e-07
7.351966688413648e-06   -1.409725380318379e-06   -2.3014403946247566e-07
7.351966688413648e-06   -1.409725380318379e-06   -2.3014403946247566e-07
7.351966688413648e-06   -1.409725380318379e-06   -2.3014403946247566e-07
7.014894031526393e-06   -2.44186022409134e-06   1.1554113893630954e-05
7.014894031526393e-06   -2.44186022409134e-06   1.1554113893630954e-05
7.014894031526393e-06   -2.44186022409134e-06   1.1554113893630954e-05
7.014894031526393e-06   -2.44186022409134e-06   1.1554113893630954e-05
1.4987916412340687e-05   -1.7052874789161721e-06   -2.1762003881645384e-06
1.4987916412340687e-05   -1.7052874789161721e-06   -2.1762003881645384e-06
1.4987916412340687e-05   -1.7052874789161721e-06   -2.1762003881645384e-06
1.4987916412340687e-05   -1.7052874789161721e-06   -2.1762003881645384e-06
1.072023758548005e-05   -1.930042373265951e-06   5.071450593212962e-06
1.072023758548005e-05   -1.930042373265951e-06   5.071450593212962e-06
1.072023758548005e-05   -1.930042373265951e-06   5.071450593212962e-06
1.072023758548005e-05   -1.930042373265951e-06   5.071450593212962e-06
1.4987916412340687e-05   -2.44186022409134e-06   1.111217024652594e-05
1.4987916412340687e-05   -2.44186022409134e-06   1.111217024652594e-05
1.4987916412340687e-05   -2.44186022409134e-06   1.111217024652594e-05
1.4987916412340687e-05   -2.44186022409134e-06   1.111217024652594e-05
7.014894031526407e-06   -1.7052874789161721e-06   -1.734256741059599e-06
7.014894031526407e-06   -1.7052874789161721e-06   -1.734256741059599e-06
7.014894031526407e-06   -1.7052874789161721e-06   -1.734256741059599e-06
7.014894031526407e-06   -1.7052874789161721e-06   -1.734256741059599e-06
6.641995887401665e-06   -2.507655243434389e-06   1.0423137246218044e-05
6.641995887401665e-06   -2.507655243434389e-06   1.0423137246218044e-05
6.641995887401665e-06   -2.507655243434389e-06   1.0423137246218044e-05
6.641995887401665e-06   -2.507655243434389e-06   1.0423137246218044e-05
1.44145097306782e-05   -1.783392071936108e-06   -2.9656103954751615e-06
1.44145097306782e-05   -1.783392071936108e-06   -2.9656103954751615e-06
1.44145097306782e-05   -1.783392071936108e-06   -2.9656103954751615e-06
1.44145097306782e-05   -1.783392071936108e-06   -2.9656103954751615e-06
1.045549058833999e-05   -2.0504364519878006e-06   3.79298146978654e-06
1.045549058833999e-05   -2.0504364519878006e-06   3.79298146978654e-06
1.045549058833999e-05   -2.0504364519878006e-06   3.79298146978654e-06
1.045549058833999e-05   -2.0504364519878006e-06   3.79298146978654e-06
1.4414509730678176e-05   -2.507655243434389e-06   9.988579343319032e-06
1.4414509730678176e-05   -2.507655243434389e-06   9.988579343319032e-06
1.4414509730678176e-05   -2.507655243434389e-06   9.988579343319032e-06
1.4414509730678176e-05   -2.507655243434389e-06   9.988579343319032e-06
6.641995887401675e-06   -1.783392071936108e-06   -2.531052492576102e-06
6.641995887401675e-06   -1.783392071936108e-06   -2.531052492576102e-06
6.641995887401675e-06   -1.783392071936108e-06   -2.531052492576102e-06
6.641995887401675e-06   -1.783392071936108e-06   -2.531052492576102e-06
6.297194114716106e-06   -2.5291112211026697e-06   8.883403483930298e-06
6.297194114716106e-06   -2.5291112211026697e-06   8.883403483930298e-06
6.297194114716106e-06   -2.5291112211026697e-06   8.883403483930298e-06
6.297194114716106e-06   -2.5291112211026697e-06   8.883403483930298e-06
1.3772264402338671e-05   -1.8524210734316513e-06   -3.981061084043268e-06
1.3772264402338671e-05   -1.8524210734316513e-06   -3.981061084043268e-06
1.3772264402338671e-05   -1.8524210734316513e-06   -3.981061084043268e-06
1.3772264402338671e-05   -1.8524210734316513e-06   -3.981061084043268e-06
9.850888916136451e-06   -2.0366880968679694e-06   2.665124940355834e-06
9.850888916136451e-06   -2.0366880968679694e-06   2.665124940355834e-06
9.850888916136451e-06   -2.0366880968679694e-06   2.665124940355834e-06
9.850888916136451e-06   -2.0366880968679694e-06   2.665124940355834e-06
7.351966688413624e-06   -4.054786882107947e-07   1.4868678550865582e-05
7.351966688413624e-06   -4.054786882107947e-07   1.4868678550865582e-05
7.351966688413624e-06   -4.054786882107947e-07   1.4868678550865582e-05
7.351966688413624e-06   -4.054786882107947e-07   1.4868678550865582e-05
-4.872439463614198e-07   -1.5489763222726813e-08   2.037320847900041e-06
-4.872439463614198e-07   -1.5489763222726813e-08   2.037320847900041e-06
-4.872439463614198e-07   -1.5489763222726813e-08   2.037320847900041e-06
-4.872439463614198e-07   -1.5489763222726813e-08   2.037320847900041e-06
-8.046157216870433e-07   -6.399811477384451e-07   1.4891126047586922e-05
-8.046157216870433e-07   -6.399811477384451e-07   1.4891126047586922e-05
-8.046157216870433e-07   -6.399811477384451e-07   1.4891126047586922e-05
-8.046157216870433e-07   -6.399811477384451e-07   1.4891126047586922e-05
7.014894031526407e-06   -2.710801182945243e-07   1.6372691745648852e-06
7.014894031526407e-06   -2.710801182945243e-07   1.6372691745648852e-06
7.014894031526407e-06   -2.710801182945243e-07   1.6372691745648852e-06
7.014894031526407e-06   -2.710801182945243e-07   1.6372691745648852e-06
3.2155373926617835e-06   -3.4252897431375114e-07   8.01239955295076e-06
3.2155373926617835e-06   -3.4252897431375114e-07   8.01239955295076e-06
3.2155373926617835e-06   -3.4252897431375114e-07   8.01239955295076e-06
3.2155373926617835e-06   -3.4252897431375114e-07   8.01239955295076e-06
7.0148940315263865e-06   -6.399811477385536e-07   1.4669785429920678e-05
7.0148940315263865e-06   -6.399811477385536e-07   1.4669785429920678e-05
7.0148940315263865e-06   -6.399811477385536e-07   1.4669785429920678e-05
7.0148940315263865e-06   -6.399811477385536e-07   1.4669785429920678e-05
-8.046157216870433e-07   -2.710801182945243e-07   1.858609792231231e-06
-8.046157216870433e-07   -2.710801182945243e-07   1.858609792231231e-06
-8.046157216870433e-07   -2.710801182945243e-07   1.858609792231231e-06
-8.046157216870433e-07   -2.710801182945243e-07   1.858609792231231e-06
-1.1289347558687512e-06   -8.125512001783738e-07   1.4659451875306904e-05
-1.1289347558687512e-06   -8.125512001783738e-07   1.4659451875306904e-05
-1.1289347558687512e-06   -8.125512001783738e-07   1.4659451875306904e-05
-1.1289347558687512e-06   -8.125512001783738e-07   1.4659451875306904e-05
6.641995887401675e-06   -4.7112186281653926e-07   1.5030432007724566e-06
6.641995887401675e-06   -4.7112186281653926e-07   1.5030432007724566e-06
6.641995887401675e-06   -4.7112186281653926e-07   1.5030432007724566e-06
6.641995887401675e-06   -4.7112186281653926e-07   1.5030432007724566e-06
2.8582497234123188e-06   -4.995165960901748e-07   7.826323647386129e-06
2.8582497234123188e-06   -4.995165960901748e-07   7.826323647386129e-06
2.8582497234123188e-06   -4.995165960901748e-07   7.826323647386129e-06
2.8582497234123188e-06   -4.995165960901748e-07   7.826323647386129e-06
6.641995887401665e-06   -8.125512001782654e-07   1.445459427289002e-05
6.641995887401665e-06   -8.125512001782654e-07   1.445459427289002e-05
6.641995887401665e-06   -8.125512001782654e-07   1.445459427289002e-05
6.641995887401665e-06   -8.125512001782654e-07   1.445459427289002e-05
-1.1289347558687512e-06   -4.711218628166477e-07   1.7079008031895709e-06
-1.1289347558687512e-06   -4.711218628166477e-07   1.7079008031895709e-06
-1.1289347558687512e-06   -4.711218628166477e-07   1.7079008031895709e-06
-1.1289347558687512e-06   -4.711218628166477e-07   1.7079008031895709e-06
-1.4551325551730813e-06   -9.467236406959095e-07   1.475366997514486e-05
-1.4551325551730813e-06   -9.467236406959095e-07   1.475366997514486e-05
-1.4551325551730813e-06   -9.467236406959095e-07   1.475366997514486e-05
-1.4551325551730813e-06   -9.467236406959095e-07   1.475366997514486e-05
6.297194114716113e-06   -6.546218829883536e-07   1.6578644707049956e-06
6.297194114716113e-06   -6.546218829883536e-07   1.6578644707049956e-06
6.297194114716113e-06   -6.546218829883536e-07   1.6578644707049956e-06
6.297194114716113e-06   -6.546218829883536e-07   1.6578644707049956e-06
2.5875331825290463e-06   -6.140229919318358e-07   7.816273356383191e-06
2.5875331825290463e-06   -6.140229919318358e-07   7.816273356383191e-06
2.5875331825290463e-06   -6.140229919318358e-07   7.816273356383191e-06
2.5875331825290463e-06   -6.140229919318358e-07   7.816273356383191e-06
-4.872439463614266e-07   1.3003306104588004e-06   1.572335662498967e-05
-4.872439463614266e-07   1.3003306104588004e-06   1.572335662498967e-05
-4.872439463614266e-07   1.3003306104588004e-06   1.572335662498967e-05
-4.872439463614266e-07   1.3003306104588004e-06   1.572335662498967e-05
-8.1617919748464e-06   1.3416284708865243e-06   2.9572219604380315e-06
-8.1617919748464e-06   1.3416284708865243e-06   2.9572219604380315e-06
-8.1617919748464e-06   1.3416284708865243e-06   2.9572219604380315e-06
-8.1617919748464e-06   1.3416284708865243e-06   2.9572219604380315e-06
-8.481352667994582e-06   1.107076259197065e-06   1.567592620274486e-05
-8.481352667994582e-06   1.107076259197065e-06   1.567592620274486e-05
-8.481352667994582e-06   1.107076259197065e-06   1.567592620274486e-05
-8.481352667994582e-06   1.107076259197065e-06   1.567592620274486e-05
-8.046157216870433e-07   1.118643019407616e-06   2.874424569439325e-06
-8.046157216870433e-07   1.118643019407616e-06   2.874424569439325e-06
-8.046157216870433e-07   1.118643019407616e-06   2.874424569439325e-06
-8.046157216870433e-07   1.118643019407616e-06   2.874424569439325e-06
-4.495283783909407e-06   1.1946932961001515e-06   8.97990784046106e-06
-4.495283783909407e-06   1.1946932961001515e-06   8.97990784046106e-06
-4.495283783909407e-06   1.1946932961001515e-06   8.97990784046106e-06
-4.495283783909407e-06   1.1946932961001515e-06   8.97990784046106e-06
-8.046157216870433e-07   1.107076259197065e-06   1.5668986146618615e-05
-8.046157216870433e-07   1.107076259197065e-06   1.5668986146618615e-05
-8.046157216870433e-07   1.107076259197065e-06   1.5668986146618615e-05
-8.046157216870433e-07   1.107076259197065e-06   1.5668986146618615e-05
-8.481352667994582e-06   1.1186430194077245e-06   2.881364625565623e-06
-8.481352667994582e-06   1.1186430194077245e-06   2.881364625565623e-06
-8.481352667994582e-06   1.1186430194077245e-06   2.881364625565623e-06
-8.481352667994582e-06   1.1186430194077245e-06   2.881364625565623e-06
-8.808632125863387e-06   9.195115234410592e-07   1.575786897641603e-05
-8.808632125863387e-06   9.195115234410592e-07   1.575786897641603e-05
-8.808632125863387e-06   9.195115234410592e-07   1.575786897641603e-05
-8.808632125863387e-06   9.195115234410592e-07   1.575786897641603e-05
-1.128934755868758e-06   8.992712302281162e-07   2.9705175356860666e-06
-1.128934755868758e-06   8.992712302281162e-07   2.9705175356860666e-06
-1.128934755868758e-06   8.992712302281162e-07   2.9705175356860666e-06
-1.128934755868758e-06   8.992712302281162e-07   2.9705175356860666e-06
-4.79154348479017e-06   1.0454728078588106e-06   8.987144470643552e-06
-4.79154348479017e-06   1.0454728078588106e-06   8.987144470643552e-06
-4.79154348479017e-06   1.0454728078588106e-06   8.987144470643552e-06
-4.79154348479017e-06   1.0454728078588106e-06   8.987144470643552e-06
-1.128934755868758e-06   9.195115234409508e-07   1.5770013152343818e-05
-1.128934755868758e-06   9.195115234409508e-07   1.5770013152343818e-05
-1.128934755868758e-06   9.195115234409508e-07   1.5770013152343818e-05
-1.128934755868758e-06   9.195115234409508e-07   1.5770013152343818e-05
-8.808632125863387e-06   8.992712302281162e-07   2.9583733597582655e-06
-8.808632125863387e-06   8.992712302281162e-07   2.9583733597582655e-06
-8.808632125863387e-06   8.992712302281162e-07   2.9583733597582655e-06
-8.808632125863387e-06   8.992712302281162e-07   2.9583733597582655e-06
-9.135542458289848e-06   7.526747480321016e-07   1.594808295554142e-05
-9.135542458289848e-06   7.526747480321016e-07   1.594808295554142e-05
-9.135542458289848e-06   7.526747480321016e-07   1.594808295554142e-05
-9.135542458289848e-06   7.526747480321016e-07   1.594808295554142e-05
-1.4551325551730813e-06   6.912291008443448e-07   3.184267171992797e-06
-1.4551325551730813e-06   6.912291008443448e-07   3.184267171992797e-06
-1.4551325551730813e-06   6.912291008443448e-07   3.184267171992797e-06
-1.4551325551730813e-06   6.912291008443448e-07   3.184267171992797e-06
-5.101921363162835e-06   9.002700719670364e-07   9.136823935969123e-06
-5.101921363162835e-06   9.002700719670364e-07   9.136823935969123e-06
-5.101921363162835e-06   9.002700719670364e-07   9.136823935969123e-06
-5.101921363162835e-06   9.002700719670364e-07   9.136823935969123e-06
-8.161791974846373e-06   2.962440163734037e-06   1.3854635271082585e-05
-8.161791974846373e-06   2.962440163734037e-06   1.3854635271082585e-05
-8.161791974846373e-06   2.962440163734037e-06   1.3854635271082585e-05
-8.161791974846373e-06   2.962440163734037e-06   1.3854635271082585e-05
-1.5680431578516142e-05   2.649897890121813e-06   1.1360439007989005e-06
-1.5680431578516142e-05   2.649897890121813e-06   1.1360439007989005e-06
-1.5680431578516142e-05   2.649897890121813e-06   1.1360439007989005e-06
-1.5680431578516142e-05   2.649897890121813e-06   1.1360439007989005e-06
-1.6024692308632467e-05   2.779569865114036e-06   1.3768879160091672e-05
-1.6024692308632467e-05   2.779569865114036e-06   1.3768879160091672e-05
-1.6024692308632467e-05   2.779569865114036e-06   1.3768879160091672e-05
-1.6024692308632467e-05   2.779569865114036e-06   1.3768879160091672e-05
-8.481352667994609e-06   2.4377257011779603e-06   1.4017529240569458e-06
-8.481352667994609e-06   2.4377257011779603e-06   1.4017529240569458e-06
-8.481352667994609e-06   2.4377257011779603e-06   1.4017529240569458e-06
-8.481352667994609e-06   2.4377257011779603e-06   1.4017529240569458e-06
-1.2046759760709166e-05   2.6704238635143554e-06   7.204479181179349e-06
-1.2046759760709166e-05   2.6704238635143554e-06   7.204479181179349e-06
-1.2046759760709166e-05   2.6704238635143554e-06   7.204479181179349e-06
-1.2046759760709166e-05   2.6704238635143554e-06   7.204479181179349e-06
-8.481352667994582e-06   2.779569865114036e-06   1.3973985658453426e-05
-8.481352667994582e-06   2.779569865114036e-06   1.3973985658453426e-05
-8.481352667994582e-06   2.779569865114036e-06   1.3973985658453426e-05
-8.481352667994582e-06   2.779569865114036e-06   1.3973985658453426e-05
-1.6024692308632467e-05   2.4377257011779603e-06   1.1966464256952733e-06
-1.6024692308632467e-05   2.4377257011779603e-06   1.1966464256952733e-06
-1.6024692308632467e-05   2.4377257011779603e-06   1.1966464256952733e-06
-1.6024692308632467e-05   2.4377257011779603e-06   1.1966464256952733e-06
-1.640301920833376e-05   2.609544891327251e-06   1.4286712854812253e-05
-1.640301920833376e-05   2.609544891327251e-06   1.4286712854812253e-05
-1.640301920833376e-05   2.609544891327251e-06   1.4286712854812253e-05
-1.640301920833376e-05   2.609544891327251e-06   1.4286712854812253e-05
-8.808632125863414e-06   2.23874492025634e-06   1.8518810333375461e-06
-8.808632125863414e-06   2.23874492025634e-06   1.8518810333375461e-06
-8.808632125863414e-06   2.23874492025634e-06   1.8518810333375461e-06
-8.808632125863414e-06   2.23874492025634e-06   1.8518810333375461e-06
-1.2291126177580016e-05   2.5355529291196067e-06   7.477952980880877e-06
-1.2291126177580016e-05   2.5355529291196067e-06   7.477952980880877e-06
-1.2291126177580016e-05   2.5355529291196067e-06   7.477952980880877e-06
-1.2291126177580016e-05   2.5355529291196067e-06   7.477952980880877e-06
-8.8086321258634e-06   2.6095448913273592e-06   1.4509192837454778e-05
-8.8086321258634e-06   2.6095448913273592e-06   1.4509192837454778e-05
-8.8086321258634e-06   2.6095448913273592e-06   1.4509192837454778e-05
-8.8086321258634e-06   2.6095448913273592e-06   1.4509192837454778e-05
-1.640301920833376e-05   2.23874492025634e-06   1.62940105069494e-06
-1.640301920833376e-05   2.23874492025634e-06   1.62940105069494e-06
-1.640301920833376e-05   2.23874492025634e-06   1.62940105069494e-06
-1.640301920833376e-05   2.23874492025634e-06   1.62940105069494e-06
-1.6748173934056797e-05   2.4005989154947307e-06   1.4670823435180658e-05
-1.6748173934056797e-05   2.4005989154947307e-06   1.4670823435180658e-05
-1.6748173934056797e-05   2.4005989154947307e-06   1.4670823435180658e-05
-1.6748173934056797e-05   2.4005989154947307e-06   1.4670823435180658e-05
-9.135542458289862e-06   2.005846001401656e-06   2.2199560573582544e-06
-9.135542458289862e-06   2.005846001401656e-06   2.2199560573582544e-06
-9.135542458289862e-06   2.005846001401656e-06   2.2199560573582544e-06
-9.135542458289862e-06   2.005846001401656e-06   2.2199560573582544e-06
-1.268560527592666e-05   2.3819925292012725e-06   7.911039503407069e-06
-1.268560527592666e-05   2.3819925292012725e-06   7.911039503407069e-06
-1.268560527592666e-05   2.3819925292012725e-06   7.911039503407069e-06
-1.268560527592666e-05   2.3819925292012725e-06   7.911039503407069e-06
-1.5680431578516142e-05   4.281575570488916e-06   6.721622451021396e-06
-1.5680431578516142e-05   4.281575570488916e-06   6.721622451021396e-06
-1.5680431578516142e-05   4.281575570488916e-06   6.721622451021396e-06
-1.5680431578516142e-05   4.281575570488916e-06   6.721622451021396e-06
-2.2851404665734842e-05   3.668880627497864e-06   -5.59761632680446e-06
-2.2851404665734842e-05   3.668880627497864e-06   -5.59761632680446e-06
-2.2851404665734842e-05   3.668880627497864e-06   -5.59761632680446e-06
-2.2851404665734842e-05   3.668880627497864e-06   -5.59761632680446e-06
-2.347163944356931e-05   4.3322553031284764e-06   8.96865928261411e-06
-2.347163944356931e-05   4.3322553031284764e-06   8.96865928261411e-06
-2.347163944356931e-05   4.3322553031284764e-06   8.96865928261411e-06
-2.347163944356931e-05   4.3322553031284764e-06   8.96865928261411e-06
-1.6024692308632467e-05   3.6555013477904087e-06   -3.0368669024113633e-06
-1.6024692308632467e-05   3.6555013477904087e-06   -3.0368669024113633e-06
-1.6024692308632467e-05   3.6555013477904087e-06   -3.0368669024113633e-06
-1.6024692308632467e-05   3.6555013477904087e-06   -3.0368669024113633e-06
-1.8764157144526794e-05   3.924228445036093e-06   1.3676715657318734e-06
-1.8764157144526794e-05   3.924228445036093e-06   1.3676715657318734e-06
-1.8764157144526794e-05   3.924228445036093e-06   1.3676715657318734e-06
-1.8764157144526794e-05   3.924228445036093e-06   1.3676715657318734e-06
-1.6024692308632454e-05   4.3322553031284764e-06   9.374711655816886e-06
-1.6024692308632454e-05   4.3322553031284764e-06   9.374711655816886e-06
-1.6024692308632454e-05   4.3322553031284764e-06   9.374711655816886e-06
-1.6024692308632454e-05   4.3322553031284764e-06   9.374711655816886e-06
-2.3471639443569336e-05   3.6555013477904087e-06   -3.442919275614112e-06
-2.3471639443569336e-05   3.6555013477904087e-06   -3.442919275614112e-06
-2.3471639443569336e-05   3.6555013477904087e-06   -3.442919275614112e-06
-2.3471639443569336e-05   3.6555013477904087e-06   -3.442919275614112e-06
-2.402554013547964e-05   4.286050138959546e-06   1.0770328615640674e-05
-2.402554013547964e-05   4.286050138959546e-06   1.0770328615640674e-05
-2.402554013547964e-05   4.286050138959546e-06   1.0770328615640674e-05
-2.402554013547964e-05   4.286050138959546e-06   1.0770328615640674e-05
-1.640301920833376e-05   3.5826601337891244e-06   -1.5118389265001743e-06
-1.640301920833376e-05   3.5826601337891244e-06   -1.5118389265001743e-06
-1.640301920833376e-05   3.5826601337891244e-06   -1.5118389265001743e-06
-1.640301920833376e-05   3.5826601337891244e-06   -1.5118389265001743e-06
-1.948411128101015e-05   3.969375351325802e-06   3.3912853974391293e-06
-1.948411128101015e-05   3.969375351325802e-06   3.3912853974391293e-06
-1.948411128101015e-05   3.969375351325802e-06   3.3912853974391293e-06
-1.948411128101015e-05   3.969375351325802e-06   3.3912853974391293e-06
-1.640301920833376e-05   4.286050138959546e-06   1.1192362618743122e-05
-1.640301920833376e-05   4.286050138959546e-06   1.1192362618743122e-05
-1.640301920833376e-05   4.286050138959546e-06   1.1192362618743122e-05
-1.640301920833376e-05   4.286050138959546e-06   1.1192362618743122e-05
-2.4025540135479693e-05   3.5826601337891244e-06   -1.933872929602541e-06
-2.4025540135479693e-05   3.5826601337891244e-06   -1.933872929602541e-06
-2.4025540135479693e-05   3.5826601337891244e-06   -1.933872929602541e-06
-2.4025540135479693e-05   3.5826601337891244e-06   -1.933872929602541e-06
-2.4660631522985054e-05   3.959313658523519e-06   1.3863480799029739e-05
-2.4660631522985054e-05   3.959313658523519e-06   1.3863480799029739e-05
-2.4660631522985054e-05   3.959313658523519e-06   1.3863480799029739e-05
-2.4660631522985054e-05   3.959313658523519e-06   1.3863480799029739e-05
-1.6748173934056797e-05   3.2573785907257175e-06   1.0972125248278751e-06
-1.6748173934056797e-05   3.2573785907257175e-06   1.0972125248278751e-06
-1.6748173934056797e-05   3.2573785907257175e-06   1.0972125248278751e-06
-1.6748173934056797e-05   3.2573785907257175e-06   1.0972125248278751e-06
-1.9626577019446958e-05   3.8340349761685315e-06   5.548557169212889e-06
-1.9626577019446958e-05   3.8340349761685315e-06   5.548557169212889e-06
-1.9626577019446958e-05   3.8340349761685315e-06   5.548557169212889e-06
-1.9626577019446958e-05   3.8340349761685315e-06   5.548557169212889e-06
1.0896994852301995e-05   -1.409725380318379e-06   1.0799861460327636e-05
1.0896994852301995e-05   -1.409725380318379e-06   1.0799861460327636e-05
1.0896994852301995e-05   -1.409725380318379e-06   1.0799861460327636e-05
1.0896994852301995e-05   -1.409725380318379e-06   1.0799861460327636e-05
4.529173031690803e-06   -7.103119655765388e-07   6.064731414874699e-07
4.529173031690803e-06   -7.103119655765388e-07   6.064731414874699e-07
4.529173031690803e-06   -7.103119655765388e-07   6.064731414874699e-07
4.529173031690803e-06   -7.103119655765388e-07   6.064731414874699e-07
4.256539559857762e-06   -1.7052874789161721e-06   9.696035673454814e-06
4.256539559857762e-06   -1.7052874789161721e-06   9.696035673454814e-06
4.256539559857762e-06   -1.7052874789161721e-06   9.696035673454814e-06
4.256539559857762e-06   -1.7052874789161721e-06   9.696035673454814e-06
1.0314695379385211e-05   -9.765732409503392e-07   -8.381192352037903e-07
1.0314695379385211e-05   -9.765732409503392e-07   -8.381192352037903e-07
1.0314695379385211e-05   -9.765732409503392e-07   -8.381192352037903e-07
1.0314695379385211e-05   -9.765732409503392e-07   -8.381192352037903e-07
7.127063241182767e-06   -1.2281835717411777e-06   4.625567193608342e-06
7.127063241182767e-06   -1.2281835717411777e-06   4.625567193608342e-06
7.127063241182767e-06   -1.2281835717411777e-06   4.625567193608342e-06
7.127063241182767e-06   -1.2281835717411777e-06   4.625567193608342e-06
1.0314695379385225e-05   -1.7052874789161721e-06   9.258807130675336e-06
1.0314695379385225e-05   -1.7052874789161721e-06   9.258807130675336e-06
1.0314695379385225e-05   -1.7052874789161721e-06   9.258807130675336e-06
1.0314695379385225e-05   -1.7052874789161721e-06   9.258807130675336e-06
4.256539559857747e-06   -9.765732409503392e-07   -4.008906924242851e-07
4.256539559857747e-06   -9.765732409503392e-07   -4.008906924242851e-07
4.256539559857747e-06   -9.765732409503392e-07   -4.008906924242851e-07
4.256539559857747e-06   -9.765732409503392e-07   -4.008906924242851e-07
3.949365211117974e-06   -1.7833920719359997e-06   8.878199890764347e-06
3.949365211117974e-06   -1.7833920719359997e-06   8.878199890764347e-06
3.949365211117974e-06   -1.7833920719359997e-06   8.878199890764347e-06
3.949365211117974e-06   -1.7833920719359997e-06   8.878199890764347e-06
9.81383904837387e-06   -1.0672231855633416e-06   -1.3256245031523822e-06
9.81383904837387e-06   -1.0672231855633416e-06   -1.3256245031523822e-06
9.81383904837387e-06   -1.0672231855633416e-06   -1.3256245031523822e-06
9.81383904837387e-06   -1.0672231855633416e-06   -1.3256245031523822e-06
6.872819002489305e-06   -1.3414811065674262e-06   3.7406303259245e-06
6.872819002489305e-06   -1.3414811065674262e-06   3.7406303259245e-06
6.872819002489305e-06   -1.3414811065674262e-06   3.7406303259245e-06
6.872819002489305e-06   -1.3414811065674262e-06   3.7406303259245e-06
9.813839048373883e-06   -1.7833920719359997e-06   8.448498558940752e-06
9.813839048373883e-06   -1.7833920719359997e-06   8.448498558940752e-06
9.813839048373883e-06   -1.7833920719359997e-06   8.448498558940752e-06
9.813839048373883e-06   -1.7833920719359997e-06   8.448498558940752e-06
3.949365211117967e-06   -1.0672231855633416e-06   -8.959231713288212e-07
3.949365211117967e-06   -1.0672231855633416e-06   -8.959231713288212e-07
3.949365211117967e-06   -1.0672231855633416e-06   -8.959231713288212e-07
3.949365211117967e-06   -1.0672231855633416e-06   -8.959231713288212e-07
3.6736061278676105e-06   -1.8524210734316513e-06   7.808762546393695e-06
3.6736061278676105e-06   -1.8524210734316513e-06   7.808762546393695e-06
3.6736061278676105e-06   -1.8524210734316513e-06   7.808762546393695e-06
3.6736061278676105e-06   -1.8524210734316513e-06   7.808762546393695e-06
9.244075892113518e-06   -1.1838088907487401e-06   -1.8765210369592583e-06
9.244075892113518e-06   -1.1838088907487401e-06   -1.8765210369592583e-06
9.244075892113518e-06   -1.1838088907487401e-06   -1.8765210369592583e-06
9.244075892113518e-06   -1.1838088907487401e-06   -1.8765210369592583e-06
6.387481359387039e-06   -1.3614609477683066e-06   2.9910610851299952e-06
6.387481359387039e-06   -1.3614609477683066e-06   2.9910610851299952e-06
6.387481359387039e-06   -1.3614609477683066e-06   2.9910610851299952e-06
6.387481359387039e-06   -1.3614609477683066e-06   2.9910610851299952e-06
4.529173031690821e-06   -1.5489763222726813e-08   1.3252981041542546e-05
4.529173031690821e-06   -1.5489763222726813e-08   1.3252981041542546e-05
4.529173031690821e-06   -1.5489763222726813e-08   1.3252981041542546e-05
4.529173031690821e-06   -1.5489763222726813e-08   1.3252981041542546e-05
-1.4373382444597102e-06   3.423627498152842e-07   3.5235070891145273e-06
-1.4373382444597102e-06   3.423627498152842e-07   3.5235070891145273e-06
-1.4373382444597102e-06   3.423627498152842e-07   3.5235070891145273e-06
-1.4373382444597102e-06   3.423627498152842e-07   3.5235070891145273e-06
-1.6882729762042305e-06   -2.710801182945243e-07   1.3274969250249419e-05
-1.6882729762042305e-06   -2.710801182945243e-07   1.3274969250249419e-05
-1.6882729762042305e-06   -2.710801182945243e-07   1.3274969250249419e-05
-1.6882729762042305e-06   -2.710801182945243e-07   1.3274969250249419e-05
4.256539559857747e-06   7.459931698912924e-08   3.1595406956426692e-06
4.256539559857747e-06   7.459931698912924e-08   3.1595406956426692e-06
4.256539559857747e-06   7.459931698912924e-08   3.1595406956426692e-06
4.256539559857747e-06   7.459931698912924e-08   3.1595406956426692e-06
1.372162377822588e-06   9.17092738837895e-09   8.006093032795271e-06
1.372162377822588e-06   9.17092738837895e-09   8.006093032795271e-06
1.372162377822588e-06   9.17092738837895e-09   8.006093032795271e-06
1.372162377822588e-06   9.17092738837895e-09   8.006093032795271e-06
4.256539559857759e-06   -2.710801182946327e-07   1.3067561589079184e-05
4.256539559857759e-06   -2.710801182946327e-07   1.3067561589079184e-05
4.256539559857759e-06   -2.710801182946327e-07   1.3067561589079184e-05
4.256539559857759e-06   -2.710801182946327e-07   1.3067561589079184e-05
-1.6882729762042372e-06   7.459931698912924e-08   3.366948356812874e-06
-1.6882729762042372e-06   7.459931698912924e-08   3.366948356812874e-06
-1.6882729762042372e-06   7.459931698912924e-08   3.366948356812874e-06
-1.6882729762042372e-06   7.459931698912924e-08   3.366948356812874e-06
-1.94505277856488e-06   -4.711218628166477e-07   1.3109073772546692e-05
-1.94505277856488e-06   -4.711218628166477e-07   1.3109073772546692e-05
-1.94505277856488e-06   -4.711218628166477e-07   1.3109073772546692e-05
-1.94505277856488e-06   -4.711218628166477e-07   1.3109073772546692e-05
3.949365211117967e-06   -1.4315821542727931e-07   3.0882656013083265e-06
3.949365211117967e-06   -1.4315821542727931e-07   3.0882656013083265e-06
3.949365211117967e-06   -1.4315821542727931e-07   3.0882656013083265e-06
3.949365211117967e-06   -1.4315821542727931e-07   3.0882656013083265e-06
1.0953030312014448e-06   -1.6861761698515852e-07   7.860311542104366e-06
1.0953030312014448e-06   -1.6861761698515852e-07   7.860311542104366e-06
1.0953030312014448e-06   -1.6861761698515852e-07   7.860311542104366e-06
1.0953030312014448e-06   -1.6861761698515852e-07   7.860311542104366e-06
3.949365211117981e-06   -4.7112186281653926e-07   1.2912295584113027e-05
3.949365211117981e-06   -4.7112186281653926e-07   1.2912295584113027e-05
3.949365211117981e-06   -4.7112186281653926e-07   1.2912295584113027e-05
3.949365211117981e-06   -4.7112186281653926e-07   1.2912295584113027e-05
-1.945052778564887e-06   -1.431582154271709e-07   3.2850437897419672e-06
-1.945052778564887e-06   -1.431582154271709e-07   3.2850437897419672e-06
-1.945052778564887e-06   -1.431582154271709e-07   3.2850437897419672e-06
-1.945052778564887e-06   -1.431582154271709e-07   3.2850437897419672e-06
-2.1998404507344357e-06   -6.546218829883536e-07   1.3220821611929627e-05
-2.1998404507344357e-06   -6.546218829883536e-07   1.3220821611929627e-05
-2.1998404507344357e-06   -6.546218829883536e-07   1.3220821611929627e-05
-2.1998404507344357e-06   -6.546218829883536e-07   1.3220821611929627e-05
3.6736061278675936e-06   -3.560425506708535e-07   3.252596381535941e-06
3.6736061278675936e-06   -3.560425506708535e-07   3.252596381535941e-06
3.6736061278675936e-06   -3.560425506708535e-07   3.252596381535941e-06
3.6736061278675936e-06   -3.560425506708535e-07   3.252596381535941e-06
8.78165883297131e-07   -3.152210250145608e-07   7.887170540426224e-06
8.78165883297131e-07   -3.152210250145608e-07   7.887170540426224e-06
8.78165883297131e-07   -3.152210250145608e-07   7.887170540426224e-06
8.78165883297131e-07   -3.152210250145608e-07   7.887170540426224e-06
-1.4373382444597102e-06   1.3416284708865243e-06   1.4362814945646741e-05
-1.4373382444597102e-06   1.3416284708865243e-06   1.4362814945646741e-05
-1.4373382444597102e-06   1.3416284708865243e-06   1.4362814945646741e-05
-1.4373382444597102e-06   1.3416284708865243e-06   1.4362814945646741e-05
-7.302173363674713e-06   1.324859954805204e-06   4.578028637306267e-06
-7.302173363674713e-06   1.324859954805204e-06   4.578028637306267e-06
-7.302173363674713e-06   1.324859954805204e-06   4.578028637306267e-06
-7.302173363674713e-06   1.324859954805204e-06   4.578028637306267e-06
-7.5502146571940725e-06   1.118643019407616e-06   1.4269423636590131e-05
-7.5502146571940725e-06   1.118643019407616e-06   1.4269423636590131e-05
-7.5502146571940725e-06   1.118643019407616e-06   1.4269423636590131e-05
-7.5502146571940725e-06   1.118643019407616e-06   1.4269423636590131e-05
-1.6882729762042237e-06   1.0830423679620334e-06   4.520881225807824e-06
-1.6882729762042237e-06   1.0830423679620334e-06   4.520881225807824e-06
-1.6882729762042237e-06   1.0830423679620334e-06   4.520881225807824e-06
-1.6882729762042237e-06   1.0830423679620334e-06   4.520881225807824e-06
-4.50585638646959e-06   1.185865031052332e-06   9.155159978396202e-06
-4.50585638646959e-06   1.185865031052332e-06   9.155159978396202e-06
-4.50585638646959e-06   1.185865031052332e-06   9.155159978396202e-06
-4.50585638646959e-06   1.185865031052332e-06   9.155159978396202e-06
-1.6882729762042305e-06   1.1186430194077245e-06   1.4290784027457513e-05
-1.6882729762042305e-06   1.1186430194077245e-06   1.4290784027457513e-05
-1.6882729762042305e-06   1.1186430194077245e-06   1.4290784027457513e-05
-1.6882729762042305e-06   1.1186430194077245e-06   1.4290784027457513e-05
-7.5502146571940725e-06   1.083042367961925e-06   4.499520834940428e-06
-7.5502146571940725e-06   1.083042367961925e-06   4.499520834940428e-06
-7.5502146571940725e-06   1.083042367961925e-06   4.499520834940428e-06
-7.5502146571940725e-06   1.083042367961925e-06   4.499520834940428e-06
-7.804030401987224e-06   8.992712302281162e-07   1.4338555384226155e-05
-7.804030401987224e-06   8.992712302281162e-07   1.4338555384226155e-05
-7.804030401987224e-06   8.992712302281162e-07   1.4338555384226155e-05
-7.804030401987224e-06   8.992712302281162e-07   1.4338555384226155e-05
-1.9450527785648734e-06   8.440460288665439e-07   4.6067277993391495e-06
-1.9450527785648734e-06   8.440460288665439e-07   4.6067277993391495e-06
-1.9450527785648734e-06   8.440460288665439e-07   4.6067277993391495e-06
-1.9450527785648734e-06   8.440460288665439e-07   4.6067277993391495e-06
-4.732551461954231e-06   1.0109881800657349e-06   9.152393647602182e-06
-4.732551461954231e-06   1.0109881800657349e-06   9.152393647602182e-06
-4.732551461954231e-06   1.0109881800657349e-06   9.152393647602182e-06
-4.732551461954231e-06   1.0109881800657349e-06   9.152393647602182e-06
-1.94505277856488e-06   8.992712302281162e-07   1.437169050504312e-05
-1.94505277856488e-06   8.992712302281162e-07   1.437169050504312e-05
-1.94505277856488e-06   8.992712302281162e-07   1.437169050504312e-05
-1.94505277856488e-06   8.992712302281162e-07   1.437169050504312e-05
-7.804030401987224e-06   8.440460288665439e-07   4.57359267852232e-06
-7.804030401987224e-06   8.440460288665439e-07   4.57359267852232e-06
-7.804030401987224e-06   8.440460288665439e-07   4.57359267852232e-06
-7.804030401987224e-06   8.440460288665439e-07   4.57359267852232e-06
-8.054700573789127e-06   6.912291008443448e-07   1.4525729276467707e-05
-8.054700573789127e-06   6.912291008443448e-07   1.4525729276467707e-05
-8.054700573789127e-06   6.912291008443448e-07   1.4525729276467707e-05
-8.054700573789127e-06   6.912291008443448e-07   1.4525729276467707e-05
-2.1998404507344357e-06   6.141724639689055e-07   4.813863053501871e-06
-2.1998404507344357e-06   6.141724639689055e-07   4.813863053501871e-06
-2.1998404507344357e-06   6.141724639689055e-07   4.813863053501871e-06
-2.1998404507344357e-06   6.141724639689055e-07   4.813863053501871e-06
-4.969915698821588e-06   8.403908712917123e-07   9.294924089253438e-06
-4.969915698821588e-06   8.403908712917123e-07   9.294924089253438e-06
-4.969915698821588e-06   8.403908712917123e-07   9.294924089253438e-06
-4.969915698821588e-06   8.403908712917123e-07   9.294924089253438e-06
-7.302173363674713e-06   2.6498978901217047e-06   1.2719101140526142e-05
-7.302173363674713e-06   2.6498978901217047e-06   1.2719101140526142e-05
-7.302173363674713e-06   2.6498978901217047e-06   1.2719101140526142e-05
-7.302173363674713e-06   2.6498978901217047e-06   1.2719101140526142e-05
-1.3078366577041982e-05   2.2818197208971996e-06   2.871265550045976e-06
-1.3078366577041982e-05   2.2818197208971996e-06   2.871265550045976e-06
-1.3078366577041982e-05   2.2818197208971996e-06   2.871265550045976e-06
-1.3078366577041982e-05   2.2818197208971996e-06   2.871265550045976e-06
-1.3344996238327523e-05   2.4377257011779603e-06   1.2555156769837811e-05
-1.3344996238327523e-05   2.4377257011779603e-06   1.2555156769837811e-05
-1.3344996238327523e-05   2.4377257011779603e-06   1.2555156769837811e-05
-1.3344996238327523e-05   2.4377257011779603e-06   1.2555156769837811e-05
-7.550214657194059e-06   2.0466337591054304e-06   3.1318426331923826e-06
-7.550214657194059e-06   2.0466337591054304e-06   3.1318426331923826e-06
-7.550214657194059e-06   2.0466337591054304e-06   3.1318426331923826e-06
-7.550214657194059e-06   2.0466337591054304e-06   3.1318426331923826e-06
-1.0289452438454915e-05   2.3123793685594354e-06   7.537791569621623e-06
-1.0289452438454915e-05   2.3123793685594354e-06   7.537791569621623e-06
-1.0289452438454915e-05   2.3123793685594354e-06   7.537791569621623e-06
-1.0289452438454915e-05   2.3123793685594354e-06   7.537791569621623e-06
-7.5502146571940725e-06   2.437725701177852e-06   1.2789811935081427e-05
-7.5502146571940725e-06   2.437725701177852e-06   1.2789811935081427e-05
-7.5502146571940725e-06   2.437725701177852e-06   1.2789811935081427e-05
-7.5502146571940725e-06   2.437725701177852e-06   1.2789811935081427e-05
-1.334499623832751e-05   2.046633759105322e-06   2.897187467948794e-06
-1.334499623832751e-05   2.046633759105322e-06   2.897187467948794e-06
-1.334499623832751e-05   2.046633759105322e-06   2.897187467948794e-06
-1.334499623832751e-05   2.046633759105322e-06   2.897187467948794e-06
-1.3644551777734946e-05   2.23874492025634e-06   1.2985562254416716e-05
-1.3644551777734946e-05   2.23874492025634e-06   1.2985562254416716e-05
-1.3644551777734946e-05   2.23874492025634e-06   1.2985562254416716e-05
-1.3644551777734946e-05   2.23874492025634e-06   1.2985562254416716e-05
-7.804030401987197e-06   1.8279102479419433e-06   3.4978607648925334e-06
-7.804030401987197e-06   1.8279102479419433e-06   3.4978607648925334e-06
-7.804030401987197e-06   1.8279102479419433e-06   3.4978607648925334e-06
-7.804030401987197e-06   1.8279102479419433e-06   3.4978607648925334e-06
-1.0471847177796612e-05   2.1526493555305577e-06   7.749378593355298e-06
-1.0471847177796612e-05   2.1526493555305577e-06   7.749378593355298e-06
-1.0471847177796612e-05   2.1526493555305577e-06   7.749378593355298e-06
-1.0471847177796612e-05   2.1526493555305577e-06   7.749378593355298e-06
-7.804030401987224e-06   2.23874492025634e-06   1.3232063057805354e-05
-7.804030401987224e-06   2.23874492025634e-06   1.3232063057805354e-05
-7.804030401987224e-06   2.23874492025634e-06   1.3232063057805354e-05
-7.804030401987224e-06   2.23874492025634e-06   1.3232063057805354e-05
-1.3644551777734933e-05   1.827910247941835e-06   3.2513599615038684e-06
-1.3644551777734933e-05   1.827910247941835e-06   3.2513599615038684e-06
-1.3644551777734933e-05   1.827910247941835e-06   3.2513599615038684e-06
-1.3644551777734933e-05   1.827910247941835e-06   3.2513599615038684e-06
-1.3910059274657984e-05   2.005846001401656e-06   1.334416650368886e-05
-1.3910059274657984e-05   2.005846001401656e-06   1.334416650368886e-05
-1.3910059274657984e-05   2.005846001401656e-06   1.334416650368886e-05
-1.3910059274657984e-05   2.005846001401656e-06   1.334416650368886e-05
-8.0547005737891e-06   1.5823142573065645e-06   3.839354382031182e-06
-8.0547005737891e-06   1.5823142573065645e-06   3.839354382031182e-06
-8.0547005737891e-06   1.5823142573065645e-06   3.839354382031182e-06
-8.0547005737891e-06   1.5823142573065645e-06   3.839354382031182e-06
-1.077336928093746e-05   1.9832828952177743e-06   8.129887711198552e-06
-1.077336928093746e-05   1.9832828952177743e-06   8.129887711198552e-06
-1.077336928093746e-05   1.9832828952177743e-06   8.129887711198552e-06
-1.077336928093746e-05   1.9832828952177743e-06   8.129887711198552e-06
-1.3078366577041982e-05   3.668880627497864e-06   6.132210977182666e-06
-1.3078366577041982e-05   3.668880627497864e-06   6.132210977182666e-06
-1.3078366577041982e-05   3.668880627497864e-06   6.132210977182666e-06
-1.3078366577041982e-05   3.668880627497864e-06   6.132210977182666e-06
-1.8523798692437408e-05   3.0092234035284217e-06   -3.3393035495247255e-06
-1.8523798692437408e-05   3.0092234035284217e-06   -3.3393035495247255e-06
-1.8523798692437408e-05   3.0092234035284217e-06   -3.3393035495247255e-06
-1.8523798692437408e-05   3.0092234035284217e-06   -3.3393035495247255e-06
-1.9083406167449995e-05   3.655501347790517e-06   7.890298204348131e-06
-1.9083406167449995e-05   3.655501347790517e-06   7.890298204348131e-06
-1.9083406167449995e-05   3.655501347790517e-06   7.890298204348131e-06
-1.9083406167449995e-05   3.655501347790517e-06   7.890298204348131e-06
-1.3344996238327483e-05   2.9365926188185338e-06   -1.2423731068063142e-06
-1.3344996238327483e-05   2.9365926188185338e-06   -1.2423731068063142e-06
-1.3344996238327483e-05   2.9365926188185338e-06   -1.2423731068063142e-06
-1.3344996238327483e-05   2.9365926188185338e-06   -1.2423731068063142e-06
-1.5406995029589175e-05   3.2553432806801084e-06   2.003041148179957e-06
-1.5406995029589175e-05   3.2553432806801084e-06   2.003041148179957e-06
-1.5406995029589175e-05   3.2553432806801084e-06   2.003041148179957e-06
-1.5406995029589175e-05   3.2553432806801084e-06   2.003041148179957e-06
-1.334499623832751e-05   3.655501347790517e-06   8.321643441731256e-06
-1.334499623832751e-05   3.655501347790517e-06   8.321643441731256e-06
-1.334499623832751e-05   3.655501347790517e-06   8.321643441731256e-06
-1.334499623832751e-05   3.655501347790517e-06   8.321643441731256e-06
-1.908340616745005e-05   2.936592618818642e-06   -1.6737183441893307e-06
-1.908340616745005e-05   2.936592618818642e-06   -1.6737183441893307e-06
-1.908340616745005e-05   2.936592618818642e-06   -1.6737183441893307e-06
-1.908340616745005e-05   2.936592618818642e-06   -1.6737183441893307e-06
-1.957024175781028e-05   3.582660133789016e-06   9.400899503324268e-06
-1.957024175781028e-05   3.582660133789016e-06   9.400899503324268e-06
-1.957024175781028e-05   3.582660133789016e-06   9.400899503324268e-06
-1.957024175781028e-05   3.582660133789016e-06   9.400899503324268e-06
-1.3644551777734906e-05   2.843622177293721e-06   -3.182768957077169e-08
-1.3644551777734906e-05   2.843622177293721e-06   -3.182768957077169e-08
-1.3644551777734906e-05   2.843622177293721e-06   -3.182768957077169e-08
-1.3644551777734906e-05   2.843622177293721e-06   -3.182768957077169e-08
-1.600440095312753e-05   3.2595217783917916e-06   3.65171450875866e-06
-1.600440095312753e-05   3.2595217783917916e-06   3.65171450875866e-06
-1.600440095312753e-05   3.2595217783917916e-06   3.65171450875866e-06
-1.600440095312753e-05   3.2595217783917916e-06   3.65171450875866e-06
-1.3644551777734946e-05   3.5826601337891244e-06   9.84432227722152e-06
-1.3644551777734946e-05   3.5826601337891244e-06   9.84432227722152e-06
-1.3644551777734946e-05   3.5826601337891244e-06   9.84432227722152e-06
-1.3644551777734946e-05   3.5826601337891244e-06   9.84432227722152e-06
-1.957024175781028e-05   2.843622177293721e-06   -4.7525046346794326e-07
-1.957024175781028e-05   2.843622177293721e-06   -4.7525046346794326e-07
-1.957024175781028e-05   2.843622177293721e-06   -4.7525046346794326e-07
-1.957024175781028e-05   2.843622177293721e-06   -4.7525046346794326e-07
-2.0133738283295425e-05   3.2573785907257175e-06   1.2020868595127095e-05
-2.0133738283295425e-05   3.2573785907257175e-06   1.2020868595127095e-05
-2.0133738283295425e-05   3.2573785907257175e-06   1.2020868595127095e-05
-2.0133738283295425e-05   3.2573785907257175e-06   1.2020868595127095e-05
-1.391005927465793e-05   2.5283683832469893e-06   2.0854763718852482e-06
-1.391005927465793e-05   2.5283683832469893e-06   2.0854763718852482e-06
-1.391005927465793e-05   2.5283683832469893e-06   2.0854763718852482e-06
-1.391005927465793e-05   2.5283683832469893e-06   2.0854763718852482e-06
-1.61288650151939e-05   3.1219190290640315e-06   5.427355551954863e-06
-1.61288650151939e-05   3.1219190290640315e-06   5.427355551954863e-06
-1.61288650151939e-05   3.1219190290640315e-06   5.427355551954863e-06
-1.61288650151939e-05   3.1219190290640315e-06   5.427355551954863e-06
6.180734356135416e-06   -7.103119655765388e-07   8.570806575992039e-06
6.180734356135416e-06   -7.103119655765388e-07   8.570806575992039e-06
6.180734356135416e-06   -7.103119655765388e-07   8.570806575992039e-06
6.180734356135416e-06   -7.103119655765388e-07   8.570806575992039e-06
1.6662918264938382e-06   -1.2415076545589307e-08   1.4654738266745926e-06
1.6662918264938382e-06   -1.2415076545589307e-08   1.4654738266745926e-06
1.6662918264938382e-06   -1.2415076545589307e-08   1.4654738266745926e-06
1.6662918264938382e-06   -1.2415076545589307e-08   1.4654738266745926e-06
1.4602993833124266e-06   -9.765732409503392e-07   7.97386597317602e-06
1.4602993833124266e-06   -9.765732409503392e-07   7.97386597317602e-06
1.4602993833124266e-06   -9.765732409503392e-07   7.97386597317602e-06
1.4602993833124266e-06   -9.765732409503392e-07   7.97386597317602e-06
5.670080759362978e-06   -2.522503281090008e-07   5.229699320537676e-07
5.670080759362978e-06   -2.522503281090008e-07   5.229699320537676e-07
5.670080759362978e-06   -2.522503281090008e-07   5.229699320537676e-07
5.670080759362978e-06   -2.522503281090008e-07   5.229699320537676e-07
3.525645905368671e-06   -5.218070935115613e-07   4.258762081286083e-06
3.525645905368671e-06   -5.218070935115613e-07   4.258762081286083e-06
3.525645905368671e-06   -5.218070935115613e-07   4.258762081286083e-06
3.525645905368671e-06   -5.218070935115613e-07   4.258762081286083e-06
5.6700807593629844e-06   -9.765732409502308e-07   7.539272225471315e-06
5.6700807593629844e-06   -9.765732409502308e-07   7.539272225471315e-06
5.6700807593629844e-06   -9.765732409502308e-07   7.539272225471315e-06
5.6700807593629844e-06   -9.765732409502308e-07   7.539272225471315e-06
1.4602993833124232e-06   -2.522503281090008e-07   9.575636797585206e-07
1.4602993833124232e-06   -2.522503281090008e-07   9.575636797585206e-07
1.4602993833124232e-06   -2.522503281090008e-07   9.575636797585206e-07
1.4602993833124232e-06   -2.522503281090008e-07   9.575636797585206e-07
1.2193314141388873e-06   -1.06722318556345e-06   7.472351257864116e-06
1.2193314141388873e-06   -1.06722318556345e-06   7.472351257864116e-06
1.2193314141388873e-06   -1.06722318556345e-06   7.472351257864116e-06
1.2193314141388873e-06   -1.06722318556345e-06   7.472351257864116e-06
5.236679386034432e-06   -3.54225798394241e-07   3.489728724034166e-07
5.236679386034432e-06   -3.54225798394241e-07   3.489728724034166e-07
5.236679386034432e-06   -3.54225798394241e-07   3.489728724034166e-07
5.236679386034432e-06   -3.54225798394241e-07   3.489728724034166e-07
3.282335785124421e-06   -6.266370706337586e-07   3.7696589705970673e-06
3.282335785124421e-06   -6.266370706337586e-07   3.7696589705970673e-06
3.282335785124421e-06   -6.266370706337586e-07   3.7696589705970673e-06
3.282335785124421e-06   -6.266370706337586e-07   3.7696589705970673e-06
5.236679386034445e-06   -1.0672231855633416e-06   7.044552825562667e-06
5.236679386034445e-06   -1.0672231855633416e-06   7.044552825562667e-06
5.236679386034445e-06   -1.0672231855633416e-06   7.044552825562667e-06
5.236679386034445e-06   -1.0672231855633416e-06   7.044552825562667e-06
1.2193314141388822e-06   -3.54225798394241e-07   7.767713047049135e-07
1.2193314141388822e-06   -3.54225798394241e-07   7.767713047049135e-07
1.2193314141388822e-06   -3.54225798394241e-07   7.767713047049135e-07
1.2193314141388822e-06   -3.54225798394241e-07   7.767713047049135e-07
1.0100841682935562e-06   -1.1838088907487401e-06   6.883987846115409e-06
1.0100841682935562e-06   -1.1838088907487401e-06   6.883987846115409e-06
1.0100841682935562e-06   -1.1838088907487401e-06   6.883987846115409e-06
1.0100841682935562e-06   -1.1838088907487401e-06   6.883987846115409e-06
4.727679189099582e-06   -5.213796882891277e-07   2.905386232964082e-07
4.727679189099582e-06   -5.213796882891277e-07   2.905386232964082e-07
4.727679189099582e-06   -5.213796882891277e-07   2.905386232964082e-07
4.727679189099582e-06   -5.213796882891277e-07   2.905386232964082e-07
2.9141425849352854e-06   -6.781002092818948e-07   3.4071319428327477e-06
2.9141425849352854e-06   -6.781002092818948e-07   3.4071319428327477e-06
2.9141425849352854e-06   -6.781002092818948e-07   3.4071319428327477e-06
2.9141425849352854e-06   -6.781002092818948e-07   3.4071319428327477e-06
1.6662918264938416e-06   3.423627498152842e-07   1.1691867149214773e-05
1.6662918264938416e-06   3.423627498152842e-07   1.1691867149214773e-05
1.6662918264938416e-06   3.423627498152842e-07   1.1691867149214773e-05
1.6662918264938416e-06   3.423627498152842e-07   1.1691867149214773e-05
-2.438114634665556e-06   6.613034742675248e-07   5.042554148620407e-06
-2.438114634665556e-06   6.613034742675248e-07   5.042554148620407e-06
-2.438114634665556e-06   6.613034742675248e-07   5.042554148620407e-06
-2.438114634665556e-06   6.613034742675248e-07   5.042554148620407e-06
-2.6195652269753823e-06   7.459931698912924e-08   1.1724854103522186e-05
-2.6195652269753823e-06   7.459931698912924e-08   1.1724854103522186e-05
-2.6195652269753823e-06   7.459931698912924e-08   1.1724854103522186e-05
-2.6195652269753823e-06   7.459931698912924e-08   1.1724854103522186e-05
1.4602993833124232e-06   3.9219388745458626e-07   4.734523010763369e-06
1.4602993833124232e-06   3.9219388745458626e-07   4.734523010763369e-06
1.4602993833124232e-06   3.9219388745458626e-07   4.734523010763369e-06
1.4602993833124232e-06   3.9219388745458626e-07   4.734523010763369e-06
-5.140749801172007e-07   3.3996538387139237e-07   8.056484051963e-06
-5.140749801172007e-07   3.3996538387139237e-07   8.056484051963e-06
-5.140749801172007e-07   3.3996538387139237e-07   8.056484051963e-06
-5.140749801172007e-07   3.3996538387139237e-07   8.056484051963e-06
1.460299383312425e-06   7.459931698902082e-08   1.1534297361242944e-05
1.460299383312425e-06   7.459931698902082e-08   1.1534297361242944e-05
1.460299383312425e-06   7.459931698902082e-08   1.1534297361242944e-05
1.460299383312425e-06   7.459931698902082e-08   1.1534297361242944e-05
-2.6195652269753823e-06   3.9219388745458626e-07   4.925079753042628e-06
-2.6195652269753823e-06   3.9219388745458626e-07   4.925079753042628e-06
-2.6195652269753823e-06   3.9219388745458626e-07   4.925079753042628e-06
-2.6195652269753823e-06   3.9219388745458626e-07   4.925079753042628e-06
-2.806520685487856e-06   -1.4315821542727931e-07   1.1641757063408117e-05
-2.806520685487856e-06   -1.4315821542727931e-07   1.1641757063408117e-05
-2.806520685487856e-06   -1.4315821542727931e-07   1.1641757063408117e-05
-2.806520685487856e-06   -1.4315821542727931e-07   1.1641757063408117e-05
1.2193314141388822e-06   1.6553683941753373e-07   4.746786531123331e-06
1.2193314141388822e-06   1.6553683941753373e-07   4.746786531123331e-06
1.2193314141388822e-06   1.6553683941753373e-07   4.746786531123331e-06
1.2193314141388822e-06   1.6553683941753373e-07   4.746786531123331e-06
-7.083537373431416e-07   1.531677644059067e-07   7.967016561933899e-06
-7.083537373431416e-07   1.531677644059067e-07   7.967016561933899e-06
-7.083537373431416e-07   1.531677644059067e-07   7.967016561933899e-06
-7.083537373431416e-07   1.531677644059067e-07   7.967016561933899e-06
1.2193314141388873e-06   -1.431582154271709e-07   1.145654003050124e-05
1.2193314141388873e-06   -1.431582154271709e-07   1.145654003050124e-05
1.2193314141388873e-06   -1.431582154271709e-07   1.145654003050124e-05
1.2193314141388873e-06   -1.431582154271709e-07   1.145654003050124e-05
-2.8065206854878627e-06   1.6553683941753373e-07   4.9320035640302825e-06
-2.8065206854878627e-06   1.6553683941753373e-07   4.9320035640302825e-06
-2.8065206854878627e-06   1.6553683941753373e-07   4.9320035640302825e-06
-2.8065206854878627e-06   1.6553683941753373e-07   4.9320035640302825e-06
-2.9909225282738144e-06   -3.560425506708535e-07   1.1786947248564376e-05
-2.9909225282738144e-06   -3.560425506708535e-07   1.1786947248564376e-05
-2.9909225282738144e-06   -3.560425506708535e-07   1.1786947248564376e-05
-2.9909225282738144e-06   -3.560425506708535e-07   1.1786947248564376e-05
1.0100841682935529e-06   -6.436039473155936e-08   4.943593460721954e-06
1.0100841682935529e-06   -6.436039473155936e-08   4.943593460721954e-06
1.0100841682935529e-06   -6.436039473155936e-08   4.943593460721954e-06
1.0100841682935529e-06   -6.436039473155936e-08   4.943593460721954e-06
-8.719063484216926e-07   -1.2842169790040422e-08   8.049333386949195e-06
-8.719063484216926e-07   -1.2842169790040422e-08   8.049333386949195e-06
-8.719063484216926e-07   -1.2842169790040422e-08   8.049333386949195e-06
-8.719063484216926e-07   -1.2842169790040422e-08   8.049333386949195e-06
-2.438114634665556e-06   1.324859954805204e-06   1.2947814241726638e-05
-2.438114634665556e-06   1.324859954805204e-06   1.2947814241726638e-05
-2.438114634665556e-06   1.324859954805204e-06   1.2947814241726638e-05
-2.438114634665556e-06   1.324859954805204e-06   1.2947814241726638e-05
-6.46743861695175e-06   1.253406088845381e-06   6.189401951673827e-06
-6.46743861695175e-06   1.253406088845381e-06   6.189401951673827e-06
-6.46743861695175e-06   1.253406088845381e-06   6.189401951673827e-06
-6.46743861695175e-06   1.253406088845381e-06   6.189401951673827e-06
-6.641976607655984e-06   1.0830423679620334e-06   1.2833010982886927e-05
-6.641976607655984e-06   1.0830423679620334e-06   1.2833010982886927e-05
-6.641976607655984e-06   1.0830423679620334e-06   1.2833010982886927e-05
-6.641976607655984e-06   1.0830423679620334e-06   1.2833010982886927e-05
-2.6195652269753755e-06   1.0067490519115449e-06   6.174768004716272e-06
-2.6195652269753755e-06   1.0067490519115449e-06   6.174768004716272e-06
-2.6195652269753755e-06   1.0067490519115449e-06   6.174768004716272e-06
-2.6195652269753755e-06   1.0067490519115449e-06   6.174768004716272e-06
-4.550678837690882e-06   1.1378184916014398e-06   9.314649025428655e-06
-4.550678837690882e-06   1.1378184916014398e-06   9.314649025428655e-06
-4.550678837690882e-06   1.1378184916014398e-06   9.314649025428655e-06
-4.550678837690882e-06   1.1378184916014398e-06   9.314649025428655e-06
-2.6195652269753823e-06   1.0830423679620334e-06   1.287878697251723e-05
-2.6195652269753823e-06   1.0830423679620334e-06   1.287878697251723e-05
-2.6195652269753823e-06   1.0830423679620334e-06   1.287878697251723e-05
-2.6195652269753823e-06   1.0830423679620334e-06   1.287878697251723e-05
-6.641976607655971e-06   1.0067490519116533e-06   6.128992015086063e-06
-6.641976607655971e-06   1.0067490519116533e-06   6.128992015086063e-06
-6.641976607655971e-06   1.0067490519116533e-06   6.128992015086063e-06
-6.641976607655971e-06   1.0067490519116533e-06   6.128992015086063e-06
-6.822067951291292e-06   8.440460288665439e-07   1.291385195427105e-05
-6.822067951291292e-06   8.440460288665439e-07   1.291385195427105e-05
-6.822067951291292e-06   8.440460288665439e-07   1.291385195427105e-05
-6.822067951291292e-06   8.440460288665439e-07   1.291385195427105e-05
-2.806520685487856e-06   7.613974976426047e-07   6.27086229666645e-06
-2.806520685487856e-06   7.613974976426047e-07   6.27086229666645e-06
-2.806520685487856e-06   7.613974976426047e-07   6.27086229666645e-06
-2.806520685487856e-06   7.613974976426047e-07   6.27086229666645e-06
-4.705734333208082e-06   9.508698611944639e-07   9.322534958068921e-06
-4.705734333208082e-06   9.508698611944639e-07   9.322534958068921e-06
-4.705734333208082e-06   9.508698611944639e-07   9.322534958068921e-06
-4.705734333208082e-06   9.508698611944639e-07   9.322534958068921e-06
-2.8065206854878627e-06   8.440460288665439e-07   1.2963441073005381e-05
-2.8065206854878627e-06   8.440460288665439e-07   1.2963441073005381e-05
-2.8065206854878627e-06   8.440460288665439e-07   1.2963441073005381e-05
-2.8065206854878627e-06   8.440460288665439e-07   1.2963441073005381e-05
-6.822067951291278e-06   7.613974976426047e-07   6.2212731779320645e-06
-6.822067951291278e-06   7.613974976426047e-07   6.2212731779320645e-06
-6.822067951291278e-06   7.613974976426047e-07   6.2212731779320645e-06
-6.822067951291278e-06   7.613974976426047e-07   6.2212731779320645e-06
-6.999231203856521e-06   6.141724639690139e-07   1.3116668484399754e-05
-6.999231203856521e-06   6.141724639690139e-07   1.3116668484399754e-05
-6.999231203856521e-06   6.141724639690139e-07   1.3116668484399754e-05
-6.999231203856521e-06   6.141724639690139e-07   1.3116668484399754e-05
-2.9909225282738076e-06   5.268427360686882e-07   6.488551861835522e-06
-2.9909225282738076e-06   5.268427360686882e-07   6.488551861835522e-06
-2.9909225282738076e-06   5.268427360686882e-07   6.488551861835522e-06
-2.9909225282738076e-06   5.268427360686882e-07   6.488551861835522e-06
-4.870856217132939e-06   7.678550683043982e-07   9.477167277259485e-06
-4.870856217132939e-06   7.678550683043982e-07   9.477167277259485e-06
-4.870856217132939e-06   7.678550683043982e-07   9.477167277259485e-06
-4.870856217132939e-06   7.678550683043982e-07   9.477167277259485e-06
-6.46743861695175e-06   2.2818197208971996e-06   1.141902573642534e-05
-6.46743861695175e-06   2.2818197208971996e-06   1.141902573642534e-05
-6.46743861695175e-06   2.2818197208971996e-06   1.141902573642534e-05
-6.46743861695175e-06   2.2818197208971996e-06   1.141902573642534e-05
-1.0431255948778863e-05   1.8717755462354909e-06   4.566637011916343e-06
-1.0431255948778863e-05   1.8717755462354909e-06   4.566637011916343e-06
-1.0431255948778863e-05   1.8717755462354909e-06   4.566637011916343e-06
-1.0431255948778863e-05   1.8717755462354909e-06   4.566637011916343e-06
-1.0621980716504932e-05   2.046633759105322e-06   1.1211562612007558e-05
-1.0621980716504932e-05   2.046633759105322e-06   1.1211562612007558e-05
-1.0621980716504932e-05   2.046633759105322e-06   1.1211562612007558e-05
-1.0621980716504932e-05   2.046633759105322e-06   1.1211562612007558e-05
-6.641976607655957e-06   1.6236834772198833e-06   4.831992599724021e-06
-6.641976607655957e-06   1.6236834772198833e-06   4.831992599724021e-06
-6.641976607655957e-06   1.6236834772198833e-06   4.831992599724021e-06
-6.641976607655957e-06   1.6236834772198833e-06   4.831992599724021e-06
-8.51987148806523e-06   1.9223458622561656e-06   7.782619969384764e-06
-8.51987148806523e-06   1.9223458622561656e-06   7.782619969384764e-06
-8.51987148806523e-06   1.9223458622561656e-06   7.782619969384764e-06
-8.51987148806523e-06   1.9223458622561656e-06   7.782619969384764e-06
-6.641976607655984e-06   2.046633759105322e-06   1.1465332781138908e-05
-6.641976607655984e-06   2.046633759105322e-06   1.1465332781138908e-05
-6.641976607655984e-06   2.046633759105322e-06   1.1465332781138908e-05
-6.641976607655984e-06   2.046633759105322e-06   1.1465332781138908e-05
-1.0621980716504932e-05   1.6236834772198833e-06   4.578222430592726e-06
-1.0621980716504932e-05   1.6236834772198833e-06   4.578222430592726e-06
-1.0621980716504932e-05   1.6236834772198833e-06   4.578222430592726e-06
-1.0621980716504932e-05   1.6236834772198833e-06   4.578222430592726e-06
-1.0847275133803869e-05   1.8279102479419433e-06   1.1579690160932262e-05
-1.0847275133803869e-05   1.8279102479419433e-06   1.1579690160932262e-05
-1.0847275133803869e-05   1.8279102479419433e-06   1.1579690160932262e-05
-1.0847275133803869e-05   1.8279102479419433e-06   1.1579690160932262e-05
-6.822067951291278e-06   1.3971937817601563e-06   5.129441403120446e-06
-6.822067951291278e-06   1.3971937817601563e-06   5.129441403120446e-06
-6.822067951291278e-06   1.3971937817601563e-06   5.129441403120446e-06
-6.822067951291278e-06   1.3971937817601563e-06   5.129441403120446e-06
-8.641959728369151e-06   1.747386091238267e-06   7.952478979230039e-06
-8.641959728369151e-06   1.747386091238267e-06   7.952478979230039e-06
-8.641959728369151e-06   1.747386091238267e-06   7.952478979230039e-06
-8.641959728369151e-06   1.747386091238267e-06   7.952478979230039e-06
-6.822067951291292e-06   1.8279102479419433e-06   1.183812004064129e-05
-6.822067951291292e-06   1.8279102479419433e-06   1.183812004064129e-05
-6.822067951291292e-06   1.8279102479419433e-06   1.183812004064129e-05
-6.822067951291292e-06   1.8279102479419433e-06   1.183812004064129e-05
-1.0847275133803815e-05   1.3971937817601563e-06   4.871011523411363e-06
-1.0847275133803815e-05   1.3971937817601563e-06   4.871011523411363e-06
-1.0847275133803815e-05   1.3971937817601563e-06   4.871011523411363e-06
-1.0847275133803815e-05   1.3971937817601563e-06   4.871011523411363e-06
-1.1039877078433577e-05   1.5823142573065645e-06   1.1931505691936749e-05
-1.1039877078433577e-05   1.5823142573065645e-06   1.1931505691936749e-05
-1.1039877078433577e-05   1.5823142573065645e-06   1.1931505691936749e-05
-1.1039877078433577e-05   1.5823142573065645e-06   1.1931505691936749e-05
-6.999231203856494e-06   1.1541674187773646e-06   5.453984004092662e-06
-6.999231203856494e-06   1.1541674187773646e-06   5.453984004092662e-06
-6.999231203856494e-06   1.1541674187773646e-06   5.453984004092662e-06
-6.999231203856494e-06   1.1541674187773646e-06   5.453984004092662e-06
-8.854715620037851e-06   1.5711089208581344e-06   8.296293129813449e-06
-8.854715620037851e-06   1.5711089208581344e-06   8.296293129813449e-06
-8.854715620037851e-06   1.5711089208581344e-06   8.296293129813449e-06
-8.854715620037851e-06   1.5711089208581344e-06   8.296293129813449e-06
-1.0431255948778917e-05   3.0092234035284217e-06   5.358224466439263e-06
-1.0431255948778917e-05   3.0092234035284217e-06   5.358224466439263e-06
-1.0431255948778917e-05   3.0092234035284217e-06   5.358224466439263e-06
-1.0431255948778917e-05   3.0092234035284217e-06   5.358224466439263e-06
-1.4035817996968497e-05   2.318157768827476e-06   -1.0640183280307455e-06
-1.4035817996968497e-05   2.318157768827476e-06   -1.0640183280307455e-06
-1.4035817996968497e-05   2.318157768827476e-06   -1.0640183280307455e-06
-1.4035817996968497e-05   2.318157768827476e-06   -1.0640183280307455e-06
-1.4526050596681904e-05   2.936592618818642e-06   6.625557191666733e-06
-1.4526050596681904e-05   2.936592618818642e-06   6.625557191666733e-06
-1.4526050596681904e-05   2.936592618818642e-06   6.625557191666733e-06
-1.4526050596681904e-05   2.936592618818642e-06   6.625557191666733e-06
-1.0621980716504905e-05   2.1925178761756812e-06   5.652189036242097e-07
-1.0621980716504905e-05   2.1925178761756812e-06   5.652189036242097e-07
-1.0621980716504905e-05   2.1925178761756812e-06   5.652189036242097e-07
-1.0621980716504905e-05   2.1925178761756812e-06   5.652189036242097e-07
-1.1951250836937085e-05   2.5640118494378106e-06   2.557772720387767e-06
-1.1951250836937085e-05   2.5640118494378106e-06   2.557772720387767e-06
-1.1951250836937085e-05   2.5640118494378106e-06   2.557772720387767e-06
-1.1951250836937085e-05   2.5640118494378106e-06   2.557772720387767e-06
-1.0621980716504905e-05   2.936592618818642e-06   7.072002037252477e-06
-1.0621980716504905e-05   2.936592618818642e-06   7.072002037252477e-06
-1.0621980716504905e-05   2.936592618818642e-06   7.072002037252477e-06
-1.0621980716504905e-05   2.936592618818642e-06   7.072002037252477e-06
-1.4526050596681904e-05   2.1925178761756812e-06   1.1877405803846562e-07
-1.4526050596681904e-05   2.1925178761756812e-06   1.1877405803846562e-07
-1.4526050596681904e-05   2.1925178761756812e-06   1.1877405803846562e-07
-1.4526050596681904e-05   2.1925178761756812e-06   1.1877405803846562e-07
-1.4946812044449101e-05   2.843622177293721e-06   7.841712583322937e-06
-1.4946812044449101e-05   2.843622177293721e-06   7.841712583322937e-06
-1.4946812044449101e-05   2.843622177293721e-06   7.841712583322937e-06
-1.4946812044449101e-05   2.843622177293721e-06   7.841712583322937e-06
-1.0847275133803815e-05   2.085638966402661e-06   1.463940992115577e-06
-1.0847275133803815e-05   2.085638966402661e-06   1.463940992115577e-06
-1.0847275133803815e-05   2.085638966402661e-06   1.463940992115577e-06
-1.0847275133803815e-05   2.085638966402661e-06   1.463940992115577e-06
-1.2424818361012069e-05   2.5327050212680053e-06   3.824940071210311e-06
-1.2424818361012069e-05   2.5327050212680053e-06   3.824940071210311e-06
-1.2424818361012069e-05   2.5327050212680053e-06   3.824940071210311e-06
-1.2424818361012069e-05   2.5327050212680053e-06   3.824940071210311e-06
-1.0847275133803842e-05   2.8436221772938294e-06   8.296502509857594e-06
-1.0847275133803842e-05   2.8436221772938294e-06   8.296502509857594e-06
-1.0847275133803842e-05   2.8436221772938294e-06   8.296502509857594e-06
-1.0847275133803842e-05   2.8436221772938294e-06   8.296502509857594e-06
-1.4946812044449101e-05   2.085638966402661e-06   1.0091510655808785e-06
-1.4946812044449101e-05   2.085638966402661e-06   1.0091510655808785e-06
-1.4946812044449101e-05   2.085638966402661e-06   1.0091510655808785e-06
-1.4946812044449101e-05   2.085638966402661e-06   1.0091510655808785e-06
-1.5448928120014537e-05   2.5283683832469893e-06   9.989829283291087e-06
-1.5448928120014537e-05   2.5283683832469893e-06   9.989829283291087e-06
-1.5448928120014537e-05   2.5283683832469893e-06   9.989829283291087e-06
-1.5448928120014537e-05   2.5283683832469893e-06   9.989829283291087e-06
-1.1039877078433523e-05   1.7918393083191445e-06   3.083328325612897e-06
-1.1039877078433523e-05   1.7918393083191445e-06   3.083328325612897e-06
-1.1039877078433523e-05   1.7918393083191445e-06   3.083328325612897e-06
-1.1039877078433523e-05   1.7918393083191445e-06   3.083328325612897e-06
-1.2536816125868983e-05   2.399085644131261e-06   5.213878936518191e-06
-1.2536816125868983e-05   2.399085644131261e-06   5.213878936518191e-06
-1.2536816125868983e-05   2.399085644131261e-06   5.213878936518191e-06
-1.2536816125868983e-05   2.399085644131261e-06   5.213878936518191e-06
1.4271790539447448e-06   -1.2415076545697727e-08   6.4630070537734815e-06
1.4271790539447448e-06   -1.2415076545697727e-08   6.4630070537734815e-06
1.4271790539447448e-06   -1.2415076545697727e-08   6.4630070537734815e-06
1.4271790539447448e-06   -1.2415076545697727e-08   6.4630070537734815e-06
-1.2125412229232656e-06   6.62341047008466e-07   2.468326933125907e-06
-1.2125412229232656e-06   6.62341047008466e-07   2.468326933125907e-06
-1.2125412229232656e-06   6.62341047008466e-07   2.468326933125907e-06
-1.2125412229232656e-06   6.62341047008466e-07   2.468326933125907e-06
-1.3613150481943953e-06   -2.522503281091092e-07   6.350651612403431e-06
-1.3613150481943953e-06   -2.522503281091092e-07   6.350651612403431e-06
-1.3613150481943953e-06   -2.522503281091092e-07   6.350651612403431e-06
-1.3613150481943953e-06   -2.522503281091092e-07   6.350651612403431e-06
9.767678444655263e-07   4.3840834058976033e-07   2.0394515900842887e-06
9.767678444655263e-07   4.3840834058976033e-07   2.0394515900842887e-06
9.767678444655263e-07   4.3840834058976033e-07   2.0394515900842887e-06
9.767678444655263e-07   4.3840834058976033e-07   2.0394515900842887e-06
-1.0960838468456748e-07   1.6998328419685384e-07   4.011133672503458e-06
-1.0960838468456748e-07   1.6998328419685384e-07   4.011133672503458e-06
-1.0960838468456748e-07   1.6998328419685384e-07   4.011133672503458e-06
-1.0960838468456748e-07   1.6998328419685384e-07   4.011133672503458e-06
9.767678444655263e-07   -2.522503281091092e-07   5.93625641118412e-06
9.767678444655263e-07   -2.522503281091092e-07   5.93625641118412e-06
9.767678444655263e-07   -2.522503281091092e-07   5.93625641118412e-06
9.767678444655263e-07   -2.522503281091092e-07   5.93625641118412e-06
-1.3613150481943953e-06   4.3840834058976033e-07   2.4538467913036064e-06
-1.3613150481943953e-06   4.3840834058976033e-07   2.4538467913036064e-06
-1.3613150481943953e-06   4.3840834058976033e-07   2.4538467913036064e-06
-1.3613150481943953e-06   4.3840834058976033e-07   2.4538467913036064e-06
-1.5455820517233876e-06   -3.5422579839434944e-07   6.169293398394977e-06
-1.5455820517233876e-06   -3.5422579839434944e-07   6.169293398394977e-06
-1.5455820517233876e-06   -3.5422579839434944e-07   6.169293398394977e-06
-1.5455820517233876e-06   -3.5422579839434944e-07   6.169293398394977e-06
5.846613821373299e-07   3.1717131050945603e-07   2.2160494099514726e-06
5.846613821373299e-07   3.1717131050945603e-07   2.2160494099514726e-06
5.846613821373299e-07   3.1717131050945603e-07   2.2160494099514726e-06
5.846613821373299e-07   3.1717131050945603e-07   2.2160494099514726e-06
-3.505607031779438e-07   7.471942483787191e-08   3.920224016879865e-06
-3.505607031779438e-07   7.471942483787191e-08   3.920224016879865e-06
-3.505607031779438e-07   7.471942483787191e-08   3.920224016879865e-06
-3.505607031779438e-07   7.471942483787191e-08   3.920224016879865e-06
5.846613821373366e-07   -3.5422579839434944e-07   5.76645513305265e-06
5.846613821373366e-07   -3.5422579839434944e-07   5.76645513305265e-06
5.846613821373366e-07   -3.5422579839434944e-07   5.76645513305265e-06
5.846613821373366e-07   -3.5422579839434944e-07   5.76645513305265e-06
-1.5455820517233842e-06   3.1717131050945603e-07   2.6188876752936976e-06
-1.5455820517233842e-06   3.1717131050945603e-07   2.6188876752936976e-06
-1.5455820517233842e-06   3.1717131050945603e-07   2.6188876752936976e-06
-1.5455820517233842e-06   3.1717131050945603e-07   2.6188876752936976e-06
-1.7004034806389472e-06   -5.213796882890193e-07   6.082388333090592e-06
-1.7004034806389472e-06   -5.213796882890193e-07   6.082388333090592e-06
-1.7004034806389472e-06   -5.213796882890193e-07   6.082388333090592e-06
-1.7004034806389472e-06   -5.213796882890193e-07   6.082388333090592e-06
9.174076129698442e-08   6.199772495011453e-08   2.745454815253928e-06
9.174076129698442e-08   6.199772495011453e-08   2.745454815253928e-06
9.174076129698442e-08   6.199772495011453e-08   2.745454815253928e-06
9.174076129698442e-08   6.199772495011453e-08   2.745454815253928e-06
-6.172337659347603e-07   -9.628641410228123e-09   3.9700548471229685e-06
-6.172337659347603e-07   -9.628641410228123e-09   3.9700548471229685e-06
-6.172337659347603e-07   -9.628641410228123e-09   3.9700548471229685e-06
-6.172337659347603e-07   -9.628641410228123e-09   3.9700548471229685e-06
-1.2125412229232656e-06   6.613034742675248e-07   1.0253576615180406e-05
-1.2125412229232656e-06   6.613034742675248e-07   1.0253576615180406e-05
-1.2125412229232656e-06   6.613034742675248e-07   1.0253576615180406e-05
-1.2125412229232656e-06   6.613034742675248e-07   1.0253576615180406e-05
-3.418003580463393e-06   7.983017465911348e-07   6.660004982674342e-06
-3.418003580463393e-06   7.983017465911348e-07   6.660004982674342e-06
-3.418003580463393e-06   7.983017465911348e-07   6.660004982674342e-06
-3.418003580463393e-06   7.983017465911348e-07   6.660004982674342e-06
-3.5312174813449283e-06   3.9219388745447784e-07   1.0221887560687309e-05
-3.5312174813449283e-06   3.9219388745447784e-07   1.0221887560687309e-05
-3.5312174813449283e-06   3.9219388745447784e-07   1.0221887560687309e-05
-3.5312174813449283e-06   3.9219388745447784e-07   1.0221887560687309e-05
-1.3613150481943953e-06   5.493215829196064e-07   6.5111068881573955e-06
-1.3613150481943953e-06   5.493215829196064e-07   6.5111068881573955e-06
-1.3613150481943953e-06   5.493215829196064e-07   6.5111068881573955e-06
-1.3613150481943953e-06   5.493215829196064e-07   6.5111068881573955e-06
-2.3970467065747295e-06   5.702504533407681e-07   8.224768996538588e-06
-2.3970467065747295e-06   5.702504533407681e-07   8.224768996538588e-06
-2.3970467065747295e-06   5.702504533407681e-07   8.224768996538588e-06
-2.3970467065747295e-06   5.702504533407681e-07   8.224768996538588e-06
-1.3613150481943953e-06   3.9219388745447784e-07   1.0127610943408243e-05
-1.3613150481943953e-06   3.9219388745447784e-07   1.0127610943408243e-05
-1.3613150481943953e-06   3.9219388745447784e-07   1.0127610943408243e-05
-1.3613150481943953e-06   3.9219388745447784e-07   1.0127610943408243e-05
-3.5312174813449215e-06   5.493215829196064e-07   6.605383505436414e-06
-3.5312174813449215e-06   5.493215829196064e-07   6.605383505436414e-06
-3.5312174813449215e-06   5.493215829196064e-07   6.605383505436414e-06
-3.5312174813449215e-06   5.493215829196064e-07   6.605383505436414e-06
-3.64813683836913e-06   1.6553683941753373e-07   1.0232774022848358e-05
-3.64813683836913e-06   1.6553683941753373e-07   1.0232774022848358e-05
-3.64813683836913e-06   1.6553683941753373e-07   1.0232774022848358e-05
-3.64813683836913e-06   1.6553683941753373e-07   1.0232774022848358e-05
-1.5455820517233842e-06   3.2131250280917865e-07   6.635050647070498e-06
-1.5455820517233842e-06   3.2131250280917865e-07   6.635050647070498e-06
-1.5455820517233842e-06   3.2131250280917865e-07   6.635050647070498e-06
-1.5455820517233842e-06   3.2131250280917865e-07   6.635050647070498e-06
-2.5129627742066517e-06   3.893813488720218e-07   8.20651054357173e-06
-2.5129627742066517e-06   3.893813488720218e-07   8.20651054357173e-06
-2.5129627742066517e-06   3.893813488720218e-07   8.20651054357173e-06
-2.5129627742066517e-06   3.893813488720218e-07   8.20651054357173e-06
-1.5455820517233876e-06   1.6553683941764215e-07   1.013930862481336e-05
-1.5455820517233876e-06   1.6553683941764215e-07   1.013930862481336e-05
-1.5455820517233876e-06   1.6553683941764215e-07   1.013930862481336e-05
-1.5455820517233876e-06   1.6553683941764215e-07   1.013930862481336e-05
-3.64813683836913e-06   3.2131250280917865e-07   6.728516045105418e-06
-3.64813683836913e-06   3.2131250280917865e-07   6.728516045105418e-06
-3.64813683836913e-06   3.2131250280917865e-07   6.728516045105418e-06
-3.64813683836913e-06   3.2131250280917865e-07   6.728516045105418e-06
-3.7632125262275238e-06   -6.436039473155936e-08   1.0422338120540304e-05
-3.7632125262275238e-06   -6.436039473155936e-08   1.0422338120540304e-05
-3.7632125262275238e-06   -6.436039473155936e-08   1.0422338120540304e-05
-3.7632125262275238e-06   -6.436039473155936e-08   1.0422338120540304e-05
-1.7004034806389455e-06   7.622705776815343e-08   6.899970573059496e-06
-1.7004034806389455e-06   7.622705776815343e-08   6.899970573059496e-06
-1.7004034806389455e-06   7.622705776815343e-08   6.899970573059496e-06
-1.7004034806389455e-06   7.622705776815343e-08   6.899970573059496e-06
-2.6280853788000035e-06   2.133574960725055e-07   8.363828807011982e-06
-2.6280853788000035e-06   2.133574960725055e-07   8.363828807011982e-06
-2.6280853788000035e-06   2.133574960725055e-07   8.363828807011982e-06
-2.6280853788000035e-06   2.133574960725055e-07   8.363828807011982e-06
-3.4180035804633795e-06   1.253406088845381e-06   1.1525495701203794e-05
-3.4180035804633795e-06   1.253406088845381e-06   1.1525495701203794e-05
-3.4180035804633795e-06   1.253406088845381e-06   1.1525495701203794e-05
-3.4180035804633795e-06   1.253406088845381e-06   1.1525495701203794e-05
-5.605725788090934e-06   9.693706611019876e-07   7.708870765178456e-06
-5.605725788090934e-06   9.693706611019876e-07   7.708870765178456e-06
-5.605725788090934e-06   9.693706611019876e-07   7.708870765178456e-06
-5.605725788090934e-06   9.693706611019876e-07   7.708870765178456e-06
-5.70221438194848e-06   1.0067490519116533e-06   1.1311578039379126e-05
-5.70221438194848e-06   1.0067490519116533e-06   1.1311578039379126e-05
-5.70221438194848e-06   1.0067490519116533e-06   1.1311578039379126e-05
-5.70221438194848e-06   1.0067490519116533e-06   1.1311578039379126e-05
-3.5312174813449215e-06   7.400860969419636e-07   7.85324764468836e-06
-3.5312174813449215e-06   7.400860969419636e-07   7.85324764468836e-06
-3.5312174813449215e-06   7.400860969419636e-07   7.85324764468836e-06
-3.5312174813449215e-06   7.400860969419636e-07   7.85324764468836e-06
-4.567285896933256e-06   9.717487292116612e-07   9.44103075797377e-06
-4.567285896933256e-06   9.717487292116612e-07   9.44103075797377e-06
-4.567285896933256e-06   9.717487292116612e-07   9.44103075797377e-06
-4.567285896933256e-06   9.717487292116612e-07   9.44103075797377e-06
-3.5312174813449215e-06   1.0067490519116533e-06   1.147157581236094e-05
-3.5312174813449215e-06   1.0067490519116533e-06   1.147157581236094e-05
-3.5312174813449215e-06   1.0067490519116533e-06   1.147157581236094e-05
-3.5312174813449215e-06   1.0067490519116533e-06   1.147157581236094e-05
-5.70221438194848e-06   7.400860969419636e-07   7.693249871706546e-06
-5.70221438194848e-06   7.400860969419636e-07   7.693249871706546e-06
-5.70221438194848e-06   7.400860969419636e-07   7.693249871706546e-06
-5.70221438194848e-06   7.400860969419636e-07   7.693249871706546e-06
-5.805348574555114e-06   7.613974976426047e-07   1.141911668222647e-05
-5.805348574555114e-06   7.613974976426047e-07   1.141911668222647e-05
-5.805348574555114e-06   7.613974976426047e-07   1.141911668222647e-05
-5.805348574555114e-06   7.613974976426047e-07   1.141911668222647e-05
-3.64813683836913e-06   5.072040422125562e-07   7.97627986184116e-06
-3.64813683836913e-06   5.072040422125562e-07   7.97627986184116e-06
-3.64813683836913e-06   5.072040422125562e-07   7.97627986184116e-06
-3.64813683836913e-06   5.072040422125562e-07   7.97627986184116e-06
-4.649768714586186e-06   7.889286847655294e-07   9.476631536671146e-06
-4.649768714586186e-06   7.889286847655294e-07   9.476631536671146e-06
-4.649768714586186e-06   7.889286847655294e-07   9.476631536671146e-06
-4.649768714586186e-06   7.889286847655294e-07   9.476631536671146e-06
-3.64813683836913e-06   7.613974976426047e-07   1.157163275548439e-05
-3.64813683836913e-06   7.613974976426047e-07   1.157163275548439e-05
-3.64813683836913e-06   7.613974976426047e-07   1.157163275548439e-05
-3.64813683836913e-06   7.613974976426047e-07   1.157163275548439e-05
-5.805348574555101e-06   5.072040422125562e-07   7.823763788583117e-06
-5.805348574555101e-06   5.072040422125562e-07   7.823763788583117e-06
-5.805348574555101e-06   5.072040422125562e-07   7.823763788583117e-06
-5.805348574555101e-06   5.072040422125562e-07   7.823763788583117e-06
-5.906369349758861e-06   5.268427360685798e-07   1.1648473174327148e-05
-5.906369349758861e-06   5.268427360685798e-07   1.1648473174327148e-05
-5.906369349758861e-06   5.268427360685798e-07   1.1648473174327148e-05
-5.906369349758861e-06   5.268427360685798e-07   1.1648473174327148e-05
-3.7632125262275238e-06   2.871526464634142e-07   8.220359188871449e-06
-3.7632125262275238e-06   2.871526464634142e-07   8.220359188871449e-06
-3.7632125262275238e-06   2.871526464634142e-07   8.220359188871449e-06
-3.7632125262275238e-06   2.871526464634142e-07   8.220359188871449e-06
-4.741614071414385e-06   6.091565140867324e-07   9.657826110275503e-06
-4.741614071414385e-06   6.091565140867324e-07   9.657826110275503e-06
-4.741614071414385e-06   6.091565140867324e-07   9.657826110275503e-06
-4.741614071414385e-06   6.091565140867324e-07   9.657826110275503e-06
-5.605725788090948e-06   1.8717755462354909e-06   9.978336009597321e-06
-5.605725788090948e-06   1.8717755462354909e-06   9.978336009597321e-06
-5.605725788090948e-06   1.8717755462354909e-06   9.978336009597321e-06
-5.605725788090948e-06   1.8717755462354909e-06   9.978336009597321e-06
-7.762246041764326e-06   1.3183077226213541e-06   6.05205489263982e-06
-7.762246041764326e-06   1.3183077226213541e-06   6.05205489263982e-06
-7.762246041764326e-06   1.3183077226213541e-06   6.05205489263982e-06
-7.762246041764326e-06   1.3183077226213541e-06   6.05205489263982e-06
-7.868494533953135e-06   1.6236834772198833e-06   9.686722635458974e-06
-7.868494533953135e-06   1.6236834772198833e-06   9.686722635458974e-06
-7.868494533953135e-06   1.6236834772198833e-06   9.686722635458974e-06
-7.868494533953135e-06   1.6236834772198833e-06   9.686722635458974e-06
-5.70221438194848e-06   1.0772568296229341e-06   6.404111704009434e-06
-5.70221438194848e-06   1.0772568296229341e-06   6.404111704009434e-06
-5.70221438194848e-06   1.0772568296229341e-06   6.404111704009434e-06
-5.70221438194848e-06   1.0772568296229341e-06   6.404111704009434e-06
-6.7203653708698135e-06   1.4582050606340262e-06   7.872461080271642e-06
-6.7203653708698135e-06   1.4582050606340262e-06   7.872461080271642e-06
-6.7203653708698135e-06   1.4582050606340262e-06   7.872461080271642e-06
-6.7203653708698135e-06   1.4582050606340262e-06   7.872461080271642e-06
-5.70221438194848e-06   1.6236834772197749e-06   1.0014578624017111e-05
-5.70221438194848e-06   1.6236834772197749e-06   1.0014578624017111e-05
-5.70221438194848e-06   1.6236834772197749e-06   1.0014578624017111e-05
-5.70221438194848e-06   1.6236834772197749e-06   1.0014578624017111e-05
-7.868494533953081e-06   1.0772568296229341e-06   6.076255715451256e-06
-7.868494533953081e-06   1.0772568296229341e-06   6.076255715451256e-06
-7.868494533953081e-06   1.0772568296229341e-06   6.076255715451256e-06
-7.868494533953081e-06   1.0772568296229341e-06   6.076255715451256e-06
-8.013947687227703e-06   1.3971937817601563e-06   1.0006221603169204e-05
-8.013947687227703e-06   1.3971937817601563e-06   1.0006221603169204e-05
-8.013947687227703e-06   1.3971937817601563e-06   1.0006221603169204e-05
-8.013947687227703e-06   1.3971937817601563e-06   1.0006221603169204e-05
-5.805348574555114e-06   8.620882746840776e-07   6.6462863862938744e-06
-5.805348574555114e-06   8.620882746840776e-07   6.6462863862938744e-06
-5.805348574555114e-06   8.620882746840776e-07   6.6462863862938744e-06
-5.805348574555114e-06   8.620882746840776e-07   6.6462863862938744e-06
-6.778016429059151e-06   1.2810727634252257e-06   8.016008783889265e-06
-6.778016429059151e-06   1.2810727634252257e-06   8.016008783889265e-06
-6.778016429059151e-06   1.2810727634252257e-06   8.016008783889265e-06
-6.778016429059151e-06   1.2810727634252257e-06   8.016008783889265e-06
-5.805348574555114e-06   1.3971937817601563e-06   1.0327284907414688e-05
-5.805348574555114e-06   1.3971937817601563e-06   1.0327284907414688e-05
-5.805348574555114e-06   1.3971937817601563e-06   1.0327284907414688e-05
-5.805348574555114e-06   1.3971937817601563e-06   1.0327284907414688e-05
-8.013947687227703e-06   8.620882746840776e-07   6.325223082048227e-06
-8.013947687227703e-06   8.620882746840776e-07   6.325223082048227e-06
-8.013947687227703e-06   8.620882746840776e-07   6.325223082048227e-06
-8.013947687227703e-06   8.620882746840776e-07   6.325223082048227e-06
-8.130233090123095e-06   1.154167418777473e-06   1.035907715772914e-05
-8.130233090123095e-06   1.154167418777473e-06   1.035907715772914e-05
-8.130233090123095e-06   1.154167418777473e-06   1.035907715772914e-05
-8.130233090123095e-06   1.154167418777473e-06   1.035907715772914e-05
-5.906369349758847e-06   6.421240927852808e-07   6.9598635860507185e-06
-5.906369349758847e-06   6.421240927852808e-07   6.9598635860507185e-06
-5.906369349758847e-06   6.421240927852808e-07   6.9598635860507185e-06
-5.906369349758847e-06   6.421240927852808e-07   6.9598635860507185e-06
-6.899253283546774e-06   1.1117920622188558e-06   8.332869360703923e-06
-6.899253283546774e-06   1.1117920622188558e-06   8.332869360703923e-06
-6.899253283546774e-06   1.1117920622188558e-06   8.332869360703923e-06
-6.899253283546774e-06   1.1117920622188558e-06   8.332869360703923e-06
-7.762246041764326e-06   2.3181577688273676e-06   4.430239356302231e-06
-7.762246041764326e-06   2.3181577688273676e-06   4.430239356302231e-06
-7.762246041764326e-06   2.3181577688273676e-06   4.430239356302231e-06
-7.762246041764326e-06   2.3181577688273676e-06   4.430239356302231e-06
-9.490937101266775e-06   1.571102280863157e-06   1.1008542976862894e-06
-9.490937101266775e-06   1.571102280863157e-06   1.1008542976862894e-06
-9.490937101266775e-06   1.571102280863157e-06   1.1008542976862894e-06
-9.490937101266775e-06   1.571102280863157e-06   1.1008542976862894e-06
-9.889516332367581e-06   2.1925178761756812e-06   5.204751053150959e-06
-9.889516332367581e-06   2.1925178761756812e-06   5.204751053150959e-06
-9.889516332367581e-06   2.1925178761756812e-06   5.204751053150959e-06
-9.889516332367581e-06   2.1925178761756812e-06   5.204751053150959e-06
-7.868494533953081e-06   1.4109044506097589e-06   2.3053494444663365e-06
-7.868494533953081e-06   1.4109044506097589e-06   2.3053494444663365e-06
-7.868494533953081e-06   1.4109044506097589e-06   2.3053494444663365e-06
-7.868494533953081e-06   1.4109044506097589e-06   2.3053494444663365e-06
-8.448232667266338e-06   1.851740570432052e-06   3.007077994761603e-06
-8.448232667266338e-06   1.851740570432052e-06   3.007077994761603e-06
-8.448232667266338e-06   1.851740570432052e-06   3.007077994761603e-06
-8.448232667266338e-06   1.851740570432052e-06   3.007077994761603e-06
-7.868494533953108e-06   2.1925178761756812e-06   5.67371910849035e-06
-7.868494533953108e-06   2.1925178761756812e-06   5.67371910849035e-06
-7.868494533953108e-06   2.1925178761756812e-06   5.67371910849035e-06
-7.868494533953108e-06   2.1925178761756812e-06   5.67371910849035e-06
-9.889516332367608e-06   1.4109044506097589e-06   1.8363813891268051e-06
-9.889516332367608e-06   1.4109044506097589e-06   1.8363813891268051e-06
-9.889516332367608e-06   1.4109044506097589e-06   1.8363813891268051e-06
-9.889516332367608e-06   1.4109044506097589e-06   1.8363813891268051e-06
-1.0230673014085124e-05   2.085638966402661e-06   6.127906706164554e-06
-1.0230673014085124e-05   2.085638966402661e-06   6.127906706164554e-06
-1.0230673014085124e-05   2.085638966402661e-06   6.127906706164554e-06
-1.0230673014085124e-05   2.085638966402661e-06   6.127906706164554e-06
-8.013947687227703e-06   1.3002316902212393e-06   2.904608860444265e-06
-8.013947687227703e-06   1.3002316902212393e-06   2.904608860444265e-06
-8.013947687227703e-06   1.3002316902212393e-06   2.904608860444265e-06
-8.013947687227703e-06   1.3002316902212393e-06   2.904608860444265e-06
-8.787739269788299e-06   1.7902222409320865e-06   3.900267167619069e-06
-8.787739269788299e-06   1.7902222409320865e-06   3.900267167619069e-06
-8.787739269788299e-06   1.7902222409320865e-06   3.900267167619069e-06
-8.787739269788299e-06   1.7902222409320865e-06   3.900267167619069e-06
-8.013947687227703e-06   2.085638966402661e-06   6.599151071873309e-06
-8.013947687227703e-06   2.085638966402661e-06   6.599151071873309e-06
-8.013947687227703e-06   2.085638966402661e-06   6.599151071873309e-06
-8.013947687227703e-06   2.085638966402661e-06   6.599151071873309e-06
-1.0230673014085178e-05   1.3002316902212935e-06   2.4333644947354148e-06
-1.0230673014085178e-05   1.3002316902212935e-06   2.4333644947354148e-06
-1.0230673014085178e-05   1.3002316902212935e-06   2.4333644947354148e-06
-1.0230673014085178e-05   1.3002316902212935e-06   2.4333644947354148e-06
-1.066278094010177e-05   1.791839308319036e-06   7.795930443001186e-06
-1.066278094010177e-05   1.791839308319036e-06   7.795930443001186e-06
-1.066278094010177e-05   1.791839308319036e-06   7.795930443001186e-06
-1.066278094010177e-05   1.791839308319036e-06   7.795930443001186e-06
-8.130233090123068e-06   1.0428740760428084e-06   4.024396499069025e-06
-8.130233090123068e-06   1.0428740760428084e-06   4.024396499069025e-06
-8.130233090123068e-06   1.0428740760428084e-06   4.024396499069025e-06
-8.130233090123068e-06   1.0428740760428084e-06   4.024396499069025e-06
-8.881835878092381e-06   1.6679207367108423e-06   4.902039815950438e-06
-8.881835878092381e-06   1.6679207367108423e-06   4.902039815950438e-06
-8.881835878092381e-06   1.6679207367108423e-06   4.902039815950438e-06
-8.881835878092381e-06   1.6679207367108423e-06   4.902039815950438e-06
-3.566019270857824e-06   6.62341047008466e-07   4.67456502300644e-06
-3.566019270857824e-06   6.62341047008466e-07   4.67456502300644e-06
-3.566019270857824e-06   6.62341047008466e-07   4.67456502300644e-06
-3.566019270857824e-06   6.62341047008466e-07   4.67456502300644e-06
-4.039152333610288e-06   1.276388306968427e-06   4.254438274394943e-06
-4.039152333610288e-06   1.276388306968427e-06   4.254438274394943e-06
-4.039152333610288e-06   1.276388306968427e-06   4.254438274394943e-06
-4.039152333610288e-06   1.276388306968427e-06   4.254438274394943e-06
-4.150041735527311e-06   4.3840834058976033e-07   4.9833490414730685e-06
-4.150041735527311e-06   4.3840834058976033e-07   4.9833490414730685e-06
-4.150041735527311e-06   4.3840834058976033e-07   4.9833490414730685e-06
-4.150041735527311e-06   4.3840834058976033e-07   4.9833490414730685e-06
-4.018896167286743e-06   9.92141103058335e-07   4.432533436924272e-06
-4.018896167286743e-06   9.92141103058335e-07   4.432533436924272e-06
-4.018896167286743e-06   9.92141103058335e-07   4.432533436924272e-06
-4.018896167286743e-06   9.92141103058335e-07   4.432533436924272e-06
-3.849752198648265e-06   7.846994187871398e-07   4.2750918330895495e-06
-3.849752198648265e-06   7.846994187871398e-07   4.2750918330895495e-06
-3.849752198648265e-06   7.846994187871398e-07   4.2750918330895495e-06
-3.849752198648265e-06   7.846994187871398e-07   4.2750918330895495e-06
-4.018896167286749e-06   4.3840834058976033e-07   4.651109383991821e-06
-4.018896167286749e-06   4.3840834058976033e-07   4.651109383991821e-06
-4.018896167286749e-06   4.3840834058976033e-07   4.651109383991821e-06
-4.018896167286749e-06   4.3840834058976033e-07   4.651109383991821e-06
-4.150041735527311e-06   9.92141103058335e-07   4.764773094405452e-06
-4.150041735527311e-06   9.92141103058335e-07   4.764773094405452e-06
-4.150041735527311e-06   9.92141103058335e-07   4.764773094405452e-06
-4.150041735527311e-06   9.92141103058335e-07   4.764773094405452e-06
-4.293695782050991e-06   3.1717131050945603e-07   5.118881421863828e-06
-4.293695782050991e-06   3.1717131050945603e-07   5.118881421863828e-06
-4.293695782050991e-06   3.1717131050945603e-07   5.118881421863828e-06
-4.293695782050991e-06   3.1717131050945603e-07   5.118881421863828e-06
-4.460979658048417e-06   7.976399448091933e-07   5.109406701279589e-06
-4.460979658048417e-06   7.976399448091933e-07   5.109406701279589e-06
-4.460979658048417e-06   7.976399448091933e-07   5.109406701279589e-06
-4.460979658048417e-06   7.976399448091933e-07   5.109406701279589e-06
-4.118529844818286e-06   6.626939408575913e-07   4.619624614933551e-06
-4.118529844818286e-06   6.626939408575913e-07   4.619624614933551e-06
-4.118529844818286e-06   6.626939408575913e-07   4.619624614933551e-06
-4.118529844818286e-06   6.626939408575913e-07   4.619624614933551e-06
-4.460979658048427e-06   3.1717131050945603e-07   4.830600241283834e-06
-4.460979658048427e-06   3.1717131050945603e-07   4.830600241283834e-06
-4.460979658048427e-06   3.1717131050945603e-07   4.830600241283834e-06
-4.460979658048427e-06   3.1717131050945603e-07   4.830600241283834e-06
-4.293695782050991e-06   7.976399448091933e-07   5.397687881859441e-06
-4.293695782050991e-06   7.976399448091933e-07   5.397687881859441e-06
-4.293695782050991e-06   7.976399448091933e-07   5.397687881859441e-06
-4.293695782050991e-06   7.976399448091933e-07   5.397687881859441e-06
-4.387669711626188e-06   6.199772495011453e-08   5.587290600154006e-06
-4.387669711626188e-06   6.199772495011453e-08   5.587290600154006e-06
-4.387669711626188e-06   6.199772495011453e-08   5.587290600154006e-06
-4.387669711626188e-06   6.199772495011453e-08   5.587290600154006e-06
-4.932700194764389e-06   3.203520887173363e-07   6.340662120457261e-06
-4.932700194764389e-06   3.203520887173363e-07   6.340662120457261e-06
-4.932700194764389e-06   3.203520887173363e-07   6.340662120457261e-06
-4.932700194764389e-06   3.203520887173363e-07   6.340662120457261e-06
-4.314637805558864e-06   5.154740410144272e-07   5.193484967069652e-06
-4.314637805558864e-06   5.154740410144272e-07   5.193484967069652e-06
-4.314637805558864e-06   5.154740410144272e-07   5.193484967069652e-06
-4.314637805558864e-06   5.154740410144272e-07   5.193484967069652e-06
-4.039152333610281e-06   7.983017465911348e-07   9.152472465136658e-06
-4.039152333610281e-06   7.983017465911348e-07   9.152472465136658e-06
-4.039152333610281e-06   7.983017465911348e-07   9.152472465136658e-06
-4.039152333610281e-06   7.983017465911348e-07   9.152472465136658e-06
-4.179516396394519e-06   3.31672185849524e-07   8.638554624051297e-06
-4.179516396394519e-06   3.31672185849524e-07   8.638554624051297e-06
-4.179516396394519e-06   3.31672185849524e-07   8.638554624051297e-06
-4.179516396394519e-06   3.31672185849524e-07   8.638554624051297e-06
-4.217560747389783e-06   5.493215829196064e-07   8.804082803049796e-06
-4.217560747389783e-06   5.493215829196064e-07   8.804082803049796e-06
-4.217560747389783e-06   5.493215829196064e-07   8.804082803049796e-06
-4.217560747389783e-06   5.493215829196064e-07   8.804082803049796e-06
-4.150041735527311e-06   1.551110241243569e-07   8.928077451889455e-06
-4.150041735527311e-06   1.551110241243569e-07   8.928077451889455e-06
-4.150041735527311e-06   1.551110241243569e-07   8.928077451889455e-06
-4.150041735527311e-06   1.551110241243569e-07   8.928077451889455e-06
-4.1357439327458775e-06   4.040074803658461e-07   8.754909906842165e-06
-4.1357439327458775e-06   4.040074803658461e-07   8.754909906842165e-06
-4.1357439327458775e-06   4.040074803658461e-07   8.754909906842165e-06
-4.1357439327458775e-06   4.040074803658461e-07   8.754909906842165e-06
-4.1500417355273055e-06   5.493215829195522e-07   9.040609138326729e-06
-4.1500417355273055e-06   5.493215829195522e-07   9.040609138326729e-06
-4.1500417355273055e-06   5.493215829195522e-07   9.040609138326729e-06
-4.1500417355273055e-06   5.493215829195522e-07   9.040609138326729e-06
-4.217560747389776e-06   1.551110241243569e-07   8.691551116612296e-06
-4.217560747389776e-06   1.551110241243569e-07   8.691551116612296e-06
-4.217560747389776e-06   1.551110241243569e-07   8.691551116612296e-06
-4.217560747389776e-06   1.551110241243569e-07   8.691551116612296e-06
-4.263964928638222e-06   3.2131250280917865e-07   8.914615315610966e-06
-4.263964928638222e-06   3.2131250280917865e-07   8.914615315610966e-06
-4.263964928638222e-06   3.2131250280917865e-07   8.914615315610966e-06
-4.263964928638222e-06   3.2131250280917865e-07   8.914615315610966e-06
-4.293695782050991e-06   -4.606929390689506e-08   9.184595815995119e-06
-4.293695782050991e-06   -4.606929390689506e-08   9.184595815995119e-06
-4.293695782050991e-06   -4.606929390689506e-08   9.184595815995119e-06
-4.293695782050991e-06   -4.606929390689506e-08   9.184595815995119e-06
-4.181566339755262e-06   2.596638785800514e-07   8.814273508676672e-06
-4.181566339755262e-06   2.596638785800514e-07   8.814273508676672e-06
-4.181566339755262e-06   2.596638785800514e-07   8.814273508676672e-06
-4.181566339755262e-06   2.596638785800514e-07   8.814273508676672e-06
-4.293695782050991e-06   3.2131250280912444e-07   9.135044393640416e-06
-4.293695782050991e-06   3.2131250280912444e-07   9.135044393640416e-06
-4.293695782050991e-06   3.2131250280912444e-07   9.135044393640416e-06
-4.293695782050991e-06   3.2131250280912444e-07   9.135044393640416e-06
-4.263964928638209e-06   -4.606929390694927e-08   8.96416673796548e-06
-4.263964928638209e-06   -4.606929390694927e-08   8.96416673796548e-06
-4.263964928638209e-06   -4.606929390694927e-08   8.96416673796548e-06
-4.263964928638209e-06   -4.606929390694927e-08   8.96416673796548e-06
-4.2998607387070826e-06   7.622705776815343e-08   9.161093752244943e-06
-4.2998607387070826e-06   7.622705776815343e-08   9.161093752244943e-06
-4.2998607387070826e-06   7.622705776815343e-08   9.161093752244943e-06
-4.2998607387070826e-06   7.622705776815343e-08   9.161093752244943e-06
-4.387669711626185e-06   -3.0824987185039485e-07   9.538128198214559e-06
-4.387669711626185e-06   -3.0824987185039485e-07   9.538128198214559e-06
-4.387669711626185e-06   -3.0824987185039485e-07   9.538128198214559e-06
-4.387669711626185e-06   -3.0824987185039485e-07   9.538128198214559e-06
-4.250593479675004e-06   9.218652161416523e-08   9.069405975550287e-06
-4.250593479675004e-06   9.218652161416523e-08   9.069405975550287e-06
-4.250593479675004e-06   9.218652161416523e-08   9.069405975550287e-06
-4.250593479675004e-06   9.218652161416523e-08   9.069405975550287e-06
-4.179516396394526e-06   9.693706611019876e-07   1.0091781767841918e-05
-4.179516396394526e-06   9.693706611019876e-07   1.0091781767841918e-05
-4.179516396394526e-06   9.693706611019876e-07   1.0091781767841918e-05
-4.179516396394526e-06   9.693706611019876e-07   1.0091781767841918e-05
-4.569798764279224e-06   9.412003198989776e-08   8.916160777233494e-06
-4.569798764279224e-06   9.412003198989776e-08   8.916160777233494e-06
-4.569798764279224e-06   9.412003198989776e-08   8.916160777233494e-06
-4.569798764279224e-06   9.412003198989776e-08   8.916160777233494e-06
-4.586296493579173e-06   7.400860969419636e-07   9.576202596525295e-06
-4.586296493579173e-06   7.400860969419636e-07   9.576202596525295e-06
-4.586296493579173e-06   7.400860969419636e-07   9.576202596525295e-06
-4.586296493579173e-06   7.400860969419636e-07   9.576202596525295e-06
-4.217560747389776e-06   -5.282114601864573e-08   9.43738736531933e-06
-4.217560747389776e-06   -5.282114601864573e-08   9.43738736531933e-06
-4.217560747389776e-06   -5.282114601864573e-08   9.43738736531933e-06
-4.217560747389776e-06   -5.282114601864573e-08   9.43738736531933e-06
-4.381720707202167e-06   4.2178535352289763e-07   9.426223398615024e-06
-4.381720707202167e-06   4.2178535352289763e-07   9.426223398615024e-06
-4.381720707202167e-06   4.2178535352289763e-07   9.426223398615024e-06
-4.381720707202167e-06   4.2178535352289763e-07   9.426223398615024e-06
-4.217560747389783e-06   7.400860969419636e-07   1.0051946942301633e-05
-4.217560747389783e-06   7.400860969419636e-07   1.0051946942301633e-05
-4.217560747389783e-06   7.400860969419636e-07   1.0051946942301633e-05
-4.217560747389783e-06   7.400860969419636e-07   1.0051946942301633e-05
-4.586296493579173e-06   -5.282114601869994e-08   8.961643019542964e-06
-4.586296493579173e-06   -5.282114601869994e-08   8.961643019542964e-06
-4.586296493579173e-06   -5.282114601869994e-08   8.961643019542964e-06
-4.586296493579173e-06   -5.282114601869994e-08   8.961643019542964e-06
-4.612001890613374e-06   5.072040422125562e-07   9.72088928043142e-06
-4.612001890613374e-06   5.072040422125562e-07   9.72088928043142e-06
-4.612001890613374e-06   5.072040422125562e-07   9.72088928043142e-06
-4.612001890613374e-06   5.072040422125562e-07   9.72088928043142e-06
-4.263964928638216e-06   -2.2861237764621681e-07   9.582317529054663e-06
-4.263964928638216e-06   -2.2861237764621681e-07   9.582317529054663e-06
-4.263964928638216e-06   -2.2861237764621681e-07   9.582317529054663e-06
-4.263964928638216e-06   -2.2861237764621681e-07   9.582317529054663e-06
-4.389374423428949e-06   2.771889747611028e-07   9.48785254226126e-06
-4.389374423428949e-06   2.771889747611028e-07   9.48785254226126e-06
-4.389374423428949e-06   2.771889747611028e-07   9.48785254226126e-06
-4.389374423428949e-06   2.771889747611028e-07   9.48785254226126e-06
-4.263964928638222e-06   5.072040422125562e-07   1.0162379132346532e-05
-4.263964928638222e-06   5.072040422125562e-07   1.0162379132346532e-05
-4.263964928638222e-06   5.072040422125562e-07   1.0162379132346532e-05
-4.263964928638222e-06   5.072040422125562e-07   1.0162379132346532e-05
-4.61200189061336e-06   -2.286123776461626e-07   9.140827677139401e-06
-4.61200189061336e-06   -2.286123776461626e-07   9.140827677139401e-06
-4.61200189061336e-06   -2.286123776461626e-07   9.140827677139401e-06
-4.61200189061336e-06   -2.286123776461626e-07   9.140827677139401e-06
-4.630592067948286e-06   2.871526464634684e-07   9.982586279589235e-06
-4.630592067948286e-06   2.871526464634684e-07   9.982586279589235e-06
-4.630592067948286e-06   2.871526464634684e-07   9.982586279589235e-06
-4.630592067948286e-06   2.871526464634684e-07   9.982586279589235e-06
-4.299860738707076e-06   -4.037533818162446e-07   9.845911014488292e-06
-4.299860738707076e-06   -4.037533818162446e-07   9.845911014488292e-06
-4.299860738707076e-06   -4.037533818162446e-07   9.845911014488292e-06
-4.299860738707076e-06   -4.037533818162446e-07   9.845911014488292e-06
-4.404612019316317e-06   1.2883296988171894e-07   9.7009446711513e-06
-4.404612019316317e-06   1.2883296988171894e-07   9.7009446711513e-06
-4.404612019316317e-06   1.2883296988171894e-07   9.7009446711513e-06
-4.404612019316317e-06   1.2883296988171894e-07   9.7009446711513e-06
-4.569798764279224e-06   1.3183077226213541e-06   8.241896212004516e-06
-4.569798764279224e-06   1.3183077226213541e-06   8.241896212004516e-06
-4.569798764279224e-06   1.3183077226213541e-06   8.241896212004516e-06
-4.569798764279224e-06   1.3183077226213541e-06   8.241896212004516e-06
-5.103527694150321e-06   4.3667973665561426e-07   6.823371203973305e-06
-5.103527694150321e-06   4.3667973665561426e-07   6.823371203973305e-06
-5.103527694150321e-06   4.3667973665561426e-07   6.823371203973305e-06
-5.103527694150321e-06   4.3667973665561426e-07   6.823371203973305e-06
-5.117484807415498e-06   1.0772568296229341e-06   7.786112388774634e-06
-5.117484807415498e-06   1.0772568296229341e-06   7.786112388774634e-06
-5.117484807415498e-06   1.0772568296229341e-06   7.786112388774634e-06
-5.117484807415498e-06   1.0772568296229341e-06   7.786112388774634e-06
-4.586296493579173e-06   2.423367628669572e-07   7.401750572434289e-06
-4.586296493579173e-06   2.423367628669572e-07   7.401750572434289e-06
-4.586296493579173e-06   2.423367628669572e-07   7.401750572434289e-06
-4.586296493579173e-06   2.423367628669572e-07   7.401750572434289e-06
-4.831776944860771e-06   7.850045318010955e-07   7.485283996543134e-06
-4.831776944860771e-06   7.850045318010955e-07   7.485283996543134e-06
-4.831776944860771e-06   7.850045318010955e-07   7.485283996543134e-06
-4.831776944860771e-06   7.850045318010955e-07   7.485283996543134e-06
-4.586296493579173e-06   1.0772568296229341e-06   8.287064428828128e-06
-4.586296493579173e-06   1.0772568296229341e-06   8.287064428828128e-06
-4.586296493579173e-06   1.0772568296229341e-06   8.287064428828128e-06
-4.586296493579173e-06   1.0772568296229341e-06   8.287064428828128e-06
-5.117484807415498e-06   2.423367628669572e-07   6.900798532380742e-06
-5.117484807415498e-06   2.423367628669572e-07   6.900798532380742e-06
-5.117484807415498e-06   2.423367628669572e-07   6.900798532380742e-06
-5.117484807415498e-06   2.423367628669572e-07   6.900798532380742e-06
-5.177498847959395e-06   8.620882746840776e-07   8.071462286321051e-06
-5.177498847959395e-06   8.620882746840776e-07   8.071462286321051e-06
-5.177498847959395e-06   8.620882746840776e-07   8.071462286321051e-06
-5.177498847959395e-06   8.620882746840776e-07   8.071462286321051e-06
-4.61200189061336e-06   7.550562164886738e-08   7.6009169492320336e-06
-4.61200189061336e-06   7.550562164886738e-08   7.6009169492320336e-06
-4.61200189061336e-06   7.550562164886738e-08   7.6009169492320336e-06
-4.61200189061336e-06   7.550562164886738e-08   7.6009169492320336e-06
-4.822992545574324e-06   6.263787523000212e-07   7.622044162442518e-06
-4.822992545574324e-06   6.263787523000212e-07   7.622044162442518e-06
-4.822992545574324e-06   6.263787523000212e-07   7.622044162442518e-06
-4.822992545574324e-06   6.263787523000212e-07   7.622044162442518e-06
-4.612001890613347e-06   8.620882746840776e-07   8.54341187814188e-06
-4.612001890613347e-06   8.620882746840776e-07   8.54341187814188e-06
-4.612001890613347e-06   8.620882746840776e-07   8.54341187814188e-06
-4.612001890613347e-06   8.620882746840776e-07   8.54341187814188e-06
-5.177498847959395e-06   7.550562164881317e-08   7.128967357410911e-06
-5.177498847959395e-06   7.550562164881317e-08   7.128967357410911e-06
-5.177498847959395e-06   7.550562164881317e-08   7.128967357410911e-06
-5.177498847959395e-06   7.550562164881317e-08   7.128967357410911e-06
-5.214801567694809e-06   6.421240927852265e-07   8.424863041460874e-06
-5.214801567694809e-06   6.421240927852265e-07   8.424863041460874e-06
-5.214801567694809e-06   6.421240927852265e-07   8.424863041460874e-06
-5.214801567694809e-06   6.421240927852265e-07   8.424863041460874e-06
-4.630592067948286e-06   -9.294538899938315e-08   7.892222230953974e-06
-4.630592067948286e-06   -9.294538899938315e-08   7.892222230953974e-06
-4.630592067948286e-06   -9.294538899938315e-08   7.892222230953974e-06
-4.630592067948286e-06   -9.294538899938315e-08   7.892222230953974e-06
-4.852496494207584e-06   4.841342783153861e-07   7.915815140997095e-06
-4.852496494207584e-06   4.841342783153861e-07   7.915815140997095e-06
-4.852496494207584e-06   4.841342783153861e-07   7.915815140997095e-06
-4.852496494207584e-06   4.841342783153861e-07   7.915815140997095e-06
-5.103527694150348e-06   1.571102280863157e-06   3.2099521182501296e-06
-5.103527694150348e-06   1.571102280863157e-06   3.2099521182501296e-06
-5.103527694150348e-06   1.571102280863157e-06   3.2099521182501296e-06
-5.103527694150348e-06   1.571102280863157e-06   3.2099521182501296e-06
-5.119242439879495e-06   7.290827219833831e-07   2.678549140040356e-06
-5.119242439879495e-06   7.290827219833831e-07   2.678549140040356e-06
-5.119242439879495e-06   7.290827219833831e-07   2.678549140040356e-06
-5.119242439879495e-06   7.290827219833831e-07   2.678549140040356e-06
-5.38287493194193e-06   1.4109044506097589e-06   3.5228805501347042e-06
-5.38287493194193e-06   1.4109044506097589e-06   3.5228805501347042e-06
-5.38287493194193e-06   1.4109044506097589e-06   3.5228805501347042e-06
-5.38287493194193e-06   1.4109044506097589e-06   3.5228805501347042e-06
-5.117484807415498e-06   5.903618378515305e-07   3.5728892435788633e-06
-5.117484807415498e-06   5.903618378515305e-07   3.5728892435788633e-06
-5.117484807415498e-06   5.903618378515305e-07   3.5728892435788633e-06
-5.117484807415498e-06   5.903618378515305e-07   3.5728892435788633e-06
-5.0117181627025616e-06   1.1087683080191922e-06   3.0855676202900736e-06
-5.0117181627025616e-06   1.1087683080191922e-06   3.0855676202900736e-06
-5.0117181627025616e-06   1.1087683080191922e-06   3.0855676202900736e-06
-5.0117181627025616e-06   1.1087683080191922e-06   3.0855676202900736e-06
-5.117484807415471e-06   1.410904450609813e-06   4.015206117789457e-06
-5.117484807415471e-06   1.410904450609813e-06   4.015206117789457e-06
-5.117484807415471e-06   1.410904450609813e-06   4.015206117789457e-06
-5.117484807415471e-06   1.410904450609813e-06   4.015206117789457e-06
-5.382874931941957e-06   5.903618378515305e-07   3.0805636759239616e-06
-5.382874931941957e-06   5.903618378515305e-07   3.0805636759239616e-06
-5.382874931941957e-06   5.903618378515305e-07   3.0805636759239616e-06
-5.382874931941957e-06   5.903618378515305e-07   3.0805636759239616e-06
-5.6137672533042e-06   1.3002316902212935e-06   4.170681300049209e-06
-5.6137672533042e-06   1.3002316902212935e-06   4.170681300049209e-06
-5.6137672533042e-06   1.3002316902212935e-06   4.170681300049209e-06
-5.6137672533042e-06   1.3002316902212935e-06   4.170681300049209e-06
-5.177498847959395e-06   4.99953749108278e-07   3.923734055808945e-06
-5.177498847959395e-06   4.99953749108278e-07   3.923734055808945e-06
-5.177498847959395e-06   4.99953749108278e-07   3.923734055808945e-06
-5.177498847959395e-06   4.99953749108278e-07   3.923734055808945e-06
-5.201633290350492e-06   1.0295953333835494e-06   3.646173175895443e-06
-5.201633290350492e-06   1.0295953333835494e-06   3.646173175895443e-06
-5.201633290350492e-06   1.0295953333835494e-06   3.646173175895443e-06
-5.201633290350492e-06   1.0295953333835494e-06   3.646173175895443e-06
-5.177498847959368e-06   1.3002316902212393e-06   4.650848064716899e-06
-5.177498847959368e-06   1.3002316902212393e-06   4.650848064716899e-06
-5.177498847959368e-06   1.3002316902212393e-06   4.650848064716899e-06
-5.177498847959368e-06   1.3002316902212393e-06   4.650848064716899e-06
-5.6137672533042e-06   4.99953749108278e-07   3.4435672911411737e-06
-5.6137672533042e-06   4.99953749108278e-07   3.4435672911411737e-06
-5.6137672533042e-06   4.99953749108278e-07   3.4435672911411737e-06
-5.6137672533042e-06   4.99953749108278e-07   3.4435672911411737e-06
-5.952347783510961e-06   1.0428740760428626e-06   5.35969421394867e-06
-5.952347783510961e-06   1.0428740760428626e-06   5.35969421394867e-06
-5.952347783510961e-06   1.0428740760428626e-06   5.35969421394867e-06
-5.952347783510961e-06   1.0428740760428626e-06   5.35969421394867e-06
-5.214801567694809e-06   3.146611824997661e-07   4.567378257047509e-06
-5.214801567694809e-06   3.146611824997661e-07   4.567378257047509e-06
-5.214801567694809e-06   3.146611824997661e-07   4.567378257047509e-06
-5.214801567694809e-06   3.146611824997661e-07   4.567378257047509e-06
-5.266306141723463e-06   9.32765857458869e-07   4.282356408785986e-06
-5.266306141723463e-06   9.32765857458869e-07   4.282356408785986e-06
-5.266306141723463e-06   9.32765857458869e-07   4.282356408785986e-06
-5.266306141723463e-06   9.32765857458869e-07   4.282356408785986e-06
-9.626531848660675e-06   1.2763883069683729e-06   3.960933182925474e-06
-9.626531848660675e-06   1.2763883069683729e-06   3.960933182925474e-06
-9.626531848660675e-06   1.2763883069683729e-06   3.960933182925474e-06
-9.626531848660675e-06   1.2763883069683729e-06   3.960933182925474e-06
-6.562699535703065e-06   1.7595793628206525e-06   9.357235004699496e-06
-6.562699535703065e-06   1.7595793628206525e-06   9.357235004699496e-06
-6.562699535703065e-06   1.7595793628206525e-06   9.357235004699496e-06
-6.562699535703065e-06   1.7595793628206525e-06   9.357235004699496e-06
-6.563979563610376e-06   9.92141103058335e-07   4.439857465833678e-06
-6.563979563610376e-06   9.92141103058335e-07   4.439857465833678e-06
-6.563979563610376e-06   9.92141103058335e-07   4.439857465833678e-06
-6.563979563610376e-06   9.92141103058335e-07   4.439857465833678e-06
-1.0639178657981385e-05   6.813363294071845e-07   1.1418338820642812e-05
-1.0639178657981385e-05   6.813363294071845e-07   1.1418338820642812e-05
-1.0639178657981385e-05   6.813363294071845e-07   1.1418338820642812e-05
-1.0639178657981385e-05   6.813363294071845e-07   1.1418338820642812e-05
-7.91598365433529e-06   1.0353903524363346e-06   6.667248067415184e-06
-7.91598365433529e-06   1.0353903524363346e-06   6.667248067415184e-06
-7.91598365433529e-06   1.0353903524363346e-06   6.667248067415184e-06
-7.91598365433529e-06   1.0353903524363346e-06   6.667248067415184e-06
-1.0639178657981405e-05   9.92141103058335e-07   4.626340330024395e-06
-1.0639178657981405e-05   9.92141103058335e-07   4.626340330024395e-06
-1.0639178657981405e-05   9.92141103058335e-07   4.626340330024395e-06
-1.0639178657981405e-05   9.92141103058335e-07   4.626340330024395e-06
-6.563979563610376e-06   6.813363294071845e-07   1.1231855956452122e-05
-6.563979563610376e-06   6.813363294071845e-07   1.1231855956452122e-05
-6.563979563610376e-06   6.813363294071845e-07   1.1231855956452122e-05
-6.563979563610376e-06   6.813363294071845e-07   1.1231855956452122e-05
-6.6647314807024925e-06   7.976399448091933e-07   4.938065137478364e-06
-6.6647314807024925e-06   7.976399448091933e-07   4.938065137478364e-06
-6.6647314807024925e-06   7.976399448091933e-07   4.938065137478364e-06
-6.6647314807024925e-06   7.976399448091933e-07   4.938065137478364e-06
-1.068678831460118e-05   4.777376978114495e-07   1.1833434542174779e-05
-1.068678831460118e-05   4.777376978114495e-07   1.1833434542174779e-05
-1.068678831460118e-05   4.777376978114495e-07   1.1833434542174779e-05
-1.068678831460118e-05   4.777376978114495e-07   1.1833434542174779e-05
-8.464974217372363e-06   6.352699413407882e-07   8.035891700675728e-06
-8.464974217372363e-06   6.352699413407882e-07   8.035891700675728e-06
-8.464974217372363e-06   6.352699413407882e-07   8.035891700675728e-06
-8.464974217372363e-06   6.352699413407882e-07   8.035891700675728e-06
-1.06867883146012e-05   7.976399448091933e-07   5.130006485677013e-06
-1.06867883146012e-05   7.976399448091933e-07   5.130006485677013e-06
-1.06867883146012e-05   7.976399448091933e-07   5.130006485677013e-06
-1.06867883146012e-05   7.976399448091933e-07   5.130006485677013e-06
-6.664731480702479e-06   4.777376978114495e-07   1.1641493193976157e-05
-6.664731480702479e-06   4.777376978114495e-07   1.1641493193976157e-05
-6.664731480702479e-06   4.777376978114495e-07   1.1641493193976157e-05
-6.664731480702479e-06   4.777376978114495e-07   1.1641493193976157e-05
-6.604632008033303e-06   3.203520887173363e-07   5.80730223660233e-06
-6.604632008033303e-06   3.203520887173363e-07   5.80730223660233e-06
-6.604632008033303e-06   3.203520887173363e-07   5.80730223660233e-06
-6.604632008033303e-06   3.203520887173363e-07   5.80730223660233e-06
-1.0819981567463739e-05   -3.9469489128009347e-07   1.3261913023651442e-05
-1.0819981567463739e-05   -3.9469489128009347e-07   1.3261913023651442e-05
-1.0819981567463739e-05   -3.9469489128009347e-07   1.3261913023651442e-05
-1.0819981567463739e-05   -3.9469489128009347e-07   1.3261913023651442e-05
-8.347149978468426e-06   2.940753012876333e-07   8.727264926451985e-06
-8.347149978468426e-06   2.940753012876333e-07   8.727264926451985e-06
-8.347149978468426e-06   2.940753012876333e-07   8.727264926451985e-06
-8.347149978468426e-06   2.940753012876333e-07   8.727264926451985e-06
-6.562699535703077e-06   3.316721858494698e-07   8.914941902538146e-06
-6.562699535703077e-06   3.316721858494698e-07   8.914941902538146e-06
-6.562699535703077e-06   3.316721858494698e-07   8.914941902538146e-06
-6.562699535703077e-06   3.316721858494698e-07   8.914941902538146e-06
-4.057416693041033e-06   -2.088187414558073e-06   1.163849754673035e-05
-4.057416693041033e-06   -2.088187414558073e-06   1.163849754673035e-05
-4.057416693041033e-06   -2.088187414558073e-06   1.163849754673035e-05
-4.057416693041033e-06   -2.088187414558073e-06   1.163849754673035e-05
-4.07282981775822e-06   1.5511102412441111e-07   7.478001007240812e-06
-4.07282981775822e-06   1.5511102412441111e-07   7.478001007240812e-06
-4.07282981775822e-06   1.5511102412441111e-07   7.478001007240812e-06
-4.07282981775822e-06   1.5511102412441111e-07   7.478001007240812e-06
-6.563979563610376e-06   -1.7201570026703628e-06   1.2755078066404716e-05
-6.563979563610376e-06   -1.7201570026703628e-06   1.2755078066404716e-05
-6.563979563610376e-06   -1.7201570026703628e-06   1.2755078066404716e-05
-6.563979563610376e-06   -1.7201570026703628e-06   1.2755078066404716e-05
-5.288729543515601e-06   -1.0347122889136598e-06   1.0218394537992706e-05
-5.288729543515601e-06   -1.0347122889136598e-06   1.0218394537992706e-05
-5.288729543515601e-06   -1.0347122889136598e-06   1.0218394537992706e-05
-5.288729543515601e-06   -1.0347122889136598e-06   1.0218394537992706e-05
-6.563979563610383e-06   1.5511102412441111e-07   8.60316182331759e-06
-6.563979563610383e-06   1.5511102412441111e-07   8.60316182331759e-06
-6.563979563610383e-06   1.5511102412441111e-07   8.60316182331759e-06
-6.563979563610383e-06   1.5511102412441111e-07   8.60316182331759e-06
-4.0728298177582e-06   -1.7201570026703628e-06   1.1629917250327843e-05
-4.0728298177582e-06   -1.7201570026703628e-06   1.1629917250327843e-05
-4.0728298177582e-06   -1.7201570026703628e-06   1.1629917250327843e-05
-4.0728298177582e-06   -1.7201570026703628e-06   1.1629917250327843e-05
-4.099082726711883e-06   -4.606929390689506e-08   7.699186840712317e-06
-4.099082726711883e-06   -4.606929390689506e-08   7.699186840712317e-06
-4.099082726711883e-06   -4.606929390689506e-08   7.699186840712317e-06
-4.099082726711883e-06   -4.606929390689506e-08   7.699186840712317e-06
-6.664731480702479e-06   -1.755713012076477e-06   1.3001054328264984e-05
-6.664731480702479e-06   -1.755713012076477e-06   1.3001054328264984e-05
-6.664731480702479e-06   -1.755713012076477e-06   1.3001054328264984e-05
-6.664731480702479e-06   -1.755713012076477e-06   1.3001054328264984e-05
-5.257469220196015e-06   -9.045191897434472e-07   1.0144900934021007e-05
-5.257469220196015e-06   -9.045191897434472e-07   1.0144900934021007e-05
-5.257469220196015e-06   -9.045191897434472e-07   1.0144900934021007e-05
-5.257469220196015e-06   -9.045191897434472e-07   1.0144900934021007e-05
-6.6647314807024925e-06   -4.606929390689506e-08   8.724973071614055e-06
-6.6647314807024925e-06   -4.606929390689506e-08   8.724973071614055e-06
-6.6647314807024925e-06   -4.606929390689506e-08   8.724973071614055e-06
-6.6647314807024925e-06   -4.606929390689506e-08   8.724973071614055e-06
-4.099082726711883e-06   -1.755713012076477e-06   1.1975268097363245e-05
-4.099082726711883e-06   -1.755713012076477e-06   1.1975268097363245e-05
-4.099082726711883e-06   -1.755713012076477e-06   1.1975268097363245e-05
-4.099082726711883e-06   -1.755713012076477e-06   1.1975268097363245e-05
-4.071373464271426e-06   -3.0824987185039485e-07   7.977508318975394e-06
-4.071373464271426e-06   -3.0824987185039485e-07   7.977508318975394e-06
-4.071373464271426e-06   -3.0824987185039485e-07   7.977508318975394e-06
-4.071373464271426e-06   -3.0824987185039485e-07   7.977508318975394e-06
-6.604632008033286e-06   -1.7619955003901828e-06   1.3071853269035652e-05
-6.604632008033286e-06   -1.7619955003901828e-06   1.3071853269035652e-05
-6.604632008033286e-06   -1.7619955003901828e-06   1.3071853269035652e-05
-6.604632008033286e-06   -1.7619955003901828e-06   1.3071853269035652e-05
-5.29282863202975e-06   -1.009001989125312e-06   1.0433718202270876e-05
-5.29282863202975e-06   -1.009001989125312e-06   1.0433718202270876e-05
-5.29282863202975e-06   -1.009001989125312e-06   1.0433718202270876e-05
-5.29282863202975e-06   -1.009001989125312e-06   1.0433718202270876e-05
-4.057416693041033e-06   9.412003198995197e-08   8.265782672943033e-06
-4.057416693041033e-06   9.412003198995197e-08   8.265782672943033e-06
-4.057416693041033e-06   9.412003198995197e-08   8.265782672943033e-06
-4.057416693041033e-06   9.412003198995197e-08   8.265782672943033e-06
-3.022349686706809e-06   -1.632413082617402e-06   8.954974481402379e-06
-3.022349686706809e-06   -1.632413082617402e-06   8.954974481402379e-06
-3.022349686706809e-06   -1.632413082617402e-06   8.954974481402379e-06
-3.022349686706809e-06   -1.632413082617402e-06   8.954974481402379e-06
-3.003623382679947e-06   -5.282114601864573e-08   7.293569177197466e-06
-3.003623382679947e-06   -5.282114601864573e-08   7.293569177197466e-06
-3.003623382679947e-06   -5.282114601864573e-08   7.293569177197466e-06
-3.003623382679947e-06   -5.282114601864573e-08   7.293569177197466e-06
-4.0728298177582e-06   -1.603267943935978e-06   1.000584798107835e-05
-4.0728298177582e-06   -1.603267943935978e-06   1.000584798107835e-05
-4.0728298177582e-06   -1.603267943935978e-06   1.000584798107835e-05
-4.0728298177582e-06   -1.603267943935978e-06   1.000584798107835e-05
-3.518560989228164e-06   -8.227480496698014e-07   8.613754663635301e-06
-3.518560989228164e-06   -8.227480496698014e-07   8.613754663635301e-06
-3.518560989228164e-06   -8.227480496698014e-07   8.613754663635301e-06
-3.518560989228164e-06   -8.227480496698014e-07   8.613754663635301e-06
-4.0728298177582e-06   -5.282114601864573e-08   8.223837255947832e-06
-4.0728298177582e-06   -5.282114601864573e-08   8.223837255947832e-06
-4.0728298177582e-06   -5.282114601864573e-08   8.223837255947832e-06
-4.0728298177582e-06   -5.282114601864573e-08   8.223837255947832e-06
-3.0036233826799606e-06   -1.603267943935978e-06   9.075579902327972e-06
-3.0036233826799606e-06   -1.603267943935978e-06   9.075579902327972e-06
-3.0036233826799606e-06   -1.603267943935978e-06   9.075579902327972e-06
-3.0036233826799606e-06   -1.603267943935978e-06   9.075579902327972e-06
-2.990349984376641e-06   -2.2861237764621681e-07   7.464368273657658e-06
-2.990349984376641e-06   -2.2861237764621681e-07   7.464368273657658e-06
-2.990349984376641e-06   -2.2861237764621681e-07   7.464368273657658e-06
-2.990349984376641e-06   -2.2861237764621681e-07   7.464368273657658e-06
-4.099082726711883e-06   -1.650227974552633e-06   1.0165225535693496e-05
-4.099082726711883e-06   -1.650227974552633e-06   1.0165225535693496e-05
-4.099082726711883e-06   -1.650227974552633e-06   1.0165225535693496e-05
-4.099082726711883e-06   -1.650227974552633e-06   1.0165225535693496e-05
-3.4958336133876856e-06   -8.729306017404848e-07   8.693431923132371e-06
-3.4958336133876856e-06   -8.729306017404848e-07   8.693431923132371e-06
-3.4958336133876856e-06   -8.729306017404848e-07   8.693431923132371e-06
-3.4958336133876856e-06   -8.729306017404848e-07   8.693431923132371e-06
-4.099082726711883e-06   -2.286123776461626e-07   8.317337631801486e-06
-4.099082726711883e-06   -2.286123776461626e-07   8.317337631801486e-06
-4.099082726711883e-06   -2.286123776461626e-07   8.317337631801486e-06
-4.099082726711883e-06   -2.286123776461626e-07   8.317337631801486e-06
-2.990349984376641e-06   -1.650227974552633e-06   9.312256177549671e-06
-2.990349984376641e-06   -1.650227974552633e-06   9.312256177549671e-06
-2.990349984376641e-06   -1.650227974552633e-06   9.312256177549671e-06
-2.990349984376641e-06   -1.650227974552633e-06   9.312256177549671e-06
-2.943337785050109e-06   -4.037533818161904e-07   7.730133538078716e-06
-2.943337785050109e-06   -4.037533818161904e-07   7.730133538078716e-06
-2.943337785050109e-06   -4.037533818161904e-07   7.730133538078716e-06
-2.943337785050109e-06   -4.037533818161904e-07   7.730133538078716e-06
-4.071373464271426e-06   -1.7134929733854496e-06   1.0396036758389057e-05
-4.071373464271426e-06   -1.7134929733854496e-06   1.0396036758389057e-05
-4.071373464271426e-06   -1.7134929733854496e-06   1.0396036758389057e-05
-4.071373464271426e-06   -1.7134929733854496e-06   1.0396036758389057e-05
-3.469890960537095e-06   -9.480732226776957e-07   8.934314068407233e-06
-3.469890960537095e-06   -9.480732226776957e-07   8.934314068407233e-06
-3.469890960537095e-06   -9.480732226776957e-07   8.934314068407233e-06
-3.469890960537095e-06   -9.480732226776957e-07   8.934314068407233e-06
-3.0223496867067955e-06   4.3667973665561426e-07   5.666050022497764e-06
-3.0223496867067955e-06   4.3667973665561426e-07   5.666050022497764e-06
-3.0223496867067955e-06   4.3667973665561426e-07   5.666050022497764e-06
-3.0223496867067955e-06   4.3667973665561426e-07   5.666050022497764e-06
-2.563763234167784e-06   -6.73600987220952e-07   5.764192342403609e-06
-2.563763234167784e-06   -6.73600987220952e-07   5.764192342403609e-06
-2.563763234167784e-06   -6.73600987220952e-07   5.764192342403609e-06
-2.563763234167784e-06   -6.73600987220952e-07   5.764192342403609e-06
-2.5182254789637797e-06   2.423367628669572e-07   5.117281660990062e-06
-2.5182254789637797e-06   2.423367628669572e-07   5.117281660990062e-06
-2.5182254789637797e-06   2.423367628669572e-07   5.117281660990062e-06
-2.5182254789637797e-06   2.423367628669572e-07   5.117281660990062e-06
-3.003623382679947e-06   -7.849883522976662e-07   6.542673236282538e-06
-3.003623382679947e-06   -7.849883522976662e-07   6.542673236282538e-06
-3.003623382679947e-06   -7.849883522976662e-07   6.542673236282538e-06
-3.003623382679947e-06   -7.849883522976662e-07   6.542673236282538e-06
-2.757152433831312e-06   -1.5428524317278995e-07   5.753466456059946e-06
-2.757152433831312e-06   -1.5428524317278995e-07   5.753466456059946e-06
-2.757152433831312e-06   -1.5428524317278995e-07   5.753466456059946e-06
-2.757152433831312e-06   -1.5428524317278995e-07   5.753466456059946e-06
-3.003623382679947e-06   2.423367628669572e-07   5.733676730088831e-06
-3.003623382679947e-06   2.423367628669572e-07   5.733676730088831e-06
-3.003623382679947e-06   2.423367628669572e-07   5.733676730088831e-06
-3.003623382679947e-06   2.423367628669572e-07   5.733676730088831e-06
-2.5182254789637797e-06   -7.849883522976662e-07   5.926278167183742e-06
-2.5182254789637797e-06   -7.849883522976662e-07   5.926278167183742e-06
-2.5182254789637797e-06   -7.849883522976662e-07   5.926278167183742e-06
-2.5182254789637797e-06   -7.849883522976662e-07   5.926278167183742e-06
-2.5032444894095658e-06   7.550562164881317e-08   5.356583083653715e-06
-2.5032444894095658e-06   7.550562164881317e-08   5.356583083653715e-06
-2.5032444894095658e-06   7.550562164881317e-08   5.356583083653715e-06
-2.5032444894095658e-06   7.550562164881317e-08   5.356583083653715e-06
-2.9903499843766273e-06   -8.709518151786859e-07   6.736300037361951e-06
-2.9903499843766273e-06   -8.709518151786859e-07   6.736300037361951e-06
-2.9903499843766273e-06   -8.709518151786859e-07   6.736300037361951e-06
-2.9903499843766273e-06   -8.709518151786859e-07   6.736300037361951e-06
-2.711683132604658e-06   -2.712979671052381e-07   5.912062975564332e-06
-2.711683132604658e-06   -2.712979671052381e-07   5.912062975564332e-06
-2.711683132604658e-06   -2.712979671052381e-07   5.912062975564332e-06
-2.711683132604658e-06   -2.712979671052381e-07   5.912062975564332e-06
-2.990349984376641e-06   7.550562164881317e-08   5.924457545750155e-06
-2.990349984376641e-06   7.550562164881317e-08   5.924457545750155e-06
-2.990349984376641e-06   7.550562164881317e-08   5.924457545750155e-06
-2.990349984376641e-06   7.550562164881317e-08   5.924457545750155e-06
-2.5032444894095658e-06   -8.709518151786587e-07   6.168425575265457e-06
-2.5032444894095658e-06   -8.709518151786587e-07   6.168425575265457e-06
-2.5032444894095658e-06   -8.709518151786587e-07   6.168425575265457e-06
-2.5032444894095658e-06   -8.709518151786587e-07   6.168425575265457e-06
-2.47244987229225e-06   -9.294538899943736e-08   5.657069964604914e-06
-2.47244987229225e-06   -9.294538899943736e-08   5.657069964604914e-06
-2.47244987229225e-06   -9.294538899943736e-08   5.657069964604914e-06
-2.47244987229225e-06   -9.294538899943736e-08   5.657069964604914e-06
-2.943337785050109e-06   -9.828094005118497e-07   6.9758015594419695e-06
-2.943337785050109e-06   -9.828094005118497e-07   6.9758015594419695e-06
-2.943337785050109e-06   -9.828094005118497e-07   6.9758015594419695e-06
-2.943337785050109e-06   -9.828094005118497e-07   6.9758015594419695e-06
-2.679850964588182e-06   -3.747344339247616e-07   6.171811878720034e-06
-2.679850964588182e-06   -3.747344339247616e-07   6.171811878720034e-06
-2.679850964588182e-06   -3.747344339247616e-07   6.171811878720034e-06
-2.679850964588182e-06   -3.747344339247616e-07   6.171811878720034e-06
-2.563763234167784e-06   7.290827219833831e-07   1.3602712595668382e-06
-2.563763234167784e-06   7.290827219833831e-07   1.3602712595668382e-06
-2.563763234167784e-06   7.290827219833831e-07   1.3602712595668382e-06
-2.563763234167784e-06   7.290827219833831e-07   1.3602712595668382e-06
-1.550654468090762e-06   -6.928266972947668e-08   2.5697666346674597e-06
-1.550654468090762e-06   -6.928266972947668e-08   2.5697666346674597e-06
-1.550654468090762e-06   -6.928266972947668e-08   2.5697666346674597e-06
-1.550654468090762e-06   -6.928266972947668e-08   2.5697666346674597e-06
-1.6462121706903635e-06   5.903618378515305e-07   1.3756658804275315e-06
-1.6462121706903635e-06   5.903618378515305e-07   1.3756658804275315e-06
-1.6462121706903635e-06   5.903618378515305e-07   1.3756658804275315e-06
-1.6462121706903635e-06   5.903618378515305e-07   1.3756658804275315e-06
-2.5182254789637797e-06   -9.914898174961245e-08   3.2427278859773834e-06
-2.5182254789637797e-06   -9.914898174961245e-08   3.2427278859773834e-06
-2.5182254789637797e-06   -9.914898174961245e-08   3.2427278859773834e-06
-2.5182254789637797e-06   -9.914898174961245e-08   3.2427278859773834e-06
-1.9983422414841253e-06   3.7631373912109275e-07   2.090978190988932e-06
-1.9983422414841253e-06   3.7631373912109275e-07   2.090978190988932e-06
-1.9983422414841253e-06   3.7631373912109275e-07   2.090978190988932e-06
-1.9983422414841253e-06   3.7631373912109275e-07   2.090978190988932e-06
-2.5182254789637797e-06   5.903618378515305e-07   1.7893723721881577e-06
-2.5182254789637797e-06   5.903618378515305e-07   1.7893723721881577e-06
-2.5182254789637797e-06   5.903618378515305e-07   1.7893723721881577e-06
-2.5182254789637797e-06   5.903618378515305e-07   1.7893723721881577e-06
-1.6462121706903906e-06   -9.914898174961245e-08   2.829021394216649e-06
-1.6462121706903906e-06   -9.914898174961245e-08   2.829021394216649e-06
-1.6462121706903906e-06   -9.914898174961245e-08   2.829021394216649e-06
-1.6462121706903906e-06   -9.914898174961245e-08   2.829021394216649e-06
-1.7258756059068464e-06   4.99953749108278e-07   1.7681380365791566e-06
-1.7258756059068464e-06   4.99953749108278e-07   1.7681380365791566e-06
-1.7258756059068464e-06   4.99953749108278e-07   1.7681380365791566e-06
-1.7258756059068464e-06   4.99953749108278e-07   1.7681380365791566e-06
-2.5032444894095658e-06   -1.387324933461206e-07   3.446964587889591e-06
-2.5032444894095658e-06   -1.387324933461206e-07   3.446964587889591e-06
-2.5032444894095658e-06   -1.387324933461206e-07   3.446964587889591e-06
-2.5032444894095658e-06   -1.387324933461206e-07   3.446964587889591e-06
-2.043496942835129e-06   3.092580704718527e-07   2.4119243386412333e-06
-2.043496942835129e-06   3.092580704718527e-07   2.4119243386412333e-06
-2.043496942835129e-06   3.092580704718527e-07   2.4119243386412333e-06
-2.043496942835129e-06   3.092580704718527e-07   2.4119243386412333e-06
-2.5032444894095658e-06   4.99953749108278e-07   2.1513497820518067e-06
-2.5032444894095658e-06   4.99953749108278e-07   2.1513497820518067e-06
-2.5032444894095658e-06   4.99953749108278e-07   2.1513497820518067e-06
-2.5032444894095658e-06   4.99953749108278e-07   2.1513497820518067e-06
-1.7258756059068193e-06   -1.387324933461206e-07   3.063752842416995e-06
-1.7258756059068193e-06   -1.387324933461206e-07   3.063752842416995e-06
-1.7258756059068193e-06   -1.387324933461206e-07   3.063752842416995e-06
-1.7258756059068193e-06   -1.387324933461206e-07   3.063752842416995e-06
-1.9055735686850767e-06   3.146611824997661e-07   2.4706855902095716e-06
-1.9055735686850767e-06   3.146611824997661e-07   2.4706855902095716e-06
-1.9055735686850767e-06   3.146611824997661e-07   2.4706855902095716e-06
-1.9055735686850767e-06   3.146611824997661e-07   2.4706855902095716e-06
-2.47244987229225e-06   -1.8964230009941327e-07   3.718061519114395e-06
-2.47244987229225e-06   -1.8964230009941327e-07   3.718061519114395e-06
-2.47244987229225e-06   -1.8964230009941327e-07   3.718061519114395e-06
-2.47244987229225e-06   -1.8964230009941327e-07   3.718061519114395e-06
-2.0564307602712794e-06   2.623698926686917e-07   2.7534890167518213e-06
-2.0564307602712794e-06   2.623698926686917e-07   2.7534890167518213e-06
-2.0564307602712794e-06   2.623698926686917e-07   2.7534890167518213e-06
-2.0564307602712794e-06   2.623698926686917e-07   2.7534890167518213e-06
-2.2904072262802163e-05   1.7595793628206525e-06   1.0227972362696528e-05
-2.2904072262802163e-05   1.7595793628206525e-06   1.0227972362696528e-05
-2.2904072262802163e-05   1.7595793628206525e-06   1.0227972362696528e-05
-2.2904072262802163e-05   1.7595793628206525e-06   1.0227972362696528e-05
-5.336934138921399e-06   -1.1698367653933695e-05   3.143176769244522e-05
-5.336934138921399e-06   -1.1698367653933695e-05   3.143176769244522e-05
-5.336934138921399e-06   -1.1698367653933695e-05   3.143176769244522e-05
-5.336934138921399e-06   -1.1698367653933695e-05   3.143176769244522e-05
-6.296742361733001e-06   6.813363294071845e-07   5.572936684422138e-06
-6.296742361733001e-06   6.813363294071845e-07   5.572936684422138e-06
-6.296742361733001e-06   6.813363294071845e-07   5.572936684422138e-06
-6.296742361733001e-06   6.813363294071845e-07   5.572936684422138e-06
-2.0889509875203323e-05   -9.169008707129337e-06   3.5804422895461195e-05
-2.0889509875203323e-05   -9.169008707129337e-06   3.5804422895461195e-05
-2.0889509875203323e-05   -9.169008707129337e-06   3.5804422895461195e-05
-2.0889509875203323e-05   -9.169008707129337e-06   3.5804422895461195e-05
-1.3915451869760612e-05   -4.56139255941187e-06   2.1416423197759533e-05
-1.3915451869760612e-05   -4.56139255941187e-06   2.1416423197759533e-05
-1.3915451869760612e-05   -4.56139255941187e-06   2.1416423197759533e-05
-1.3915451869760612e-05   -4.56139255941187e-06   2.1416423197759533e-05
-2.0889509875203286e-05   6.813363294071845e-07   1.1483143706344037e-05
-2.0889509875203286e-05   6.813363294071845e-07   1.1483143706344037e-05
-2.0889509875203286e-05   6.813363294071845e-07   1.1483143706344037e-05
-2.0889509875203286e-05   6.813363294071845e-07   1.1483143706344037e-05
-6.296742361733011e-06   -9.169008707129337e-06   2.9894215873539292e-05
-6.296742361733011e-06   -9.169008707129337e-06   2.9894215873539292e-05
-6.296742361733011e-06   -9.169008707129337e-06   2.9894215873539292e-05
-6.296742361733011e-06   -9.169008707129337e-06   2.9894215873539292e-05
-6.455391435632421e-06   4.777376978114766e-07   6.126929123997617e-06
-6.455391435632421e-06   4.777376978114766e-07   6.126929123997617e-06
-6.455391435632421e-06   4.777376978114766e-07   6.126929123997617e-06
-6.455391435632421e-06   4.777376978114766e-07   6.126929123997617e-06
-1.9713417059534527e-05   -7.960423215142164e-06   3.3286535044939926e-05
-1.9713417059534527e-05   -7.960423215142164e-06   3.3286535044939926e-05
-1.9713417059534527e-05   -7.960423215142164e-06   3.3286535044939926e-05
-1.9713417059534527e-05   -7.960423215142164e-06   3.3286535044939926e-05
-1.3512040933684421e-05   -4.3295576987166675e-06   2.0772388858667807e-05
-1.3512040933684421e-05   -4.3295576987166675e-06   2.0772388858667807e-05
-1.3512040933684421e-05   -4.3295576987166675e-06   2.0772388858667807e-05
-1.3512040933684421e-05   -4.3295576987166675e-06   2.0772388858667807e-05
-1.9713417059534493e-05   4.777376978114766e-07   1.1189825671769783e-05
-1.9713417059534493e-05   4.777376978114766e-07   1.1189825671769783e-05
-1.9713417059534493e-05   4.777376978114766e-07   1.1189825671769783e-05
-1.9713417059534493e-05   4.777376978114766e-07   1.1189825671769783e-05
-6.455391435632431e-06   -7.960423215142164e-06   2.8223638497167753e-05
-6.455391435632431e-06   -7.960423215142164e-06   2.8223638497167753e-05
-6.455391435632431e-06   -7.960423215142164e-06   2.8223638497167753e-05
-6.455391435632431e-06   -7.960423215142164e-06   2.8223638497167753e-05
-7.1043582941162475e-06   -3.9469489128006637e-07   7.657139008632633e-06
-7.1043582941162475e-06   -3.9469489128006637e-07   7.657139008632633e-06
-7.1043582941162475e-06   -3.9469489128006637e-07   7.657139008632633e-06
-7.1043582941162475e-06   -3.9469489128006637e-07   7.657139008632633e-06
-1.8200411157274157e-05   -6.348888398121715e-06   2.972307655133408e-05
-1.8200411157274157e-05   -6.348888398121715e-06   2.972307655133408e-05
-1.8200411157274157e-05   -6.348888398121715e-06   2.972307655133408e-05
-1.8200411157274157e-05   -6.348888398121715e-06   2.972307655133408e-05
-1.301368113121067e-05   -4.000180109389428e-06   1.9669301534655593e-05
-1.301368113121067e-05   -4.000180109389428e-06   1.9669301534655593e-05
-1.301368113121067e-05   -4.000180109389428e-06   1.9669301534655593e-05
-1.301368113121067e-05   -4.000180109389428e-06   1.9669301534655593e-05
-5.336934138921392e-06   -2.088187414558073e-06   5.886382454919301e-06
-5.336934138921392e-06   -2.088187414558073e-06   5.886382454919301e-06
-5.336934138921392e-06   -2.088187414558073e-06   5.886382454919301e-06
-5.336934138921392e-06   -2.088187414558073e-06   5.886382454919301e-06
-1.8451589079050706e-06   -3.7663114844900183e-06   1.0699133397987366e-05
-1.8451589079050706e-06   -3.7663114844900183e-06   1.0699133397987366e-05
-1.8451589079050706e-06   -3.7663114844900183e-06   1.0699133397987366e-05
-1.8451589079050706e-06   -3.7663114844900183e-06   1.0699133397987366e-05
-2.0803649373053306e-06   -1.7201570026703628e-06   5.167227387910882e-06
-2.0803649373053306e-06   -1.7201570026703628e-06   5.167227387910882e-06
-2.0803649373053306e-06   -1.7201570026703628e-06   5.167227387910882e-06
-2.0803649373053306e-06   -1.7201570026703628e-06   5.167227387910882e-06
-6.296742361733011e-06   -4.935042680110124e-06   1.4123454501754151e-05
-6.296742361733011e-06   -4.935042680110124e-06   1.4123454501754151e-05
-6.296742361733011e-06   -4.935042680110124e-06   1.4123454501754151e-05
-6.296742361733011e-06   -4.935042680110124e-06   1.4123454501754151e-05
-3.686680953303251e-06   -2.56449194448272e-06   8.35102171299474e-06
-3.686680953303251e-06   -2.56449194448272e-06   8.35102171299474e-06
-3.686680953303251e-06   -2.56449194448272e-06   8.35102171299474e-06
-3.686680953303251e-06   -2.56449194448272e-06   8.35102171299474e-06
-6.296742361732994e-06   -1.7201570026703628e-06   7.096158794374664e-06
-6.296742361732994e-06   -1.7201570026703628e-06   7.096158794374664e-06
-6.296742361732994e-06   -1.7201570026703628e-06   7.096158794374664e-06
-6.296742361732994e-06   -1.7201570026703628e-06   7.096158794374664e-06
-2.0803649373053306e-06   -4.935042680110124e-06   1.2194523095290308e-05
-2.0803649373053306e-06   -4.935042680110124e-06   1.2194523095290308e-05
-2.0803649373053306e-06   -4.935042680110124e-06   1.2194523095290308e-05
-2.0803649373053306e-06   -4.935042680110124e-06   1.2194523095290308e-05
-2.283347177005831e-06   -1.755713012076477e-06   5.812408033187402e-06
-2.283347177005831e-06   -1.755713012076477e-06   5.812408033187402e-06
-2.283347177005831e-06   -1.755713012076477e-06   5.812408033187402e-06
-2.283347177005831e-06   -1.755713012076477e-06   5.812408033187402e-06
-6.455391435632431e-06   -4.545850053908268e-06   1.4439897355997406e-05
-6.455391435632431e-06   -4.545850053908268e-06   1.4439897355997406e-05
-6.455391435632431e-06   -4.545850053908268e-06   1.4439897355997406e-05
-6.455391435632431e-06   -4.545850053908268e-06   1.4439897355997406e-05
-4.178733340335075e-06   -3.1169257223470604e-06   9.78811259823184e-06
-4.178733340335075e-06   -3.1169257223470604e-06   9.78811259823184e-06
-4.178733340335075e-06   -3.1169257223470604e-06   9.78811259823184e-06
-4.178733340335075e-06   -3.1169257223470604e-06   9.78811259823184e-06
-6.455391435632421e-06   -1.755713012076477e-06   7.486490258286471e-06
-6.455391435632421e-06   -1.755713012076477e-06   7.486490258286471e-06
-6.455391435632421e-06   -1.755713012076477e-06   7.486490258286471e-06
-6.455391435632421e-06   -1.755713012076477e-06   7.486490258286471e-06
-2.283347177005831e-06   -4.545850053908268e-06   1.2765815130898344e-05
-2.283347177005831e-06   -4.545850053908268e-06   1.2765815130898344e-05
-2.283347177005831e-06   -4.545850053908268e-06   1.2765815130898344e-05
-2.283347177005831e-06   -4.545850053908268e-06   1.2765815130898344e-05
-2.6167331771583116e-06   -1.7619955003902099e-06   6.375143577012088e-06
-2.6167331771583116e-06   -1.7619955003902099e-06   6.375143577012088e-06
-2.6167331771583116e-06   -1.7619955003902099e-06   6.375143577012088e-06
-2.6167331771583116e-06   -1.7619955003902099e-06   6.375143577012088e-06
-7.104358294116251e-06   -4.296935275395584e-06   1.537548263694516e-05
-7.104358294116251e-06   -4.296935275395584e-06   1.537548263694516e-05
-7.104358294116251e-06   -4.296935275395584e-06   1.537548263694516e-05
-7.104358294116251e-06   -4.296935275395584e-06   1.537548263694516e-05
-4.47703357105252e-06   -2.8489451999143468e-06   1.0127814053216864e-05
-4.47703357105252e-06   -2.8489451999143468e-06   1.0127814053216864e-05
-4.47703357105252e-06   -2.8489451999143468e-06   1.0127814053216864e-05
-4.47703357105252e-06   -2.8489451999143468e-06   1.0127814053216864e-05
-1.8451589079050706e-06   -1.632413082617402e-06   3.231904816396541e-06
-1.8451589079050706e-06   -1.632413082617402e-06   3.231904816396541e-06
-1.8451589079050706e-06   -1.632413082617402e-06   3.231904816396541e-06
-1.8451589079050706e-06   -1.632413082617402e-06   3.231904816396541e-06
-1.038070147395392e-06   -1.1313193729029473e-06   4.877708976408032e-06
-1.038070147395392e-06   -1.1313193729029473e-06   4.877708976408032e-06
-1.038070147395392e-06   -1.1313193729029473e-06   4.877708976408032e-06
-1.038070147395392e-06   -1.1313193729029473e-06   4.877708976408032e-06
-1.007741618191363e-06   -1.603267943935978e-06   3.6321910803117246e-06
-1.007741618191363e-06   -1.603267943935978e-06   3.6321910803117246e-06
-1.007741618191363e-06   -1.603267943935978e-06   3.6321910803117246e-06
-1.007741618191363e-06   -1.603267943935978e-06   3.6321910803117246e-06
-2.0803649373053306e-06   -1.4548796745187746e-06   5.330863650517955e-06
-2.0803649373053306e-06   -1.4548796745187746e-06   5.330863650517955e-06
-2.0803649373053306e-06   -1.4548796745187746e-06   5.330863650517955e-06
-2.0803649373053306e-06   -1.4548796745187746e-06   5.330863650517955e-06
-1.3974215000438662e-06   -1.3649040794705983e-06   4.1386392313865665e-06
-1.3974215000438662e-06   -1.3649040794705983e-06   4.1386392313865665e-06
-1.3974215000438662e-06   -1.3649040794705983e-06   4.1386392313865665e-06
-1.3974215000438662e-06   -1.3649040794705983e-06   4.1386392313865665e-06
-2.0803649373053306e-06   -1.603267943935978e-06   3.543158118661383e-06
-2.0803649373053306e-06   -1.603267943935978e-06   3.543158118661383e-06
-2.0803649373053306e-06   -1.603267943935978e-06   3.543158118661383e-06
-2.0803649373053306e-06   -1.603267943935978e-06   3.543158118661383e-06
-1.007741618191363e-06   -1.4548796745187746e-06   5.419896612168269e-06
-1.007741618191363e-06   -1.4548796745187746e-06   5.419896612168269e-06
-1.007741618191363e-06   -1.4548796745187746e-06   5.419896612168269e-06
-1.007741618191363e-06   -1.4548796745187746e-06   5.419896612168269e-06
-1.0197757386968013e-06   -1.650227974552633e-06   3.890260694884725e-06
-1.0197757386968013e-06   -1.650227974552633e-06   3.890260694884725e-06
-1.0197757386968013e-06   -1.650227974552633e-06   3.890260694884725e-06
-1.0197757386968013e-06   -1.650227974552633e-06   3.890260694884725e-06
-2.283347177005831e-06   -1.837069268940911e-06   6.108317868699342e-06
-2.283347177005831e-06   -1.837069268940911e-06   6.108317868699342e-06
-2.283347177005831e-06   -1.837069268940911e-06   6.108317868699342e-06
-2.283347177005831e-06   -1.837069268940911e-06   6.108317868699342e-06
-1.4945508966928363e-06   -1.4917164826922029e-06   4.586445729761775e-06
-1.4945508966928363e-06   -1.4917164826922029e-06   4.586445729761775e-06
-1.4945508966928363e-06   -1.4917164826922029e-06   4.586445729761775e-06
-1.4945508966928363e-06   -1.4917164826922029e-06   4.586445729761775e-06
-2.283347177005831e-06   -1.650227974552633e-06   4.0023654715176665e-06
-2.283347177005831e-06   -1.650227974552633e-06   4.0023654715176665e-06
-2.283347177005831e-06   -1.650227974552633e-06   4.0023654715176665e-06
-2.283347177005831e-06   -1.650227974552633e-06   4.0023654715176665e-06
-1.0197757386968013e-06   -1.837069268940911e-06   5.996213092066387e-06
-1.0197757386968013e-06   -1.837069268940911e-06   5.996213092066387e-06
-1.0197757386968013e-06   -1.837069268940911e-06   5.996213092066387e-06
-1.0197757386968013e-06   -1.837069268940911e-06   5.996213092066387e-06
-1.0539376148296811e-06   -1.7134929733854496e-06   4.280430885573376e-06
-1.0539376148296811e-06   -1.7134929733854496e-06   4.280430885573376e-06
-1.0539376148296811e-06   -1.7134929733854496e-06   4.280430885573376e-06
-1.0539376148296811e-06   -1.7134929733854496e-06   4.280430885573376e-06
-2.6167331771583116e-06   -2.1987322365787406e-06   7.176233714036975e-06
-2.6167331771583116e-06   -2.1987322365787406e-06   7.176233714036975e-06
-2.6167331771583116e-06   -2.1987322365787406e-06   7.176233714036975e-06
-2.6167331771583116e-06   -2.1987322365787406e-06   7.176233714036975e-06
-1.6076716321308178e-06   -1.6195025283308098e-06   5.146926647375783e-06
-1.6076716321308178e-06   -1.6195025283308098e-06   5.146926647375783e-06
-1.6076716321308178e-06   -1.6195025283308098e-06   5.146926647375783e-06
-1.6076716321308178e-06   -1.6195025283308098e-06   5.146926647375783e-06
-1.038070147395392e-06   -6.73600987220952e-07   1.0079473375523699e-06
-1.038070147395392e-06   -6.73600987220952e-07   1.0079473375523699e-06
-1.038070147395392e-06   -6.73600987220952e-07   1.0079473375523699e-06
-1.038070147395392e-06   -6.73600987220952e-07   1.0079473375523699e-06
-7.904872826177637e-07   1.0437353025619922e-07   1.8873701560013405e-06
-7.904872826177637e-07   1.0437353025619922e-07   1.8873701560013405e-06
-7.904872826177637e-07   1.0437353025619922e-07   1.8873701560013405e-06
-7.904872826177637e-07   1.0437353025619922e-07   1.8873701560013405e-06
-6.482811593934944e-07   -7.849883522976662e-07   1.559089507745064e-06
-6.482811593934944e-07   -7.849883522976662e-07   1.559089507745064e-06
-6.482811593934944e-07   -7.849883522976662e-07   1.559089507745064e-06
-6.482811593934944e-07   -7.849883522976662e-07   1.559089507745064e-06
-1.007741618191363e-06   -1.864652983297541e-08   1.6983851789293433e-06
-1.007741618191363e-06   -1.864652983297541e-08   1.6983851789293433e-06
-1.007741618191363e-06   -1.864652983297541e-08   1.6983851789293433e-06
-1.007741618191363e-06   -1.864652983297541e-08   1.6983851789293433e-06
-8.166347788018968e-07   -3.4373417957810103e-07   1.5749263697938446e-06
-8.166347788018968e-07   -3.4373417957810103e-07   1.5749263697938446e-06
-8.166347788018968e-07   -3.4373417957810103e-07   1.5749263697938446e-06
-8.166347788018968e-07   -3.4373417957810103e-07   1.5749263697938446e-06
-1.007741618191363e-06   -7.849883522976662e-07   1.0992844142662244e-06
-1.007741618191363e-06   -7.849883522976662e-07   1.0992844142662244e-06
-1.007741618191363e-06   -7.849883522976662e-07   1.0992844142662244e-06
-1.007741618191363e-06   -7.849883522976662e-07   1.0992844142662244e-06
-6.482811593934944e-07   -1.864652983297541e-08   2.158190272408115e-06
-6.482811593934944e-07   -1.864652983297541e-08   2.158190272408115e-06
-6.482811593934944e-07   -1.864652983297541e-08   2.158190272408115e-06
-6.482811593934944e-07   -1.864652983297541e-08   2.158190272408115e-06
-5.739722107946403e-07   -8.709518151786859e-07   1.7136557192376175e-06
-5.739722107946403e-07   -8.709518151786859e-07   1.7136557192376175e-06
-5.739722107946403e-07   -8.709518151786859e-07   1.7136557192376175e-06
-5.739722107946403e-07   -8.709518151786859e-07   1.7136557192376175e-06
-1.0197757386968013e-06   -2.0536654094428666e-07   2.0573104345338164e-06
-1.0197757386968013e-06   -2.0536654094428666e-07   2.0573104345338164e-06
-1.0197757386968013e-06   -2.0536654094428666e-07   2.0573104345338164e-06
-1.0197757386968013e-06   -2.0536654094428666e-07   2.0573104345338164e-06
-7.482523154274425e-07   -4.3434010477747377e-07   1.7421555340515376e-06
-7.482523154274425e-07   -4.3434010477747377e-07   1.7421555340515376e-06
-7.482523154274425e-07   -4.3434010477747377e-07   1.7421555340515376e-06
-7.482523154274425e-07   -4.3434010477747377e-07   1.7421555340515376e-06
-1.0197757386968013e-06   -8.709518151786859e-07   1.31430455469694e-06
-1.0197757386968013e-06   -8.709518151786859e-07   1.31430455469694e-06
-1.0197757386968013e-06   -8.709518151786859e-07   1.31430455469694e-06
-1.0197757386968013e-06   -8.709518151786859e-07   1.31430455469694e-06
-5.739722107946403e-07   -2.0536654094428666e-07   2.4566615990744803e-06
-5.739722107946403e-07   -2.0536654094428666e-07   2.4566615990744803e-06
-5.739722107946403e-07   -2.0536654094428666e-07   2.4566615990744803e-06
-5.739722107946403e-07   -2.0536654094428666e-07   2.4566615990744803e-06
-4.6052827615345924e-07   -9.828094005118497e-07   1.8886399049012769e-06
-4.6052827615345924e-07   -9.828094005118497e-07   1.8886399049012769e-06
-4.6052827615345924e-07   -9.828094005118497e-07   1.8886399049012769e-06
-4.6052827615345924e-07   -9.828094005118497e-07   1.8886399049012769e-06
-1.0539376148296811e-06   -5.784752949559521e-07   2.635055006028179e-06
-1.0539376148296811e-06   -5.784752949559521e-07   2.635055006028179e-06
-1.0539376148296811e-06   -5.784752949559521e-07   2.635055006028179e-06
-1.0539376148296811e-06   -5.784752949559521e-07   2.635055006028179e-06
-6.967118347834682e-07   -5.689349622349239e-07   2.033954506318683e-06
-6.967118347834682e-07   -5.689349622349239e-07   2.033954506318683e-06
-6.967118347834682e-07   -5.689349622349239e-07   2.033954506318683e-06
-6.967118347834682e-07   -5.689349622349239e-07   2.033954506318683e-06
-7.904872826177637e-07   -6.928266972947668e-08   -1.2406744246696975e-06
-7.904872826177637e-07   -6.928266972947668e-08   -1.2406744246696975e-06
-7.904872826177637e-07   -6.928266972947668e-08   -1.2406744246696975e-06
-7.904872826177637e-07   -6.928266972947668e-08   -1.2406744246696975e-06
-1.6777485415994772e-07   1.0484971734391578e-07   -9.834094499597506e-08
-1.6777485415994772e-07   1.0484971734391578e-07   -9.834094499597506e-08
-1.6777485415994772e-07   1.0484971734391578e-07   -9.834094499597506e-08
-1.6777485415994772e-07   1.0484971734391578e-07   -9.834094499597506e-08
-2.8895616848107018e-08   -9.914898174961245e-08   -9.581121806309005e-07
-2.8895616848107018e-08   -9.914898174961245e-08   -9.581121806309005e-07
-2.8895616848107018e-08   -9.914898174961245e-08   -9.581121806309005e-07
-2.8895616848107018e-08   -9.914898174961245e-08   -9.581121806309005e-07
-6.482811593934944e-07   1.7809867296778712e-07   -9.215153588571249e-08
-6.482811593934944e-07   1.7809867296778712e-07   -9.215153588571249e-08
-6.482811593934944e-07   1.7809867296778712e-07   -9.215153588571249e-08
-6.482811593934944e-07   1.7809867296778712e-07   -9.215153588571249e-08
-3.7359371768978984e-07   5.0981233061777524e-08   -4.7369347478174286e-07
-3.7359371768978984e-07   5.0981233061777524e-08   -4.7369347478174286e-07
-3.7359371768978984e-07   5.0981233061777524e-08   -4.7369347478174286e-07
-3.7359371768978984e-07   5.0981233061777524e-08   -4.7369347478174286e-07
-6.482811593934944e-07   -9.914898174961245e-08   -1.1244607734614169e-06
-6.482811593934944e-07   -9.914898174961245e-08   -1.1244607734614169e-06
-6.482811593934944e-07   -9.914898174961245e-08   -1.1244607734614169e-06
-6.482811593934944e-07   -9.914898174961245e-08   -1.1244607734614169e-06
-2.8895616848079913e-08   1.7809867296778712e-07   7.419705694468185e-08
-2.8895616848079913e-08   1.7809867296778712e-07   7.419705694468185e-08
-2.8895616848079913e-08   1.7809867296778712e-07   7.419705694468185e-08
-2.8895616848079913e-08   1.7809867296778712e-07   7.419705694468185e-08
3.995232338919173e-08   -1.387324933461206e-07   -8.385691021210815e-07
3.995232338919173e-08   -1.387324933461206e-07   -8.385691021210815e-07
3.995232338919173e-08   -1.387324933461206e-07   -8.385691021210815e-07
3.995232338919173e-08   -1.387324933461206e-07   -8.385691021210815e-07
-5.739722107946403e-07   1.4332778334906106e-07   1.5402288834859106e-08
-5.739722107946403e-07   1.4332778334906106e-07   1.5402288834859106e-08
-5.739722107946403e-07   1.4332778334906106e-07   1.5402288834859106e-08
-5.739722107946403e-07   1.4332778334906106e-07   1.5402288834859106e-08
-2.729330307873291e-07   3.2548468528056603e-08   -4.1986208895131594e-07
-2.729330307873291e-07   3.2548468528056603e-08   -4.1986208895131594e-07
-2.729330307873291e-07   3.2548468528056603e-08   -4.1986208895131594e-07
-2.729330307873291e-07   3.2548468528056603e-08   -4.1986208895131594e-07
-5.739722107946403e-07   -1.387324933461206e-07   -1.0078052681381942e-06
-5.739722107946403e-07   -1.387324933461206e-07   -1.0078052681381942e-06
-5.739722107946403e-07   -1.387324933461206e-07   -1.0078052681381942e-06
-5.739722107946403e-07   -1.387324933461206e-07   -1.0078052681381942e-06
3.995232338916462e-08   1.4332778334906106e-07   1.8463845485194473e-07
3.995232338916462e-08   1.4332778334906106e-07   1.8463845485194473e-07
3.995232338916462e-08   1.4332778334906106e-07   1.8463845485194473e-07
3.995232338916462e-08   1.4332778334906106e-07   1.8463845485194473e-07
1.2305392006905125e-07   -1.8964230009944037e-07   -6.581686885084805e-07
1.2305392006905125e-07   -1.8964230009944037e-07   -6.581686885084805e-07
1.2305392006905125e-07   -1.8964230009944037e-07   -6.581686885084805e-07
1.2305392006905125e-07   -1.8964230009944037e-07   -6.581686885084805e-07
-4.6052827615345924e-07   1.0537943325119452e-07   1.3745526518523996e-07
-4.6052827615345924e-07   1.0537943325119452e-07   1.3745526518523996e-07
-4.6052827615345924e-07   1.0537943325119452e-07   1.3745526518523996e-07
-4.6052827615345924e-07   1.0537943325119452e-07   1.3745526518523996e-07
-1.8272716653452569e-07   8.476478445651578e-09   -2.674048112962218e-07
-1.8272716653452569e-07   8.476478445651578e-09   -2.674048112962218e-07
-1.8272716653452569e-07   8.476478445651578e-09   -2.674048112962218e-07
-1.8272716653452569e-07   8.476478445651578e-09   -2.674048112962218e-07
              </DataArray>   
             <DataArray type="Float64" NumberOfComponents="3" Name="Stress" format="ascii">   
-1.1963337128571736   -0.2990834282142934   -0.2990834282142934
-1.1963337128571736   -0.2990834282142934   -0.2990834282142934
-1.1963337128571736   -0.2990834282142934   -0.2990834282142934
-1.1963337128571736   -0.2990834282142934   -0.2990834282142934
-0.6920172982610545   -0.022536346268534374   -0.014114484599877408
-0.6920172982610545   -0.022536346268534374   -0.014114484599877408
-0.6920172982610545   -0.022536346268534374   -0.014114484599877408
-0.6920172982610545   -0.022536346268534374   -0.014114484599877408
-0.7453834114909664   -0.1863458528727416   -0.1863458528727416
-0.7453834114909664   -0.1863458528727416   -0.1863458528727416
-0.7453834114909664   -0.1863458528727416   -0.1863458528727416
-0.7453834114909664   -0.1863458528727416   -0.1863458528727416
-1.152783382124833   -0.09515011638838158   -0.03653959118646843
-1.152783382124833   -0.09515011638838158   -0.03653959118646843
-1.152783382124833   -0.09515011638838158   -0.03653959118646843
-1.152783382124833   -0.09515011638838158   -0.03653959118646843
-0.9039760348708482   -0.14848710255690212   -0.00252954201403182
-0.9039760348708482   -0.14848710255690212   -0.00252954201403182
-0.9039760348708482   -0.14848710255690212   -0.00252954201403182
-0.9039760348708482   -0.14848710255690212   -0.00252954201403182
-1.2516060451220723   -0.3129015112805181   -0.3129015112805181
-1.2516060451220723   -0.3129015112805181   -0.3129015112805181
-1.2516060451220723   -0.3129015112805181   -0.3129015112805181
-1.2516060451220723   -0.3129015112805181   -0.3129015112805181
-0.6700462425055214   0.007920048007602515   -0.003925908825860629
-0.6700462425055214   0.007920048007602515   -0.003925908825860629
-0.6700462425055214   0.007920048007602515   -0.003925908825860629
-0.6700462425055214   0.007920048007602515   -0.003925908825860629
-0.7471236809365995   -0.18678092023414988   -0.18678092023414988
-0.7471236809365995   -0.18678092023414988   -0.18678092023414988
-0.7471236809365995   -0.18678092023414988   -0.18678092023414988
-0.7471236809365995   -0.18678092023414988   -0.18678092023414988
-1.1911198484296117   -0.09594912981840342   -0.05349294967308006
-1.1911198484296117   -0.09594912981840342   -0.05349294967308006
-1.1911198484296117   -0.09594912981840342   -0.05349294967308006
-1.1911198484296117   -0.09594912981840342   -0.05349294967308006
-0.937304054263015   -0.1396723109006335   -0.049706076782437325
-0.937304054263015   -0.1396723109006335   -0.049706076782437325
-0.937304054263015   -0.1396723109006335   -0.049706076782437325
-0.937304054263015   -0.1396723109006335   -0.049706076782437325
-1.2902571472570188   -0.3225642868142547   -0.3225642868142547
-1.2902571472570188   -0.3225642868142547   -0.3225642868142547
-1.2902571472570188   -0.3225642868142547   -0.3225642868142547
-1.2902571472570188   -0.3225642868142547   -0.3225642868142547
-0.6677613071894724   0.02005931168142333   0.0031907165859126688
-0.6677613071894724   0.02005931168142333   0.0031907165859126688
-0.6677613071894724   0.02005931168142333   0.0031907165859126688
-0.6677613071894724   0.02005931168142333   0.0031907165859126688
-0.7463230773457048   -0.1865807693364262   -0.1865807693364262
-0.7463230773457048   -0.1865807693364262   -0.1865807693364262
-0.7463230773457048   -0.1865807693364262   -0.1865807693364262
-0.7463230773457048   -0.1865807693364262   -0.1865807693364262
-1.2597296288267938   -0.08389645223400993   -0.0322855734010707
-1.2597296288267938   -0.08389645223400993   -0.0322855734010707
-1.2597296288267938   -0.08389645223400993   -0.0322855734010707
-1.2597296288267938   -0.08389645223400993   -0.0322855734010707
-0.9618910785040169   -0.13738833547412732   -0.08976155168983685
-0.9618910785040169   -0.13738833547412732   -0.08976155168983685
-0.9618910785040169   -0.13738833547412732   -0.08976155168983685
-0.9618910785040169   -0.13738833547412732   -0.08976155168983685
-0.7607634800970815   -0.19019087002427038   -0.19019087002427038
-0.7607634800970815   -0.19019087002427038   -0.19019087002427038
-0.7607634800970815   -0.19019087002427038   -0.19019087002427038
-0.7607634800970815   -0.19019087002427038   -0.19019087002427038
-0.3178913241291326   -0.021554447500757357   -0.00696805462863739
-0.3178913241291326   -0.021554447500757357   -0.00696805462863739
-0.3178913241291326   -0.021554447500757357   -0.00696805462863739
-0.3178913241291326   -0.021554447500757357   -0.00696805462863739
-0.3332660782287299   -0.08331651955718247   -0.08331651955718247
-0.3332660782287299   -0.08331651955718247   -0.08331651955718247
-0.3332660782287299   -0.08331651955718247   -0.08331651955718247
-0.3332660782287299   -0.08331651955718247   -0.08331651955718247
-0.6923826253482797   -0.08167291189036174   -0.026014863141687716
-0.6923826253482797   -0.08167291189036174   -0.026014863141687716
-0.6923826253482797   -0.08167291189036174   -0.026014863141687716
-0.6923826253482797   -0.08167291189036174   -0.026014863141687716
-0.5109117215595017   -0.09692372004393668   0.003931618479499596
-0.5109117215595017   -0.09692372004393668   0.003931618479499596
-0.5109117215595017   -0.09692372004393668   0.003931618479499596
-0.5109117215595017   -0.09692372004393668   0.003931618479499596
-0.7453834114909658   -0.18634585287274144   -0.18634585287274144
-0.7453834114909658   -0.18634585287274144   -0.18634585287274144
-0.7453834114909658   -0.18634585287274144   -0.18634585287274144
-0.7453834114909658   -0.18634585287274144   -0.18634585287274144
-0.299591901026239   0.002029812485001531   -0.00029196558691206576
-0.299591901026239   0.002029812485001531   -0.00029196558691206576
-0.299591901026239   0.002029812485001531   -0.00029196558691206576
-0.299591901026239   0.002029812485001531   -0.00029196558691206576
-0.32547539818682814   -0.08136884954670703   -0.08136884954670703
-0.32547539818682814   -0.08136884954670703   -0.08136884954670703
-0.32547539818682814   -0.08136884954670703   -0.08136884954670703
-0.32547539818682814   -0.08136884954670703   -0.08136884954670703
-0.6902906364170583   -0.06653151721742122   -0.02286510065317277
-0.6902906364170583   -0.06653151721742122   -0.02286510065317277
-0.6902906364170583   -0.06653151721742122   -0.02286510065317277
-0.6902906364170583   -0.06653151721742122   -0.02286510065317277
-0.5034479876228781   -0.081524024602181   -0.026283591737176957
-0.5034479876228781   -0.081524024602181   -0.026283591737176957
-0.5034479876228781   -0.081524024602181   -0.026283591737176957
-0.5034479876228781   -0.081524024602181   -0.026283591737176957
-0.7471236809365995   -0.18678092023414988   -0.18678092023414988
-0.7471236809365995   -0.18678092023414988   -0.18678092023414988
-0.7471236809365995   -0.18678092023414988   -0.18678092023414988
-0.7471236809365995   -0.18678092023414988   -0.18678092023414988
-0.28736195692472627   0.020160950212582365   0.007668557004513004
-0.28736195692472627   0.020160950212582365   0.007668557004513004
-0.28736195692472627   0.020160950212582365   0.007668557004513004
-0.28736195692472627   0.020160950212582365   0.007668557004513004
-0.3183215992385926   -0.07958039980964815   -0.07958039980964815
-0.3183215992385926   -0.07958039980964815   -0.07958039980964815
-0.3183215992385926   -0.07958039980964815   -0.07958039980964815
-0.3183215992385926   -0.07958039980964815   -0.07958039980964815
-0.6848344209475463   -0.05123540681673498   -0.01448284986533398
-0.6848344209475463   -0.05123540681673498   -0.01448284986533398
-0.6848344209475463   -0.05123540681673498   -0.01448284986533398
-0.6848344209475463   -0.05123540681673498   -0.01448284986533398
-0.5055601333706677   -0.07204357052455715   -0.058505215934600584
-0.5055601333706677   -0.07204357052455715   -0.058505215934600584
-0.5055601333706677   -0.07204357052455715   -0.058505215934600584
-0.5055601333706677   -0.07204357052455715   -0.058505215934600584
-0.34687424855917137   -0.08671856213979284   -0.08671856213979284
-0.34687424855917137   -0.08671856213979284   -0.08671856213979284
-0.34687424855917137   -0.08671856213979284   -0.08671856213979284
-0.34687424855917137   -0.08671856213979284   -0.08671856213979284
0.04003198544843045   0.0024274575093051927   0.0003441089203822952
0.04003198544843045   0.0024274575093051927   0.0003441089203822952
0.04003198544843045   0.0024274575093051927   0.0003441089203822952
0.04003198544843045   0.0024274575093051927   0.0003441089203822952
0.052717887640721106   0.013179471910180277   0.013179471910180277
0.052717887640721106   0.013179471910180277   0.013179471910180277
0.052717887640721106   0.013179471910180277   0.013179471910180277
0.052717887640721106   0.013179471910180277   0.013179471910180277
-0.3132795650648241   -0.05413804998267645   -0.0125624233121595
-0.3132795650648241   -0.05413804998267645   -0.0125624233121595
-0.3132795650648241   -0.05413804998267645   -0.0125624233121595
-0.3132795650648241   -0.05413804998267645   -0.0125624233121595
-0.13468330707427772   -0.03414237148567128   0.02257764818079411
-0.13468330707427772   -0.03414237148567128   0.02257764818079411
-0.13468330707427772   -0.03414237148567128   0.02257764818079411
-0.13468330707427772   -0.03414237148567128   0.02257764818079411
-0.3332660782287299   -0.08331651955718247   -0.08331651955718247
-0.3332660782287299   -0.08331651955718247   -0.08331651955718247
-0.3332660782287299   -0.08331651955718247   -0.08331651955718247
-0.3332660782287299   -0.08331651955718247   -0.08331651955718247
0.05371119254406912   0.023364733224128444   0.007960735112971748
0.05371119254406912   0.023364733224128444   0.007960735112971748
0.05371119254406912   0.023364733224128444   0.007960735112971748
0.05371119254406912   0.023364733224128444   0.007960735112971748
0.059753700168163136   0.014938425042040784   0.014938425042040784
0.059753700168163136   0.014938425042040784   0.014938425042040784
0.059753700168163136   0.014938425042040784   0.014938425042040784
0.059753700168163136   0.014938425042040784   0.014938425042040784
-0.301877734211634   -0.03632857041371203   -0.008420808803733866
-0.301877734211634   -0.03632857041371203   -0.008420808803733866
-0.301877734211634   -0.03632857041371203   -0.008420808803733866
-0.301877734211634   -0.03632857041371203   -0.008420808803733866
-0.12885630667348477   -0.0210520253501931   -0.007826657380955757
-0.12885630667348477   -0.0210520253501931   -0.007826657380955757
-0.12885630667348477   -0.0210520253501931   -0.007826657380955757
-0.12885630667348477   -0.0210520253501931   -0.007826657380955757
-0.32547539818682814   -0.08136884954670703   -0.08136884954670703
-0.32547539818682814   -0.08136884954670703   -0.08136884954670703
-0.32547539818682814   -0.08136884954670703   -0.08136884954670703
-0.32547539818682814   -0.08136884954670703   -0.08136884954670703
0.06474126779496028   0.04136860782663912   0.013446080391427672
0.06474126779496028   0.04136860782663912   0.013446080391427672
0.06474126779496028   0.04136860782663912   0.013446080391427672
0.06474126779496028   0.04136860782663912   0.013446080391427672
0.06910030332225076   0.01727507583056269   0.01727507583056269
0.06910030332225076   0.01727507583056269   0.01727507583056269
0.06910030332225076   0.01727507583056269   0.01727507583056269
0.06910030332225076   0.01727507583056269   0.01727507583056269
-0.2894749892252843   -0.015117925045534109   0.00019017549277790605
-0.2894749892252843   -0.015117925045534109   0.00019017549277790605
-0.2894749892252843   -0.015117925045534109   0.00019017549277790605
-0.2894749892252843   -0.015117925045534109   0.00019017549277790605
-0.12464698113080683   -0.008431984649367539   -0.03795895755936893
-0.12464698113080683   -0.008431984649367539   -0.03795895755936893
-0.12464698113080683   -0.008431984649367539   -0.03795895755936893
-0.12464698113080683   -0.008431984649367539   -0.03795895755936893
0.0438640801805478   0.01096602004513695   0.01096602004513695
0.0438640801805478   0.01096602004513695   0.01096602004513695
0.0438640801805478   0.01096602004513695   0.01096602004513695
0.0438640801805478   0.01096602004513695   0.01096602004513695
0.4321264272890785   0.03969444161693229   0.01353157313665993
0.4321264272890785   0.03969444161693229   0.01353157313665993
0.4321264272890785   0.03969444161693229   0.01353157313665993
0.4321264272890785   0.03969444161693229   0.01353157313665993
0.46959259759253646   0.11739814939813412   0.11739814939813412
0.46959259759253646   0.11739814939813412   0.11739814939813412
0.46959259759253646   0.11739814939813412   0.11739814939813412
0.46959259759253646   0.11739814939813412   0.11739814939813412
0.040127592885874794   -0.030391890716568244   -0.00620063923730362
0.040127592885874794   -0.030391890716568244   -0.00620063923730362
0.040127592885874794   -0.030391890716568244   -0.00620063923730362
0.040127592885874794   -0.030391890716568244   -0.00620063923730362
0.2461134404122084   0.03066218645739586   0.0446274906142065
0.2461134404122084   0.03066218645739586   0.0446274906142065
0.2461134404122084   0.03066218645739586   0.0446274906142065
0.2461134404122084   0.03066218645739586   0.0446274906142065
0.05271788764072129   0.013179471910180323   0.013179471910180323
0.05271788764072129   0.013179471910180323   0.013179471910180323
0.05271788764072129   0.013179471910180323   0.013179471910180323
0.05271788764072129   0.013179471910180323   0.013179471910180323
0.43768699469221234   0.05451147862590791   0.02075680566873965
0.43768699469221234   0.05451147862590791   0.02075680566873965
0.43768699469221234   0.05451147862590791   0.02075680566873965
0.43768699469221234   0.05451147862590791   0.02075680566873965
0.4679669508560468   0.1169917377140117   0.1169917377140117
0.4679669508560468   0.1169917377140117   0.1169917377140117
0.4679669508560468   0.1169917377140117   0.1169917377140117
0.4679669508560468   0.1169917377140117   0.1169917377140117
0.051225500454032506   -0.012962332113925674   0.0001981836273536007
0.051225500454032506   -0.012962332113925674   0.0001981836273536007
0.051225500454032506   -0.012962332113925674   0.0001981836273536007
0.051225500454032506   -0.012962332113925674   0.0001981836273536007
0.24468982750606721   0.04038789569414034   0.011520355218467376
0.24468982750606721   0.04038789569414034   0.011520355218467376
0.24468982750606721   0.04038789569414034   0.011520355218467376
0.24468982750606721   0.04038789569414034   0.011520355218467376
0.059753700168163185   0.014938425042040796   0.014938425042040796
0.059753700168163185   0.014938425042040796   0.014938425042040796
0.059753700168163185   0.014938425042040796   0.014938425042040796
0.059753700168163185   0.014938425042040796   0.014938425042040796
0.4403112568885498   0.06996348630467897   0.025741519285859486
0.4403112568885498   0.06996348630467897   0.025741519285859486
0.4403112568885498   0.06996348630467897   0.025741519285859486
0.4403112568885498   0.06996348630467897   0.025741519285859486
0.47740052516227016   0.11935013129056754   0.11935013129056754
0.47740052516227016   0.11935013129056754   0.11935013129056754
0.47740052516227016   0.11935013129056754   0.11935013129056754
0.47740052516227016   0.11935013129056754   0.11935013129056754
0.06567668839518441   0.01006052839970702   0.007371548626086079
0.06567668839518441   0.01006052839970702   0.007371548626086079
0.06567668839518441   0.01006052839970702   0.007371548626086079
0.06567668839518441   0.01006052839970702   0.007371548626086079
0.24886166694690534   0.05488639452442072   -0.019175066783368267
0.24886166694690534   0.05488639452442072   -0.019175066783368267
0.24886166694690534   0.05488639452442072   -0.019175066783368267
0.24886166694690534   0.05488639452442072   -0.019175066783368267
0.4683124714870668   0.1170781178717667   0.1170781178717667
0.4683124714870668   0.1170781178717667   0.1170781178717667
0.4683124714870668   0.1170781178717667   0.1170781178717667
0.4683124714870668   0.1170781178717667   0.1170781178717667
0.9737455867254922   0.07434820523238397   0.025964669048426196
0.9737455867254922   0.07434820523238397   0.025964669048426196
0.9737455867254922   0.07434820523238397   0.025964669048426196
0.9737455867254922   0.07434820523238397   0.025964669048426196
0.9957614043252907   0.24894035108132267   0.24894035108132267
0.9957614043252907   0.24894035108132267   0.24894035108132267
0.9957614043252907   0.24894035108132267   0.24894035108132267
0.9957614043252907   0.24894035108132267   0.24894035108132267
0.41751473385225807   -0.023552805025860962   -0.0020402148792629075
0.41751473385225807   -0.023552805025860962   -0.0020402148792629075
0.41751473385225807   -0.023552805025860962   -0.0020402148792629075
0.41751473385225807   -0.023552805025860962   -0.0020402148792629075
0.6941506940156306   0.09838026148265532   0.07820698801769309
0.6941506940156306   0.09838026148265532   0.07820698801769309
0.6941506940156306   0.09838026148265532   0.07820698801769309
0.6941506940156306   0.09838026148265532   0.07820698801769309
0.4695925975925361   0.11739814939813402   0.11739814939813402
0.4695925975925361   0.11739814939813402   0.11739814939813402
0.4695925975925361   0.11739814939813402   0.11739814939813402
0.4695925975925361   0.11739814939813402   0.11739814939813402
0.9229668090993305   0.0872726651716488   0.04663506086121154
0.9229668090993305   0.0872726651716488   0.04663506086121154
0.9229668090993305   0.0872726651716488   0.04663506086121154
0.9229668090993305   0.0872726651716488   0.04663506086121154
0.9664749861312828   0.2416187465328207   0.2416187465328207
0.9664749861312828   0.2416187465328207   0.2416187465328207
0.9664749861312828   0.2416187465328207   0.2416187465328207
0.9664749861312828   0.2416187465328207   0.2416187465328207
0.4193393283495259   -0.012783011483001414   0.0036283743784205034
0.4193393283495259   -0.012783011483001414   0.0036283743784205034
0.4193393283495259   -0.012783011483001414   0.0036283743784205034
0.4193393283495259   -0.012783011483001414   0.0036283743784205034
0.6739940430013242   0.1013405523199584   0.037477599308071194
0.6739940430013242   0.1013405523199584   0.037477599308071194
0.6739940430013242   0.1013405523199584   0.037477599308071194
0.6739940430013242   0.1013405523199584   0.037477599308071194
0.4679669508560468   0.1169917377140117   0.1169917377140117
0.4679669508560468   0.1169917377140117   0.1169917377140117
0.4679669508560468   0.1169917377140117   0.1169917377140117
0.4679669508560468   0.1169917377140117   0.1169917377140117
0.8936750832998362   0.0876717170108847   0.03156626189753879
0.8936750832998362   0.0876717170108847   0.03156626189753879
0.8936750832998362   0.0876717170108847   0.03156626189753879
0.8936750832998362   0.0876717170108847   0.03156626189753879
0.9226062692763195   0.23065156731907988   0.23065156731907988
0.9226062692763195   0.23065156731907988   0.23065156731907988
0.9226062692763195   0.23065156731907988   0.23065156731907988
0.9226062692763195   0.23065156731907988   0.23065156731907988
0.435248619148407   0.014337031695770261   0.013603700816048999
0.435248619148407   0.014337031695770261   0.013603700816048999
0.435248619148407   0.014337031695770261   0.013603700816048999
0.435248619148407   0.014337031695770261   0.013603700816048999
0.6457745179737419   0.11002280443098246   -0.00993995986010136
0.6457745179737419   0.11002280443098246   -0.00993995986010136
0.6457745179737419   0.11002280443098246   -0.00993995986010136
0.6457745179737419   0.11002280443098246   -0.00993995986010136
-0.9421968368676278   -0.06752896754306667   0.011101947634035249
-0.9421968368676278   -0.06752896754306667   0.011101947634035249
-0.9421968368676278   -0.06752896754306667   0.011101947634035249
-0.9421968368676278   -0.06752896754306667   0.011101947634035249
-0.6002102244006756   -0.014315733736554953   -0.004055228513497794
-0.6002102244006756   -0.014315733736554953   -0.004055228513497794
-0.6002102244006756   -0.014315733736554953   -0.004055228513497794
-0.6002102244006756   -0.014315733736554953   -0.004055228513497794
-0.6038818437016202   0.024523004840310142   0.012924476533778269
-0.6038818437016202   0.024523004840310142   0.012924476533778269
-0.6038818437016202   0.024523004840310142   0.012924476533778269
-0.6038818437016202   0.024523004840310142   0.012924476533778269
-0.9560251803163203   -0.06546319942616588   -0.01153931250284733
-0.9560251803163203   -0.06546319942616588   -0.01153931250284733
-0.9560251803163203   -0.06546319942616588   -0.01153931250284733
-0.9560251803163203   -0.06546319942616588   -0.01153931250284733
-0.7451083697568713   -0.025594837207985416   -0.003207981380496827
-0.7451083697568713   -0.025594837207985416   -0.003207981380496827
-0.7451083697568713   -0.025594837207985416   -0.003207981380496827
-0.7451083697568713   -0.025594837207985416   -0.003207981380496827
-0.9488509409643526   -0.046068310794022516   0.004936995624847514
-0.9488509409643526   -0.046068310794022516   0.004936995624847514
-0.9488509409643526   -0.046068310794022516   0.004936995624847514
-0.9488509409643526   -0.046068310794022516   0.004936995624847514
-0.6120354069510315   0.004148792310725208   -0.00746912718368261
-0.6120354069510315   0.004148792310725208   -0.00746912718368261
-0.6120354069510315   0.004148792310725208   -0.00746912718368261
-0.6120354069510315   0.004148792310725208   -0.00746912718368261
-0.6043638900654827   0.03502704395954517   0.01463196085253525
-0.6043638900654827   0.03502704395954517   0.01463196085253525
-0.6043638900654827   0.03502704395954517   0.01463196085253525
-0.6043638900654827   0.03502704395954517   0.01463196085253525
-0.9614868064605271   -0.05757340730613922   -0.015209219999670981
-0.9614868064605271   -0.05757340730613922   -0.015209219999670981
-0.9614868064605271   -0.05757340730613922   -0.015209219999670981
-0.9614868064605271   -0.05757340730613922   -0.015209219999670981
-0.76573485773413   -0.01703803772984172   -0.007384702095714381
-0.76573485773413   -0.01703803772984172   -0.007384702095714381
-0.76573485773413   -0.01703803772984172   -0.007384702095714381
-0.76573485773413   -0.01703803772984172   -0.007384702095714381
-0.9439744587178412   -0.02738803304992632   0.04216714445753618
-0.9439744587178412   -0.02738803304992632   0.04216714445753618
-0.9439744587178412   -0.02738803304992632   0.04216714445753618
-0.9439744587178412   -0.02738803304992632   0.04216714445753618
-0.614641506569066   0.012076400942434368   -0.01380547864826423
-0.614641506569066   0.012076400942434368   -0.01380547864826423
-0.614641506569066   0.012076400942434368   -0.01380547864826423
-0.614641506569066   0.012076400942434368   -0.01380547864826423
-0.5931035364743368   0.06115412770336079   0.026341233933326928
-0.5931035364743368   0.06115412770336079   0.026341233933326928
-0.5931035364743368   0.06115412770336079   0.026341233933326928
-0.5931035364743368   0.06115412770336079   0.026341233933326928
-0.9344157146080087   -0.04624739772925973   -0.024764807682056564
-0.9344157146080087   -0.04624739772925973   -0.024764807682056564
-0.9344157146080087   -0.04624739772925973   -0.024764807682056564
-0.9344157146080087   -0.04624739772925973   -0.024764807682056564
-0.7360789567174988   0.00708750252539439   0.016394102389042528
-0.7360789567174988   0.00708750252539439   0.016394102389042528
-0.7360789567174988   0.00708750252539439   0.016394102389042528
-0.7360789567174988   0.00708750252539439   0.016394102389042528
-0.6149806820127287   -0.08168613184484395   -0.010537118465474237
-0.6149806820127287   -0.08168613184484395   -0.010537118465474237
-0.6149806820127287   -0.08168613184484395   -0.010537118465474237
-0.6149806820127287   -0.08168613184484395   -0.010537118465474237
-0.2839345363061033   -0.006619128081197613   0.0029403786317930333
-0.2839345363061033   -0.006619128081197613   0.0029403786317930333
-0.2839345363061033   -0.006619128081197613   0.0029403786317930333
-0.2839345363061033   -0.006619128081197613   0.0029403786317930333
-0.2878309998884727   0.005324339347777277   0.004419767589201429
-0.2878309998884727   0.005324339347777277   0.004419767589201429
-0.2878309998884727   0.005324339347777277   0.004419767589201429
-0.2878309998884727   0.005324339347777277   0.004419767589201429
-0.6270216520069215   -0.05974766072081819   -0.018503899431599614
-0.6270216520069215   -0.05974766072081819   -0.018503899431599614
-0.6270216520069215   -0.05974766072081819   -0.018503899431599614
-0.6270216520069215   -0.05974766072081819   -0.018503899431599614
-0.4534522872679351   -0.03696459126329258   -0.010520440889779504
-0.4534522872679351   -0.03696459126329258   -0.010520440889779504
-0.4534522872679351   -0.03696459126329258   -0.010520440889779504
-0.4534522872679351   -0.03696459126329258   -0.010520440889779504
-0.6263831788956653   -0.06523490740894122   -0.009824287187198522
-0.6263831788956653   -0.06523490740894122   -0.009824287187198522
-0.6263831788956653   -0.06523490740894122   -0.009824287187198522
-0.6263831788956653   -0.06523490740894122   -0.009824287187198522
-0.28735720572683554   0.01192385330879367   0.00018922443637373748
-0.28735720572683554   0.01192385330879367   0.00018922443637373748
-0.28735720572683554   0.01192385330879367   0.00018922443637373748
-0.28735720572683554   0.01192385330879367   0.00018922443637373748
-0.2865338572090443   0.01997457801116799   0.005908596281760076
-0.2865338572090443   0.01997457801116799   0.005908596281760076
-0.2865338572090443   0.01997457801116799   0.005908596281760076
-0.2865338572090443   0.01997457801116799   0.005908596281760076
-0.6270345683623344   -0.043663057286740484   -0.020031329385436895
-0.6270345683623344   -0.043663057286740484   -0.020031329385436895
-0.6270345683623344   -0.043663057286740484   -0.020031329385436895
-0.6270345683623344   -0.043663057286740484   -0.020031329385436895
-0.45235840980595926   -0.02052119934421555   -0.005010905922361107
-0.45235840980595926   -0.02052119934421555   -0.005010905922361107
-0.45235840980595926   -0.02052119934421555   -0.005010905922361107
-0.45235840980595926   -0.02052119934421555   -0.005010905922361107
-0.6245422272854024   -0.04921279293163264   -0.0020198883558848746
-0.6245422272854024   -0.04921279293163264   -0.0020198883558848746
-0.6245422272854024   -0.04921279293163264   -0.0020198883558848746
-0.6245422272854024   -0.04921279293163264   -0.0020198883558848746
-0.28695789426632046   0.02759261767571715   -0.0038296286691645934
-0.28695789426632046   0.02759261767571715   -0.0038296286691645934
-0.28695789426632046   0.02759261767571715   -0.0038296286691645934
-0.28695789426632046   0.02759261767571715   -0.0038296286691645934
-0.2815328362116361   0.034668664921288256   0.011735924088872068
-0.2815328362116361   0.034668664921288256   0.011735924088872068
-0.2815328362116361   0.034668664921288256   0.011735924088872068
-0.2815328362116361   0.034668664921288256   0.011735924088872068
-0.6200823225959943   -0.02507470577455491   -0.022323863197047943
-0.6200823225959943   -0.02507470577455491   -0.022323863197047943
-0.6200823225959943   -0.02507470577455491   -0.022323863197047943
-0.6200823225959943   -0.02507470577455491   -0.022323863197047943
-0.4502371706150483   -0.004956215871153247   0.002249285845815841
-0.4502371706150483   -0.004956215871153247   0.002249285845815841
-0.4502371706150483   -0.004956215871153247   0.002249285845815841
-0.4502371706150483   -0.004956215871153247   0.002249285845815841
-0.299311613147779   -0.06801909227130856   -0.012545041386476996
-0.299311613147779   -0.06801909227130856   -0.012545041386476996
-0.299311613147779   -0.06801909227130856   -0.012545041386476996
-0.299311613147779   -0.06801909227130856   -0.012545041386476996
0.029840045024673776   0.006770582529757161   0.01165857192223654
0.029840045024673776   0.006770582529757161   0.01165857192223654
0.029840045024673776   0.006770582529757161   0.01165857192223654
0.029840045024673776   0.006770582529757161   0.01165857192223654
0.028643338438223052   0.016953326024646484   0.000971553221408978
0.028643338438223052   0.016953326024646484   0.000971553221408978
0.028643338438223052   0.016953326024646484   0.000971553221408978
0.028643338438223052   0.016953326024646484   0.000971553221408978
-0.300379136615019   -0.044976550735002015   -0.00802002596075079
-0.300379136615019   -0.044976550735002015   -0.00802002596075079
-0.300379136615019   -0.044976550735002015   -0.00802002596075079
-0.300379136615019   -0.044976550735002015   -0.00802002596075079
-0.1366142298814556   -0.022635692255892865   -0.004387081125257325
-0.1366142298814556   -0.022635692255892865   -0.004387081125257325
-0.1366142298814556   -0.022635692255892865   -0.004387081125257325
-0.1366142298814556   -0.022635692255892865   -0.004387081125257325
-0.30246346813594954   -0.05178832732879224   -0.011629906971613025
-0.30246346813594954   -0.05178832732879224   -0.011629906971613025
-0.30246346813594954   -0.05178832732879224   -0.011629906971613025
-0.30246346813594954   -0.05178832732879224   -0.011629906971613025
0.031867903351736906   0.024905336011020553   0.009142367802604153
0.031867903351736906   0.024905336011020553   0.009142367802604153
0.031867903351736906   0.024905336011020553   0.009142367802604153
0.031867903351736906   0.024905336011020553   0.009142367802604153
0.03120859568749808   0.033052407443987   0.0053977505856292515
0.03120859568749808   0.033052407443987   0.0053977505856292515
0.03120859568749808   0.033052407443987   0.0053977505856292515
0.03120859568749808   0.033052407443987   0.0053977505856292515
-0.299178299611385   -0.027316060597067024   -0.010022977121708479
-0.299178299611385   -0.027316060597067024   -0.010022977121708479
-0.299178299611385   -0.027316060597067024   -0.010022977121708479
-0.299178299611385   -0.027316060597067024   -0.010022977121708479
-0.13426793260136768   -0.005541504168465432   0.0015534360548956428
-0.13426793260136768   -0.005541504168465432   0.0015534360548956428
-0.13426793260136768   -0.005541504168465432   0.0015534360548956428
-0.13426793260136768   -0.005541504168465432   0.0015534360548956428
-0.3000005754817268   -0.03546588360090061   -0.0059845334695839345
-0.3000005754817268   -0.03546588360090061   -0.0059845334695839345
-0.3000005754817268   -0.03546588360090061   -0.0059845334695839345
-0.3000005754817268   -0.03546588360090061   -0.0059845334695839345
0.03325997153397055   0.042431330423951204   0.00627570683802716
0.03325997153397055   0.042431330423951204   0.00627570683802716
0.03325997153397055   0.042431330423951204   0.00627570683802716
0.03325997153397055   0.042431330423951204   0.00627570683802716
0.03216610931651902   0.050941380198284494   0.008845603170068495
0.03216610931651902   0.050941380198284494   0.008845603170068495
0.03216610931651902   0.050941380198284494   0.008845603170068495
0.03216610931651902   0.050941380198284494   0.008845603170068495
-0.2950353900046107   -0.008453773835620841   -0.01265440611909033
-0.2950353900046107   -0.008453773835620841   -0.01265440611909033
-0.2950353900046107   -0.008453773835620841   -0.01265440611909033
-0.2950353900046107   -0.008453773835620841   -0.01265440611909033
-0.1306857971793125   0.012334257726823769   0.008057395475399477
-0.1306857971793125   0.012334257726823769   0.008057395475399477
-0.1306857971793125   0.012334257726823769   0.008057395475399477
-0.1306857971793125   0.012334257726823769   0.008057395475399477
0.013064421777144468   -0.04992838872493075   -0.01552057306072209
0.013064421777144468   -0.04992838872493075   -0.01552057306072209
0.013064421777144468   -0.04992838872493075   -0.01552057306072209
0.013064421777144468   -0.04992838872493075   -0.01552057306072209
0.35409353221225803   0.024302885199867903   0.02147296269729969
0.35409353221225803   0.024302885199867903   0.02147296269729969
0.35409353221225803   0.024302885199867903   0.02147296269729969
0.35409353221225803   0.024302885199867903   0.02147296269729969
0.3538635223270052   0.032899420607594286   -0.0034800120576223437
0.3538635223270052   0.032899420607594286   -0.0034800120576223437
0.3538635223270052   0.032899420607594286   -0.0034800120576223437
0.3538635223270052   0.032899420607594286   -0.0034800120576223437
0.01954503319746101   -0.0298434166738311   0.002276769716076335
0.01954503319746101   -0.0298434166738311   0.002276769716076335
0.01954503319746101   -0.0298434166738311   0.002276769716076335
0.01954503319746101   -0.0298434166738311   0.002276769716076335
0.18284592981059325   -0.0043767969389913106   0.0003125921618249688
0.18284592981059325   -0.0043767969389913106   0.0003125921618249688
0.18284592981059325   -0.0043767969389913106   0.0003125921618249688
0.18284592981059325   -0.0043767969389913106   0.0003125921618249688
0.01544492190808263   -0.036418114787996045   -0.011649088616650448
0.01544492190808263   -0.036418114787996045   -0.011649088616650448
0.01544492190808263   -0.036418114787996045   -0.011649088616650448
0.01544492190808263   -0.036418114787996045   -0.011649088616650448
0.3600268466527608   0.0415373317581361   0.01869869842061065
0.3600268466527608   0.0415373317581361   0.01869869842061065
0.3600268466527608   0.0415373317581361   0.01869869842061065
0.3600268466527608   0.0415373317581361   0.01869869842061065
0.3569460856914377   0.04883688941329719   0.003473706026062678
0.3569460856914377   0.04883688941329719   0.003473706026062678
0.3569460856914377   0.04883688941329719   0.003473706026062678
0.3569460856914377   0.04883688941329719   0.003473706026062678
0.020526214186736235   -0.014045593534660748   -0.0009161559395322403
0.020526214186736235   -0.014045593534660748   -0.0009161559395322403
0.020526214186736235   -0.014045593534660748   -0.0009161559395322403
0.020526214186736235   -0.014045593534660748   -0.0009161559395322403
0.18556620072331712   0.010848062317783725   0.0076154016612023255
0.18556620072331712   0.010848062317783725   0.0076154016612023255
0.18556620072331712   0.010848062317783725   0.0076154016612023255
0.18556620072331712   0.010848062317783725   0.0076154016612023255
0.01751424796200115   -0.02145711288114694   -0.008564467716721366
0.01751424796200115   -0.02145711288114694   -0.008564467716721366
0.01751424796200115   -0.02145711288114694   -0.008564467716721366
0.01751424796200115   -0.02145711288114694   -0.008564467716721366
0.36145336440641784   0.057743721250027025   0.017103267764226993
0.36145336440641784   0.057743721250027025   0.017103267764226993
0.36145336440641784   0.057743721250027025   0.017103267764226993
0.36145336440641784   0.057743721250027025   0.017103267764226993
0.3514455573192129   0.06722409258490308   0.007420500628036926
0.3514455573192129   0.06722409258490308   0.007420500628036926
0.3514455573192129   0.06722409258490308   0.007420500628036926
0.3514455573192129   0.06722409258490308   0.007420500628036926
0.020573097871150223   0.005474883434030143   -0.003652957292521117
0.020573097871150223   0.005474883434030143   -0.003652957292521117
0.020573097871150223   0.005474883434030143   -0.003652957292521117
0.020573097871150223   0.005474883434030143   -0.003652957292521117
0.1885836889339066   0.028244919466270443   0.014389833215456296
0.1885836889339066   0.028244919466270443   0.014389833215456296
0.1885836889339066   0.028244919466270443   0.014389833215456296
0.1885836889339066   0.028244919466270443   0.014389833215456296
0.3259241677678767   -0.06618600602814344   -0.028884968296595433
0.3259241677678767   -0.06618600602814344   -0.028884968296595433
0.3259241677678767   -0.06618600602814344   -0.028884968296595433
0.3259241677678767   -0.06618600602814344   -0.028884968296595433
0.6722820613901059   0.04441929299175569   0.021146058605338264
0.6722820613901059   0.04441929299175569   0.021146058605338264
0.6722820613901059   0.04441929299175569   0.021146058605338264
0.6722820613901059   0.04441929299175569   0.021146058605338264
0.6801892558351813   0.0206946819909936   -0.04347730177791441
0.6801892558351813   0.0206946819909936   -0.04347730177791441
0.6801892558351813   0.0206946819909936   -0.04347730177791441
0.6801892558351813   0.0206946819909936   -0.04347730177791441
0.34787941717942095   -0.013225566532261868   0.012724449344306322
0.34787941717942095   -0.013225566532261868   0.012724449344306322
0.34787941717942095   -0.013225566532261868   0.012724449344306322
0.34787941717942095   -0.013225566532261868   0.012724449344306322
0.48133761664435604   -0.008663955918947266   -0.012233663244013423
0.48133761664435604   -0.008663955918947266   -0.012233663244013423
0.48133761664435604   -0.008663955918947266   -0.012233663244013423
0.48133761664435604   -0.008663955918947266   -0.012233663244013423
0.33544110129241683   -0.04341502323880876   -0.0192776733841626
0.33544110129241683   -0.04341502323880876   -0.0192776733841626
0.33544110129241683   -0.04341502323880876   -0.0192776733841626
0.33544110129241683   -0.04341502323880876   -0.0192776733841626
0.6988548710211584   0.0571114379965144   0.013434018146450146
0.6988548710211584   0.0571114379965144   0.013434018146450146
0.6988548710211584   0.0571114379965144   0.013434018146450146
0.6988548710211584   0.0571114379965144   0.013434018146450146
0.6881143248589041   0.03821699910307247   -0.010146569200589213
0.6881143248589041   0.03821699910307247   -0.010146569200589213
0.6881143248589041   0.03821699910307247   -0.010146569200589213
0.6881143248589041   0.03821699910307247   -0.010146569200589213
0.34675457733740045   -0.005319770447286501   0.006672824116453875
0.34675457733740045   -0.005319770447286501   0.006672824116453875
0.34675457733740045   -0.005319770447286501   0.006672824116453875
0.34675457733740045   -0.005319770447286501   0.006672824116453875
0.5070066107975983   0.012690021266903426   0.008380069761958354
0.5070066107975983   0.012690021266903426   0.008380069761958354
0.5070066107975983   0.012690021266903426   0.008380069761958354
0.5070066107975983   0.012690021266903426   0.008380069761958354
0.3367349680646913   -0.03314879746210607   -0.01559619523226912
0.3367349680646913   -0.03314879746210607   -0.01559619523226912
0.3367349680646913   -0.03314879746210607   -0.01559619523226912
0.3367349680646913   -0.03314879746210607   -0.01559619523226912
0.6973374724229312   0.06524956440921056   0.008936603313408363
0.6973374724229312   0.06524956440921056   0.008936603313408363
0.6973374724229312   0.06524956440921056   0.008936603313408363
0.6973374724229312   0.06524956440921056   0.008936603313408363
0.6874527293248334   0.058973544904081146   -0.015417843318822972
0.6874527293248334   0.058973544904081146   -0.015417843318822972
0.6874527293248334   0.058973544904081146   -0.015417843318822972
0.6874527293248334   0.058973544904081146   -0.015417843318822972
0.33983643585286827   0.012806540064749398   0.003792445816461565
0.33983643585286827   0.012806540064749398   0.003792445816461565
0.33983643585286827   0.012806540064749398   0.003792445816461565
0.33983643585286827   0.012806540064749398   0.003792445816461565
0.4943818839966291   0.02241016416223486   0.006365521905204466
0.4943818839966291   0.02241016416223486   0.006365521905204466
0.4943818839966291   0.02241016416223486   0.006365521905204466
0.4943818839966291   0.02241016416223486   0.006365521905204466
-0.7378155600587329   -0.03331948424863106   0.03853135458417711
-0.7378155600587329   -0.03331948424863106   0.03853135458417711
-0.7378155600587329   -0.03331948424863106   0.03853135458417711
-0.7378155600587329   -0.03331948424863106   0.03853135458417711
-0.4908460740054408   -0.019003149078993267   -0.010025700448377129
-0.4908460740054408   -0.019003149078993267   -0.010025700448377129
-0.4908460740054408   -0.019003149078993267   -0.010025700448377129
-0.4908460740054408   -0.019003149078993267   -0.010025700448377129
-0.4728420920041855   0.03993498924942995   0.032268542562997035
-0.4728420920041855   0.03993498924942995   0.032268542562997035
-0.4728420920041855   0.03993498924942995   0.032268542562997035
-0.4728420920041855   0.03993498924942995   0.032268542562997035
-0.7411048309131079   -0.053035400443271166   -0.015675541508501315
-0.7411048309131079   -0.053035400443271166   -0.015675541508501315
-0.7411048309131079   -0.053035400443271166   -0.015675541508501315
-0.7411048309131079   -0.053035400443271166   -0.015675541508501315
-0.585913871690777   -0.00905215949737409   -0.0013281122323124533
-0.585913871690777   -0.00905215949737409   -0.0013281122323124533
-0.585913871690777   -0.00905215949737409   -0.0013281122323124533
-0.585913871690777   -0.00905215949737409   -0.0013281122323124533
-0.7202216800554677   -0.00737806200511687   0.04308287434154519
-0.7202216800554677   -0.00737806200511687   0.04308287434154519
-0.7202216800554677   -0.00737806200511687   0.04308287434154519
-0.7202216800554677   -0.00737806200511687   0.04308287434154519
-0.49044163634810883   -0.002438742675007502   -0.013355447232182158
-0.49044163634810883   -0.002438742675007502   -0.013355447232182158
-0.49044163634810883   -0.002438742675007502   -0.013355447232182158
-0.49044163634810883   -0.002438742675007502   -0.013355447232182158
-0.4707908041508833   0.04958087931100422   0.029866210776402446
-0.4707908041508833   0.04958087931100422   0.029866210776402446
-0.4707908041508833   0.04958087931100422   0.029866210776402446
-0.4707908041508833   0.04958087931100422   0.029866210776402446
-0.7293555977853493   -0.044278208683594195   -0.021423215442804074
-0.7293555977853493   -0.044278208683594195   -0.021423215442804074
-0.7293555977853493   -0.044278208683594195   -0.021423215442804074
-0.7293555977853493   -0.044278208683594195   -0.021423215442804074
-0.5869367178087087   0.0022773557679738876   0.006643713321860804
-0.5869367178087087   0.0022773557679738876   0.006643713321860804
-0.5869367178087087   0.0022773557679738876   0.006643713321860804
-0.5869367178087087   0.0022773557679738876   0.006643713321860804
-0.7099243441858281   0.0017265816024802927   0.029728262268727546
-0.7099243441858281   0.0017265816024802927   0.029728262268727546
-0.7099243441858281   0.0017265816024802927   0.029728262268727546
-0.7099243441858281   0.0017265816024802927   0.029728262268727546
-0.4891414134555877   0.004656733319748127   -0.016962689755857966
-0.4891414134555877   0.004656733319748127   -0.016962689755857966
-0.4891414134555877   0.004656733319748127   -0.016962689755857966
-0.4891414134555877   0.004656733319748127   -0.016962689755857966
-0.47113531345736936   0.05610181249416357   0.023700842284420653
-0.47113531345736936   0.05610181249416357   0.023700842284420653
-0.47113531345736936   0.05610181249416357   0.023700842284420653
-0.47113531345736936   0.05610181249416357   0.023700842284420653
-0.714178264985759   -0.03490404180796919   -0.027284645878373134
-0.714178264985759   -0.03490404180796919   -0.027284645878373134
-0.714178264985759   -0.03490404180796919   -0.027284645878373134
-0.714178264985759   -0.03490404180796919   -0.027284645878373134
-0.5698779220490199   0.012455916045610388   0.014036344259997842
-0.5698779220490199   0.012455916045610388   0.014036344259997842
-0.5698779220490199   0.012455916045610388   0.014036344259997842
-0.5698779220490199   0.012455916045610388   0.014036344259997842
-0.49214765273118166   -0.046630979769822424   0.01109423661374733
-0.49214765273118166   -0.046630979769822424   0.01109423661374733
-0.49214765273118166   -0.046630979769822424   0.01109423661374733
-0.49214765273118166   -0.046630979769822424   0.01109423661374733
-0.24933128911379895   -0.00921536387848447   0.00043956872580610575
-0.24933128911379895   -0.00921536387848447   0.00043956872580610575
-0.24933128911379895   -0.00921536387848447   0.00043956872580610575
-0.24933128911379895   -0.00921536387848447   0.00043956872580610575
-0.24210789156114404   0.024439351972981388   0.017517403591620885
-0.24210789156114404   0.024439351972981388   0.017517403591620885
-0.24210789156114404   0.024439351972981388   0.017517403591620885
-0.24210789156114404   0.024439351972981388   0.017517403591620885
-0.4999274563179314   -0.04598495221769093   -0.017238337538614788
-0.4999274563179314   -0.04598495221769093   -0.017238337538614788
-0.4999274563179314   -0.04598495221769093   -0.017238337538614788
-0.4999274563179314   -0.04598495221769093   -0.017238337538614788
-0.3695892864256051   -0.018139510722128452   -0.007606966265869954
-0.3695892864256051   -0.018139510722128452   -0.007606966265869954
-0.3695892864256051   -0.018139510722128452   -0.007606966265869954
-0.3695892864256051   -0.018139510722128452   -0.007606966265869954
-0.4904626522653939   -0.02659577898743007   0.010696509493813476
-0.4904626522653939   -0.02659577898743007   0.010696509493813476
-0.4904626522653939   -0.02659577898743007   0.010696509493813476
-0.4904626522653939   -0.02659577898743007   0.010696509493813476
-0.24966398339354134   0.006958890962861425   -0.002782594560243091
-0.24966398339354134   0.006958890962861425   -0.002782594560243091
-0.24966398339354134   0.006958890962861425   -0.002782594560243091
-0.24966398339354134   0.006958890962861425   -0.002782594560243091
-0.24123265459339674   0.04053069181707811   0.015135502364718386
-0.24123265459339674   0.04053069181707811   0.015135502364718386
-0.24123265459339674   0.04053069181707811   0.015135502364718386
-0.24123265459339674   0.04053069181707811   0.015135502364718386
-0.4969508010168709   -0.03098613550966514   -0.020366758732866107
-0.4969508010168709   -0.03098613550966514   -0.020366758732866107
-0.4969508010168709   -0.03098613550966514   -0.020366758732866107
-0.4969508010168709   -0.03098613550966514   -0.020366758732866107
-0.3654360292168082   -0.0018954357547878442   -9.181783438861474e-05
-0.3654360292168082   -0.0018954357547878442   -9.181783438861474e-05
-0.3654360292168082   -0.0018954357547878442   -9.181783438861474e-05
-0.3654360292168082   -0.0018954357547878442   -9.181783438861474e-05
-0.48729533998155083   -0.010270052955568404   0.007194463889637966
-0.48729533998155083   -0.010270052955568404   0.007194463889637966
-0.48729533998155083   -0.010270052955568404   0.007194463889637966
-0.48729533998155083   -0.010270052955568404   0.007194463889637966
-0.24933464945965925   0.021368075432040008   -0.006211855581552024
-0.24933464945965925   0.021368075432040008   -0.006211855581552024
-0.24933464945965925   0.021368075432040008   -0.006211855581552024
-0.24933464945965925   0.021368075432040008   -0.006211855581552024
-0.24105549810992027   0.05746030954944234   0.011324388936860476
-0.24105549810992027   0.05746030954944234   0.011324388936860476
-0.24105549810992027   0.05746030954944234   0.011324388936860476
-0.24105549810992027   0.05746030954944234   0.011324388936860476
-0.4944318835985416   -0.014773387899067389   -0.021906808028212068
-0.4944318835985416   -0.014773387899067389   -0.021906808028212068
-0.4944318835985416   -0.014773387899067389   -0.021906808028212068
-0.4944318835985416   -0.014773387899067389   -0.021906808028212068
-0.365543945773777   0.013038472364280754   0.0056696195823366
-0.365543945773777   0.013038472364280754   0.0056696195823366
-0.365543945773777   0.013038472364280754   0.0056696195823366
-0.365543945773777   0.013038472364280754   0.0056696195823366
-0.2585507082453952   -0.05351155055903033   -0.0013613402516318884
-0.2585507082453952   -0.05351155055903033   -0.0013613402516318884
-0.2585507082453952   -0.05351155055903033   -0.0013613402516318884
-0.2585507082453952   -0.05351155055903033   -0.0013613402516318884
-0.009995137711186057   0.0023844033119847247   0.0110324546767428
-0.009995137711186057   0.0023844033119847247   0.0110324546767428
-0.009995137711186057   0.0023844033119847247   0.0110324546767428
-0.009995137711186057   0.0023844033119847247   0.0110324546767428
-0.010837094568780464   0.015593404547827828   0.005287708407159826
-0.010837094568780464   0.015593404547827828   0.005287708407159826
-0.010837094568780464   0.015593404547827828   0.005287708407159826
-0.010837094568780464   0.015593404547827828   0.005287708407159826
-0.2586178760775936   -0.03418207593865799   -0.006411091078987533
-0.2586178760775936   -0.03418207593865799   -0.006411091078987533
-0.2586178760775936   -0.03418207593865799   -0.006411091078987533
-0.2586178760775936   -0.03418207593865799   -0.006411091078987533
-0.1349189064372903   -0.016853566015930282   -0.0042829898907750874
-0.1349189064372903   -0.016853566015930282   -0.0042829898907750874
-0.1349189064372903   -0.016853566015930282   -0.0042829898907750874
-0.1349189064372903   -0.016853566015930282   -0.0042829898907750874
-0.25833827611003446   -0.035669505731520716   -0.0035256614483289202
-0.25833827611003446   -0.035669505731520716   -0.0035256614483289202
-0.25833827611003446   -0.035669505731520716   -0.0035256614483289202
-0.25833827611003446   -0.035669505731520716   -0.0035256614483289202
-0.009695820923535495   0.018501707953494713   0.00808577322771784
-0.009695820923535495   0.018501707953494713   0.00808577322771784
-0.009695820923535495   0.018501707953494713   0.00808577322771784
-0.009695820923535495   0.018501707953494713   0.00808577322771784
-0.009548052491906264   0.033114798059900724   0.0025010690436515545
-0.009548052491906264   0.033114798059900724   0.0025010690436515545
-0.009548052491906264   0.033114798059900724   0.0025010690436515545
-0.009548052491906264   0.033114798059900724   0.0025010690436515545
-0.2578560077810998   -0.01803149510532464   -0.009419076651391996
-0.2578560077810998   -0.01803149510532464   -0.009419076651391996
-0.2578560077810998   -0.01803149510532464   -0.009419076651391996
-0.2578560077810998   -0.01803149510532464   -0.009419076651391996
-0.1335040294444242   -0.0006674798106047937   0.0017947752519106193
-0.1335040294444242   -0.0006674798106047937   0.0017947752519106193
-0.1335040294444242   -0.0006674798106047937   0.0017947752519106193
-0.1335040294444242   -0.0006674798106047937   0.0017947752519106193
-0.2574710978668106   -0.018396024384053862   -0.007129997801217015
-0.2574710978668106   -0.018396024384053862   -0.007129997801217015
-0.2574710978668106   -0.018396024384053862   -0.007129997801217015
-0.2574710978668106   -0.018396024384053862   -0.007129997801217015
-0.008760600522438416   0.034651689222386324   0.004901437728505316
-0.008760600522438416   0.034651689222386324   0.004901437728505316
-0.008760600522438416   0.034651689222386324   0.004901437728505316
-0.008760600522438416   0.034651689222386324   0.004901437728505316
-0.009187259039943768   0.05115284636335565   -0.0004694360888748139
-0.009187259039943768   0.05115284636335565   -0.0004694360888748139
-0.009187259039943768   0.05115284636335565   -0.0004694360888748139
-0.009187259039943768   0.05115284636335565   -0.0004694360888748139
-0.25762831213207804   -0.0016126403517023671   -0.012466731272784259
-0.25762831213207804   -0.0016126403517023671   -0.012466731272784259
-0.25762831213207804   -0.0016126403517023671   -0.012466731272784259
-0.25762831213207804   -0.0016126403517023671   -0.012466731272784259
-0.13238050187237316   0.015534594249143517   0.007370146969033523
-0.13238050187237316   0.015534594249143517   0.007370146969033523
-0.13238050187237316   0.015534594249143517   0.007370146969033523
-0.13238050187237316   0.015534594249143517   0.007370146969033523
-0.02699666794622777   -0.05877325500715481   -0.012817538179326161
-0.02699666794622777   -0.05877325500715481   -0.012817538179326161
-0.02699666794622777   -0.05877325500715481   -0.012817538179326161
-0.02699666794622777   -0.05877325500715481   -0.012817538179326161
0.22825017034712627   0.015930090368149193   0.020989523032415608
0.22825017034712627   0.015930090368149193   0.020989523032415608
0.22825017034712627   0.015930090368149193   0.020989523032415608
0.22825017034712627   0.015930090368149193   0.020989523032415608
0.22075185859726137   0.008261879843519858   -0.008403573096969246
0.22075185859726137   0.008261879843519858   -0.008403573096969246
0.22075185859726137   0.008261879843519858   -0.008403573096969246
0.22075185859726137   0.008261879843519858   -0.008403573096969246
-0.018366947649694276   -0.021374470396854636   0.004606317947273285
-0.018366947649694276   -0.021374470396854636   0.004606317947273285
-0.018366947649694276   -0.021374470396854636   0.004606317947273285
-0.018366947649694276   -0.021374470396854636   0.004606317947273285
0.09946964446631636   -0.01376446290339587   -0.002443575388112122
0.09946964446631636   -0.01376446290339587   -0.002443575388112122
0.09946964446631636   -0.01376446290339587   -0.002443575388112122
0.09946964446631636   -0.01376446290339587   -0.002443575388112122
-0.026798146101554877   -0.04279352951552169   -0.016130615193362653
-0.026798146101554877   -0.04279352951552169   -0.016130615193362653
-0.026798146101554877   -0.04279352951552169   -0.016130615193362653
-0.026798146101554877   -0.04279352951552169   -0.016130615193362653
0.2307999053693275   0.03129778728239277   0.01880075332448852
0.2307999053693275   0.03129778728239277   0.01880075332448852
0.2307999053693275   0.03129778728239277   0.01880075332448852
0.2307999053693275   0.03129778728239277   0.01880075332448852
0.22450407751106136   0.024573485381498967   -0.011798624683056855
0.22450407751106136   0.024573485381498967   -0.011798624683056855
0.22450407751106136   0.024573485381498967   -0.011798624683056855
0.22450407751106136   0.024573485381498967   -0.011798624683056855
-0.01777338268682056   -0.006900585962817318   0.0013898020917984214
-0.01777338268682056   -0.006900585962817318   0.0013898020917984214
-0.01777338268682056   -0.006900585962817318   0.0013898020917984214
-0.01777338268682056   -0.006900585962817318   0.0013898020917984214
0.10049430704677434   0.000904550107269312   0.0036054867064821894
0.10049430704677434   0.000904550107269312   0.0036054867064821894
0.10049430704677434   0.000904550107269312   0.0036054867064821894
0.10049430704677434   0.000904550107269312   0.0036054867064821894
-0.025976406218923904   -0.0270567222784949   -0.019469179253040952
-0.025976406218923904   -0.0270567222784949   -0.019469179253040952
-0.025976406218923904   -0.0270567222784949   -0.019469179253040952
-0.025976406218923904   -0.0270567222784949   -0.019469179253040952
0.23446994687288453   0.046492467526896994   0.016111739980661028
0.23446994687288453   0.046492467526896994   0.016111739980661028
0.23446994687288453   0.046492467526896994   0.016111739980661028
0.23446994687288453   0.046492467526896994   0.016111739980661028
0.22686584717639582   0.04499107163252809   -0.012364765605276998
0.22686584717639582   0.04499107163252809   -0.012364765605276998
0.22686584717639582   0.04499107163252809   -0.012364765605276998
0.22686584717639582   0.04499107163252809   -0.012364765605276998
-0.017692392485060406   0.009977501297828465   -0.0018197582489306537
-0.017692392485060406   0.009977501297828465   -0.0018197582489306537
-0.017692392485060406   0.009977501297828465   -0.0018197582489306537
-0.017692392485060406   0.009977501297828465   -0.0018197582489306537
0.10414392437726888   0.01722217102011052   0.01077205684864447
0.10414392437726888   0.01722217102011052   0.01077205684864447
0.10414392437726888   0.01722217102011052   0.01077205684864447
0.10414392437726888   0.01722217102011052   0.01077205684864447
0.2041645385765538   -0.05844594365206761   -0.025062601800228058
0.2041645385765538   -0.05844594365206761   -0.025062601800228058
0.2041645385765538   -0.05844594365206761   -0.025062601800228058
0.2041645385765538   -0.05844594365206761   -0.025062601800228058
0.45026984882476356   0.033474374668254384   0.023511342124898766
0.45026984882476356   0.033474374668254384   0.023511342124898766
0.45026984882476356   0.033474374668254384   0.023511342124898766
0.45026984882476356   0.033474374668254384   0.023511342124898766
0.4467982174288984   -0.002660010529456705   -0.033366570891145336
0.4467982174288984   -0.002660010529456705   -0.033366570891145336
0.4467982174288984   -0.002660010529456705   -0.033366570891145336
0.4467982174288984   -0.002660010529456705   -0.033366570891145336
0.22301787115076072   -0.004640563004552865   0.015828932518602082
0.22301787115076072   -0.004640563004552865   0.015828932518602082
0.22301787115076072   -0.004640563004552865   0.015828932518602082
0.22301787115076072   -0.004640563004552865   0.015828932518602082
0.3149834804584581   -0.011535441735610774   -0.010435732587670547
0.3149834804584581   -0.011535441735610774   -0.010435732587670547
0.3149834804584581   -0.011535441735610774   -0.010435732587670547
0.3149834804584581   -0.011535441735610774   -0.010435732587670547
0.20448897552589637   -0.05061647204490205   -0.030839636565370056
0.20448897552589637   -0.05061647204490205   -0.030839636565370056
0.20448897552589637   -0.05061647204490205   -0.030839636565370056
0.20448897552589637   -0.05061647204490205   -0.030839636565370056
0.46665450633372124   0.044643291790851046   0.01861157131266107
0.46665450633372124   0.044643291790851046   0.01861157131266107
0.46665450633372124   0.044643291790851046   0.01861157131266107
0.46665450633372124   0.044643291790851046   0.01861157131266107
0.45806319712392385   0.0066438206669453825   -0.04481784009891016
0.45806319712392385   0.0066438206669453825   -0.04481784009891016
0.45806319712392385   0.0066438206669453825   -0.04481784009891016
0.45806319712392385   0.0066438206669453825   -0.04481784009891016
0.22480838865970393   0.002461269929644523   0.011835146512014345
0.22480838865970393   0.002461269929644523   0.011835146512014345
0.22480838865970393   0.002461269929644523   0.011835146512014345
0.22480838865970393   0.002461269929644523   0.011835146512014345
0.3295010887136833   -0.0014523619670597926   -0.0031262870789899658
0.3295010887136833   -0.0014523619670597926   -0.0031262870789899658
0.3295010887136833   -0.0014523619670597926   -0.0031262870789899658
0.3295010887136833   -0.0014523619670597926   -0.0031262870789899658
0.20695972816121416   -0.041335568596644084   -0.03361131745414777
0.20695972816121416   -0.041335568596644084   -0.03361131745414777
0.20695972816121416   -0.041335568596644084   -0.03361131745414777
0.20695972816121416   -0.041335568596644084   -0.03361131745414777
0.4788484027243314   0.053377204295152934   0.012374804274925126
0.4788484027243314   0.053377204295152934   0.012374804274925126
0.4788484027243314   0.053377204295152934   0.012374804274925126
0.4788484027243314   0.053377204295152934   0.012374804274925126
0.4759335245711514   0.03082150918474561   -0.04222979730184042
0.4759335245711514   0.03082150918474561   -0.04222979730184042
0.4759335245711514   0.03082150918474561   -0.04222979730184042
0.4759335245711514   0.03082150918474561   -0.04222979730184042
0.2256867660090596   0.018061908240047775   0.008668991950526004
0.2256867660090596   0.018061908240047775   0.008668991950526004
0.2256867660090596   0.018061908240047775   0.008668991950526004
0.2256867660090596   0.018061908240047775   0.008668991950526004
0.33220827525062213   0.010039761254057533   0.004999356056074496
0.33220827525062213   0.010039761254057533   0.004999356056074496
0.33220827525062213   0.010039761254057533   0.004999356056074496
0.33220827525062213   0.010039761254057533   0.004999356056074496
-0.5250681718466955   -0.016890265082168454   0.03476081737700171
-0.5250681718466955   -0.016890265082168454   0.03476081737700171
-0.5250681718466955   -0.016890265082168454   0.03476081737700171
-0.5250681718466955   -0.016890265082168454   0.03476081737700171
-0.3684429181181647   -0.024886425501035564   -0.013063480437597978
-0.3684429181181647   -0.024886425501035564   -0.013063480437597978
-0.3684429181181647   -0.024886425501035564   -0.013063480437597978
-0.3684429181181647   -0.024886425501035564   -0.013063480437597978
-0.3466171680931596   0.03491810680457741   0.029604331910793227
-0.3466171680931596   0.03491810680457741   0.029604331910793227
-0.3466171680931596   0.03491810680457741   0.029604331910793227
-0.3466171680931596   0.03491810680457741   0.029604331910793227
-0.5250966991230255   -0.04328395879829129   -0.019122622673064037
-0.5250966991230255   -0.04328395879829129   -0.019122622673064037
-0.5250966991230255   -0.04328395879829129   -0.019122622673064037
-0.5250966991230255   -0.04328395879829129   -0.019122622673064037
-0.4232858194041009   -0.006683889380826896   -0.0011536421175443907
-0.4232858194041009   -0.006683889380826896   -0.0011536421175443907
-0.4232858194041009   -0.006683889380826896   -0.0011536421175443907
-0.4232858194041009   -0.006683889380826896   -0.0011536421175443907
-0.5052325865063838   0.003880794218453623   0.03303318739339858
-0.5052325865063838   0.003880794218453623   0.03303318739339858
-0.5052325865063838   0.003880794218453623   0.03303318739339858
-0.5052325865063838   0.003880794218453623   0.03303318739339858
-0.36486003562729546   -0.010625401129662482   -0.01606649782564217
-0.36486003562729546   -0.010625401129662482   -0.01606649782564217
-0.36486003562729546   -0.010625401129662482   -0.01606649782564217
-0.36486003562729546   -0.010625401129662482   -0.01606649782564217
-0.34334287419943005   0.04220769777985575   0.02499359328852626
-0.34334287419943005   0.04220769777985575   0.02499359328852626
-0.34334287419943005   0.04220769777985575   0.02499359328852626
-0.34334287419943005   0.04220769777985575   0.02499359328852626
-0.5125314240058602   -0.035152579822121985   -0.02414026259181851
-0.5125314240058602   -0.035152579822121985   -0.02414026259181851
-0.5125314240058602   -0.035152579822121985   -0.02414026259181851
-0.5125314240058602   -0.035152579822121985   -0.02414026259181851
-0.4202285169095989   0.002916871639294924   0.004296211733893017
-0.4202285169095989   0.002916871639294924   0.004296211733893017
-0.4202285169095989   0.002916871639294924   0.004296211733893017
-0.4202285169095989   0.002916871639294924   0.004296211733893017
-0.4928561257360776   0.012602548834846183   0.026481100100126047
-0.4928561257360776   0.012602548834846183   0.026481100100126047
-0.4928561257360776   0.012602548834846183   0.026481100100126047
-0.4928561257360776   0.012602548834846183   0.026481100100126047
-0.36155721933030055   -0.0040864777382000755   -0.019783956847768524
-0.36155721933030055   -0.0040864777382000755   -0.019783956847768524
-0.36155721933030055   -0.0040864777382000755   -0.019783956847768524
-0.36155721933030055   -0.0040864777382000755   -0.019783956847768524
-0.34153446523433384   0.04938241454466648   0.02150383613337626
-0.34153446523433384   0.04938241454466648   0.02150383613337626
-0.34153446523433384   0.04938241454466648   0.02150383613337626
-0.34153446523433384   0.04938241454466648   0.02150383613337626
-0.4957412428906301   -0.024367936177821223   -0.028882113639510886
-0.4957412428906301   -0.024367936177821223   -0.028882113639510886
-0.4957412428906301   -0.024367936177821223   -0.028882113639510886
-0.4957412428906301   -0.024367936177821223   -0.028882113639510886
-0.40438933447902253   0.011945301503170025   0.011899449842825555
-0.40438933447902253   0.011945301503170025   0.011899449842825555
-0.40438933447902253   0.011945301503170025   0.011899449842825555
-0.40438933447902253   0.011945301503170025   0.011899449842825555
-0.3641401731539236   -0.029626908879297538   0.01319072776186544
-0.3641401731539236   -0.029626908879297538   0.01319072776186544
-0.3641401731539236   -0.029626908879297538   0.01319072776186544
-0.3641401731539236   -0.029626908879297538   0.01319072776186544
-0.21213313470494782   -0.016119256410237523   -0.0021125275845490926
-0.21213313470494782   -0.016119256410237523   -0.0021125275845490926
-0.21213313470494782   -0.016119256410237523   -0.0021125275845490926
-0.21213313470494782   -0.016119256410237523   -0.0021125275845490926
-0.2013305373601693   0.020373601512530683   0.01595751215473507
-0.2013305373601693   0.020373601512530683   0.01595751215473507
-0.2013305373601693   0.020373601512530683   0.01595751215473507
-0.2013305373601693   0.020373601512530683   0.01595751215473507
-0.36966653516553893   -0.035327898249716674   -0.015396498396809247
-0.36966653516553893   -0.035327898249716674   -0.015396498396809247
-0.36966653516553893   -0.035327898249716674   -0.015396498396809247
-0.36966653516553893   -0.035327898249716674   -0.015396498396809247
-0.2856937218264486   -0.013864173123180196   -0.005927559433719365
-0.2856937218264486   -0.013864173123180196   -0.005927559433719365
-0.2856937218264486   -0.013864173123180196   -0.005927559433719365
-0.2856937218264486   -0.013864173123180196   -0.005927559433719365
-0.3598382745052428   -0.012363389180366405   0.010780295835319278
-0.3598382745052428   -0.012363389180366405   0.010780295835319278
-0.3598382745052428   -0.012363389180366405   0.010780295835319278
-0.3598382745052428   -0.012363389180366405   0.010780295835319278
-0.2098965241791641   -0.0013286337155166417   -0.005170186712191608
-0.2098965241791641   -0.0013286337155166417   -0.005170186712191608
-0.2098965241791641   -0.0013286337155166417   -0.005170186712191608
-0.2098965241791641   -0.0013286337155166417   -0.005170186712191608
-0.1987736572163231   0.035336857805774266   0.013071064043783123
-0.1987736572163231   0.035336857805774266   0.013071064043783123
-0.1987736572163231   0.035336857805774266   0.013071064043783123
-0.1987736572163231   0.035336857805774266   0.013071064043783123
-0.36466056974459576   -0.021238051861897478   -0.018149134795549422
-0.36466056974459576   -0.021238051861897478   -0.018149134795549422
-0.36466056974459576   -0.021238051861897478   -0.018149134795549422
-0.36466056974459576   -0.021238051861897478   -0.018149134795549422
-0.28020067110349833   0.0008059501480192285   0.0003771682794508624
-0.28020067110349833   0.0008059501480192285   0.0003771682794508624
-0.28020067110349833   0.0008059501480192285   0.0003771682794508624
-0.28020067110349833   0.0008059501480192285   0.0003771682794508624
-0.3540891408168982   0.0036279498942589916   0.009842008086781893
-0.3540891408168982   0.0036279498942589916   0.009842008086781893
-0.3540891408168982   0.0036279498942589916   0.009842008086781893
-0.3540891408168982   0.0036279498942589916   0.009842008086781893
-0.2077776753686725   0.012038266824966178   -0.008650435737154433
-0.2077776753686725   0.012038266824966178   -0.008650435737154433
-0.2077776753686725   0.012038266824966178   -0.008650435737154433
-0.2077776753686725   0.012038266824966178   -0.008650435737154433
-0.19630208677647634   0.05131056400492025   0.010383154669660794
-0.19630208677647634   0.05131056400492025   0.010383154669660794
-0.19630208677647634   0.05131056400492025   0.010383154669660794
-0.19630208677647634   0.05131056400492025   0.010383154669660794
-0.3609253265469493   -0.006023144284645274   -0.02004491160038732
-0.3609253265469493   -0.006023144284645274   -0.02004491160038732
-0.3609253265469493   -0.006023144284645274   -0.02004491160038732
-0.3609253265469493   -0.006023144284645274   -0.02004491160038732
-0.2780574959882538   0.014649959091542028   0.006395944486831565
-0.2780574959882538   0.014649959091542028   0.006395944486831565
-0.2780574959882538   0.014649959091542028   0.006395944486831565
-0.2780574959882538   0.014649959091542028   0.006395944486831565
-0.21656146455022904   -0.04100836636284279   0.0006349331416482325
-0.21656146455022904   -0.04100836636284279   0.0006349331416482325
-0.21656146455022904   -0.04100836636284279   0.0006349331416482325
-0.21656146455022904   -0.04100836636284279   0.0006349331416482325
-0.05734242403149463   -0.005012648725207946   0.008807550811710321
-0.05734242403149463   -0.005012648725207946   0.008807550811710321
-0.05734242403149463   -0.005012648725207946   0.008807550811710321
-0.05734242403149463   -0.005012648725207946   0.008807550811710321
-0.05597981234088921   0.008228627960584843   0.003004364680522194
-0.05597981234088921   0.008228627960584843   0.003004364680522194
-0.05597981234088921   0.008228627960584843   0.003004364680522194
-0.05597981234088921   0.008228627960584843   0.003004364680522194
-0.21419057621742618   -0.02389076334501988   -0.004078317274001237
-0.21419057621742618   -0.02389076334501988   -0.004078317274001237
-0.21419057621742618   -0.02389076334501988   -0.004078317274001237
-0.21419057621742618   -0.02389076334501988   -0.004078317274001237
-0.13625528928910433   -0.014755011692201933   -0.004224866493311753
-0.13625528928910433   -0.014755011692201933   -0.004224866493311753
-0.13625528928910433   -0.014755011692201933   -0.004224866493311753
-0.13625528928910433   -0.014755011692201933   -0.004224866493311753
-0.21383469415442688   -0.024317629499193364   -0.0018720408048311593
-0.21383469415442688   -0.024317629499193364   -0.0018720408048311593
-0.21383469415442688   -0.024317629499193364   -0.0018720408048311593
-0.21383469415442688   -0.024317629499193364   -0.0018720408048311593
-0.0550700426662035   0.009921145852443344   0.005860695162092199
-0.0550700426662035   0.009921145852443344   0.005860695162092199
-0.0550700426662035   0.009921145852443344   0.005860695162092199
-0.0550700426662035   0.009921145852443344   0.005860695162092199
-0.05288965119475613   0.024994713186225696   0.0007456082200199086
-0.05288965119475613   0.024994713186225696   0.0007456082200199086
-0.05288965119475613   0.024994713186225696   0.0007456082200199086
-0.05288965119475613   0.024994713186225696   0.0007456082200199086
-0.2116293692109085   -0.008849674289943758   -0.007020963833425913
-0.2116293692109085   -0.008849674289943758   -0.007020963833425913
-0.2116293692109085   -0.008849674289943758   -0.007020963833425913
-0.2116293692109085   -0.008849674289943758   -0.007020963833425913
-0.13295318169251183   0.00029580513234984257   0.00172389151875014
-0.13295318169251183   0.00029580513234984257   0.00172389151875014
-0.13295318169251183   0.00029580513234984257   0.00172389151875014
-0.13295318169251183   0.00029580513234984257   0.00172389151875014
-0.2108377737054982   -0.00760547089932527   -0.004307189696992869
-0.2108377737054982   -0.00760547089932527   -0.004307189696992869
-0.2108377737054982   -0.00760547089932527   -0.004307189696992869
-0.2108377737054982   -0.00760547089932527   -0.004307189696992869
-0.052512484827735295   0.024919271668038444   0.0027068815733118975
-0.052512484827735295   0.024919271668038444   0.0027068815733118975
-0.052512484827735295   0.024919271668038444   0.0027068815733118975
-0.052512484827735295   0.024919271668038444   0.0027068815733118975
-0.05011270896063961   0.04200412726710469   -0.0018984963501912488
-0.05011270896063961   0.04200412726710469   -0.0018984963501912488
-0.05011270896063961   0.04200412726710469   -0.0018984963501912488
-0.05011270896063961   0.04200412726710469   -0.0018984963501912488
-0.2093899480809401   0.006362463164051764   -0.010108051011790839
-0.2093899480809401   0.006362463164051764   -0.010108051011790839
-0.2093899480809401   0.006362463164051764   -0.010108051011790839
-0.2093899480809401   0.006362463164051764   -0.010108051011790839
-0.12993931840174686   0.01541909714720599   0.00745509395025064
-0.12993931840174686   0.01541909714720599   0.00745509395025064
-0.12993931840174686   0.01541909714720599   0.00745509395025064
-0.12993931840174686   0.01541909714720599   0.00745509395025064
-0.07049135126287649   -0.050338387812012664   -0.011611346258394764
-0.07049135126287649   -0.050338387812012664   -0.011611346258394764
-0.07049135126287649   -0.050338387812012664   -0.011611346258394764
-0.07049135126287649   -0.050338387812012664   -0.011611346258394764
0.09518592875794243   0.007422314829183613   0.01908693109668242
0.09518592875794243   0.007422314829183613   0.01908693109668242
0.09518592875794243   0.007422314829183613   0.01908693109668242
0.09518592875794243   0.007422314829183613   0.01908693109668242
0.0882972978294452   -0.003125311249407757   -0.010812131794631807
0.0882972978294452   -0.003125311249407757   -0.010812131794631807
0.0882972978294452   -0.003125311249407757   -0.010812131794631807
0.0882972978294452   -0.003125311249407757   -0.010812131794631807
-0.05912030339055137   -0.011603306076786947   0.007133843469583173
-0.05912030339055137   -0.011603306076786947   0.007133843469583173
-0.05912030339055137   -0.011603306076786947   0.007133843469583173
-0.05912030339055137   -0.011603306076786947   0.007133843469583173
0.012871500729002294   -0.014008842027104526   -0.0030160436565322035
0.012871500729002294   -0.014008842027104526   -0.0030160436565322035
0.012871500729002294   -0.014008842027104526   -0.0030160436565322035
0.012871500729002294   -0.014008842027104526   -0.0030160436565322035
-0.0681120533641908   -0.03510866468690732   -0.01431954778849363
-0.0681120533641908   -0.03510866468690732   -0.01431954778849363
-0.0681120533641908   -0.03510866468690732   -0.01431954778849363
-0.0681120533641908   -0.03510866468690732   -0.01431954778849363
0.09879426789325821   0.021885267450885856   0.016662139824137622
0.09879426789325821   0.021885267450885856   0.016662139824137622
0.09879426789325821   0.021885267450885856   0.016662139824137622
0.09879426789325821   0.021885267450885856   0.016662139824137622
0.09406355880291509   0.012737111695537946   -0.012258651106164736
0.09406355880291509   0.012737111695537946   -0.012258651106164736
0.09406355880291509   0.012737111695537946   -0.012258651106164736
0.09406355880291509   0.012737111695537946   -0.012258651106164736
-0.05689189823397661   0.0018474927767456618   0.00388159343339804
-0.05689189823397661   0.0018474927767456618   0.00388159343339804
-0.05689189823397661   0.0018474927767456618   0.00388159343339804
-0.05689189823397661   0.0018474927767456618   0.00388159343339804
0.015949163250782303   -0.00033962231937903833   0.0030427289516806256
0.015949163250782303   -0.00033962231937903833   0.0030427289516806256
0.015949163250782303   -0.00033962231937903833   0.0030427289516806256
0.015949163250782303   -0.00033962231937903833   0.0030427289516806256
-0.06556986437758823   -0.02022499301742724   -0.01743575149048736
-0.06556986437758823   -0.02022499301742724   -0.01743575149048736
-0.06556986437758823   -0.02022499301742724   -0.01743575149048736
-0.06556986437758823   -0.02022499301742724   -0.01743575149048736
0.10404761136401845   0.0361156839072035   0.014283039487684529
0.10404761136401845   0.0361156839072035   0.014283039487684529
0.10404761136401845   0.0361156839072035   0.014283039487684529
0.10404761136401845   0.0361156839072035   0.014283039487684529
0.09871359135919809   0.03078650499059829   -0.014180723629336194
0.09871359135919809   0.03078650499059829   -0.014180723629336194
0.09871359135919809   0.03078650499059829   -0.014180723629336194
0.09871359135919809   0.03078650499059829   -0.014180723629336194
-0.05451202293298715   0.017321617863767784   0.0007874431914073939
-0.05451202293298715   0.017321617863767784   0.0007874431914073939
-0.05451202293298715   0.017321617863767784   0.0007874431914073939
-0.05451202293298715   0.017321617863767784   0.0007874431914073939
0.020668082193698003   0.014488113216049092   0.009303015398832982
0.020668082193698003   0.014488113216049092   0.009303015398832982
0.020668082193698003   0.014488113216049092   0.009303015398832982
0.020668082193698003   0.014488113216049092   0.009303015398832982
0.07511331268298835   -0.050858306562384915   -0.022995527886518614
0.07511331268298835   -0.050858306562384915   -0.022995527886518614
0.07511331268298835   -0.050858306562384915   -0.022995527886518614
0.07511331268298835   -0.050858306562384915   -0.022995527886518614
0.23005715267847376   0.022814103096207752   0.02485717554743564
0.23005715267847376   0.022814103096207752   0.02485717554743564
0.23005715267847376   0.022814103096207752   0.02485717554743564
0.23005715267847376   0.022814103096207752   0.02485717554743564
0.22767823014198074   -0.012931926061553939   -0.030288241757619468
0.22767823014198074   -0.012931926061553939   -0.030288241757619468
0.22767823014198074   -0.012931926061553939   -0.030288241757619468
0.22767823014198074   -0.012931926061553939   -0.030288241757619468
0.09567059510867852   0.0043580349592777234   0.018571008392848264
0.09567059510867852   0.0043580349592777234   0.018571008392848264
0.09567059510867852   0.0043580349592777234   0.018571008392848264
0.09567059510867852   0.0043580349592777234   0.018571008392848264
0.1489242268598739   -0.01065339220617497   -0.007997651521278857
0.1489242268598739   -0.01065339220617497   -0.007997651521278857
0.1489242268598739   -0.01065339220617497   -0.007997651521278857
0.1489242268598739   -0.01065339220617497   -0.007997651521278857
0.07730845466909209   -0.04227047047814003   -0.02661118836766513
0.07730845466909209   -0.04227047047814003   -0.02661118836766513
0.07730845466909209   -0.04227047047814003   -0.02661118836766513
0.07730845466909209   -0.04227047047814003   -0.02661118836766513
0.24757493800273475   0.03523114679703162   0.021032224687569163
0.24757493800273475   0.03523114679703162   0.021032224687569163
0.24757493800273475   0.03523114679703162   0.021032224687569163
0.24757493800273475   0.03523114679703162   0.021032224687569163
0.2404322146855825   -0.00405552421105132   -0.03637265021734734
0.2404322146855825   -0.00405552421105132   -0.03637265021734734
0.2404322146855825   -0.00405552421105132   -0.03637265021734734
0.2404322146855825   -0.00405552421105132   -0.03637265021734734
0.09904195548946827   0.010863183474112232   0.014507260548024908
0.09904195548946827   0.010863183474112232   0.014507260548024908
0.09904195548946827   0.010863183474112232   0.014507260548024908
0.09904195548946827   0.010863183474112232   0.014507260548024908
0.16172953342231347   -0.0016814395052113448   -0.0008799783104941408
0.16172953342231347   -0.0016814395052113448   -0.0008799783104941408
0.16172953342231347   -0.0016814395052113448   -0.0008799783104941408
0.16172953342231347   -0.0016814395052113448   -0.0008799783104941408
0.08081202409338027   -0.034884062398068905   -0.030895150560233002
0.08081202409338027   -0.034884062398068905   -0.030895150560233002
0.08081202409338027   -0.034884062398068905   -0.030895150560233002
0.08081202409338027   -0.034884062398068905   -0.030895150560233002
0.26026535399395445   0.04329492957341448   0.015442592540049992
0.26026535399395445   0.04329492957341448   0.015442592540049992
0.26026535399395445   0.04329492957341448   0.015442592540049992
0.26026535399395445   0.04329492957341448   0.015442592540049992
0.26006023326804745   0.015407447090279594   -0.03897678105730652
0.26006023326804745   0.015407447090279594   -0.03897678105730652
0.26006023326804745   0.015407447090279594   -0.03897678105730652
0.26006023326804745   0.015407447090279594   -0.03897678105730652
0.102489352683666   0.023946947511189486   0.011537640472411237
0.102489352683666   0.023946947511189486   0.011537640472411237
0.102489352683666   0.023946947511189486   0.011537640472411237
0.102489352683666   0.023946947511189486   0.011537640472411237
0.16824193078541141   0.008170318554765691   0.005278627016233511
0.16824193078541141   0.008170318554765691   0.005278627016233511
0.16824193078541141   0.008170318554765691   0.005278627016233511
0.16824193078541141   0.008170318554765691   0.005278627016233511
-0.312724460093713   -0.004925327531389807   0.031023551386179123
-0.312724460093713   -0.004925327531389807   0.031023551386179123
-0.312724460093713   -0.004925327531389807   0.031023551386179123
-0.312724460093713   -0.004925327531389807   0.031023551386179123
-0.2453042038515567   -0.03136497445495226   -0.015242445617756131
-0.2453042038515567   -0.03136497445495226   -0.015242445617756131
-0.2453042038515567   -0.03136497445495226   -0.015242445617756131
-0.2453042038515567   -0.03136497445495226   -0.015242445617756131
-0.2219877673004744   0.026461790693813936   0.02649719296491113
-0.2219877673004744   0.026461790693813936   0.02649719296491113
-0.2219877673004744   0.026461790693813936   0.02649719296491113
-0.2219877673004744   0.026461790693813936   0.02649719296491113
-0.3114716310243223   -0.0339813234153331   -0.02078937010107019
-0.3114716310243223   -0.0339813234153331   -0.02078937010107019
-0.3114716310243223   -0.0339813234153331   -0.02078937010107019
-0.3114716310243223   -0.0339813234153331   -0.02078937010107019
-0.2624927957408014   -0.00715438815399707   -0.0040796521836260115
-0.2624927957408014   -0.00715438815399707   -0.0040796521836260115
-0.2624927957408014   -0.00715438815399707   -0.0040796521836260115
-0.2624927957408014   -0.00715438815399707   -0.0040796521836260115
-0.2919759793192951   0.013088518915678457   0.029619046093054397
-0.2919759793192951   0.013088518915678457   0.029619046093054397
-0.2919759793192951   0.013088518915678457   0.029619046093054397
-0.2919759793192951   0.013088518915678457   0.029619046093054397
-0.24011644945296173   -0.019241082084657704   -0.018443345019053814
-0.24011644945296173   -0.019241082084657704   -0.018443345019053814
-0.24011644945296173   -0.019241082084657704   -0.018443345019053814
-0.24011644945296173   -0.019241082084657704   -0.018443345019053814
-0.21655398375136142   0.03334887427316365   0.022389567630111015
-0.21655398375136142   0.03334887427316365   0.022389567630111015
-0.21655398375136142   0.03334887427316365   0.022389567630111015
-0.21655398375136142   0.03334887427316365   0.022389567630111015
-0.29709996877404554   -0.026173751314227098   -0.025938130056460475
-0.29709996877404554   -0.026173751314227098   -0.025938130056460475
-0.29709996877404554   -0.026173751314227098   -0.025938130056460475
-0.29709996877404554   -0.026173751314227098   -0.025938130056460475
-0.2549778587370738   0.001844374106417565   0.0016836328637748546
-0.2549778587370738   0.001844374106417565   0.0016836328637748546
-0.2549778587370738   0.001844374106417565   0.0016836328637748546
-0.2549778587370738   0.001844374106417565   0.0016836328637748546
-0.2776080250911217   0.02144143323997956   0.02390640380395077
-0.2776080250911217   0.02144143323997956   0.02390640380395077
-0.2776080250911217   0.02144143323997956   0.02390640380395077
-0.2776080250911217   0.02144143323997956   0.02390640380395077
-0.23475670181280794   -0.012977084659565596   -0.022298063744390587
-0.23475670181280794   -0.012977084659565596   -0.022298063744390587
-0.23475670181280794   -0.012977084659565596   -0.022298063744390587
-0.23475670181280794   -0.012977084659565596   -0.022298063744390587
-0.2121750830964209   0.04198299135234641   0.019306364217118042
-0.2121750830964209   0.04198299135234641   0.019306364217118042
-0.2121750830964209   0.04198299135234641   0.019306364217118042
-0.2121750830964209   0.04198299135234641   0.019306364217118042
-0.27780248408922825   -0.013662848290586338   -0.03000319642279373
-0.27780248408922825   -0.013662848290586338   -0.03000319642279373
-0.27780248408922825   -0.013662848290586338   -0.03000319642279373
-0.27780248408922825   -0.013662848290586338   -0.03000319642279373
-0.23986487932646836   0.01074960040864633   0.008807880125001905
-0.23986487932646836   0.01074960040864633   0.008807880125001905
-0.23986487932646836   0.01074960040864633   0.008807880125001905
-0.23986487932646836   0.01074960040864633   0.008807880125001905
-0.23655517083726574   -0.01762800760003498   0.014765752598781545
-0.23655517083726574   -0.01762800760003498   0.014765752598781545
-0.23655517083726574   -0.01762800760003498   0.014765752598781545
-0.23655517083726574   -0.01762800760003498   0.014765752598781545
-0.1748920832112532   -0.023763837072129843   -0.0045050986393642784
-0.1748920832112532   -0.023763837072129843   -0.0045050986393642784
-0.1748920832112532   -0.023763837072129843   -0.0045050986393642784
-0.1748920832112532   -0.023763837072129843   -0.0045050986393642784
-0.16194558529300654   0.012005581375135924   0.013549949854913663
-0.16194558529300654   0.012005581375135924   0.013549949854913663
-0.16194558529300654   0.012005581375135924   0.013549949854913663
-0.16194558529300654   0.012005581375135924   0.013549949854913663
-0.24017892633528357   -0.025043680243173307   -0.01295313127214571
-0.24017892633528357   -0.025043680243173307   -0.01295313127214571
-0.24017892633528357   -0.025043680243173307   -0.01295313127214571
-0.24017892633528357   -0.025043680243173307   -0.01295313127214571
-0.20286133568872577   -0.012515386750449269   -0.005536971033317902
-0.20286133568872577   -0.012515386750449269   -0.005536971033317902
-0.20286133568872577   -0.012515386750449269   -0.005536971033317902
-0.20286133568872577   -0.012515386750449269   -0.005536971033317902
-0.2304452661501034   -0.0018917057376270918   0.01256319514820313
-0.2304452661501034   -0.0018917057376270918   0.01256319514820313
-0.2304452661501034   -0.0018917057376270918   0.01256319514820313
-0.2304452661501034   -0.0018917057376270918   0.01256319514820313
-0.17057713612862266   -0.010044283780847232   -0.007557939167183897
-0.17057713612862266   -0.010044283780847232   -0.007557939167183897
-0.17057713612862266   -0.010044283780847232   -0.007557939167183897
-0.17057713612862266   -0.010044283780847232   -0.007557939167183897
-0.15726805134022792   0.026035964268566907   0.010828427452412335
-0.15726805134022792   0.026035964268566907   0.010828427452412335
-0.15726805134022792   0.026035964268566907   0.010828427452412335
-0.15726805134022792   0.026035964268566907   0.010828427452412335
-0.2331226187295149   -0.01159030877504675   -0.015514424212442257
-0.2331226187295149   -0.01159030877504675   -0.015514424212442257
-0.2331226187295149   -0.01159030877504675   -0.015514424212442257
-0.2331226187295149   -0.01159030877504675   -0.015514424212442257
-0.19606122361847847   0.000976611097769385   0.0005052477795885104
-0.19606122361847847   0.000976611097769385   0.0005052477795885104
-0.19606122361847847   0.000976611097769385   0.0005052477795885104
-0.19606122361847847   0.000976611097769385   0.0005052477795885104
-0.22281611581000063   0.013038518505122637   0.011389263104955999
-0.22281611581000063   0.013038518505122637   0.011389263104955999
-0.22281611581000063   0.013038518505122637   0.011389263104955999
-0.22281611581000063   0.013038518505122637   0.011389263104955999
-0.16630241706667567   0.00267927418146309   -0.010986711092724595
-0.16630241706667567   0.00267927418146309   -0.010986711092724595
-0.16630241706667567   0.00267927418146309   -0.010986711092724595
-0.16630241706667567   0.00267927418146309   -0.010986711092724595
-0.15260404833110994   0.04129731347882608   0.008236099001130062
-0.15260404833110994   0.04129731347882608   0.008236099001130062
-0.15260404833110994   0.04129731347882608   0.008236099001130062
-0.15260404833110994   0.04129731347882608   0.008236099001130062
-0.22732349701239235   0.0031360765350045075   -0.01758879054539345
-0.22732349701239235   0.0031360765350045075   -0.01758879054539345
-0.22732349701239235   0.0031360765350045075   -0.01758879054539345
-0.22732349701239235   0.0031360765350045075   -0.01758879054539345
-0.19115518655141733   0.014241738207452406   0.006429327562454793
-0.19115518655141733   0.014241738207452406   0.006429327562454793
-0.19115518655141733   0.014241738207452406   0.006429327562454793
-0.19115518655141733   0.014241738207452406   0.006429327562454793
-0.17464469658849402   -0.0297008449320751   0.0026688423343739567
-0.17464469658849402   -0.0297008449320751   0.0026688423343739567
-0.17464469658849402   -0.0297008449320751   0.0026688423343739567
-0.17464469658849402   -0.0297008449320751   0.0026688423343739567
-0.10533829411089562   -0.012711724533984312   0.006378552043657829
-0.10533829411089562   -0.012711724533984312   0.006378552043657829
-0.10533829411089562   -0.012711724533984312   0.006378552043657829
-0.10533829411089562   -0.012711724533984312   0.006378552043657829
-0.101884778851422   -0.00045168593590156833   0.0008112724055861246
-0.101884778851422   -0.00045168593590156833   0.0008112724055861246
-0.101884778851422   -0.00045168593590156833   0.0008112724055861246
-0.101884778851422   -0.00045168593590156833   0.0008112724055861246
-0.17004665602043711   -0.01347214718360673   -0.0014776752234966252
-0.17004665602043711   -0.01347214718360673   -0.0014776752234966252
-0.17004665602043711   -0.01347214718360673   -0.0014776752234966252
-0.17004665602043711   -0.01347214718360673   -0.0014776752234966252
-0.13820065761780798   -0.013421182039892288   -0.004043468609398946
-0.13820065761780798   -0.013421182039892288   -0.004043468609398946
-0.13820065761780798   -0.013421182039892288   -0.004043468609398946
-0.13820065761780798   -0.013421182039892288   -0.004043468609398946
-0.16983025164890397   -0.014147162572002586   0.0002793620225630322
-0.16983025164890397   -0.014147162572002586   0.0002793620225630322
-0.16983025164890397   -0.014147162572002586   0.0002793620225630322
-0.16983025164890397   -0.014147162572002586   0.0002793620225630322
-0.1010042124397575   0.001320300235690318   0.0034421182923166788
-0.1010042124397575   0.001320300235690318   0.0034421182923166788
-0.1010042124397575   0.001320300235690318   0.0034421182923166788
-0.1010042124397575   0.001320300235690318   0.0034421182923166788
-0.09679352249566321   0.015237543567636732   -0.0014207212607610653
-0.09679352249566321   0.015237543567636732   -0.0014207212607610653
-0.09679352249566321   0.015237543567636732   -0.0014207212607610653
-0.09679352249566321   0.015237543567636732   -0.0014207212607610653
-0.16535925778193863   0.0007615552117511484   -0.004353195699327413
-0.16535925778193863   0.0007615552117511484   -0.004353195699327413
-0.16535925778193863   0.0007615552117511484   -0.004353195699327413
-0.16535925778193863   0.0007615552117511484   -0.004353195699327413
-0.13282468408513665   0.0006679082290672045   0.001824091560682672
-0.13282468408513665   0.0006679082290672045   0.001824091560682672
-0.13282468408513665   0.0006679082290672045   0.001824091560682672
-0.13282468408513665   0.0006679082290672045   0.001824091560682672
-0.1647738556797732   0.0014939126563472752   -0.002158542633098358
-0.1647738556797732   0.0014939126563472752   -0.002158542633098358
-0.1647738556797732   0.0014939126563472752   -0.002158542633098358
-0.1647738556797732   0.0014939126563472752   -0.002158542633098358
-0.09638626660781316   0.015497844113054628   0.00035525763307219654
-0.09638626660781316   0.015497844113054628   0.00035525763307219654
-0.09638626660781316   0.015497844113054628   0.00035525763307219654
-0.09638626660781316   0.015497844113054628   0.00035525763307219654
-0.09198311167783907   0.03107418856350711   -0.003956260417615126
-0.09198311167783907   0.03107418856350711   -0.003956260417615126
-0.09198311167783907   0.03107418856350711   -0.003956260417615126
-0.09198311167783907   0.03107418856350711   -0.003956260417615126
-0.16097732860200997   0.015103799467950721   -0.007436788342493927
-0.16097732860200997   0.015103799467950721   -0.007436788342493927
-0.16097732860200997   0.015103799467950721   -0.007436788342493927
-0.16097732860200997   0.015103799467950721   -0.007436788342493927
-0.12774615037918416   0.014808110568574923   0.007454623151802921
-0.12774615037918416   0.014808110568574923   0.007454623151802921
-0.12774615037918416   0.014808110568574923   0.007454623151802921
-0.12774615037918416   0.014808110568574923   0.007454623151802921
-0.11401120284166957   -0.04014503411576238   -0.009552682028435552
-0.11401120284166957   -0.04014503411576238   -0.009552682028435552
-0.11401120284166957   -0.04014503411576238   -0.009552682028435552
-0.11401120284166957   -0.04014503411576238   -0.009552682028435552
-0.037976942689796   -0.0009824371376787478   0.016705068526978194
-0.037976942689796   -0.0009824371376787478   0.016705068526978194
-0.037976942689796   -0.0009824371376787478   0.016705068526978194
-0.037976942689796   -0.0009824371376787478   0.016705068526978194
-0.04285874374676367   -0.012269850120798665   -0.01246043639425545
-0.04285874374676367   -0.012269850120798665   -0.01246043639425545
-0.04285874374676367   -0.012269850120798665   -0.01246043639425545
-0.04285874374676367   -0.012269850120798665   -0.01246043639425545
-0.10033803742540269   -0.001523045573144064   0.009616339172924274
-0.10033803742540269   -0.001523045573144064   0.009616339172924274
-0.10033803742540269   -0.001523045573144064   0.009616339172924274
-0.10033803742540269   -0.001523045573144064   0.009616339172924274
-0.07375575542252324   -0.013134862446373791   -0.002921267094287036
-0.07375575542252324   -0.013134862446373791   -0.002921267094287036
-0.07375575542252324   -0.013134862446373791   -0.002921267094287036
-0.07375575542252324   -0.013134862446373791   -0.002921267094287036
-0.10948397893032874   -0.02552507721969104   -0.012111336705159915
-0.10948397893032874   -0.02552507721969104   -0.012111336705159915
-0.10948397893032874   -0.02552507721969104   -0.012111336705159915
-0.10948397893032874   -0.02552507721969104   -0.012111336705159915
-0.03248526076400519   0.01295972300358186   0.014177405395156408
-0.03248526076400519   0.01295972300358186   0.014177405395156408
-0.03248526076400519   0.01295972300358186   0.014177405395156408
-0.03248526076400519   0.01295972300358186   0.014177405395156408
-0.035361639607907336   0.0025708403979447392   -0.014031927086683518
-0.035361639607907336   0.0025708403979447392   -0.014031927086683518
-0.035361639607907336   0.0025708403979447392   -0.014031927086683518
-0.035361639607907336   0.0025708403979447392   -0.014031927086683518
-0.0960208722043592   0.011254456225948065   0.006425617537447699
-0.0960208722043592   0.011254456225948065   0.006425617537447699
-0.0960208722043592   0.011254456225948065   0.006425617537447699
-0.0960208722043592   0.011254456225948065   0.006425617537447699
-0.06801404509538288   5.346854481811519e-06   0.003064691491409489
-0.06801404509538288   5.346854481811519e-06   0.003064691491409489
-0.06801404509538288   5.346854481811519e-06   0.003064691491409489
-0.06801404509538288   5.346854481811519e-06   0.003064691491409489
-0.104875686079455   -0.011536985501204163   -0.015057010110880377
-0.104875686079455   -0.011536985501204163   -0.015057010110880377
-0.104875686079455   -0.011536985501204163   -0.015057010110880377
-0.104875686079455   -0.011536985501204163   -0.015057010110880377
-0.025363569152729873   0.026505538705179854   0.01202372688196964
-0.025363569152729873   0.026505538705179854   0.01202372688196964
-0.025363569152729873   0.026505538705179854   0.01202372688196964
-0.025363569152729873   0.026505538705179854   0.01202372688196964
-0.029024518634104848   0.01911533898602771   -0.01573145549617529
-0.029024518634104848   0.01911533898602771   -0.01573145549617529
-0.029024518634104848   0.01911533898602771   -0.01573145549617529
-0.029024518634104848   0.01911533898602771   -0.01573145549617529
-0.0916006190202269   0.025681310921645356   0.0033490805123075965
-0.0916006190202269   0.025681310921645356   0.0033490805123075965
-0.0916006190202269   0.025681310921645356   0.0033490805123075965
-0.0916006190202269   0.025681310921645356   0.0033490805123075965
-0.062096322512457724   0.0136621759818248   0.009037463677609013
-0.062096322512457724   0.0136621759818248   0.009037463677609013
-0.062096322512457724   0.0136621759818248   0.009037463677609013
-0.062096322512457724   0.0136621759818248   0.009037463677609013
-0.053913710011205734   -0.04311978799563761   -0.02084141722211165
-0.053913710011205734   -0.04311978799563761   -0.02084141722211165
-0.053913710011205734   -0.04311978799563761   -0.02084141722211165
-0.053913710011205734   -0.04311978799563761   -0.02084141722211165
0.012016975722117107   0.01233652569553361   0.025608199057259782
0.012016975722117107   0.01233652569553361   0.025608199057259782
0.012016975722117107   0.01233652569553361   0.025608199057259782
0.012016975722117107   0.01233652569553361   0.025608199057259782
0.012022889056582556   -0.021612716134320784   -0.027635041023048312
0.012022889056582556   -0.021612716134320784   -0.027635041023048312
0.012022889056582556   -0.021612716134320784   -0.027635041023048312
0.012022889056582556   -0.021612716134320784   -0.027635041023048312
-0.031043465401501772   0.013381544832568957   0.02096456037868639
-0.031043465401501772   0.013381544832568957   0.02096456037868639
-0.031043465401501772   0.013381544832568957   0.02096456037868639
-0.031043465401501772   0.013381544832568957   0.02096456037868639
-0.015585680945395874   -0.009289195755096033   -0.004769607329710784
-0.015585680945395874   -0.009289195755096033   -0.004769607329710784
-0.015585680945395874   -0.009289195755096033   -0.004769607329710784
-0.015585680945395874   -0.009289195755096033   -0.004769607329710784
-0.04933744410020257   -0.03315211018126505   -0.02397167810098452
-0.04933744410020257   -0.03315211018126505   -0.02397167810098452
-0.04933744410020257   -0.03315211018126505   -0.02397167810098452
-0.04933744410020257   -0.03315211018126505   -0.02397167810098452
0.03162720293621425   0.026231274060443975   0.02254253818034544
0.03162720293621425   0.026231274060443975   0.02254253818034544
0.03162720293621425   0.026231274060443975   0.02254253818034544
0.03162720293621425   0.026231274060443975   0.02254253818034544
0.026460498811606777   -0.013127019242789166   -0.0328622963586206
0.026460498811606777   -0.013127019242789166   -0.0328622963586206
0.026460498811606777   -0.013127019242789166   -0.0328622963586206
0.026460498811606777   -0.013127019242789166   -0.0328622963586206
-0.025795082216664187   0.01954016980297392   0.01683153046450302
-0.025795082216664187   0.01954016980297392   0.01683153046450302
-0.025795082216664187   0.01954016980297392   0.01683153046450302
-0.025795082216664187   0.01954016980297392   0.01683153046450302
-0.003799049903667313   -0.0005394654534493933   0.0016962682646394136
-0.003799049903667313   -0.0005394654534493933   0.0016962682646394136
-0.003799049903667313   -0.0005394654534493933   0.0016962682646394136
-0.003799049903667313   -0.0005394654534493933   0.0016962682646394136
-0.04385388010571794   -0.02616824465840696   -0.02775404451938484
-0.04385388010571794   -0.02616824465840696   -0.02775404451938484
-0.04385388010571794   -0.02616824465840696   -0.02775404451938484
-0.04385388010571794   -0.02616824465840696   -0.02775404451938484
0.045834221151246864   0.033896319669178054   0.01698297642761263
0.045834221151246864   0.033896319669178054   0.01698297642761263
0.045834221151246864   0.033896319669178054   0.01698297642761263
0.045834221151246864   0.033896319669178054   0.01698297642761263
0.04677104125057133   0.0034507353598191657   -0.03522510885134569
0.04677104125057133   0.0034507353598191657   -0.03522510885134569
0.04677104125057133   0.0034507353598191657   -0.03522510885134569
0.04677104125057133   0.0034507353598191657   -0.03522510885134569
-0.020898494049513973   0.03033197687602496   0.013682029536781841
-0.020898494049513973   0.03033197687602496   0.013682029536781841
-0.020898494049513973   0.03033197687602496   0.013682029536781841
-0.020898494049513973   0.03033197687602496   0.013682029536781841
0.006958347877406067   0.008619169630917784   0.008046338848782938
0.006958347877406067   0.008619169630917784   0.008046338848782938
0.006958347877406067   0.008619169630917784   0.008046338848782938
0.006958347877406067   0.008619169630917784   0.008046338848782938
-0.10144218169892324   0.006310912488063453   0.029274966944688938
-0.10144218169892324   0.006310912488063453   0.029274966944688938
-0.10144218169892324   0.006310912488063453   0.029274966944688938
-0.10144218169892324   0.006310912488063453   0.029274966944688938
-0.12317662982693468   -0.0380332601100893   -0.017132312740990203
-0.12317662982693468   -0.0380332601100893   -0.017132312740990203
-0.12317662982693468   -0.0380332601100893   -0.017132312740990203
-0.12317662982693468   -0.0380332601100893   -0.017132312740990203
-0.09834395591478637   0.01759021395719355   0.023940641652027105
-0.09834395591478637   0.01759021395719355   0.023940641652027105
-0.09834395591478637   0.01759021395719355   0.023940641652027105
-0.09834395591478637   0.01759021395719355   0.023940641652027105
-0.09858089212739474   -0.024669739411394935   -0.02213302115710397
-0.09858089212739474   -0.024669739411394935   -0.02213302115710397
-0.09858089212739474   -0.024669739411394935   -0.02213302115710397
-0.09858089212739474   -0.024669739411394935   -0.02213302115710397
-0.1028043998364975   -0.00789322629860785   -0.008125653357380693
-0.1028043998364975   -0.00789322629860785   -0.008125653357380693
-0.1028043998364975   -0.00789322629860785   -0.008125653357380693
-0.1028043998364975   -0.00789322629860785   -0.008125653357380693
-0.07935940813440016   0.02204993921846681   0.027254720178007195
-0.07935940813440016   0.02204993921846681   0.027254720178007195
-0.07935940813440016   0.02204993921846681   0.027254720178007195
-0.07935940813440016   0.02204993921846681   0.027254720178007195
-0.11634297477945073   -0.027906999544337667   -0.02055723916976164
-0.11634297477945073   -0.027906999544337667   -0.02055723916976164
-0.11634297477945073   -0.027906999544337667   -0.02055723916976164
-0.11634297477945073   -0.027906999544337667   -0.02055723916976164
-0.09081039384242506   0.024296881445192223   0.020125458809023316
-0.09081039384242506   0.024296881445192223   0.020125458809023316
-0.09081039384242506   0.024296881445192223   0.020125458809023316
-0.09081039384242506   0.024296881445192223   0.020125458809023316
-0.08222332123761945   -0.017090331468126607   -0.02752668460811918
-0.08222332123761945   -0.017090331468126607   -0.02752668460811918
-0.08222332123761945   -0.017090331468126607   -0.02752668460811918
-0.08222332123761945   -0.017090331468126607   -0.02752668460811918
-0.09074154940641986   0.0006572232009997743   -0.0018025561404485984
-0.09074154940641986   0.0006572232009997743   -0.0018025561404485984
-0.09074154940641986   0.0006572232009997743   -0.0018025561404485984
-0.09074154940641986   0.0006572232009997743   -0.0018025561404485984
-0.06290998155123312   0.030201507177302606   0.02174817517838327
-0.06290998155123312   0.030201507177302606   0.02174817517838327
-0.06290998155123312   0.030201507177302606   0.02174817517838327
-0.06290998155123312   0.030201507177302606   0.02174817517838327
-0.10897650722605301   -0.021847730897476037   -0.024560495766448108
-0.10897650722605301   -0.021847730897476037   -0.024560495766448108
-0.10897650722605301   -0.021847730897476037   -0.024560495766448108
-0.10897650722605301   -0.021847730897476037   -0.024560495766448108
-0.08393651855645647   0.03458673132113055   0.017378736103018936
-0.08393651855645647   0.03458673132113055   0.017378736103018936
-0.08393651855645647   0.03458673132113055   0.017378736103018936
-0.08393651855645647   0.03458673132113055   0.017378736103018936
-0.06037988709075898   -0.002687469916815781   -0.030995899227391252
-0.06037988709075898   -0.002687469916815781   -0.030995899227391252
-0.06037988709075898   -0.002687469916815781   -0.030995899227391252
-0.06037988709075898   -0.002687469916815781   -0.030995899227391252
-0.07629211457621389   0.009622389764404538   0.004945371483237032
-0.07629211457621389   0.009622389764404538   0.004945371483237032
-0.07629211457621389   0.009622389764404538   0.004945371483237032
-0.07629211457621389   0.009622389764404538   0.004945371483237032
-0.1101019643570373   -0.00655270222811059   0.016760456726516087
-0.1101019643570373   -0.00655270222811059   0.016760456726516087
-0.1101019643570373   -0.00655270222811059   0.016760456726516087
-0.1101019643570373   -0.00655270222811059   0.016760456726516087
-0.1384030457470868   -0.031034994423847922   -0.006689865588703262
-0.1384030457470868   -0.031034994423847922   -0.006689865588703262
-0.1384030457470868   -0.031034994423847922   -0.006689865588703262
-0.1384030457470868   -0.031034994423847922   -0.006689865588703262
-0.12362760719287859   0.0030805444119642172   0.011116672861129266
-0.12362760719287859   0.0030805444119642172   0.011116672861129266
-0.12362760719287859   0.0030805444119642172   0.011116672861129266
-0.12362760719287859   0.0030805444119642172   0.011116672861129266
-0.11154500993190643   -0.014395898113675917   -0.010078516362701875
-0.11154500993190643   -0.014395898113675917   -0.010078516362701875
-0.11154500993190643   -0.014395898113675917   -0.010078516362701875
-0.11154500993190643   -0.014395898113675917   -0.010078516362701875
-0.12103361009456258   -0.011273191770676871   -0.005658773534668019
-0.12103361009456258   -0.011273191770676871   -0.005658773534668019
-0.12103361009456258   -0.011273191770676871   -0.005658773534668019
-0.12103361009456258   -0.011273191770676871   -0.005658773534668019
-0.10210822654992766   0.00808582204585822   0.014623680387656
-0.10210822654992766   0.00808582204585822   0.014623680387656
-0.10210822654992766   0.00808582204585822   0.014623680387656
-0.10210822654992766   0.00808582204585822   0.014623680387656
-0.13210486019969153   -0.018441645372405835   -0.009747402388566369
-0.13210486019969153   -0.018441645372405835   -0.009747402388566369
-0.13210486019969153   -0.018441645372405835   -0.009747402388566369
-0.13210486019969153   -0.018441645372405835   -0.009747402388566369
-0.11691125900430839   0.016449652724221546   0.008474023558692714
-0.11691125900430839   0.016449652724221546   0.008474023558692714
-0.11691125900430839   0.016449652724221546   0.008474023558692714
-0.11691125900430839   0.016449652724221546   0.008474023558692714
-0.10250785953101649   -0.0015468099812769656   -0.012518178207462653
-0.10250785953101649   -0.0015468099812769656   -0.012518178207462653
-0.10250785953101649   -0.0015468099812769656   -0.012518178207462653
-0.10250785953101649   -0.0015468099812769656   -0.012518178207462653
-0.11298416734195714   0.0011696885674153008   0.000166845758769729
-0.11298416734195714   0.0011696885674153008   0.000166845758769729
-0.11298416734195714   0.0011696885674153008   0.000166845758769729
-0.11298416734195714   0.0011696885674153008   0.000166845758769729
-0.09260934839156776   0.0222506196972763   0.013176947811225827
-0.09260934839156776   0.0222506196972763   0.013176947811225827
-0.09260934839156776   0.0222506196972763   0.013176947811225827
-0.09260934839156776   0.0222506196972763   0.013176947811225827
-0.12578629053483964   -0.006324297345414863   -0.013127184024328994
-0.12578629053483964   -0.006324297345414863   -0.013127184024328994
-0.12578629053483964   -0.006324297345414863   -0.013127184024328994
-0.12578629053483964   -0.006324297345414863   -0.013127184024328994
-0.11015931082436661   0.03127904473497792   0.005961864266440181
-0.11015931082436661   0.03127904473497792   0.005961864266440181
-0.11015931082436661   0.03127904473497792   0.005961864266440181
-0.11015931082436661   0.03127904473497792   0.005961864266440181
-0.09473898178982086   0.012747163130861647   -0.01479401187353414
-0.09473898178982086   0.012747163130861647   -0.01479401187353414
-0.09473898178982086   0.012747163130861647   -0.01479401187353414
-0.09473898178982086   0.012747163130861647   -0.01479401187353414
-0.10537065133144746   0.014055869903558813   0.006109048524150413
-0.10537065133144746   0.014055869903558813   0.006109048524150413
-0.10537065133144746   0.014055869903558813   0.006109048524150413
-0.10537065133144746   0.014055869903558813   0.006109048524150413
-0.13364610713375774   -0.01869752578039026   0.00475735883448254
-0.13364610713375774   -0.01869752578039026   0.00475735883448254
-0.13364610713375774   -0.01869752578039026   0.00475735883448254
-0.13364610713375774   -0.01869752578039026   0.00475735883448254
-0.15349303761532695   -0.01978819375242167   0.004024586407027714
-0.15349303761532695   -0.01978819375242167   0.004024586407027714
-0.15349303761532695   -0.01978819375242167   0.004024586407027714
-0.15349303761532695   -0.01978819375242167   0.004024586407027714
-0.14814544039086225   -0.009087995285521032   -0.0014581313626430316
-0.14814544039086225   -0.009087995285521032   -0.0014581313626430316
-0.14814544039086225   -0.009087995285521032   -0.0014581313626430316
-0.14814544039086225   -0.009087995285521032   -0.0014581313626430316
-0.12671698742505988   -0.0025866907069039997   0.0013370068190911013
-0.12671698742505988   -0.0025866907069039997   0.0013370068190911013
-0.12671698742505988   -0.0025866907069039997   0.0013370068190911013
-0.12671698742505988   -0.0025866907069039997   0.0013370068190911013
-0.14071162218004363   -0.011830300216575898   -0.003774329108996447
-0.14071162218004363   -0.011830300216575898   -0.003774329108996447
-0.14071162218004363   -0.011830300216575898   -0.003774329108996447
-0.14071162218004363   -0.011830300216575898   -0.003774329108996447
-0.12679698297502712   -0.004047174881129656   0.0023975132434787307
-0.12679698297502712   -0.004047174881129656   0.0023975132434787307
-0.12679698297502712   -0.004047174881129656   0.0023975132434787307
-0.12679698297502712   -0.004047174881129656   0.0023975132434787307
-0.14715833926466299   -0.00672040553506599   0.0011097845178996077
-0.14715833926466299   -0.00672040553506599   0.0011097845178996077
-0.14715833926466299   -0.00672040553506599   0.0011097845178996077
-0.14715833926466299   -0.00672040553506599   0.0011097845178996077
-0.14107952084903416   0.005750771927979834   -0.003686849051080753
-0.14107952084903416   0.005750771927979834   -0.003686849051080753
-0.14107952084903416   0.005750771927979834   -0.003686849051080753
-0.14107952084903416   0.005750771927979834   -0.003686849051080753
-0.12002296236529739   0.010839877687646333   -0.0014747182096771071
-0.12002296236529739   0.010839877687646333   -0.0014747182096771071
-0.12002296236529739   0.010839877687646333   -0.0014747182096771071
-0.12002296236529739   0.010839877687646333   -0.0014747182096771071
-0.13332296816955377   0.0014188776661258513   0.001986027306861248
-0.13332296816955377   0.0014188776661258513   0.001986027306861248
-0.13332296816955377   0.0014188776661258513   0.001986027306861248
-0.13332296816955377   0.0014188776661258513   0.001986027306861248
-0.11976167045867853   0.01073836301539954   -6.67440043378778e-05
-0.11976167045867853   0.01073836301539954   -6.67440043378778e-05
-0.11976167045867853   0.01073836301539954   -6.67440043378778e-05
-0.11976167045867853   0.01073836301539954   -6.67440043378778e-05
-0.1405479619561056   0.006645137399773737   -0.001923420058231871
-0.1405479619561056   0.006645137399773737   -0.001923420058231871
-0.1405479619561056   0.006645137399773737   -0.001923420058231871
-0.1405479619561056   0.006645137399773737   -0.001923420058231871
-0.1343125773141236   0.02068561742485947   -0.0061924498458289234
-0.1343125773141236   0.02068561742485947   -0.0061924498458289234
-0.1343125773141236   0.02068561742485947   -0.0061924498458289234
-0.1343125773141236   0.02068561742485947   -0.0061924498458289234
-0.11365765666904068   0.024321481300112503   -0.004572301522063728
-0.11365765666904068   0.024321481300112503   -0.004572301522063728
-0.11365765666904068   0.024321481300112503   -0.004572301522063728
-0.11365765666904068   0.024321481300112503   -0.004572301522063728
-0.12628458393832717   0.014693728443584124   0.0074758057477828325
-0.12628458393832717   0.014693728443584124   0.0074758057477828325
-0.12628458393832717   0.014693728443584124   0.0074758057477828325
-0.12628458393832717   0.014693728443584124   0.0074758057477828325
-0.15780576975485336   -0.02979555822057632   -0.007531709822452312
-0.15780576975485336   -0.02979555822057632   -0.007531709822452312
-0.15780576975485336   -0.02979555822057632   -0.007531709822452312
-0.15780576975485336   -0.02979555822057632   -0.007531709822452312
-0.16997536088265658   -0.00876578668260395   0.01424309325155384
-0.16997536088265658   -0.00876578668260395   0.01424309325155384
-0.16997536088265658   -0.00876578668260395   0.01424309325155384
-0.16997536088265658   -0.00876578668260395   0.01424309325155384
-0.1728334899934052   -0.020790994398511464   -0.014227952385910188
-0.1728334899934052   -0.020790994398511464   -0.014227952385910188
-0.1728334899934052   -0.020790994398511464   -0.014227952385910188
-0.1728334899934052   -0.020790994398511464   -0.014227952385910188
-0.14184387361732445   0.008874707718677016   0.012086999500847953
-0.14184387361732445   0.008874707718677016   0.012086999500847953
-0.14184387361732445   0.008874707718677016   0.012086999500847953
-0.14184387361732445   0.008874707718677016   0.012086999500847953
-0.15992944655768518   -0.011815073447917341   -0.0023798825941671172
-0.15992944655768518   -0.011815073447917341   -0.0023798825941671172
-0.15992944655768518   -0.011815073447917341   -0.0023798825941671172
-0.15992944655768518   -0.011815073447917341   -0.0023798825941671172
-0.1511512959540097   -0.015603371671859056   -0.009972032792043638
-0.1511512959540097   -0.015603371671859056   -0.009972032792043638
-0.1511512959540097   -0.015603371671859056   -0.009972032792043638
-0.1511512959540097   -0.015603371671859056   -0.009972032792043638
-0.16257538632818996   0.004637766320556916   0.01163380522109764
-0.16257538632818996   0.004637766320556916   0.01163380522109764
-0.16257538632818996   0.004637766320556916   0.01163380522109764
-0.16257538632818996   0.004637766320556916   0.01163380522109764
-0.16351797674333685   -0.006723234030854883   -0.01596572920759708
-0.16351797674333685   -0.006723234030854883   -0.01596572920759708
-0.16351797674333685   -0.006723234030854883   -0.01596572920759708
-0.16351797674333685   -0.006723234030854883   -0.01596572920759708
-0.13550013712251543   0.020979446213458163   0.00898139529603376
-0.13550013712251543   0.020979446213458163   0.00898139529603376
-0.13550013712251543   0.020979446213458163   0.00898139529603376
-0.13550013712251543   0.020979446213458163   0.00898139529603376
-0.15149549451848118   0.0009572556050021427   0.0035726000156093753
-0.15149549451848118   0.0009572556050021427   0.0035726000156093753
-0.15149549451848118   0.0009572556050021427   0.0035726000156093753
-0.15149549451848118   0.0009572556050021427   0.0035726000156093753
-0.14451743677952766   -0.002295926293074513   -0.012829730482496728
-0.14451743677952766   -0.002295926293074513   -0.012829730482496728
-0.14451743677952766   -0.002295926293074513   -0.012829730482496728
-0.14451743677952766   -0.002295926293074513   -0.012829730482496728
-0.15354003477186978   0.017512780790133735   0.009687965828750592
-0.15354003477186978   0.017512780790133735   0.009687965828750592
-0.15354003477186978   0.017512780790133735   0.009687965828750592
-0.15354003477186978   0.017512780790133735   0.009687965828750592
-0.15537429895495602   0.008750889029516352   -0.01752934901360829
-0.15537429895495602   0.008750889029516352   -0.01752934901360829
-0.15537429895495602   0.008750889029516352   -0.01752934901360829
-0.15537429895495602   0.008750889029516352   -0.01752934901360829
-0.12913953041869525   0.03444096940573046   0.0059174326504417354
-0.12913953041869525   0.03444096940573046   0.0059174326504417354
-0.12913953041869525   0.03444096940573046   0.0059174326504417354
-0.12913953041869525   0.03444096940573046   0.0059174326504417354
-0.14438424155902865   0.013595392322915123   0.009251634117099996
-0.14438424155902865   0.013595392322915123   0.009251634117099996
-0.14438424155902865   0.013595392322915123   0.009251634117099996
-0.14438424155902865   0.013595392322915123   0.009251634117099996
-0.18193745932045907   -0.035368865207038906   -0.018964320413026644
-0.18193745932045907   -0.035368865207038906   -0.018964320413026644
-0.18193745932045907   -0.035368865207038906   -0.018964320413026644
-0.18193745932045907   -0.035368865207038906   -0.018964320413026644
-0.20298732099362732   0.0023177475946332196   0.025790628444033216
-0.20298732099362732   0.0023177475946332196   0.025790628444033216
-0.20298732099362732   0.0023177475946332196   0.025790628444033216
-0.20298732099362732   0.0023177475946332196   0.025790628444033216
-0.20052158893071056   -0.02977120390780476   -0.025321059793973425
-0.20052158893071056   -0.02977120390780476   -0.025321059793973425
-0.20052158893071056   -0.02977120390780476   -0.025321059793973425
-0.20052158893071056   -0.02977120390780476   -0.025321059793973425
-0.1567372914529069   0.022348484536702865   0.023113561381365135
-0.1567372914529069   0.022348484536702865   0.023113561381365135
-0.1567372914529069   0.022348484536702865   0.023113561381365135
-0.1567372914529069   0.022348484536702865   0.023113561381365135
-0.17807305647291485   -0.007734102928713054   -0.0010383210071729506
-0.17807305647291485   -0.007734102928713054   -0.0010383210071729506
-0.17807305647291485   -0.007734102928713054   -0.0010383210071729506
-0.17807305647291485   -0.007734102928713054   -0.0010383210071729506
-0.17495526771158537   -0.023932745650208576   -0.021695089725117713
-0.17495526771158537   -0.023932745650208576   -0.021695089725117713
-0.17495526771158537   -0.023932745650208576   -0.021695089725117713
-0.17495526771158537   -0.023932745650208576   -0.021695089725117713
-0.1812995379441385   0.017514101006999627   0.023503890224080583
-0.1812995379441385   0.017514101006999627   0.023503890224080583
-0.1812995379441385   0.017514101006999627   0.023503890224080583
-0.1812995379441385   0.017514101006999627   0.023503890224080583
-0.18431923849159748   -0.02157246721705675   -0.03020749836071705
-0.18431923849159748   -0.02157246721705675   -0.03020749836071705
-0.18431923849159748   -0.02157246721705675   -0.03020749836071705
-0.18431923849159748   -0.02157246721705675   -0.03020749836071705
-0.1495688525541508   0.02812424916307004   0.018932408544408093
-0.1495688525541508   0.02812424916307004   0.018932408544408093
-0.1495688525541508   0.02812424916307004   0.018932408544408093
-0.1495688525541508   0.02812424916307004   0.018932408544408093
-0.1672268481625508   0.0008522052850618786   0.004655516807861677
-0.1672268481625508   0.0008522052850618786   0.004655516807861677
-0.1672268481625508   0.0008522052850618786   0.004655516807861677
-0.1672268481625508   0.0008522052850618786   0.004655516807861677
-0.16744236757158293   -0.017181480697372725   -0.025129436682311483
-0.16744236757158293   -0.017181480697372725   -0.025129436682311483
-0.16744236757158293   -0.017181480697372725   -0.025129436682311483
-0.16744236757158293   -0.017181480697372725   -0.025129436682311483
-0.16539185709678011   0.024787129020768406   0.0180698123755446
-0.16539185709678011   0.024787129020768406   0.0180698123755446
-0.16539185709678011   0.024787129020768406   0.0180698123755446
-0.16539185709678011   0.024787129020768406   0.0180698123755446
-0.1629681033770964   -0.007426772270027318   -0.033042106865897106
-0.1629681033770964   -0.007426772270027318   -0.033042106865897106
-0.1629681033770964   -0.007426772270027318   -0.033042106865897106
-0.1629681033770964   -0.007426772270027318   -0.033042106865897106
-0.14316602555013658   0.03666891293744583   0.015593994102559457
-0.14316602555013658   0.03666891293744583   0.015593994102559457
-0.14316602555013658   0.03666891293744583   0.015593994102559457
-0.14316602555013658   0.03666891293744583   0.015593994102559457
-0.15214504444492516   0.009399247089836388   0.011278245391635886
-0.15214504444492516   0.009399247089836388   0.011278245391635886
-0.15214504444492516   0.009399247089836388   0.011278245391635886
-0.15214504444492516   0.009399247089836388   0.011278245391635886
0.11042156726810495   0.017742839143720476   0.02814998643301905
0.11042156726810495   0.017742839143720476   0.02814998643301905
0.11042156726810495   0.017742839143720476   0.02814998643301905
0.11042156726810495   0.017742839143720476   0.02814998643301905
-0.00194453605980879   -0.04512636469038841   -0.01849484377450668
-0.00194453605980879   -0.04512636469038841   -0.01849484377450668
-0.00194453605980879   -0.04512636469038841   -0.01849484377450668
-0.00194453605980879   -0.04512636469038841   -0.01849484377450668
0.02436356325297649   0.008689824453648005   0.021720342787739495
0.02436356325297649   0.008689824453648005   0.021720342787739495
0.02436356325297649   0.008689824453648005   0.021720342787739495
0.02436356325297649   0.008689824453648005   0.021720342787739495
0.1148763581456794   -0.015441793856600827   -0.023199457301886335
0.1148763581456794   -0.015441793856600827   -0.023199457301886335
0.1148763581456794   -0.015441793856600827   -0.023199457301886335
0.1148763581456794   -0.015441793856600827   -0.023199457301886335
0.05642195474740839   -0.008627316128182842   -0.01348075867794787
0.05642195474740839   -0.008627316128182842   -0.01348075867794787
0.05642195474740839   -0.008627316128182842   -0.01348075867794787
0.05642195474740839   -0.008627316128182842   -0.01348075867794787
0.13395208963556812   0.03134245202567413   0.02539495426527848
0.13395208963556812   0.03134245202567413   0.02539495426527848
0.13395208963556812   0.03134245202567413   0.02539495426527848
0.13395208963556812   0.03134245202567413   0.02539495426527848
0.006479372551117022   -0.03690288064059834   -0.022107905627311512
0.006479372551117022   -0.03690288064059834   -0.022107905627311512
0.006479372551117022   -0.03690288064059834   -0.022107905627311512
0.006479372551117022   -0.03690288064059834   -0.022107905627311512
0.033817544889858296   0.015244199597485748   0.01810510459246485
0.033817544889858296   0.015244199597485748   0.01810510459246485
0.033817544889858296   0.015244199597485748   0.01810510459246485
0.033817544889858296   0.015244199597485748   0.01810510459246485
0.13318261084684796   -0.00804241004180848   -0.028968784785367355
0.13318261084684796   -0.00804241004180848   -0.028968784785367355
0.13318261084684796   -0.00804241004180848   -0.028968784785367355
0.13318261084684796   -0.00804241004180848   -0.028968784785367355
0.07296359577846954   -0.00047771408997600295   -0.006397736645643153
0.07296359577846954   -0.00047771408997600295   -0.006397736645643153
0.07296359577846954   -0.00047771408997600295   -0.006397736645643153
0.07296359577846954   -0.00047771408997600295   -0.006397736645643153
0.1524490669789659   0.03934475021958092   0.01997633561383307
0.1524490669789659   0.03934475021958092   0.01997633561383307
0.1524490669789659   0.03934475021958092   0.01997633561383307
0.1524490669789659   0.03934475021958092   0.01997633561383307
0.015708486307287516   -0.030985563114356462   -0.026210425608546844
0.015708486307287516   -0.030985563114356462   -0.026210425608546844
0.015708486307287516   -0.030985563114356462   -0.026210425608546844
0.015708486307287516   -0.030985563114356462   -0.026210425608546844
0.0429842263374235   0.02731747087442442   0.01566469130062729
0.0429842263374235   0.02731747087442442   0.01566469130062729
0.0429842263374235   0.02731747087442442   0.01566469130062729
0.0429842263374235   0.02731747087442442   0.01566469130062729
0.1575055445923585   0.008506756228674191   -0.03193002385969231
0.1575055445923585   0.008506756228674191   -0.03193002385969231
0.1575055445923585   0.008506756228674191   -0.03193002385969231
0.1575055445923585   0.008506756228674191   -0.03193002385969231
0.08674167456741252   0.00868597689311916   0.00027393289794940337
0.08674167456741252   0.00868597689311916   0.00027393289794940337
0.08674167456741252   0.00868597689311916   0.00027393289794940337
0.08674167456741252   0.00868597689311916   0.00027393289794940337
0.01561446545066865   0.004951033959118219   0.01922276512837197
0.01561446545066865   0.004951033959118219   0.01922276512837197
0.01561446545066865   0.004951033959118219   0.01922276512837197
0.01561446545066865   0.004951033959118219   0.01922276512837197
-0.10321819796795902   -0.038365571937054255   -0.00849462179159486
-0.10321819796795902   -0.038365571937054255   -0.00849462179159486
-0.10321819796795902   -0.038365571937054255   -0.00849462179159486
-0.10321819796795902   -0.038365571937054255   -0.00849462179159486
-0.08669786194162817   -0.0056657616996335786   0.00872501771723153
-0.08669786194162817   -0.0056657616996335786   0.00872501771723153
-0.08669786194162817   -0.0056657616996335786   0.00872501771723153
-0.08669786194162817   -0.0056657616996335786   0.00872501771723153
0.016120429633960157   -0.004124102630015794   -0.006681398223678369
0.016120429633960157   -0.004124102630015794   -0.006681398223678369
0.016120429633960157   -0.004124102630015794   -0.006681398223678369
0.016120429633960157   -0.004124102630015794   -0.006681398223678369
-0.0404121498596895   -0.00981954380849174   -0.006450603495563604
-0.0404121498596895   -0.00981954380849174   -0.006450603495563604
-0.0404121498596895   -0.00981954380849174   -0.006450603495563604
-0.0404121498596895   -0.00981954380849174   -0.006450603495563604
0.025374356127510485   0.018413753911299447   0.017050377702758027
0.025374356127510485   0.018413753911299447   0.017050377702758027
0.025374356127510485   0.018413753911299447   0.017050377702758027
0.025374356127510485   0.018413753911299447   0.017050377702758027
-0.09507879435630913   -0.02733062416207946   -0.011514781893727411
-0.09507879435630913   -0.02733062416207946   -0.011514781893727411
-0.09507879435630913   -0.02733062416207946   -0.011514781893727411
-0.09507879435630913   -0.02733062416207946   -0.011514781893727411
-0.07808784896400141   0.0070725974585720275   0.00615884842476723
-0.07808784896400141   0.0070725974585720275   0.00615884842476723
-0.07808784896400141   0.0070725974585720275   0.00615884842476723
-0.07808784896400141   0.0070725974585720275   0.00615884842476723
0.02692367992273608   0.007932039482672962   -0.009052060128333442
0.02692367992273608   0.007932039482672962   -0.009052060128333442
0.02692367992273608   0.007932039482672962   -0.009052060128333442
0.02692367992273608   0.007932039482672962   -0.009052060128333442
-0.031280287849722054   0.0013930035543986558   -0.0008103322790271794
-0.031280287849722054   0.0013930035543986558   -0.0008103322790271794
-0.031280287849722054   0.0013930035543986558   -0.0008103322790271794
-0.031280287849722054   0.0013930035543986558   -0.0008103322790271794
0.03657041267559702   0.03182934060438926   0.015284302514254958
0.03657041267559702   0.03182934060438926   0.015284302514254958
0.03657041267559702   0.03182934060438926   0.015284302514254958
0.03657041267559702   0.03182934060438926   0.015284302514254958
-0.08689218940543224   -0.015982311351714164   -0.01480794497210075
-0.08689218940543224   -0.015982311351714164   -0.01480794497210075
-0.08689218940543224   -0.015982311351714164   -0.01480794497210075
-0.08689218940543224   -0.015982311351714164   -0.01480794497210075
-0.0694218086759825   0.021511994262126286   0.003712970668950665
-0.0694218086759825   0.021511994262126286   0.003712970668950665
-0.0694218086759825   0.021511994262126286   0.003712970668950665
-0.0694218086759825   0.021511994262126286   0.003712970668950665
0.03640603122278848   0.02163749217037677   -0.011546305568500193
0.03640603122278848   0.02163749217037677   -0.011546305568500193
0.03640603122278848   0.02163749217037677   -0.011546305568500193
0.03640603122278848   0.02163749217037677   -0.011546305568500193
-0.02114571119082928   0.013807590748945112   0.005215806652234854
-0.02114571119082928   0.013807590748945112   0.005215806652234854
-0.02114571119082928   0.013807590748945112   0.005215806652234854
-0.02114571119082928   0.013807590748945112   0.005215806652234854
-0.09391149943172011   -0.007285119672161253   0.006958418624707605
-0.09391149943172011   -0.007285119672161253   0.006958418624707605
-0.09391149943172011   -0.007285119672161253   0.006958418624707605
-0.09391149943172011   -0.007285119672161253   0.006958418624707605
-0.20263066508109945   -0.027457055576614948   0.001716036594424022
-0.20263066508109945   -0.027457055576614948   0.001716036594424022
-0.20263066508109945   -0.027457055576614948   0.001716036594424022
-0.20263066508109945   -0.027457055576614948   0.001716036594424022
-0.19512990818792758   -0.01729761043197643   -0.0038046710434033607
-0.19512990818792758   -0.01729761043197643   -0.0038046710434033607
-0.19512990818792758   -0.01729761043197643   -0.0038046710434033607
-0.19512990818792758   -0.01729761043197643   -0.0038046710434033607
-0.08501751304284151   0.007201975775577078   0.004259024735955098
-0.08501751304284151   0.007201975775577078   0.004259024735955098
-0.08501751304284151   0.007201975775577078   0.004259024735955098
-0.08501751304284151   0.007201975775577078   0.004259024735955098
-0.14438161821119605   -0.010302859276861615   -0.003781139401132113
-0.14438161821119605   -0.010302859276861615   -0.003781139401132113
-0.14438161821119605   -0.010302859276861615   -0.003781139401132113
-0.14438161821119605   -0.010302859276861615   -0.003781139401132113
-0.08510768012234693   0.0063915020105178265   0.004618663103487286
-0.08510768012234693   0.0063915020105178265   0.004618663103487286
-0.08510768012234693   0.0063915020105178265   0.004618663103487286
-0.08510768012234693   0.0063915020105178265   0.004618663103487286
-0.1942858906264593   -0.01573328618495432   -0.0011489074830841129
-0.1942858906264593   -0.01573328618495432   -0.0011489074830841129
-0.1942858906264593   -0.01573328618495432   -0.0011489074830841129
-0.1942858906264593   -0.01573328618495432   -0.0011489074830841129
-0.1860672703626627   -0.00327044207169664   -0.0059820090090266596
-0.1860672703626627   -0.00327044207169664   -0.0059820090090266596
-0.1860672703626627   -0.00327044207169664   -0.0059820090090266596
-0.1860672703626627   -0.00327044207169664   -0.0059820090090266596
-0.07649450150547431   0.019608318055933535   0.001589865120042151
-0.07649450150547431   0.019608318055933535   0.001589865120042151
-0.07649450150547431   0.019608318055933535   0.001589865120042151
-0.07649450150547431   0.019608318055933535   0.001589865120042151
-0.13501792194584744   0.002005619533781991   0.0019102264815996691
-0.13501792194584744   0.002005619533781991   0.0019102264815996691
-0.13501792194584744   0.002005619533781991   0.0019102264815996691
-0.13501792194584744   0.002005619533781991   0.0019102264815996691
-0.07625061255786518   0.020310680728227053   0.0021069471857942824
-0.07625061255786518   0.020310680728227053   0.0021069471857942824
-0.07625061255786518   0.020310680728227053   0.0021069471857942824
-0.07625061255786518   0.020310680728227053   0.0021069471857942824
-0.18570491930138683   -0.0033665647351054095   -0.004074131039240047
-0.18570491930138683   -0.0033665647351054095   -0.004074131039240047
-0.18570491930138683   -0.0033665647351054095   -0.004074131039240047
-0.18570491930138683   -0.0033665647351054095   -0.004074131039240047
-0.17736826918203374   0.01080262219297106   -0.008455984544777842
-0.17736826918203374   0.01080262219297106   -0.008455984544777842
-0.17736826918203374   0.01080262219297106   -0.008455984544777842
-0.17736826918203374   0.01080262219297106   -0.008455984544777842
-0.068355388967182   0.032050988407657056   -0.001493924932576652
-0.068355388967182   0.032050988407657056   -0.001493924932576652
-0.068355388967182   0.032050988407657056   -0.001493924932576652
-0.068355388967182   0.032050988407657056   -0.001493924932576652
-0.12615165340967416   0.014283700453962666   0.007230328388862846
-0.12615165340967416   0.014283700453962666   0.007230328388862846
-0.12615165340967416   0.014283700453962666   0.007230328388862846
-0.12615165340967416   0.014283700453962666   0.007230328388862846
-0.2024634293373487   -0.019244155897119454   -0.005660684366316195
-0.2024634293373487   -0.019244155897119454   -0.005660684366316195
-0.2024634293373487   -0.019244155897119454   -0.005660684366316195
-0.2024634293373487   -0.019244155897119454   -0.005660684366316195
-0.3012948283992761   -0.017194972345535374   0.011718620347667703
-0.3012948283992761   -0.017194972345535374   0.011718620347667703
-0.3012948283992761   -0.017194972345535374   0.011718620347667703
-0.3012948283992761   -0.017194972345535374   0.011718620347667703
-0.3016224311841831   -0.028713579572198382   -0.016075879386670357
-0.3016224311841831   -0.028713579572198382   -0.016075879386670357
-0.3016224311841831   -0.028713579572198382   -0.016075879386670357
-0.3016224311841831   -0.028713579572198382   -0.016075879386670357
-0.18439915174744462   0.018081458625464182   0.014470042101570815
-0.18439915174744462   0.018081458625464182   0.014470042101570815
-0.18439915174744462   0.018081458625464182   0.014470042101570815
-0.18439915174744462   0.018081458625464182   0.014470042101570815
-0.24605013006110232   -0.010586367364279238   -0.0016120976464050352
-0.24605013006110232   -0.010586367364279238   -0.0016120976464050352
-0.24605013006110232   -0.010586367364279238   -0.0016120976464050352
-0.24605013006110232   -0.010586367364279238   -0.0016120976464050352
-0.19359060876433062   -0.005477663401977077   -0.007928120955416328
-0.19359060876433062   -0.005477663401977077   -0.007928120955416328
-0.19359060876433062   -0.005477663401977077   -0.007928120955416328
-0.19359060876433062   -0.005477663401977077   -0.007928120955416328
-0.2918012145590176   -0.0045246979364793605   0.008841322103441386
-0.2918012145590176   -0.0045246979364793605   0.008841322103441386
-0.2918012145590176   -0.0045246979364793605   0.008841322103441386
-0.2918012145590176   -0.0045246979364793605   0.008841322103441386
-0.2902194138767591   -0.015338748861603926   -0.017890303325048356
-0.2902194138767591   -0.015338748861603926   -0.017890303325048356
-0.2902194138767591   -0.015338748861603926   -0.017890303325048356
-0.2902194138767591   -0.015338748861603926   -0.017890303325048356
-0.17603981137757738   0.029364898534183573   0.011519945310519846
-0.17603981137757738   0.029364898534183573   0.011519945310519846
-0.17603981137757738   0.029364898534183573   0.011519945310519846
-0.17603981137757738   0.029364898534183573   0.011519945310519846
-0.23476419439664206   0.0018275409616030358   0.004261438446570048
-0.23476419439664206   0.0018275409616030358   0.004261438446570048
-0.23476419439664206   0.0018275409616030358   0.004261438446570048
-0.23476419439664206   0.0018275409616030358   0.004261438446570048
-0.18492410587618868   0.00715920639487419   -0.010695835043228203
-0.18492410587618868   0.00715920639487419   -0.010695835043228203
-0.18492410587618868   0.00715920639487419   -0.010695835043228203
-0.18492410587618868   0.00715920639487419   -0.010695835043228203
-0.28062840196248434   0.007573660693368761   0.007152346691352774
-0.28062840196248434   0.007573660693368761   0.007152346691352774
-0.28062840196248434   0.007573660693368761   0.007152346691352774
-0.28062840196248434   0.007573660693368761   0.007152346691352774
-0.28002534878195845   -0.0007729285659055091   -0.01926623884447498
-0.28002534878195845   -0.0007729285659055091   -0.01926623884447498
-0.28002534878195845   -0.0007729285659055091   -0.01926623884447498
-0.28002534878195845   -0.0007729285659055091   -0.01926623884447498
-0.1677692694843569   0.041796103554492106   0.008545532582085444
-0.1677692694843569   0.041796103554492106   0.008545532582085444
-0.1677692694843569   0.041796103554492106   0.008545532582085444
-0.1677692694843569   0.041796103554492106   0.008545532582085444
-0.2263966385746392   0.013375633247647047   0.009516659416373193
-0.2263966385746392   0.013375633247647047   0.009516659416373193
-0.2263966385746392   0.013375633247647047   0.009516659416373193
-0.2263966385746392   0.013375633247647047   0.009516659416373193
-0.3091805064249034   -0.027549969671357907   -0.017354772454646325
-0.3091805064249034   -0.027549969671357907   -0.017354772454646325
-0.3091805064249034   -0.027549969671357907   -0.017354772454646325
-0.3091805064249034   -0.027549969671357907   -0.017354772454646325
-0.41400872929454213   -0.007611566781022247   0.02561082031404331
-0.41400872929454213   -0.007611566781022247   0.02561082031404331
-0.41400872929454213   -0.007611566781022247   0.02561082031404331
-0.41400872929454213   -0.007611566781022247   0.02561082031404331
-0.40857730881788096   -0.0372920988963685   -0.023249338419017666
-0.40857730881788096   -0.0372920988963685   -0.023249338419017666
-0.40857730881788096   -0.0372920988963685   -0.023249338419017666
-0.40857730881788096   -0.0372920988963685   -0.023249338419017666
-0.2814885198371861   0.03063435103910319   0.02524574673701322
-0.2814885198371861   0.03063435103910319   0.02524574673701322
-0.2814885198371861   0.03063435103910319   0.02524574673701322
-0.2814885198371861   0.03063435103910319   0.02524574673701322
-0.33805750203326473   -0.006035492783481727   0.0029155473374092994
-0.33805750203326473   -0.006035492783481727   0.0029155473374092994
-0.33805750203326473   -0.006035492783481727   0.0029155473374092994
-0.33805750203326473   -0.006035492783481727   0.0029155473374092994
-0.2995454438322231   -0.014763968879372383   -0.01964055331969485
-0.2995454438322231   -0.014763968879372383   -0.01964055331969485
-0.2995454438322231   -0.014763968879372383   -0.01964055331969485
-0.2995454438322231   -0.014763968879372383   -0.01964055331969485
-0.3899442518583345   0.008682353986615599   0.0239414934957237
-0.3899442518583345   0.008682353986615599   0.0239414934957237
-0.3899442518583345   0.008682353986615599   0.0239414934957237
-0.3899442518583345   0.008682353986615599   0.0239414934957237
-0.39041302815774803   -0.029370201323478416   -0.027695668284736935
-0.39041302815774803   -0.029370201323478416   -0.027695668284736935
-0.39041302815774803   -0.029370201323478416   -0.027695668284736935
-0.39041302815774803   -0.029370201323478416   -0.027695668284736935
-0.27223897895413407   0.03584534467896382   0.020827777747506725
-0.27223897895413407   0.03584534467896382   0.020827777747506725
-0.27223897895413407   0.03584534467896382   0.020827777747506725
-0.27223897895413407   0.03584534467896382   0.020827777747506725
-0.32793090807003455   0.0022959182407664563   0.007644187671019716
-0.32793090807003455   0.0022959182407664563   0.007644187671019716
-0.32793090807003455   0.0022959182407664563   0.007644187671019716
-0.32793090807003455   0.0022959182407664563   0.007644187671019716
-0.2897637386576662   -0.008242787487293478   -0.02270788860389413
-0.2897637386576662   -0.008242787487293478   -0.02270788860389413
-0.2897637386576662   -0.008242787487293478   -0.02270788860389413
-0.2897637386576662   -0.008242787487293478   -0.02270788860389413
-0.3721881189687569   0.015418080328237646   0.018640596008498763
-0.3721881189687569   0.015418080328237646   0.018640596008498763
-0.3721881189687569   0.015418080328237646   0.018640596008498763
-0.3721881189687569   0.015418080328237646   0.018640596008498763
-0.3679527396782644   -0.017590819476742472   -0.030917953840254243
-0.3679527396782644   -0.017590819476742472   -0.030917953840254243
-0.3679527396782644   -0.017590819476742472   -0.030917953840254243
-0.3679527396782644   -0.017590819476742472   -0.030917953840254243
-0.26413771947416587   0.04205269006519971   0.017346289063382668
-0.26413771947416587   0.04205269006519971   0.017346289063382668
-0.26413771947416587   0.04205269006519971   0.017346289063382668
-0.26413771947416587   0.04205269006519971   0.017346289063382668
-0.3085195648645571   0.010070157454837622   0.014341573228754984
-0.3085195648645571   0.010070157454837622   0.014341573228754984
-0.3085195648645571   0.010070157454837622   0.014341573228754984
-0.3085195648645571   0.010070157454837622   0.014341573228754984
0.32543680990962864   0.029634449607130325   0.027927881743649546
0.32543680990962864   0.029634449607130325   0.027927881743649546
0.32543680990962864   0.029634449607130325   0.027927881743649546
0.32543680990962864   0.029634449607130325   0.027927881743649546
0.11882719037955615   -0.05348615787036356   -0.01836742896546083
0.11882719037955615   -0.05348615787036356   -0.01836742896546083
0.11882719037955615   -0.05348615787036356   -0.01836742896546083
0.11882719037955615   -0.05348615787036356   -0.01836742896546083
0.14623514685369512   -0.0005175744847531125   0.02006285084932116
0.14623514685369512   -0.0005175744847531125   0.02006285084932116
0.14623514685369512   -0.0005175744847531125   0.02006285084932116
0.14623514685369512   -0.0005175744847531125   0.02006285084932116
0.33105305613012087   -0.00696322563683302   -0.02347099129317492
0.33105305613012087   -0.00696322563683302   -0.02347099129317492
0.33105305613012087   -0.00696322563683302   -0.02347099129317492
0.33105305613012087   -0.00696322563683302   -0.02347099129317492
0.21622273300942232   -0.009537259932556608   -0.020732226587770405
0.21622273300942232   -0.009537259932556608   -0.020732226587770405
0.21622273300942232   -0.009537259932556608   -0.020732226587770405
0.21622273300942232   -0.009537259932556608   -0.020732226587770405
0.3502182219702109   0.04112066068564492   0.024270951584795534
0.3502182219702109   0.04112066068564492   0.024270951584795534
0.3502182219702109   0.04112066068564492   0.024270951584795534
0.3502182219702109   0.04112066068564492   0.024270951584795534
0.1284411442124862   -0.047230297608349917   -0.022194439233124724
0.1284411442124862   -0.047230297608349917   -0.022194439233124724
0.1284411442124862   -0.047230297608349917   -0.022194439233124724
0.1284411442124862   -0.047230297608349917   -0.022194439233124724
0.156919768592753   0.005803050423201117   0.016521359793775572
0.156919768592753   0.005803050423201117   0.016521359793775572
0.156919768592753   0.005803050423201117   0.016521359793775572
0.156919768592753   0.005803050423201117   0.016521359793775572
0.3507167816770313   0.0002099130122589915   -0.029499215525959296
0.3507167816770313   0.0002099130122589915   -0.029499215525959296
0.3507167816770313   0.0002099130122589915   -0.029499215525959296
0.3507167816770313   0.0002099130122589915   -0.029499215525959296
0.23682172510061855   -0.0018074481842370316   -0.012598372061881188
0.23682172510061855   -0.0018074481842370316   -0.012598372061881188
0.23682172510061855   -0.0018074481842370316   -0.012598372061881188
0.23682172510061855   -0.0018074481842370316   -0.012598372061881188
0.3700780304003014   0.0488615158720708   0.018655425230575593
0.3700780304003014   0.0488615158720708   0.018655425230575593
0.3700780304003014   0.0488615158720708   0.018655425230575593
0.3700780304003014   0.0488615158720708   0.018655425230575593
0.13900418529509784   -0.04140288701099605   -0.02585061926030106
0.13900418529509784   -0.04140288701099605   -0.02585061926030106
0.13900418529509784   -0.04140288701099605   -0.02585061926030106
0.13900418529509784   -0.04140288701099605   -0.02585061926030106
0.16759265940229892   0.019773841967985466   0.014318290026923634
0.16759265940229892   0.019773841967985466   0.014318290026923634
0.16759265940229892   0.019773841967985466   0.014318290026923634
0.16759265940229892   0.019773841967985466   0.014318290026923634
0.3765720117771085   0.018908767173954136   -0.03179953670530293
0.3765720117771085   0.018908767173954136   -0.03179953670530293
0.3765720117771085   0.018908767173954136   -0.03179953670530293
0.3765720117771085   0.018908767173954136   -0.03179953670530293
0.249360907298876   0.007629532613348006   -0.005600941696606514
0.249360907298876   0.007629532613348006   -0.005600941696606514
0.249360907298876   0.007629532613348006   -0.005600941696606514
0.249360907298876   0.007629532613348006   -0.005600941696606514
0.14102443316035287   0.01667367005046322   0.022458957017695978
0.14102443316035287   0.01667367005046322   0.022458957017695978
0.14102443316035287   0.01667367005046322   0.022458957017695978
0.14102443316035287   0.01667367005046322   0.022458957017695978
-0.06939352063681237   -0.049930662583263   -0.009646054242095655
-0.06939352063681237   -0.049930662583263   -0.009646054242095655
-0.06939352063681237   -0.049930662583263   -0.009646054242095655
-0.06939352063681237   -0.049930662583263   -0.009646054242095655
-0.05063384893789737   -0.014791256478422877   0.0067371111061437445
-0.05063384893789737   -0.014791256478422877   0.0067371111061437445
-0.05063384893789737   -0.014791256478422877   0.0067371111061437445
-0.05063384893789737   -0.014791256478422877   0.0067371111061437445
0.14192528344694708   0.0008721150906164481   -0.0028761557597866477
0.14192528344694708   0.0008721150906164481   -0.0028761557597866477
0.14192528344694708   0.0008721150906164481   -0.0028761557597866477
0.14192528344694708   0.0008721150906164481   -0.0028761557597866477
0.03887083637197587   -0.010420594123957863   -0.008783415273795284
0.03887083637197587   -0.010420594123957863   -0.008783415273795284
0.03887083637197587   -0.010420594123957863   -0.008783415273795284
0.03887083637197587   -0.010420594123957863   -0.008783415273795284
0.1520192370560103   0.02840423664529924   0.020061490730846655
0.1520192370560103   0.02840423664529924   0.020061490730846655
0.1520192370560103   0.02840423664529924   0.020061490730846655
0.1520192370560103   0.02840423664529924   0.020061490730846655
-0.059890014558540206   -0.04148559004468544   -0.012849383430808815
-0.059890014558540206   -0.04148559004468544   -0.012849383430808815
-0.059890014558540206   -0.04148559004468544   -0.012849383430808815
-0.059890014558540206   -0.04148559004468544   -0.012849383430808815
-0.04068917707119659   -0.0029315277201090485   0.004242960851689176
-0.04068917707119659   -0.0029315277201090485   0.004242960851689176
-0.04068917707119659   -0.0029315277201090485   0.004242960851689176
-0.04068917707119659   -0.0029315277201090485   0.004242960851689176
0.1536717518325739   0.011488820502933633   -0.005404494086850473
0.1536717518325739   0.011488820502933633   -0.005404494086850473
0.1536717518325739   0.011488820502933633   -0.005404494086850473
0.1536717518325739   0.011488820502933633   -0.005404494086850473
0.04846183287436359   -0.001062740646834261   -0.003485626898736714
0.04846183287436359   -0.001062740646834261   -0.003485626898736714
0.04846183287436359   -0.001062740646834261   -0.003485626898736714
0.04846183287436359   -0.001062740646834261   -0.003485626898736714
0.16417284763169163   0.0407585384437206   0.0178312669679492
0.16417284763169163   0.0407585384437206   0.0178312669679492
0.16417284763169163   0.0407585384437206   0.0178312669679492
0.16417284763169163   0.0407585384437206   0.0178312669679492
-0.05035258353960309   -0.031363556330185116   -0.01564204288026724
-0.05035258353960309   -0.031363556330185116   -0.01564204288026724
-0.05035258353960309   -0.031363556330185116   -0.01564204288026724
-0.05035258353960309   -0.031363556330185116   -0.01564204288026724
-0.030861612117531887   0.01084599079914608   0.0017638309156513673
-0.030861612117531887   0.01084599079914608   0.0017638309156513673
-0.030861612117531887   0.01084599079914608   0.0017638309156513673
-0.030861612117531887   0.01084599079914608   0.0017638309156513673
0.1640617232831974   0.024163321383237773   -0.007725869983834383
0.1640617232831974   0.024163321383237773   -0.007725869983834383
0.1640617232831974   0.024163321383237773   -0.007725869983834383
0.1640617232831974   0.024163321383237773   -0.007725869983834383
0.060389330029277544   0.010445171855848054   0.0027092958280620495
0.060389330029277544   0.010445171855848054   0.0027092958280620495
0.060389330029277544   0.010445171855848054   0.0027092958280620495
0.060389330029277544   0.010445171855848054   0.0027092958280620495
-0.05482352966023099   0.0036798431668222144   0.00959339489072604
-0.05482352966023099   0.0036798431668222144   0.00959339489072604
-0.05482352966023099   0.0036798431668222144   0.00959339489072604
-0.05482352966023099   0.0036798431668222144   0.00959339489072604
-0.25389371985808107   -0.044173285627798035   -0.001329538593409647
-0.25389371985808107   -0.044173285627798035   -0.001329538593409647
-0.25389371985808107   -0.044173285627798035   -0.001329538593409647
-0.25389371985808107   -0.044173285627798035   -0.001329538593409647
-0.24213952974224812   -0.02626364328749146   -0.005947053879981013
-0.24213952974224812   -0.02626364328749146   -0.005947053879981013
-0.24213952974224812   -0.02626364328749146   -0.005947053879981013
-0.24213952974224812   -0.02626364328749146   -0.005947053879981013
-0.04636302241509514   0.006961507769025377   0.006338479472705659
-0.04636302241509514   0.006961507769025377   0.006338479472705659
-0.04636302241509514   0.006961507769025377   0.006338479472705659
-0.04636302241509514   0.006961507769025377   0.006338479472705659
-0.1495627543298767   -0.013536164158017443   -0.005495032236667681
-0.1495627543298767   -0.013536164158017443   -0.005495032236667681
-0.1495627543298767   -0.013536164158017443   -0.005495032236667681
-0.1495627543298767   -0.013536164158017443   -0.005495032236667681
-0.04438091783523931   0.015932993248423948   0.007277516892587232
-0.04438091783523931   0.015932993248423948   0.007277516892587232
-0.04438091783523931   0.015932993248423948   0.007277516892587232
-0.04438091783523931   0.015932993248423948   0.007277516892587232
-0.243550834697269   -0.03466432914205493   -0.004602892800522035
-0.243550834697269   -0.03466432914205493   -0.004602892800522035
-0.243550834697269   -0.03466432914205493   -0.004602892800522035
-0.243550834697269   -0.03466432914205493   -0.004602892800522035
-0.23117171591894464   -0.013251021783007362   -0.008029619661191988
-0.23117171591894464   -0.013251021783007362   -0.008029619661191988
-0.23117171591894464   -0.013251021783007362   -0.008029619661191988
-0.23117171591894464   -0.013251021783007362   -0.008029619661191988
-0.03668784674534337   0.017691597183398862   0.0036264875774474122
-0.03668784674534337   0.017691597183398862   0.0036264875774474122
-0.03668784674534337   0.017691597183398862   0.0036264875774474122
-0.03668784674534337   0.017691597183398862   0.0036264875774474122
-0.13849483941211574   -0.002653683807574296   -7.751385832358276e-05
-0.13849483941211574   -0.002653683807574296   -7.751385832358276e-05
-0.13849483941211574   -0.002653683807574296   -7.751385832358276e-05
-0.13849483941211574   -0.002653683807574296   -7.751385832358276e-05
-0.03429157063269499   0.02865902022608216   0.004640445098005963
-0.03429157063269499   0.02865902022608216   0.004640445098005963
-0.03429157063269499   0.02865902022608216   0.004640445098005963
-0.03429157063269499   0.02865902022608216   0.004640445098005963
-0.23304015531084793   -0.023690608104945554   -0.006932230298770102
-0.23304015531084793   -0.023690608104945554   -0.006932230298770102
-0.23304015531084793   -0.023690608104945554   -0.006932230298770102
-0.23304015531084793   -0.023690608104945554   -0.006932230298770102
-0.22095775499139073   -0.00027185089240965715   -0.010505755408701491
-0.22095775499139073   -0.00027185089240965715   -0.010505755408701491
-0.22095775499139073   -0.00027185089240965715   -0.010505755408701491
-0.22095775499139073   -0.00027185089240965715   -0.010505755408701491
-0.027468407759648025   0.02864028330204682   0.0009355602021699685
-0.027468407759648025   0.02864028330204682   0.0009355602021699685
-0.027468407759648025   0.02864028330204682   0.0009355602021699685
-0.027468407759648025   0.02864028330204682   0.0009355602021699685
-0.12833687036359007   0.008190258594100844   0.005072974529057776
-0.12833687036359007   0.008190258594100844   0.005072974529057776
-0.12833687036359007   0.008190258594100844   0.005072974529057776
-0.12833687036359007   0.008190258594100844   0.005072974529057776
-0.24742188057350187   -0.009494027007979917   -0.0036496007903292667
-0.24742188057350187   -0.009494027007979917   -0.0036496007903292667
-0.24742188057350187   -0.009494027007979917   -0.0036496007903292667
-0.24742188057350187   -0.009494027007979917   -0.0036496007903292667
-0.4345831639307844   -0.035945452459764084   0.008128158505374421
-0.4345831639307844   -0.035945452459764084   0.008128158505374421
-0.4345831639307844   -0.035945452459764084   0.008128158505374421
-0.4345831639307844   -0.035945452459764084   0.008128158505374421
-0.4290682147167042   -0.03731851549796262   -0.01786076554630356
-0.4290682147167042   -0.03731851549796262   -0.01786076554630356
-0.4290682147167042   -0.03731851549796262   -0.01786076554630356
-0.4290682147167042   -0.03731851549796262   -0.01786076554630356
-0.22914622803131954   0.01691766207472528   0.015838149312447126
-0.22914622803131954   0.01691766207472528   0.015838149312447126
-0.22914622803131954   0.01691766207472528   0.015838149312447126
-0.22914622803131954   0.01691766207472528   0.015838149312447126
-0.3327382985241042   -0.014420518673486107   -0.0019275295793624511
-0.3327382985241042   -0.014420518673486107   -0.0019275295793624511
-0.3327382985241042   -0.014420518673486107   -0.0019275295793624511
-0.3327382985241042   -0.014420518673486107   -0.0019275295793624511
-0.2360742646669941   0.0037296277191667115   -0.005613999510367057
-0.2360742646669941   0.0037296277191667115   -0.005613999510367057
-0.2360742646669941   0.0037296277191667115   -0.005613999510367057
-0.2360742646669941   0.0037296277191667115   -0.005613999510367057
-0.4220781758892335   -0.024068478950607375   0.0038393920436978965
-0.4220781758892335   -0.024068478950607375   0.0038393920436978965
-0.4220781758892335   -0.024068478950607375   0.0038393920436978965
-0.4220781758892335   -0.024068478950607375   0.0038393920436978965
-0.41469703845466205   -0.02462199641772464   -0.019757302371936566
-0.41469703845466205   -0.02462199641772464   -0.019757302371936566
-0.41469703845466205   -0.02462199641772464   -0.019757302371936566
-0.41469703845466205   -0.02462199641772464   -0.019757302371936566
-0.21895462518683245   0.02712966440532287   0.012675147811040836
-0.21895462518683245   0.02712966440532287   0.012675147811040836
-0.21895462518683245   0.02712966440532287   0.012675147811040836
-0.21895462518683245   0.02712966440532287   0.012675147811040836
-0.31807701278389294   -0.00240202009191956   0.0035200312302274724
-0.31807701278389294   -0.00240202009191956   0.0035200312302274724
-0.31807701278389294   -0.00240202009191956   0.0035200312302274724
-0.31807701278389294   -0.00240202009191956   0.0035200312302274724
-0.22545925361243513   0.015527795868981634   -0.008246125780632111
-0.22545925361243513   0.015527795868981634   -0.008246125780632111
-0.22545925361243513   0.015527795868981634   -0.008246125780632111
-0.22545925361243513   0.015527795868981634   -0.008246125780632111
-0.40781474905784826   -0.012642466910172387   0.002674615104580322
-0.40781474905784826   -0.012642466910172387   0.002674615104580322
-0.40781474905784826   -0.012642466910172387   0.002674615104580322
-0.40781474905784826   -0.012642466910172387   0.002674615104580322
-0.40185077294852056   -0.010886120399649327   -0.02078408372445808
-0.40185077294852056   -0.010886120399649327   -0.02078408372445808
-0.40185077294852056   -0.010886120399649327   -0.02078408372445808
-0.40185077294852056   -0.010886120399649327   -0.02078408372445808
-0.2090843490653153   0.03832697563161861   0.010262447697649252
-0.2090843490653153   0.03832697563161861   0.010262447697649252
-0.2090843490653153   0.03832697563161861   0.010262447697649252
-0.2090843490653153   0.03832697563161861   0.010262447697649252
-0.3082739468323663   0.007848093495872857   0.008210456886270937
-0.3082739468323663   0.007848093495872857   0.008210456886270937
-0.3082739468323663   0.007848093495872857   0.008210456886270937
-0.3082739468323663   0.007848093495872857   0.008210456886270937
-0.4362761736244205   -0.020369740161931327   -0.015912602260639033
-0.4362761736244205   -0.020369740161931327   -0.015912602260639033
-0.4362761736244205   -0.020369740161931327   -0.015912602260639033
-0.4362761736244205   -0.020369740161931327   -0.015912602260639033
-0.6225982774309758   -0.022565022672402985   0.027527676964792608
-0.6225982774309758   -0.022565022672402985   0.027527676964792608
-0.6225982774309758   -0.022565022672402985   0.027527676964792608
-0.6225982774309758   -0.022565022672402985   0.027527676964792608
-0.6111424283564469   -0.04458781379226903   -0.021211168900587003
-0.6111424283564469   -0.04458781379226903   -0.021211168900587003
-0.6111424283564469   -0.04458781379226903   -0.021211168900587003
-0.6111424283564469   -0.04458781379226903   -0.021211168900587003
-0.40551173740600926   0.034559642672438745   0.02804346283676983
-0.40551173740600926   0.034559642672438745   0.02804346283676983
-0.40551173740600926   0.034559642672438745   0.02804346283676983
-0.40551173740600926   0.034559642672438745   0.02804346283676983
-0.4958387331702394   -0.006117891183508126   0.0059148339631213305
-0.4958387331702394   -0.006117891183508126   0.0059148339631213305
-0.4958387331702394   -0.006117891183508126   0.0059148339631213305
-0.4958387331702394   -0.006117891183508126   0.0059148339631213305
-0.42281667326936817   -0.006220619796877269   -0.017700954010706975
-0.42281667326936817   -0.006220619796877269   -0.017700954010706975
-0.42281667326936817   -0.006220619796877269   -0.017700954010706975
-0.42281667326936817   -0.006220619796877269   -0.017700954010706975
-0.5935248226971118   -0.003494881526977564   0.025783927130790852
-0.5935248226971118   -0.003494881526977564   0.025783927130790852
-0.5935248226971118   -0.003494881526977564   0.025783927130790852
-0.5935248226971118   -0.003494881526977564   0.025783927130790852
-0.5892633140811337   -0.03672587067205134   -0.025003963880569347
-0.5892633140811337   -0.03672587067205134   -0.025003963880569347
-0.5892633140811337   -0.03672587067205134   -0.025003963880569347
-0.5892633140811337   -0.03672587067205134   -0.025003963880569347
-0.3934898441250032   0.0394049322266396   0.02225174063199336
-0.3934898441250032   0.0394049322266396   0.02225174063199336
-0.3934898441250032   0.0394049322266396   0.02225174063199336
-0.3934898441250032   0.0394049322266396   0.02225174063199336
-0.48479663432873354   0.0024746160233208303   0.010404560805543375
-0.48479663432873354   0.0024746160233208303   0.010404560805543375
-0.48479663432873354   0.0024746160233208303   0.010404560805543375
-0.48479663432873354   0.0024746160233208303   0.010404560805543375
-0.4098316208115147   0.00012568220266787056   -0.020177892776592325
-0.4098316208115147   0.00012568220266787056   -0.020177892776592325
-0.4098316208115147   0.00012568220266787056   -0.020177892776592325
-0.4098316208115147   0.00012568220266787056   -0.020177892776592325
-0.5726041595470345   0.002870757199506385   0.018695180918358596
-0.5726041595470345   0.002870757199506385   0.018695180918358596
-0.5726041595470345   0.002870757199506385   0.018695180918358596
-0.5726041595470345   0.002870757199506385   0.018695180918358596
-0.5652733508636357   -0.027349695117287104   -0.02853000545958157
-0.5652733508636357   -0.027349695117287104   -0.02853000545958157
-0.5652733508636357   -0.027349695117287104   -0.02853000545958157
-0.5652733508636357   -0.027349695117287104   -0.02853000545958157
-0.3829611267030456   0.04383682845474324   0.01894119864852397
-0.3829611267030456   0.04383682845474324   0.01894119864852397
-0.3829611267030456   0.04383682845474324   0.01894119864852397
-0.3829611267030456   0.04383682845474324   0.01894119864852397
-0.46048279268347003   0.00958746275496028   0.017261178606576975
-0.46048279268347003   0.00958746275496028   0.017261178606576975
-0.46048279268347003   0.00958746275496028   0.017261178606576975
-0.46048279268347003   0.00958746275496028   0.017261178606576975
0.5428810621029243   0.04068286799286423   0.028423828627325228
0.5428810621029243   0.04068286799286423   0.028423828627325228
0.5428810621029243   0.04068286799286423   0.028423828627325228
0.5428810621029243   0.04068286799286423   0.028423828627325228
0.23891202903551692   -0.06330063037552014   -0.013205869776185555
0.23891202903551692   -0.06330063037552014   -0.013205869776185555
0.23891202903551692   -0.06330063037552014   -0.013205869776185555
0.23891202903551692   -0.06330063037552014   -0.013205869776185555
0.2659224044373666   -0.01140144649241051   0.019468556121691863
0.2659224044373666   -0.01140144649241051   0.019468556121691863
0.2659224044373666   -0.01140144649241051   0.019468556121691863
0.2659224044373666   -0.01140144649241051   0.019468556121691863
0.5486001871605408   -0.0003686745321015289   -0.020598817963562683
0.5486001871605408   -0.0003686745321015289   -0.020598817963562683
0.5486001871605408   -0.0003686745321015289   -0.020598817963562683
0.5486001871605408   -0.0003686745321015289   -0.020598817963562683
0.3757328963487697   -0.011134881076053843   -0.029161033816415598
0.3757328963487697   -0.011134881076053843   -0.029161033816415598
0.3757328963487697   -0.011134881076053843   -0.029161033816415598
0.3757328963487697   -0.011134881076053843   -0.029161033816415598
0.5675029304362944   0.049775160216380177   0.023771063666717544
0.5675029304362944   0.049775160216380177   0.023771063666717544
0.5675029304362944   0.049775160216380177   0.023771063666717544
0.5675029304362944   0.049775160216380177   0.023771063666717544
0.24884074919356855   -0.05972419320893703   -0.017616973380767852
0.24884074919356855   -0.05972419320893703   -0.017616973380767852
0.24884074919356855   -0.05972419320893703   -0.017616973380767852
0.24884074919356855   -0.05972419320893703   -0.017616973380767852
0.27638052336694113   -0.005614162834041592   0.015716663552627932
0.27638052336694113   -0.005614162834041592   0.015716663552627932
0.27638052336694113   -0.005614162834041592   0.015716663552627932
0.27638052336694113   -0.005614162834041592   0.015716663552627932
0.5670322693153874   0.006002368794698579   -0.02567070092266192
0.5670322693153874   0.006002368794698579   -0.02567070092266192
0.5670322693153874   0.006002368794698579   -0.02567070092266192
0.5670322693153874   0.006002368794698579   -0.02567070092266192
0.39898450451333617   -0.00434881956468583   -0.01987554142370961
0.39898450451333617   -0.00434881956468583   -0.01987554142370961
0.39898450451333617   -0.00434881956468583   -0.01987554142370961
0.39898450451333617   -0.00434881956468583   -0.01987554142370961
0.5858151250695692   0.056648845103789716   0.017597101539156352
0.5858151250695692   0.056648845103789716   0.017597101539156352
0.5858151250695692   0.056648845103789716   0.017597101539156352
0.5858151250695692   0.056648845103789716   0.017597101539156352
0.25918558641529815   -0.054672720340591285   -0.021199463699037333
0.25918558641529815   -0.054672720340591285   -0.021199463699037333
0.25918558641529815   -0.054672720340591285   -0.021199463699037333
0.25918558641529815   -0.054672720340591285   -0.021199463699037333
0.28586847227590056   0.009883885127484296   0.013779592563555747
0.28586847227590056   0.009883885127484296   0.013779592563555747
0.28586847227590056   0.009883885127484296   0.013779592563555747
0.28586847227590056   0.009883885127484296   0.013779592563555747
0.5897599411153859   0.0246653112274777   -0.02685899941569521
0.5897599411153859   0.0246653112274777   -0.02685899941569521
0.5897599411153859   0.0246653112274777   -0.02685899941569521
0.5897599411153859   0.0246653112274777   -0.02685899941569521
0.40747197111215444   0.0048269080956069715   -0.013484648727318922
0.40747197111215444   0.0048269080956069715   -0.013484648727318922
0.40747197111215444   0.0048269080956069715   -0.013484648727318922
0.40747197111215444   0.0048269080956069715   -0.013484648727318922
0.2642485925524032   0.02396852865795364   0.026207788774772013
0.2642485925524032   0.02396852865795364   0.026207788774772013
0.2642485925524032   0.02396852865795364   0.026207788774772013
0.2642485925524032   0.02396852865795364   0.026207788774772013
-0.03378586919751313   -0.0777382501462697   -0.007558249539360559
-0.03378586919751313   -0.0777382501462697   -0.007558249539360559
-0.03378586919751313   -0.0777382501462697   -0.007558249539360559
-0.03378586919751313   -0.0777382501462697   -0.007558249539360559
-0.010636028350414037   -0.027756875802636544   0.006540201571309496
-0.010636028350414037   -0.027756875802636544   0.006540201571309496
-0.010636028350414037   -0.027756875802636544   0.006540201571309496
-0.010636028350414037   -0.027756875802636544   0.006540201571309496
0.26191008307987584   -0.013373636888302128   0.0013791397301298365
0.26191008307987584   -0.013373636888302128   0.0013791397301298365
0.26191008307987584   -0.013373636888302128   0.0013791397301298365
0.26191008307987584   -0.013373636888302128   0.0013791397301298365
0.11716488177075073   -0.021388132040478597   -0.013777453495072627
0.11716488177075073   -0.021388132040478597   -0.013777453495072627
0.11716488177075073   -0.021388132040478597   -0.013777453495072627
0.11716488177075073   -0.021388132040478597   -0.013777453495072627
0.27551711417924224   0.03281153671397094   0.02322912162469066
0.27551711417924224   0.03281153671397094   0.02322912162469066
0.27551711417924224   0.03281153671397094   0.02322912162469066
0.27551711417924224   0.03281153671397094   0.02322912162469066
-0.02327175920676147   -0.07297074916189034   -0.011424579351173874
-0.02327175920676147   -0.07297074916189034   -0.011424579351173874
-0.02327175920676147   -0.07297074916189034   -0.011424579351173874
-0.02327175920676147   -0.07297074916189034   -0.011424579351173874
2.2268430931345062e-05   -0.017368894921687774   0.0039564121916850275
2.2268430931345062e-05   -0.017368894921687774   0.0039564121916850275
2.2268430931345062e-05   -0.017368894921687774   0.0039564121916850275
2.2268430931345062e-05   -0.017368894921687774   0.0039564121916850275
0.2728574207550368   -0.0055368432618738694   -0.001976169079061573
0.2728574207550368   -0.0055368432618738694   -0.001976169079061573
0.2728574207550368   -0.0055368432618738694   -0.001976169079061573
0.2728574207550368   -0.0055368432618738694   -0.001976169079061573
0.12638071784040134   -0.015000271071738805   -0.008908373649959646
0.12638071784040134   -0.015000271071738805   -0.008908373649959646
0.12638071784040134   -0.015000271071738805   -0.008908373649959646
0.12638071784040134   -0.015000271071738805   -0.008908373649959646
0.2871957174804333   0.043425172255901666   0.020753299030145576
0.2871957174804333   0.043425172255901666   0.020753299030145576
0.2871957174804333   0.043425172255901666   0.020753299030145576
0.2871957174804333   0.043425172255901666   0.020753299030145576
-0.013728032219981479   -0.06574291436498488   -0.016421071619582953
-0.013728032219981479   -0.06574291436498488   -0.016421071619582953
-0.013728032219981479   -0.06574291436498488   -0.016421071619582953
-0.013728032219981479   -0.06574291436498488   -0.016421071619582953
0.008395460782058651   -0.005154897573127784   0.001349297735476573
0.008395460782058651   -0.005154897573127784   0.001349297735476573
0.008395460782058651   -0.005154897573127784   0.001349297735476573
0.008395460782058651   -0.005154897573127784   0.001349297735476573
0.28103444687334483   0.004490415181306107   -0.0049970645030485185
0.28103444687334483   0.004490415181306107   -0.0049970645030485185
0.28103444687334483   0.004490415181306107   -0.0049970645030485185
0.28103444687334483   0.004490415181306107   -0.0049970645030485185
0.13778938306824023   -0.005426383610689145   -0.0036534701781084644
0.13778938306824023   -0.005426383610689145   -0.0036534701781084644
0.13778938306824023   -0.005426383610689145   -0.0036534701781084644
0.13778938306824023   -0.005426383610689145   -0.0036534701781084644
-0.012726702382534866   0.006938243719873678   0.013061090669387375
-0.012726702382534866   0.006938243719873678   0.013061090669387375
-0.012726702382534866   0.006938243719873678   0.013061090669387375
-0.012726702382534866   0.006938243719873678   0.013061090669387375
-0.3043283490053967   -0.09729583497847932   -0.0060060954988600465
-0.3043283490053967   -0.09729583497847932   -0.0060060954988600465
-0.3043283490053967   -0.09729583497847932   -0.0060060954988600465
-0.3043283490053967   -0.09729583497847932   -0.0060060954988600465
-0.28105090358036255   -0.04253023750107343   -0.006432365712521017
-0.28105090358036255   -0.04253023750107343   -0.006432365712521017
-0.28105090358036255   -0.04253023750107343   -0.006432365712521017
-0.28105090358036255   -0.04253023750107343   -0.006432365712521017
-0.011657571021614573   -0.032282873093669014   0.005958485506339289
-0.011657571021614573   -0.032282873093669014   0.005958485506339289
-0.011657571021614573   -0.032282873093669014   0.005958485506339289
-0.011657571021614573   -0.032282873093669014   0.005958485506339289
-0.15311077441678791   -0.03907493318803665   -0.012274420339331439
-0.15311077441678791   -0.03907493318803665   -0.012274420339331439
-0.15311077441678791   -0.03907493318803665   -0.012274420339331439
-0.15311077441678791   -0.03907493318803665   -0.012274420339331439
-0.0008829500470152567   0.016916308171027995   0.01063240911463886
-0.0008829500470152567   0.016916308171027995   0.01063240911463886
-0.0008829500470152567   0.016916308171027995   0.01063240911463886
-0.0008829500470152567   0.016916308171027995   0.01063240911463886
-0.29111963527415147   -0.09102352948496006   -0.0082827321975791
-0.29111963527415147   -0.09102352948496006   -0.0082827321975791
-0.29111963527415147   -0.09102352948496006   -0.0082827321975791
-0.29111963527415147   -0.09102352948496006   -0.0082827321975791
-0.2678206025223969   -0.031005257911384025   -0.008725032119413443
-0.2678206025223969   -0.031005257911384025   -0.008725032119413443
-0.2678206025223969   -0.031005257911384025   -0.008725032119413443
-0.2678206025223969   -0.031005257911384025   -0.008725032119413443
-0.0017382850046595826   -0.024742929357985763   0.002527679450027418
-0.0017382850046595826   -0.024742929357985763   0.002527679450027418
-0.0017382850046595826   -0.024742929357985763   0.002527679450027418
-0.0017382850046595826   -0.024742929357985763   0.002527679450027418
-0.14026714590645425   -0.030772219006743734   -0.0067745510955473645
-0.14026714590645425   -0.030772219006743734   -0.0067745510955473645
-0.14026714590645425   -0.030772219006743734   -0.0067745510955473645
-0.14026714590645425   -0.030772219006743734   -0.0067745510955473645
0.009951142782887999   0.02795039614959297   0.008281492880186593
0.009951142782887999   0.02795039614959297   0.008281492880186593
0.009951142782887999   0.02795039614959297   0.008281492880186593
0.009951142782887999   0.02795039614959297   0.008281492880186593
-0.27948865839833187   -0.08367721150734983   -0.014393357903120572
-0.27948865839833187   -0.08367721150734983   -0.014393357903120572
-0.27948865839833187   -0.08367721150734983   -0.014393357903120572
-0.27948865839833187   -0.08367721150734983   -0.014393357903120572
-0.25846530526109723   -0.020002120804416802   -0.011279562828714222
-0.25846530526109723   -0.020002120804416802   -0.011279562828714222
-0.25846530526109723   -0.020002120804416802   -0.011279562828714222
-0.25846530526109723   -0.020002120804416802   -0.011279562828714222
0.004759675715987887   -0.018674648340510767   -0.00330987682749426
0.004759675715987887   -0.018674648340510767   -0.00330987682749426
0.004759675715987887   -0.018674648340510767   -0.00330987682749426
0.004759675715987887   -0.018674648340510767   -0.00330987682749426
-0.13085328329479387   -0.023006139612116956   -0.003300093253386468
-0.13085328329479387   -0.023006139612116956   -0.003300093253386468
-0.13085328329479387   -0.023006139612116956   -0.003300093253386468
-0.13085328329479387   -0.023006139612116956   -0.003300093253386468
-0.2852895668085081   -0.007778307195802907   -0.0003297122970960225
-0.2852895668085081   -0.007778307195802907   -0.0003297122970960225
-0.2852895668085081   -0.007778307195802907   -0.0003297122970960225
-0.2852895668085081   -0.007778307195802907   -0.0003297122970960225
-0.5763695107520421   -0.1046045410938114   -0.004759877090595881
-0.5763695107520421   -0.1046045410938114   -0.004759877090595881
-0.5763695107520421   -0.1046045410938114   -0.004759877090595881
-0.5763695107520421   -0.1046045410938114   -0.004759877090595881
-0.5515151490549345   -0.05451831416457051   -0.018972810860416876
-0.5515151490549345   -0.05451831416457051   -0.018972810860416876
-0.5515151490549345   -0.05451831416457051   -0.018972810860416876
-0.5515151490549345   -0.05451831416457051   -0.018972810860416876
-0.2754734402014658   -0.03358278298061308   0.012507496661499185
-0.2754734402014658   -0.03358278298061308   0.012507496661499185
-0.2754734402014658   -0.03358278298061308   0.012507496661499185
-0.2754734402014658   -0.03358278298061308   0.012507496661499185
-0.41850234131334235   -0.04711573095606141   -0.008633052464965629
-0.41850234131334235   -0.04711573095606141   -0.008633052464965629
-0.41850234131334235   -0.04711573095606141   -0.008633052464965629
-0.41850234131334235   -0.04711573095606141   -0.008633052464965629
-0.2706705872124249   0.0050274634176940974   -0.0020884847916034094
-0.2706705872124249   0.0050274634176940974   -0.0020884847916034094
-0.2706705872124249   0.0050274634176940974   -0.0020884847916034094
-0.2706705872124249   0.0050274634176940974   -0.0020884847916034094
-0.5564982889262953   -0.09330884744519675   -0.005097976936589751
-0.5564982889262953   -0.09330884744519675   -0.005097976936589751
-0.5564982889262953   -0.09330884744519675   -0.005097976936589751
-0.5564982889262953   -0.09330884744519675   -0.005097976936589751
-0.5325628656577847   -0.04251644091151453   -0.02194713830219394
-0.5325628656577847   -0.04251644091151453   -0.02194713830219394
-0.5325628656577847   -0.04251644091151453   -0.02194713830219394
-0.5325628656577847   -0.04251644091151453   -0.02194713830219394
-0.2626547519888738   -0.024596656433040227   0.010695619069860409
-0.2626547519888738   -0.024596656433040227   0.010695619069860409
-0.2626547519888738   -0.024596656433040227   0.010695619069860409
-0.2626547519888738   -0.024596656433040227   0.010695619069860409
-0.3989596249471758   -0.035598086460490994   -0.0027454966807920755
-0.3989596249471758   -0.035598086460490994   -0.0027454966807920755
-0.3989596249471758   -0.035598086460490994   -0.0027454966807920755
-0.3989596249471758   -0.035598086460490994   -0.0027454966807920755
-0.2574163043889109   0.01613378260835447   -0.003842581971722693
-0.2574163043889109   0.01613378260835447   -0.003842581971722693
-0.2574163043889109   0.01613378260835447   -0.003842581971722693
-0.2574163043889109   0.01613378260835447   -0.003842581971722693
-0.5386786277996334   -0.08412419449479482   -0.010918195428152911
-0.5386786277996334   -0.08412419449479482   -0.010918195428152911
-0.5386786277996334   -0.08412419449479482   -0.010918195428152911
-0.5386786277996334   -0.08412419449479482   -0.010918195428152911
-0.517255603906829   -0.02989247643005552   -0.022663557769192447
-0.517255603906829   -0.02989247643005552   -0.022663557769192447
-0.517255603906829   -0.02989247643005552   -0.022663557769192447
-0.517255603906829   -0.02989247643005552   -0.022663557769192447
-0.25530523489634976   -0.018883417423447388   0.003402085614056336
-0.25530523489634976   -0.018883417423447388   0.003402085614056336
-0.25530523489634976   -0.018883417423447388   0.003402085614056336
-0.25530523489634976   -0.018883417423447388   0.003402085614056336
-0.3883621963748452   -0.028590262160279156   -0.000803612281677378
-0.3883621963748452   -0.028590262160279156   -0.000803612281677378
-0.3883621963748452   -0.028590262160279156   -0.000803612281677378
-0.3883621963748452   -0.028590262160279156   -0.000803612281677378
-0.5609176470156443   -0.018462876568979658   -0.013642222933437774
-0.5609176470156443   -0.018462876568979658   -0.013642222933437774
-0.5609176470156443   -0.018462876568979658   -0.013642222933437774
-0.5609176470156443   -0.018462876568979658   -0.013642222933437774
-0.8459506947186936   -0.07135700223764725   0.03128801080290576
-0.8459506947186936   -0.07135700223764725   0.03128801080290576
-0.8459506947186936   -0.07135700223764725   0.03128801080290576
-0.8459506947186936   -0.07135700223764725   0.03128801080290576
-0.8177323547327907   -0.057177500158843195   -0.01842163399285841
-0.8177323547327907   -0.057177500158843195   -0.01842163399285841
-0.8177323547327907   -0.057177500158843195   -0.01842163399285841
-0.8177323547327907   -0.057177500158843195   -0.01842163399285841
-0.527948986509008   0.015412126439889373   0.028927561264750906
-0.527948986509008   0.015412126439889373   0.028927561264750906
-0.527948986509008   0.015412126439889373   0.028927561264750906
-0.527948986509008   0.015412126439889373   0.028927561264750906
-0.657275942947338   -0.022205183827262026   0.0035310482721460645
-0.657275942947338   -0.022205183827262026   0.0035310482721460645
-0.657275942947338   -0.022205183827262026   0.0035310482721460645
-0.657275942947338   -0.022205183827262026   0.0035310482721460645
-0.5400404654449429   -0.0009819474147561569   -0.015135759560271047
-0.5400404654449429   -0.0009819474147561569   -0.015135759560271047
-0.5400404654449429   -0.0009819474147561569   -0.015135759560271047
-0.5400404654449429   -0.0009819474147561569   -0.015135759560271047
-0.8036935630654434   -0.038836113572784076   0.03343093775781911
-0.8036935630654434   -0.038836113572784076   0.03343093775781911
-0.8036935630654434   -0.038836113572784076   0.03343093775781911
-0.8036935630654434   -0.038836113572784076   0.03343093775781911
-0.7874134862526443   -0.04821782310444922   -0.021938393895809587
-0.7874134862526443   -0.04821782310444922   -0.021938393895809587
-0.7874134862526443   -0.04821782310444922   -0.021938393895809587
-0.7874134862526443   -0.04821782310444922   -0.021938393895809587
-0.5092376210844382   0.024288931276835984   0.02787371237618802
-0.5092376210844382   0.024288931276835984   0.02787371237618802
-0.5092376210844382   0.024288931276835984   0.02787371237618802
-0.5092376210844382   0.024288931276835984   0.02787371237618802
-0.6397210262907513   -0.00895218608073095   0.01319779406931327
-0.6397210262907513   -0.00895218608073095   0.01319779406931327
-0.6397210262907513   -0.00895218608073095   0.01319779406931327
-0.6397210262907513   -0.00895218608073095   0.01319779406931327
-0.5217394411213178   0.006029477828922686   -0.016375934360292083
-0.5217394411213178   0.006029477828922686   -0.016375934360292083
-0.5217394411213178   0.006029477828922686   -0.016375934360292083
-0.5217394411213178   0.006029477828922686   -0.016375934360292083
-0.7744946853867042   -0.02954138882747584   0.02397917615691037
-0.7744946853867042   -0.02954138882747584   0.02397917615691037
-0.7744946853867042   -0.02954138882747584   0.02397917615691037
-0.7744946853867042   -0.02954138882747584   0.02397917615691037
-0.7560213630301742   -0.03987077165002545   -0.026536565548175503
-0.7560213630301742   -0.03987077165002545   -0.026536565548175503
-0.7560213630301742   -0.03987077165002545   -0.026536565548175503
-0.7560213630301742   -0.03987077165002545   -0.026536565548175503
-0.4955018070970584   0.03472578519856989   0.021487164651034833
-0.4955018070970584   0.03472578519856989   0.021487164651034833
-0.4955018070970584   0.03472578519856989   0.021487164651034833
-0.4955018070970584   0.03472578519856989   0.021487164651034833
-0.6057746511556   0.0023343270618912393   0.022994937217174688
-0.6057746511556   0.0023343270618912393   0.022994937217174688
-0.6057746511556   0.0023343270618912393   0.022994937217174688
-0.6057746511556   0.0023343270618912393   0.022994937217174688
0.7386547409271796   0.044569011976340195   0.026399630091453234
0.7386547409271796   0.044569011976340195   0.026399630091453234
0.7386547409271796   0.044569011976340195   0.026399630091453234
0.7386547409271796   0.044569011976340195   0.026399630091453234
0.3513872991599359   -0.06536535233840024   0.005521960885466477
0.3513872991599359   -0.06536535233840024   0.005521960885466477
0.3513872991599359   -0.06536535233840024   0.005521960885466477
0.3513872991599359   -0.06536535233840024   0.005521960885466477
0.3704367570814225   -0.027843496430825787   0.020190502621934423
0.3704367570814225   -0.027843496430825787   0.020190502621934423
0.3704367570814225   -0.027843496430825787   0.020190502621934423
0.3704367570814225   -0.027843496430825787   0.020190502621934423
0.7423398972492931   0.007057398511048779   -0.006198875135400982
0.7423398972492931   0.007057398511048779   -0.006198875135400982
0.7423398972492931   0.007057398511048779   -0.006198875135400982
0.7423398972492931   0.007057398511048779   -0.006198875135400982
0.5188929692679356   -0.01382350843805516   -0.03422542593681053
0.5188929692679356   -0.01382350843805516   -0.03422542593681053
0.5188929692679356   -0.01382350843805516   -0.03422542593681053
0.5188929692679356   -0.01382350843805516   -0.03422542593681053
0.7562294981612439   0.049448547373193305   0.02085798056220851
0.7562294981612439   0.049448547373193305   0.02085798056220851
0.7562294981612439   0.049448547373193305   0.02085798056220851
0.7562294981612439   0.049448547373193305   0.02085798056220851
0.3598542877130372   -0.06692751374940482   0.006362173098586957
0.3598542877130372   -0.06692751374940482   0.006362173098586957
0.3598542877130372   -0.06692751374940482   0.006362173098586957
0.3598542877130372   -0.06692751374940482   0.006362173098586957
0.3775692006644642   -0.023688951708240494   0.015335765213550585
0.3775692006644642   -0.023688951708240494   0.015335765213550585
0.3775692006644642   -0.023688951708240494   0.015335765213550585
0.3775692006644642   -0.023688951708240494   0.015335765213550585
0.7550814590412547   0.011727041622696749   -0.0022015505685759815
0.7550814590412547   0.011727041622696749   -0.0022015505685759815
0.7550814590412547   0.011727041622696749   -0.0022015505685759815
0.7550814590412547   0.011727041622696749   -0.0022015505685759815
0.5400293898656916   -0.010876759656729879   -0.023455955282576366
0.5400293898656916   -0.010876759656729879   -0.023455955282576366
0.5400293898656916   -0.010876759656729879   -0.023455955282576366
0.5400293898656916   -0.010876759656729879   -0.023455955282576366
0.7668587357093364   0.053986814280774634   0.014425060113754117
0.7668587357093364   0.053986814280774634   0.014425060113754117
0.7668587357093364   0.053986814280774634   0.014425060113754117
0.7668587357093364   0.053986814280774634   0.014425060113754117
0.36809169891715415   -0.06364894944554686   0.007908254214306541
0.36809169891715415   -0.06364894944554686   0.007908254214306541
0.36809169891715415   -0.06364894944554686   0.007908254214306541
0.36809169891715415   -0.06364894944554686   0.007908254214306541
0.3881050107407406   -0.0074896686640368165   0.014021031501362045
0.3881050107407406   -0.0074896686640368165   0.014021031501362045
0.3881050107407406   -0.0074896686640368165   0.014021031501362045
0.3881050107407406   -0.0074896686640368165   0.014021031501362045
0.7683930642154196   0.022566111987674387   -0.0006948539449198876
0.7683930642154196   0.022566111987674387   -0.0006948539449198876
0.7683930642154196   0.022566111987674387   -0.0006948539449198876
0.7683930642154196   0.022566111987674387   -0.0006948539449198876
0.5424129255346146   -0.004858049773318676   -0.017635911314720813
0.5424129255346146   -0.004858049773318676   -0.017635911314720813
0.5424129255346146   -0.004858049773318676   -0.017635911314720813
0.5424129255346146   -0.004858049773318676   -0.017635911314720813
0.3710073149708363   0.010319478429654971   0.027937209171913342
0.3710073149708363   0.010319478429654971   0.027937209171913342
0.3710073149708363   0.010319478429654971   0.027937209171913342
0.3710073149708363   0.010319478429654971   0.027937209171913342
0.01771906153440398   -0.12913667551269045   0.01289614975757604
0.01771906153440398   -0.12913667551269045   0.01289614975757604
0.01771906153440398   -0.12913667551269045   0.01289614975757604
0.01771906153440398   -0.12913667551269045   0.01289614975757604
0.042396704633718404   -0.0551114140336788   0.012203632449403926
0.042396704633718404   -0.0551114140336788   0.012203632449403926
0.042396704633718404   -0.0551114140336788   0.012203632449403926
0.042396704633718404   -0.0551114140336788   0.012203632449403926
0.36159037121399323   -0.060433807424998834   0.008548884278958224
0.36159037121399323   -0.060433807424998834   0.008548884278958224
0.36159037121399323   -0.060433807424998834   0.008548884278958224
0.36159037121399323   -0.060433807424998834   0.008548884278958224
0.1917841781541492   -0.057331150728250076   -0.02161751576524083
0.1917841781541492   -0.057331150728250076   -0.02161751576524083
0.1917841781541492   -0.057331150728250076   -0.02161751576524083
0.1917841781541492   -0.057331150728250076   -0.02161751576524083
0.3795549048180009   0.014555873740081382   0.023381871133922306
0.3795549048180009   0.014555873740081382   0.023381871133922306
0.3795549048180009   0.014555873740081382   0.023381871133922306
0.3795549048180009   0.014555873740081382   0.023381871133922306
0.029178783411291077   -0.12535448281717768   0.01635709512076615
0.029178783411291077   -0.12535448281717768   0.01635709512076615
0.029178783411291077   -0.12535448281717768   0.01635709512076615
0.029178783411291077   -0.12535448281717768   0.01635709512076615
0.05226603650636144   -0.04750464621982382   0.00877620037986401
0.05226603650636144   -0.04750464621982382   0.00877620037986401
0.05226603650636144   -0.04750464621982382   0.00877620037986401
0.05226603650636144   -0.04750464621982382   0.00877620037986401
0.3700610443236101   -0.05640249614128574   0.01050852794232536
0.3700610443236101   -0.05640249614128574   0.01050852794232536
0.3700610443236101   -0.05640249614128574   0.01050852794232536
0.3700610443236101   -0.05640249614128574   0.01050852794232536
0.2001289040484429   -0.054382212519836354   -0.010814880657852449
0.2001289040484429   -0.054382212519836354   -0.010814880657852449
0.2001289040484429   -0.054382212519836354   -0.010814880657852449
0.2001289040484429   -0.054382212519836354   -0.010814880657852449
0.3875400614840439   0.02174595185031543   0.01975516575289316
0.3875400614840439   0.02174595185031543   0.01975516575289316
0.3875400614840439   0.02174595185031543   0.01975516575289316
0.3875400614840439   0.02174595185031543   0.01975516575289316
0.03934892234067756   -0.12109119121667763   0.017777174548298434
0.03934892234067756   -0.12109119121667763   0.017777174548298434
0.03934892234067756   -0.12109119121667763   0.017777174548298434
0.03934892234067756   -0.12109119121667763   0.017777174548298434
0.06744938011659196   -0.03607769429717607   0.005747454861293494
0.06744938011659196   -0.03607769429717607   0.005747454861293494
0.06744938011659196   -0.03607769429717607   0.005747454861293494
0.06744938011659196   -0.03607769429717607   0.005747454861293494
0.3793037692569896   -0.05029608562734188   0.012821241045914825
0.3793037692569896   -0.05029608562734188   0.012821241045914825
0.3793037692569896   -0.05029608562734188   0.012821241045914825
0.3793037692569896   -0.05029608562734188   0.012821241045914825
0.21495817654678437   -0.047301282303147174   0.0017785852757052426
0.21495817654678437   -0.047301282303147174   0.0017785852757052426
0.21495817654678437   -0.047301282303147174   0.0017785852757052426
0.21495817654678437   -0.047301282303147174   0.0017785852757052426
0.03982952638707652   -0.02366723424880252   0.01797903275705081
0.03982952638707652   -0.02366723424880252   0.01797903275705081
0.03982952638707652   -0.02366723424880252   0.01797903275705081
0.03982952638707652   -0.02366723424880252   0.01797903275705081
-0.31841255413381886   -0.2210202877944798   0.018951205081605006
-0.31841255413381886   -0.2210202877944798   0.018951205081605006
-0.31841255413381886   -0.2210202877944798   0.018951205081605006
-0.31841255413381886   -0.2210202877944798   0.018951205081605006
-0.27954141511549213   -0.08684296599869695   0.0010418650750771488
-0.27954141511549213   -0.08684296599869695   0.0010418650750771488
-0.27954141511549213   -0.08684296599869695   0.0010418650750771488
-0.27954141511549213   -0.08684296599869695   0.0010418650750771488
0.0207112116839323   -0.1588809676860208   0.007545721352815442
0.0207112116839323   -0.1588809676860208   0.007545721352815442
0.0207112116839323   -0.1588809676860208   0.007545721352815442
0.0207112116839323   -0.1588809676860208   0.007545721352815442
-0.13839516397015458   -0.12346345076506132   -0.025924420950979358
-0.13839516397015458   -0.12346345076506132   -0.025924420950979358
-0.13839516397015458   -0.12346345076506132   -0.025924420950979358
-0.13839516397015458   -0.12346345076506132   -0.025924420950979358
0.05016497503728779   -0.01826945574703499   0.014203026180607047
0.05016497503728779   -0.01826945574703499   0.014203026180607047
0.05016497503728779   -0.01826945574703499   0.014203026180607047
0.05016497503728779   -0.01826945574703499   0.014203026180607047
-0.3020819783677256   -0.22054127783656557   0.022037360651780212
-0.3020819783677256   -0.22054127783656557   0.022037360651780212
-0.3020819783677256   -0.22054127783656557   0.022037360651780212
-0.3020819783677256   -0.22054127783656557   0.022037360651780212
-0.26453906069079264   -0.07787604443958113   -0.00033712027183174006
-0.26453906069079264   -0.07787604443958113   -0.00033712027183174006
-0.26453906069079264   -0.07787604443958113   -0.00033712027183174006
-0.26453906069079264   -0.07787604443958113   -0.00033712027183174006
0.031130107461437337   -0.15518862296567623   0.010780531901095888
0.031130107461437337   -0.15518862296567623   0.010780531901095888
0.031130107461437337   -0.15518862296567623   0.010780531901095888
0.031130107461437337   -0.15518862296567623   0.010780531901095888
-0.1231621521089927   -0.11905755064850493   -0.009552878373412666
-0.1231621521089927   -0.11905755064850493   -0.009552878373412666
-0.1231621521089927   -0.11905755064850493   -0.009552878373412666
-0.1231621521089927   -0.11905755064850493   -0.009552878373412666
0.05961644781882435   -0.011143997115683701   0.009167607838038445
0.05961644781882435   -0.011143997115683701   0.009167607838038445
0.05961644781882435   -0.011143997115683701   0.009167607838038445
0.05961644781882435   -0.011143997115683701   0.009167607838038445
-0.2868255603595892   -0.2157208296009876   0.026075166545596343
-0.2868255603595892   -0.2157208296009876   0.026075166545596343
-0.2868255603595892   -0.2157208296009876   0.026075166545596343
-0.2868255603595892   -0.2157208296009876   0.026075166545596343
-0.2397718718418231   -0.0675644730673342   -0.0032274529038156937
-0.2397718718418231   -0.0675644730673342   -0.0032274529038156937
-0.2397718718418231   -0.0675644730673342   -0.0032274529038156937
-0.2397718718418231   -0.0675644730673342   -0.0032274529038156937
0.04738250244769754   -0.1452222971611615   0.01455766938080584
0.04738250244769754   -0.1452222971611615   0.01455766938080584
0.04738250244769754   -0.1452222971611615   0.01455766938080584
0.04738250244769754   -0.1452222971611615   0.01455766938080584
-0.10343678735927707   -0.1094813984309495   0.007467138259509128
-0.10343678735927707   -0.1094813984309495   0.007467138259509128
-0.10343678735927707   -0.1094813984309495   0.007467138259509128
-0.10343678735927707   -0.1094813984309495   0.007467138259509128
-0.28501524238676085   -0.04366518066512535   0.008582656687537727
-0.28501524238676085   -0.04366518066512535   0.008582656687537727
-0.28501524238676085   -0.04366518066512535   0.008582656687537727
-0.28501524238676085   -0.04366518066512535   0.008582656687537727
-0.7046825460374243   -0.3429065555739158   -0.01531151231353984
-0.7046825460374243   -0.3429065555739158   -0.01531151231353984
-0.7046825460374243   -0.3429065555739158   -0.01531151231353984
-0.7046825460374243   -0.3429065555739158   -0.01531151231353984
-0.6406875531418241   -0.11298710455306839   -0.019299998260403673
-0.6406875531418241   -0.11298710455306839   -0.019299998260403673
-0.6406875531418241   -0.11298710455306839   -0.019299998260403673
-0.6406875531418241   -0.11298710455306839   -0.019299998260403673
-0.31822268906071777   -0.2853339219207242   0.006126451270975934
-0.31822268906071777   -0.2853339219207242   0.006126451270975934
-0.31822268906071777   -0.2853339219207242   0.006126451270975934
-0.31822268906071777   -0.2853339219207242   0.006126451270975934
-0.48663372699277774   -0.20290135286745759   -0.027319708656823705
-0.48663372699277774   -0.20290135286745759   -0.027319708656823705
-0.48663372699277774   -0.20290135286745759   -0.027319708656823705
-0.48663372699277774   -0.20290135286745759   -0.027319708656823705
-0.26732457590040254   -0.03283157535194555   0.008114670503773586
-0.26732457590040254   -0.03283157535194555   0.008114670503773586
-0.26732457590040254   -0.03283157535194555   0.008114670503773586
-0.26732457590040254   -0.03283157535194555   0.008114670503773586
-0.6898170075124779   -0.36372079233217786   -0.01421358233456297
-0.6898170075124779   -0.36372079233217786   -0.01421358233456297
-0.6898170075124779   -0.36372079233217786   -0.01421358233456297
-0.6898170075124779   -0.36372079233217786   -0.01421358233456297
-0.6206145350041327   -0.10227044602363304   -0.0197135458678447
-0.6206145350041327   -0.10227044602363304   -0.0197135458678447
-0.6206145350041327   -0.10227044602363304   -0.0197135458678447
-0.6206145350041327   -0.10227044602363304   -0.0197135458678447
-0.3036077543529798   -0.282830911703657   0.009274278681310706
-0.3036077543529798   -0.282830911703657   0.009274278681310706
-0.3036077543529798   -0.282830911703657   0.009274278681310706
-0.3036077543529798   -0.282830911703657   0.009274278681310706
-0.4654118152285304   -0.19710367263573525   -0.018732204436243658
-0.4654118152285304   -0.19710367263573525   -0.018732204436243658
-0.4654118152285304   -0.19710367263573525   -0.018732204436243658
-0.4654118152285304   -0.19710367263573525   -0.018732204436243658
-0.2532085346570174   -0.024298869740956863   0.0027383351984209105
-0.2532085346570174   -0.024298869740956863   0.0027383351984209105
-0.2532085346570174   -0.024298869740956863   0.0027383351984209105
-0.2532085346570174   -0.024298869740956863   0.0027383351984209105
-0.6708272370038812   -0.3606159702901137   -0.012431531600102165
-0.6708272370038812   -0.3606159702901137   -0.012431531600102165
-0.6708272370038812   -0.3606159702901137   -0.012431531600102165
-0.6708272370038812   -0.3606159702901137   -0.012431531600102165
-0.5892078402964562   -0.09081687024165803   -0.022362573076890515
-0.5892078402964562   -0.09081687024165803   -0.022362573076890515
-0.5892078402964562   -0.09081687024165803   -0.022362573076890515
-0.5892078402964562   -0.09081687024165803   -0.022362573076890515
-0.2719733467159828   -0.2533242296137159   0.02152492927177179
-0.2719733467159828   -0.2533242296137159   0.02152492927177179
-0.2719733467159828   -0.2533242296137159   0.02152492927177179
-0.2719733467159828   -0.2533242296137159   0.02152492927177179
-0.44187362781649   -0.1780914820810984   -0.009886396989725169
-0.44187362781649   -0.1780914820810984   -0.009886396989725169
-0.44187362781649   -0.1780914820810984   -0.009886396989725169
-0.44187362781649   -0.1780914820810984   -0.009886396989725169
-0.6414292394487909   -0.03758385027758808   -0.004367684666700972
-0.6414292394487909   -0.03758385027758808   -0.004367684666700972
-0.6414292394487909   -0.03758385027758808   -0.004367684666700972
-0.6414292394487909   -0.03758385027758808   -0.004367684666700972
-1.1278046813447196   -0.22324702808939048   0.011569540897767183
-1.1278046813447196   -0.22324702808939048   0.011569540897767183
-1.1278046813447196   -0.22324702808939048   0.011569540897767183
-1.1278046813447196   -0.22324702808939048   0.011569540897767183
-1.0840019675384485   -0.10624390696005417   -0.023299624705526267
-1.0840019675384485   -0.10624390696005417   -0.023299624705526267
-1.0840019675384485   -0.10624390696005417   -0.023299624705526267
-1.0840019675384485   -0.10624390696005417   -0.023299624705526267
-0.6285317284188294   -0.11667328460288899   0.04516530540438449
-0.6285317284188294   -0.11667328460288899   0.04516530540438449
-0.6285317284188294   -0.11667328460288899   0.04516530540438449
-0.6285317284188294   -0.11667328460288899   0.04516530540438449
-0.835276517124437   -0.1291464562481941   0.01141538276653588
-0.835276517124437   -0.1291464562481941   0.01141538276653588
-0.835276517124437   -0.1291464562481941   0.01141538276653588
-0.835276517124437   -0.1291464562481941   0.01141538276653588
-0.6157890745805732   -0.007916954524012448   0.00012224451679154064
-0.6157890745805732   -0.007916954524012448   0.00012224451679154064
-0.6157890745805732   -0.007916954524012448   0.00012224451679154064
-0.6157890745805732   -0.007916954524012448   0.00012224451679154064
-1.1007949610151082   -0.21905057667733274   0.005542077628444386
-1.1007949610151082   -0.21905057667733274   0.005542077628444386
-1.1007949610151082   -0.21905057667733274   0.005542077628444386
-1.1007949610151082   -0.21905057667733274   0.005542077628444386
-1.0602410089399432   -0.0974049526145942   -0.02959231922544247
-1.0602410089399432   -0.0974049526145942   -0.02959231922544247
-1.0602410089399432   -0.0974049526145942   -0.02959231922544247
-1.0602410089399432   -0.0974049526145942   -0.02959231922544247
-0.6078824913524955   -0.11103437749763048   0.052710603864343175
-0.6078824913524955   -0.11103437749763048   0.052710603864343175
-0.6078824913524955   -0.11103437749763048   0.052710603864343175
-0.6078824913524955   -0.11103437749763048   0.052710603864343175
-0.8230433764393004   -0.10649525831192783   0.011101639141685833
-0.8230433764393004   -0.10649525831192783   0.011101639141685833
-0.8230433764393004   -0.10649525831192783   0.011101639141685833
-0.8230433764393004   -0.10649525831192783   0.011101639141685833
-0.5974074623483705   -9.125431143369722e-05   -0.0058573743012280965
-0.5974074623483705   -9.125431143369722e-05   -0.0058573743012280965
-0.5974074623483705   -9.125431143369722e-05   -0.0058573743012280965
-0.5974074623483705   -9.125431143369722e-05   -0.0058573743012280965
-1.0720952837935276   -0.20972732165024907   0.02345867554228226
-1.0720952837935276   -0.20972732165024907   0.02345867554228226
-1.0720952837935276   -0.20972732165024907   0.02345867554228226
-1.0720952837935276   -0.20972732165024907   0.02345867554228226
-1.010862125100529   -0.07929262305875318   -0.03324455863210985
-1.010862125100529   -0.07929262305875318   -0.03324455863210985
-1.010862125100529   -0.07929262305875318   -0.03324455863210985
-1.010862125100529   -0.07929262305875318   -0.03324455863210985
-0.5756751935200812   -0.10353190049279176   0.05801569105612242
-0.5756751935200812   -0.10353190049279176   0.05801569105612242
-0.5756751935200812   -0.10353190049279176   0.05801569105612242
-0.5756751935200812   -0.10353190049279176   0.05801569105612242
-0.7747088838784589   -0.08151031870906934   0.023282883045394467
-0.7747088838784589   -0.08151031870906934   0.023282883045394467
-0.7747088838784589   -0.08151031870906934   0.023282883045394467
-0.7747088838784589   -0.08151031870906934   0.023282883045394467
0.8091397668883327   0.027323617550234658   0.01121434260024412
0.8091397668883327   0.027323617550234658   0.01121434260024412
0.8091397668883327   0.027323617550234658   0.01121434260024412
0.8091397668883327   0.027323617550234658   0.01121434260024412
0.41192395115113667   -0.02220155385301527   0.00792293158473633
0.41192395115113667   -0.02220155385301527   0.00792293158473633
0.41192395115113667   -0.02220155385301527   0.00792293158473633
0.41192395115113667   -0.02220155385301527   0.00792293158473633
0.3962130966008461   -0.05772515460759867   0.016015159919808827
0.3962130966008461   -0.05772515460759867   0.016015159919808827
0.3962130966008461   -0.05772515460759867   0.016015159919808827
0.3962130966008461   -0.05772515460759867   0.016015159919808827
0.8033154319439662   0.04520372019715016   0.005613825437501642
0.8033154319439662   0.04520372019715016   0.005613825437501642
0.8033154319439662   0.04520372019715016   0.005613825437501642
0.8033154319439662   0.04520372019715016   0.005613825437501642
0.5729039121346645   -0.007924686535280168   -0.02122728443582804
0.5729039121346645   -0.007924686535280168   -0.02122728443582804
0.5729039121346645   -0.007924686535280168   -0.02122728443582804
0.5729039121346645   -0.007924686535280168   -0.02122728443582804
0.7991315651819576   0.021362624574653044   0.008535587249955852
0.7991315651819576   0.021362624574653044   0.008535587249955852
0.7991315651819576   0.021362624574653044   0.008535587249955852
0.7991315651819576   0.021362624574653044   0.008535587249955852
0.39913303069458633   -0.035147991653369876   0.008037667434281283
0.39913303069458633   -0.035147991653369876   0.008037667434281283
0.39913303069458633   -0.035147991653369876   0.008037667434281283
0.39913303069458633   -0.035147991653369876   0.008037667434281283
0.3861310457502073   -0.05898138065689287   0.01320675132452337
0.3861310457502073   -0.05898138065689287   0.01320675132452337
0.3861310457502073   -0.05898138065689287   0.01320675132452337
0.3861310457502073   -0.05898138065689287   0.01320675132452337
0.7941529624027802   0.04333676941991066   0.00992919211093414
0.7941529624027802   0.04333676941991066   0.00992919211093414
0.7941529624027802   0.04333676941991066   0.00992919211093414
0.7941529624027802   0.04333676941991066   0.00992919211093414
0.5714826979495425   -0.010916625126322327   -0.024384993793943897
0.5714826979495425   -0.010916625126322327   -0.024384993793943897
0.5714826979495425   -0.010916625126322327   -0.024384993793943897
0.5714826979495425   -0.010916625126322327   -0.024384993793943897
0.7878509586469644   0.019227033506588276   0.002528909245171858
0.7878509586469644   0.019227033506588276   0.002528909245171858
0.7878509586469644   0.019227033506588276   0.002528909245171858
0.7878509586469644   0.019227033506588276   0.002528909245171858
0.3901358928272873   -0.03716880142230719   0.011418407475337747
0.3901358928272873   -0.03716880142230719   0.011418407475337747
0.3901358928272873   -0.03716880142230719   0.011418407475337747
0.3901358928272873   -0.03716880142230719   0.011418407475337747
0.3755314239706684   -0.05358546609319598   0.011408895895479568
0.3755314239706684   -0.05358546609319598   0.011408895895479568
0.3755314239706684   -0.05358546609319598   0.011408895895479568
0.3755314239706684   -0.05358546609319598   0.011408895895479568
0.7800761554982354   0.04408259837640366   0.014450242925202368
0.7800761554982354   0.04408259837640366   0.014450242925202368
0.7800761554982354   0.04408259837640366   0.014450242925202368
0.7800761554982354   0.04408259837640366   0.014450242925202368
0.5502844088771167   -0.01089998301001642   -0.03275620520689437
0.5502844088771167   -0.01089998301001642   -0.03275620520689437
0.5502844088771167   -0.01089998301001642   -0.03275620520689437
0.5502844088771167   -0.01089998301001642   -0.03275620520689437
0.40893793226923414   -0.04942822887733163   0.020219512199540032
0.40893793226923414   -0.04942822887733163   0.020219512199540032
0.40893793226923414   -0.04942822887733163   0.020219512199540032
0.40893793226923414   -0.04942822887733163   0.020219512199540032
0.07650001791375471   -0.04864086367015462   0.003968434310999417
0.07650001791375471   -0.04864086367015462   0.003968434310999417
0.07650001791375471   -0.04864086367015462   0.003968434310999417
0.07650001791375471   -0.04864086367015462   0.003968434310999417
0.04937433580079855   -0.12039154522994874   0.02097623066740329
0.04937433580079855   -0.12039154522994874   0.02097623066740329
0.04937433580079855   -0.12039154522994874   0.02097623066740329
0.04937433580079855   -0.12039154522994874   0.02097623066740329
0.4110006797266263   0.016707777392228368   0.015520143548882988
0.4110006797266263   0.016707777392228368   0.015520143548882988
0.4110006797266263   0.016707777392228368   0.015520143548882988
0.4110006797266263   0.016707777392228368   0.015520143548882988
0.23280510798526038   -0.05064687850111568   -0.0009535183105003134
0.23280510798526038   -0.05064687850111568   -0.0009535183105003134
0.23280510798526038   -0.05064687850111568   -0.0009535183105003134
0.23280510798526038   -0.05064687850111568   -0.0009535183105003134
0.397648761648858   -0.051531866736136606   0.017000197288404573
0.397648761648858   -0.051531866736136606   0.017000197288404573
0.397648761648858   -0.051531866736136606   0.017000197288404573
0.397648761648858   -0.051531866736136606   0.017000197288404573
0.0593472240414586   -0.05553093093869234   0.00598005757944714
0.0593472240414586   -0.05553093093869234   0.00598005757944714
0.0593472240414586   -0.05553093093869234   0.00598005757944714
0.0593472240414586   -0.05553093093869234   0.00598005757944714
0.03717571799331689   -0.12132894924550841   0.018761588751505166
0.03717571799331689   -0.12132894924550841   0.018761588751505166
0.03717571799331689   -0.12132894924550841   0.018761588751505166
0.03717571799331689   -0.12132894924550841   0.018761588751505166
0.4017088111873998   0.013776479991729332   0.018337717861863823
0.4017088111873998   0.013776479991729332   0.018337717861863823
0.4017088111873998   0.013776479991729332   0.018337717861863823
0.4017088111873998   0.013776479991729332   0.018337717861863823
0.21619177050057828   -0.0539326365786388   -0.011015591129736765
0.21619177050057828   -0.0539326365786388   -0.011015591129736765
0.21619177050057828   -0.0539326365786388   -0.011015591129736765
0.21619177050057828   -0.0539326365786388   -0.011015591129736765
0.387679772275624   -0.05215554623366654   0.014124549528376773
0.387679772275624   -0.05215554623366654   0.014124549528376773
0.387679772275624   -0.05215554623366654   0.014124549528376773
0.387679772275624   -0.05215554623366654   0.014124549528376773
0.047526720585688756   -0.059074959339512026   0.008262611807368078
0.047526720585688756   -0.059074959339512026   0.008262611807368078
0.047526720585688756   -0.059074959339512026   0.008262611807368078
0.047526720585688756   -0.059074959339512026   0.008262611807368078
0.023538944083004047   -0.12109022442010633   0.014615372256077987
0.023538944083004047   -0.12109022442010633   0.014615372256077987
0.023538944083004047   -0.12109022442010633   0.014615372256077987
0.023538944083004047   -0.12109022442010633   0.014615372256077987
0.39116294410053354   0.014102877030968991   0.021878153420642234
0.39116294410053354   0.014102877030968991   0.021878153420642234
0.39116294410053354   0.014102877030968991   0.021878153420642234
0.39116294410053354   0.014102877030968991   0.021878153420642234
0.20613664460734685   -0.05336946505766541   -0.01953444737912038
0.20613664460734685   -0.05336946505766541   -0.01953444737912038
0.20613664460734685   -0.05336946505766541   -0.01953444737912038
0.20613664460734685   -0.05336946505766541   -0.01953444737912038
0.05994157491987206   -0.14552719322148028   0.018062548892911694
0.05994157491987206   -0.14552719322148028   0.018062548892911694
0.05994157491987206   -0.14552719322148028   0.018062548892911694
0.05994157491987206   -0.14552719322148028   0.018062548892911694
-0.24616986546440872   -0.0750526146290788   -3.730954330717802e-05
-0.24616986546440872   -0.0750526146290788   -3.730954330717802e-05
-0.24616986546440872   -0.0750526146290788   -3.730954330717802e-05
-0.24616986546440872   -0.0750526146290788   -3.730954330717802e-05
-0.29524084598304534   -0.21877354441234836   0.02403489538818599
-0.29524084598304534   -0.21877354441234836   0.02403489538818599
-0.29524084598304534   -0.21877354441234836   0.02403489538818599
-0.29524084598304534   -0.21877354441234836   0.02403489538818599
0.06894883143535456   -0.011441005115929753   0.009898168726164357
0.06894883143535456   -0.011441005115929753   0.009898168726164357
0.06894883143535456   -0.011441005115929753   0.009898168726164357
0.06894883143535456   -0.011441005115929753   0.009898168726164357
-0.10180791925608146   -0.11110095607269052   0.0042446473069073926
-0.10180791925608146   -0.11110095607269052   0.0042446473069073926
-0.10180791925608146   -0.11110095607269052   0.0042446473069073926
-0.10180791925608146   -0.11110095607269052   0.0042446473069073926
0.0411359654338344   -0.15368882873839726   0.013081662341031093
0.0411359654338344   -0.15368882873839726   0.013081662341031093
0.0411359654338344   -0.15368882873839726   0.013081662341031093
0.0411359654338344   -0.15368882873839726   0.013081662341031093
-0.2721842990911665   -0.08128203989951228   0.0018261253347420575
-0.2721842990911665   -0.08128203989951228   0.0018261253347420575
-0.2721842990911665   -0.08128203989951228   0.0018261253347420575
-0.2721842990911665   -0.08128203989951228   0.0018261253347420575
-0.31218348844510757   -0.22206498509009076   0.01971231718559878
-0.31218348844510757   -0.22206498509009076   0.01971231718559878
-0.31218348844510757   -0.22206498509009076   0.01971231718559878
-0.31218348844510757   -0.22206498509009076   0.01971231718559878
0.05750765401181272   -0.01468834180231712   0.01378066140079301
0.05750765401181272   -0.01468834180231712   0.01378066140079301
0.05750765401181272   -0.01468834180231712   0.01378066140079301
0.05750765401181272   -0.01468834180231712   0.01378066140079301
-0.12300501226259716   -0.11772796506375471   -0.009881547489969719
-0.12300501226259716   -0.11772796506375471   -0.009881547489969719
-0.12300501226259716   -0.11772796506375471   -0.009881547489969719
-0.12300501226259716   -0.11772796506375471   -0.009881547489969719
0.028142121626049885   -0.15624116248253891   0.008505820152200638
0.028142121626049885   -0.15624116248253891   0.008505820152200638
0.028142121626049885   -0.15624116248253891   0.008505820152200638
0.028142121626049885   -0.15624116248253891   0.008505820152200638
-0.28851679136382663   -0.08621099971435137   0.0021918172162611466
-0.28851679136382663   -0.08621099971435137   0.0021918172162611466
-0.28851679136382663   -0.08621099971435137   0.0021918172162611466
-0.28851679136382663   -0.08621099971435137   0.0021918172162611466
-0.33060210525591477   -0.22045619570910352   0.01637278434470804
-0.33060210525591477   -0.22045619570910352   0.01637278434470804
-0.33060210525591477   -0.22045619570910352   0.01637278434470804
-0.33060210525591477   -0.22045619570910352   0.01637278434470804
0.044791238127925466   -0.01645324093594923   0.01623985899652798
0.044791238127925466   -0.01645324093594923   0.01623985899652798
0.044791238127925466   -0.01645324093594923   0.01623985899652798
0.044791238127925466   -0.01645324093594923   0.01623985899652798
-0.14024642125413084   -0.12019350579723014   -0.024080840983039926
-0.14024642125413084   -0.12019350579723014   -0.024080840983039926
-0.14024642125413084   -0.12019350579723014   -0.024080840983039926
-0.14024642125413084   -0.12019350579723014   -0.024080840983039926
-0.27685485915449587   -0.24998474521598857   0.021469852593167853
-0.27685485915449587   -0.24998474521598857   0.021469852593167853
-0.27685485915449587   -0.24998474521598857   0.021469852593167853
-0.27685485915449587   -0.24998474521598857   0.021469852593167853
-0.6115268709025555   -0.09330919941343295   -0.013945515698031246
-0.6115268709025555   -0.09330919941343295   -0.013945515698031246
-0.6115268709025555   -0.09330919941343295   -0.013945515698031246
-0.6115268709025555   -0.09330919941343295   -0.013945515698031246
-0.6974040371233462   -0.36609414757356995   -0.018493328930655063
-0.6974040371233462   -0.36609414757356995   -0.018493328930655063
-0.6974040371233462   -0.36609414757356995   -0.018493328930655063
-0.6974040371233462   -0.36609414757356995   -0.018493328930655063
-0.2585310375128451   -0.01974215470498713   0.008552548031823873
-0.2585310375128451   -0.01974215470498713   0.008552548031823873
-0.2585310375128451   -0.01974215470498713   0.008552548031823873
-0.2585310375128451   -0.01974215470498713   0.008552548031823873
-0.456585125701248   -0.17495593641779422   -0.014476380994506249
-0.456585125701248   -0.17495593641779422   -0.014476380994506249
-0.456585125701248   -0.17495593641779422   -0.014476380994506249
-0.456585125701248   -0.17495593641779422   -0.014476380994506249
-0.3115347575508286   -0.2837193893712926   0.0075111825082140385
-0.3115347575508286   -0.2837193893712926   0.0075111825082140385
-0.3115347575508286   -0.2837193893712926   0.0075111825082140385
-0.3115347575508286   -0.2837193893712926   0.0075111825082140385
-0.6431530271266009   -0.1008696229484971   -0.01246280357200094
-0.6431530271266009   -0.1008696229484971   -0.01246280357200094
-0.6431530271266009   -0.1008696229484971   -0.01246280357200094
-0.6431530271266009   -0.1008696229484971   -0.01246280357200094
-0.7176112708916556   -0.3717626313087924   -0.021380802805721418
-0.7176112708916556   -0.3717626313087924   -0.021380802805721418
-0.7176112708916556   -0.3717626313087924   -0.021380802805721418
-0.7176112708916556   -0.3717626313087924   -0.021380802805721418
-0.27421010309268357   -0.0251359280472633   0.012650186904888451
-0.27421010309268357   -0.0251359280472633   0.012650186904888451
-0.27421010309268357   -0.0251359280472633   0.012650186904888451
-0.27421010309268357   -0.0251359280472633   0.012650186904888451
-0.4813414640128879   -0.19409994312328976   -0.02101132807216444
-0.4813414640128879   -0.19409994312328976   -0.02101132807216444
-0.4813414640128879   -0.19409994312328976   -0.02101132807216444
-0.4813414640128879   -0.19409994312328976   -0.02101132807216444
-0.32895321985790144   -0.2891626046121638   0.0029612796436982794
-0.32895321985790144   -0.2891626046121638   0.0029612796436982794
-0.32895321985790144   -0.2891626046121638   0.0029612796436982794
-0.32895321985790144   -0.2891626046121638   0.0029612796436982794
-0.6631361226154527   -0.10800392323291333   -0.012763769500592463
-0.6631361226154527   -0.10800392323291333   -0.012763769500592463
-0.6631361226154527   -0.10800392323291333   -0.012763769500592463
-0.6631361226154527   -0.10800392323291333   -0.012763769500592463
-0.73477916624314   -0.3550105458869666   -0.02410083256732449
-0.73477916624314   -0.3550105458869666   -0.02410083256732449
-0.73477916624314   -0.3550105458869666   -0.02410083256732449
-0.73477916624314   -0.3550105458869666   -0.02410083256732449
-0.29398490111593367   -0.03278148822767046   0.011784097563175916
-0.29398490111593367   -0.03278148822767046   0.011784097563175916
-0.29398490111593367   -0.03278148822767046   0.011784097563175916
-0.29398490111593367   -0.03278148822767046   0.011784097563175916
-0.5042770831688157   -0.2005314949299069   -0.027367105544900266
-0.5042770831688157   -0.2005314949299069   -0.027367105544900266
-0.5042770831688157   -0.2005314949299069   -0.027367105544900266
-0.5042770831688157   -0.2005314949299069   -0.027367105544900266
-0.6016937231978652   -0.10996378329764794   0.05187480670962538
-0.6016937231978652   -0.10996378329764794   0.05187480670962538
-0.6016937231978652   -0.10996378329764794   0.05187480670962538
-0.6016937231978652   -0.10996378329764794   0.05187480670962538
-1.0538003292794145   -0.0781878737161032   -0.018092353319602107
-1.0538003292794145   -0.0781878737161032   -0.018092353319602107
-1.0538003292794145   -0.0781878737161032   -0.018092353319602107
-1.0538003292794145   -0.0781878737161032   -0.018092353319602107
-1.1174041092203295   -0.22064688505829297   0.014169683928864696
-1.1174041092203295   -0.22064688505829297   0.014169683928864696
-1.1174041092203295   -0.22064688505829297   0.014169683928864696
-1.1174041092203295   -0.22064688505829297   0.014169683928864696
-0.6175084094723333   0.009475537733445033   0.005415124017388785
-0.6175084094723333   0.009475537733445033   0.005415124017388785
-0.6175084094723333   0.009475537733445033   0.005415124017388785
-0.6175084094723333   0.009475537733445033   0.005415124017388785
-0.807248178841346   -0.07746392618775207   0.016087745094504394
-0.807248178841346   -0.07746392618775207   0.016087745094504394
-0.807248178841346   -0.07746392618775207   0.016087745094504394
-0.807248178841346   -0.07746392618775207   0.016087745094504394
-0.6348478304598975   -0.11777571227448104   0.0459692690874923
-0.6348478304598975   -0.11777571227448104   0.0459692690874923
-0.6348478304598975   -0.11777571227448104   0.0459692690874923
-0.6348478304598975   -0.11777571227448104   0.0459692690874923
-1.0973921766550938   -0.09072312347269387   -0.015694414830545338
-1.0973921766550938   -0.09072312347269387   -0.015694414830545338
-1.0973921766550938   -0.09072312347269387   -0.015694414830545338
-1.0973921766550938   -0.09072312347269387   -0.015694414830545338
-1.1440199195629155   -0.22985681631428456   -0.005264162008507434
-1.1440199195629155   -0.22985681631428456   -0.005264162008507434
-1.1440199195629155   -0.22985681631428456   -0.005264162008507434
-1.1440199195629155   -0.22985681631428456   -0.005264162008507434
-0.6363639772034531   0.0033534194368041725   0.009739614889688497
-0.6363639772034531   0.0033534194368041725   0.009739614889688497
-0.6363639772034531   0.0033534194368041725   0.009739614889688497
-0.6363639772034531   0.0033534194368041725   0.009739614889688497
-0.8546653781465816   -0.10206922441103858   0.006493766428612151
-0.8546653781465816   -0.10206922441103858   0.006493766428612151
-0.8546653781465816   -0.10206922441103858   0.006493766428612151
-0.8546653781465816   -0.10206922441103858   0.006493766428612151
-0.6561314517823083   -0.1236459650583486   0.03790162649056525
-0.6561314517823083   -0.1236459650583486   0.03790162649056525
-0.6561314517823083   -0.1236459650583486   0.03790162649056525
-0.6561314517823083   -0.1236459650583486   0.03790162649056525
-1.118765699308066   -0.09737068614313432   -0.011479190905391318
-1.118765699308066   -0.09737068614313432   -0.011479190905391318
-1.118765699308066   -0.09737068614313432   -0.011479190905391318
-1.118765699308066   -0.09737068614313432   -0.011479190905391318
-1.1668026871488437   -0.2334041724890781   -0.00021817529654677426
-1.1668026871488437   -0.2334041724890781   -0.00021817529654677426
-1.1668026871488437   -0.2334041724890781   -0.00021817529654677426
-1.1668026871488437   -0.2334041724890781   -0.00021817529654677426
-0.6629176462757561   -0.023903740859417946   0.004099962242046149
-0.6629176462757561   -0.023903740859417946   0.004099962242046149
-0.6629176462757561   -0.023903740859417946   0.004099962242046149
-0.6629176462757561   -0.023903740859417946   0.004099962242046149
-0.8644652395788212   -0.12309563063931575   0.010204655113305696
-0.8644652395788212   -0.12309563063931575   0.010204655113305696
-0.8644652395788212   -0.12309563063931575   0.010204655113305696
-0.8644652395788212   -0.12309563063931575   0.010204655113305696
0.7120108095228016   0.03322256550743555   -0.015043329984674413
0.7120108095228016   0.03322256550743555   -0.015043329984674413
0.7120108095228016   0.03322256550743555   -0.015043329984674413
0.7120108095228016   0.03322256550743555   -0.015043329984674413
0.3574291723405236   -0.007796735717183298   0.007228598135243562
0.3574291723405236   -0.007796735717183298   0.007228598135243562
0.3574291723405236   -0.007796735717183298   0.007228598135243562
0.3574291723405236   -0.007796735717183298   0.007228598135243562
0.33517675062480934   -0.052233354900180065   -0.013432868729962091
0.33517675062480934   -0.052233354900180065   -0.013432868729962091
0.33517675062480934   -0.052233354900180065   -0.013432868729962091
0.33517675062480934   -0.052233354900180065   -0.013432868729962091
0.7039013683134769   0.051150563227482376   0.008457273552807426
0.7039013683134769   0.051150563227482376   0.008457273552807426
0.7039013683134769   0.051150563227482376   0.008457273552807426
0.7039013683134769   0.051150563227482376   0.008457273552807426
0.49950249386729384   0.0012371312479978885   -0.019279591924107185
0.49950249386729384   0.0012371312479978885   -0.019279591924107185
0.49950249386729384   0.0012371312479978885   -0.019279591924107185
0.49950249386729384   0.0012371312479978885   -0.019279591924107185
0.6927134217491439   0.01891181155200436   -0.0152437075933744
0.6927134217491439   0.01891181155200436   -0.0152437075933744
0.6927134217491439   0.01891181155200436   -0.0152437075933744
0.6927134217491439   0.01891181155200436   -0.0152437075933744
0.3457574176392747   -0.020601882774569202   0.007838994216751799
0.3457574176392747   -0.020601882774569202   0.007838994216751799
0.3457574176392747   -0.020601882774569202   0.007838994216751799
0.3457574176392747   -0.020601882774569202   0.007838994216751799
0.3231746355005883   -0.05507251774738496   -0.01113891682332134
0.3231746355005883   -0.05507251774738496   -0.01113891682332134
0.3231746355005883   -0.05507251774738496   -0.01113891682332134
0.3231746355005883   -0.05507251774738496   -0.01113891682332134
0.6872701760946773   0.04709483622164061   0.012472093460304767
0.6872701760946773   0.04709483622164061   0.012472093460304767
0.6872701760946773   0.04709483622164061   0.012472093460304767
0.6872701760946773   0.04709483622164061   0.012472093460304767
0.49317469846210504   -0.004842150213148308   -0.02285411048713427
0.49317469846210504   -0.004842150213148308   -0.02285411048713427
0.49317469846210504   -0.004842150213148308   -0.02285411048713427
0.49317469846210504   -0.004842150213148308   -0.02285411048713427
0.6759905531390542   0.015293510104787217   -0.012124695200957145
0.6759905531390542   0.015293510104787217   -0.012124695200957145
0.6759905531390542   0.015293510104787217   -0.012124695200957145
0.6759905531390542   0.015293510104787217   -0.012124695200957145
0.33359516916500326   -0.024130280921734512   0.010021514673103204
0.33359516916500326   -0.024130280921734512   0.010021514673103204
0.33359516916500326   -0.024130280921734512   0.010021514673103204
0.33359516916500326   -0.024130280921734512   0.010021514673103204
0.31158244197436175   -0.05403947645371743   -0.007666417701529406
0.31158244197436175   -0.05403947645371743   -0.007666417701529406
0.31158244197436175   -0.05403947645371743   -0.007666417701529406
0.31158244197436175   -0.05403947645371743   -0.007666417701529406
0.6667075455473248   0.044528435895179116   0.01633139575398151
0.6667075455473248   0.044528435895179116   0.01633139575398151
0.6667075455473248   0.044528435895179116   0.01633139575398151
0.6667075455473248   0.044528435895179116   0.01633139575398151
0.4691640687110202   -0.008404876834382333   -0.029915142485776012
0.4691640687110202   -0.008404876834382333   -0.029915142485776012
0.4691640687110202   -0.008404876834382333   -0.029915142485776012
0.4691640687110202   -0.008404876834382333   -0.029915142485776012
0.3598375270660153   0.007939732089333948   0.003533903956181715
0.3598375270660153   0.007939732089333948   0.003533903956181715
0.3598375270660153   0.007939732089333948   0.003533903956181715
0.3598375270660153   0.007939732089333948   0.003533903956181715
0.03286729987145666   -0.02188504212785255   -0.0010111278648502432
0.03286729987145666   -0.02188504212785255   -0.0010111278648502432
0.03286729987145666   -0.02188504212785255   -0.0010111278648502432
0.03286729987145666   -0.02188504212785255   -0.0010111278648502432
0.011893642221022339   -0.0688152004555897   -0.012987708184634073
0.011893642221022339   -0.0688152004555897   -0.012987708184634073
0.011893642221022339   -0.0688152004555897   -0.012987708184634073
0.011893642221022339   -0.0688152004555897   -0.012987708184634073
0.3601762741932056   0.04166169046885048   0.01766970374298671
0.3601762741932056   0.04166169046885048   0.01766970374298671
0.3601762741932056   0.04166169046885048   0.01766970374298671
0.3601762741932056   0.04166169046885048   0.01766970374298671
0.1876884973190017   -0.009396642514519542   -0.007305368833361208
0.1876884973190017   -0.009396642514519542   -0.007305368833361208
0.1876884973190017   -0.009396642514519542   -0.007305368833361208
0.1876884973190017   -0.009396642514519542   -0.007305368833361208
0.3499678482684785   0.002545862757057385   0.005743401831145169
0.3499678482684785   0.002545862757057385   0.005743401831145169
0.3499678482684785   0.002545862757057385   0.005743401831145169
0.3499678482684785   0.002545862757057385   0.005743401831145169
0.022501331520598224   -0.02930010936894767   0.0005356472266033318
0.022501331520598224   -0.02930010936894767   0.0005356472266033318
0.022501331520598224   -0.02930010936894767   0.0005356472266033318
0.022501331520598224   -0.02930010936894767   0.0005356472266033318
0.0003200926198003093   -0.0719923372891589   -0.00911764997497783
0.0003200926198003093   -0.0719923372891589   -0.00911764997497783
0.0003200926198003093   -0.0719923372891589   -0.00911764997497783
0.0003200926198003093   -0.0719923372891589   -0.00911764997497783
0.3474774722130776   0.0358328060877619   0.01946994290397861
0.3474774722130776   0.0358328060877619   0.01946994290397861
0.3474774722130776   0.0358328060877619   0.01946994290397861
0.3474774722130776   0.0358328060877619   0.01946994290397861
0.17430990056759543   -0.014788566250809806   -0.010340798856172444
0.17430990056759543   -0.014788566250809806   -0.010340798856172444
0.17430990056759543   -0.014788566250809806   -0.010340798856172444
0.17430990056759543   -0.014788566250809806   -0.010340798856172444
0.33784995917642446   -0.001024831017624267   0.008190014826101773
0.33784995917642446   -0.001024831017624267   0.008190014826101773
0.33784995917642446   -0.001024831017624267   0.008190014826101773
0.33784995917642446   -0.001024831017624267   0.008190014826101773
0.009899901871729776   -0.03518240396850106   0.0019714629640116763
0.009899901871729776   -0.03518240396850106   0.0019714629640116763
0.009899901871729776   -0.03518240396850106   0.0019714629640116763
0.009899901871729776   -0.03518240396850106   0.0019714629640116763
-0.012085452259915183   -0.0721785407333534   -0.006280539040520984
-0.012085452259915183   -0.0721785407333534   -0.006280539040520984
-0.012085452259915183   -0.0721785407333534   -0.006280539040520984
-0.012085452259915183   -0.0721785407333534   -0.006280539040520984
0.33466261164942784   0.03219491238812538   0.021500041831960096
0.33466261164942784   0.03219491238812538   0.021500041831960096
0.33466261164942784   0.03219491238812538   0.021500041831960096
0.33466261164942784   0.03219491238812538   0.021500041831960096
0.16395048811598714   -0.01684354583575253   -0.012909544075981117
0.16395048811598714   -0.01684354583575253   -0.012909544075981117
0.16395048811598714   -0.01684354583575253   -0.012909544075981117
0.16395048811598714   -0.01684354583575253   -0.012909544075981117
0.033992099809647965   -0.01872266143829608   0.0014504911365497732
0.033992099809647965   -0.01872266143829608   0.0014504911365497732
0.033992099809647965   -0.01872266143829608   0.0014504911365497732
0.033992099809647965   -0.01872266143829608   0.0014504911365497732
-0.28106108226280274   -0.03236599154168342   -0.008809813399531855
-0.28106108226280274   -0.03236599154168342   -0.008809813399531855
-0.28106108226280274   -0.03236599154168342   -0.008809813399531855
-0.28106108226280274   -0.03236599154168342   -0.008809813399531855
-0.30438028501758135   -0.09106274610143228   -0.014881419748412401
-0.30438028501758135   -0.09106274610143228   -0.014881419748412401
-0.30438028501758135   -0.09106274610143228   -0.014881419748412401
-0.30438028501758135   -0.09106274610143228   -0.014881419748412401
0.03643532704482782   0.03068835790284093   0.010217157575962681
0.03643532704482782   0.03068835790284093   0.010217157575962681
0.03643532704482782   0.03068835790284093   0.010217157575962681
0.03643532704482782   0.03068835790284093   0.010217157575962681
-0.12911133784102377   -0.02653777126321813   -0.007209540274799631
-0.12911133784102377   -0.02653777126321813   -0.007209540274799631
-0.12911133784102377   -0.02653777126321813   -0.007209540274799631
-0.12911133784102377   -0.02653777126321813   -0.007209540274799631
0.025284247113035972   -0.02093627713471471   0.006086392954558141
0.025284247113035972   -0.02093627713471471   0.006086392954558141
0.025284247113035972   -0.02093627713471471   0.006086392954558141
0.025284247113035972   -0.02093627713471471   0.006086392954558141
-0.2923647809007868   -0.03857368687887413   -0.00729295838699799
-0.2923647809007868   -0.03857368687887413   -0.00729295838699799
-0.2923647809007868   -0.03857368687887413   -0.00729295838699799
-0.2923647809007868   -0.03857368687887413   -0.00729295838699799
-0.3179383562548723   -0.09452847058274173   -0.009973972234644995
-0.3179383562548723   -0.09452847058274173   -0.009973972234644995
-0.3179383562548723   -0.09452847058274173   -0.009973972234644995
-0.3179383562548723   -0.09452847058274173   -0.009973972234644995
0.023740463300119596   0.024456975567635472   0.011534890569824234
0.023740463300119596   0.024456975567635472   0.011534890569824234
0.023740463300119596   0.024456975567635472   0.011534890569824234
0.023740463300119596   0.024456975567635472   0.011534890569824234
-0.14034225015082114   -0.030211835752626724   -0.0086345721016365
-0.14034225015082114   -0.030211835752626724   -0.0086345721016365
-0.14034225015082114   -0.030211835752626724   -0.0086345721016365
-0.14034225015082114   -0.030211835752626724   -0.0086345721016365
0.013276281934390302   -0.024630463863497966   0.008301423172311199
0.013276281934390302   -0.024630463863497966   0.008301423172311199
0.013276281934390302   -0.024630463863497966   0.008301423172311199
0.013276281934390302   -0.024630463863497966   0.008301423172311199
-0.3072849157769004   -0.0452517720393661   -0.005983468388163684
-0.3072849157769004   -0.0452517720393661   -0.005983468388163684
-0.3072849157769004   -0.0452517720393661   -0.005983468388163684
-0.3072849157769004   -0.0452517720393661   -0.005983468388163684
-0.3329660830103529   -0.09702483874681794   -0.008860808919537241
-0.3329660830103529   -0.09702483874681794   -0.008860808919537241
-0.3329660830103529   -0.09702483874681794   -0.008860808919537241
-0.3329660830103529   -0.09702483874681794   -0.008860808919537241
0.010006806639232976   0.01914407500887823   0.012858139712988173
0.010006806639232976   0.01914407500887823   0.012858139712988173
0.010006806639232976   0.01914407500887823   0.012858139712988173
0.010006806639232976   0.01914407500887823   0.012858139712988173
-0.15491475742661798   -0.034608691665278274   -0.012087778337290524
-0.15491475742661798   -0.034608691665278274   -0.012087778337290524
-0.15491475742661798   -0.034608691665278274   -0.012087778337290524
-0.15491475742661798   -0.034608691665278274   -0.012087778337290524
-0.276475339087824   -0.022632673103459837   0.004385584037133369
-0.276475339087824   -0.022632673103459837   0.004385584037133369
-0.276475339087824   -0.022632673103459837   0.004385584037133369
-0.276475339087824   -0.022632673103459837   0.004385584037133369
-0.5880330018933044   -0.03791100015412936   -0.015405229256244535
-0.5880330018933044   -0.03791100015412936   -0.015405229256244535
-0.5880330018933044   -0.03791100015412936   -0.015405229256244535
-0.5880330018933044   -0.03791100015412936   -0.015405229256244535
-0.6144899622961406   -0.09564552925710124   -0.015005399945481916
-0.6144899622961406   -0.09564552925710124   -0.015005399945481916
-0.6144899622961406   -0.09564552925710124   -0.015005399945481916
-0.6144899622961406   -0.09564552925710124   -0.015005399945481916
-0.2778702364372793   0.02358710248145933   0.003018974570201373
-0.2778702364372793   0.02358710248145933   0.003018974570201373
-0.2778702364372793   0.02358710248145933   0.003018974570201373
-0.2778702364372793   0.02358710248145933   0.003018974570201373
-0.43562583779557185   -0.031620988983832005   -0.005973254720821341
-0.43562583779557185   -0.031620988983832005   -0.005973254720821341
-0.43562583779557185   -0.031620988983832005   -0.005973254720821341
-0.43562583779557185   -0.031620988983832005   -0.005973254720821341
-0.2861091308517646   -0.024904968319407098   0.010316573298643484
-0.2861091308517646   -0.024904968319407098   0.010316573298643484
-0.2861091308517646   -0.024904968319407098   0.010316573298643484
-0.2861091308517646   -0.024904968319407098   0.010316573298643484
-0.6045757863549375   -0.045478176929524994   -0.015601872567046704
-0.6045757863549375   -0.045478176929524994   -0.015601872567046704
-0.6045757863549375   -0.045478176929524994   -0.015601872567046704
-0.6045757863549375   -0.045478176929524994   -0.015601872567046704
-0.6332081074925945   -0.10158910970762836   -0.010617716997025904
-0.6332081074925945   -0.10158910970762836   -0.010617716997025904
-0.6332081074925945   -0.10158910970762836   -0.010617716997025904
-0.6332081074925945   -0.10158910970762836   -0.010617716997025904
-0.29295553418925246   0.016756699316354984   0.003654968194354697
-0.29295553418925246   0.016756699316354984   0.003654968194354697
-0.29295553418925246   0.016756699316354984   0.003654968194354697
-0.29295553418925246   0.016756699316354984   0.003654968194354697
-0.4473582882869289   -0.03484884084167597   -0.005949808442565683
-0.4473582882869289   -0.03484884084167597   -0.005949808442565683
-0.4473582882869289   -0.03484884084167597   -0.005949808442565683
-0.4473582882869289   -0.03484884084167597   -0.005949808442565683
-0.30106612226205126   -0.030887853193976286   0.010746580340691233
-0.30106612226205126   -0.030887853193976286   0.010746580340691233
-0.30106612226205126   -0.030887853193976286   0.010746580340691233
-0.30106612226205126   -0.030887853193976286   0.010746580340691233
-0.623970892797241   -0.05281793057474006   -0.01320282265314732
-0.623970892797241   -0.05281793057474006   -0.01320282265314732
-0.623970892797241   -0.05281793057474006   -0.01320282265314732
-0.623970892797241   -0.05281793057474006   -0.01320282265314732
-0.6543565944020514   -0.10947298149978012   -0.011301675511285348
-0.6543565944020514   -0.10947298149978012   -0.011301675511285348
-0.6543565944020514   -0.10947298149978012   -0.011301675511285348
-0.6543565944020514   -0.10947298149978012   -0.011301675511285348
-0.30926560526156566   0.008288327462333336   0.004328413615243162
-0.30926560526156566   0.008288327462333336   0.004328413615243162
-0.30926560526156566   0.008288327462333336   0.004328413615243162
-0.30926560526156566   0.008288327462333336   0.004328413615243162
-0.46849068069680727   -0.043007656817116685   -0.009780122199033191
-0.46849068069680727   -0.043007656817116685   -0.009780122199033191
-0.46849068069680727   -0.043007656817116685   -0.009780122199033191
-0.46849068069680727   -0.043007656817116685   -0.009780122199033191
-0.568407406354459   0.026226275991315884   0.018585472292537673
-0.568407406354459   0.026226275991315884   0.018585472292537673
-0.568407406354459   0.026226275991315884   0.018585472292537673
-0.568407406354459   0.026226275991315884   0.018585472292537673
-0.8808141678379778   -0.04383674808914134   -0.011486838612917133
-0.8808141678379778   -0.04383674808914134   -0.011486838612917133
-0.8808141678379778   -0.04383674808914134   -0.011486838612917133
-0.8808141678379778   -0.04383674808914134   -0.011486838612917133
-0.9018552196130702   -0.0446770837779194   0.018998826601303483
-0.9018552196130702   -0.0446770837779194   0.018998826601303483
-0.9018552196130702   -0.0446770837779194   0.018998826601303483
-0.9018552196130702   -0.0446770837779194   0.018998826601303483
-0.5895155152571824   0.018617364908664502   -0.004396058916460985
-0.5895155152571824   0.018617364908664502   -0.004396058916460985
-0.5895155152571824   0.018617364908664502   -0.004396058916460985
-0.5895155152571824   0.018617364908664502   -0.004396058916460985
-0.7008525204935766   0.000381727864167708   0.017866629016942574
-0.7008525204935766   0.000381727864167708   0.017866629016942574
-0.7008525204935766   0.000381727864167708   0.017866629016942574
-0.7008525204935766   0.000381727864167708   0.017866629016942574
-0.5836675512652881   0.019877424801425514   0.02358370115024592
-0.5836675512652881   0.019877424801425514   0.02358370115024592
-0.5836675512652881   0.019877424801425514   0.02358370115024592
-0.5836675512652881   0.019877424801425514   0.02358370115024592
-0.9072998430745007   -0.04553380314021968   -0.007367571343548131
-0.9072998430745007   -0.04553380314021968   -0.007367571343548131
-0.9072998430745007   -0.04553380314021968   -0.007367571343548131
-0.9072998430745007   -0.04553380314021968   -0.007367571343548131
-0.9283463729342851   -0.05181157142257187   0.025897056323640255
-0.9283463729342851   -0.05181157142257187   0.025897056323640255
-0.9283463729342851   -0.05181157142257187   0.025897056323640255
-0.9283463729342851   -0.05181157142257187   0.025897056323640255
-0.6089401817013689   0.013759932084913329   -0.004627129833445334
-0.6089401817013689   0.013759932084913329   -0.004627129833445334
-0.6089401817013689   0.013759932084913329   -0.004627129833445334
-0.6089401817013689   0.013759932084913329   -0.004627129833445334
-0.7353467956185517   -0.007933336207427949   0.010030774132463623
-0.7353467956185517   -0.007933336207427949   0.010030774132463623
-0.7353467956185517   -0.007933336207427949   0.010030774132463623
-0.7353467956185517   -0.007933336207427949   0.010030774132463623
-0.6035901213994478   0.012614073643235246   0.023269030117838457
-0.6035901213994478   0.012614073643235246   0.023269030117838457
-0.6035901213994478   0.012614073643235246   0.023269030117838457
-0.6035901213994478   0.012614073643235246   0.023269030117838457
-0.9347046813465126   -0.051673961091202786   -0.006032096068866739
-0.9347046813465126   -0.051673961091202786   -0.006032096068866739
-0.9347046813465126   -0.051673961091202786   -0.006032096068866739
-0.9347046813465126   -0.051673961091202786   -0.006032096068866739
-0.9660897268474072   -0.08088762631155236   0.02235261555305603
-0.9660897268474072   -0.08088762631155236   0.02235261555305603
-0.9660897268474072   -0.08088762631155236   0.02235261555305603
-0.9660897268474072   -0.08088762631155236   0.02235261555305603
-0.6313403082778344   -0.001316755629727162   -0.004376470760263575
-0.6313403082778344   -0.001316755629727162   -0.004376470760263575
-0.6313403082778344   -0.001316755629727162   -0.004376470760263575
-0.6313403082778344   -0.001316755629727162   -0.004376470760263575
-0.7495302004131015   -0.018491302101724644   0.003267653396143981
-0.7495302004131015   -0.018491302101724644   0.003267653396143981
-0.7495302004131015   -0.018491302101724644   0.003267653396143981
-0.7495302004131015   -0.018491302101724644   0.003267653396143981
0.5805624582682999   0.03135008085518891   -0.020170604930686887
0.5805624582682999   0.03135008085518891   -0.020170604930686887
0.5805624582682999   0.03135008085518891   -0.020170604930686887
0.5805624582682999   0.03135008085518891   -0.020170604930686887
0.28699554237559366   -0.0008628775974964531   0.007160473595460671
0.28699554237559366   -0.0008628775974964531   0.007160473595460671
0.28699554237559366   -0.0008628775974964531   0.007160473595460671
0.28699554237559366   -0.0008628775974964531   0.007160473595460671
0.2628720510327731   -0.04247026118311856   -0.018617531219493402
0.2628720510327731   -0.04247026118311856   -0.018617531219493402
0.2628720510327731   -0.04247026118311856   -0.018617531219493402
0.2628720510327731   -0.04247026118311856   -0.018617531219493402
0.5699100516778685   0.046677194598060204   0.008999143021341822
0.5699100516778685   0.046677194598060204   0.008999143021341822
0.5699100516778685   0.046677194598060204   0.008999143021341822
0.5699100516778685   0.046677194598060204   0.008999143021341822
0.40310836276699585   0.0035343997606853694   -0.013281445394194881
0.40310836276699585   0.0035343997606853694   -0.013281445394194881
0.40310836276699585   0.0035343997606853694   -0.013281445394194881
0.40310836276699585   0.0035343997606853694   -0.013281445394194881
0.5581602951297812   0.016413670713310596   -0.019486115834340283
0.5581602951297812   0.016413670713310596   -0.019486115834340283
0.5581602951297812   0.016413670713310596   -0.019486115834340283
0.5581602951297812   0.016413670713310596   -0.019486115834340283
0.2741292496762225   -0.0126992952030094   0.007897496017639703
0.2741292496762225   -0.0126992952030094   0.007897496017639703
0.2741292496762225   -0.0126992952030094   0.007897496017639703
0.2741292496762225   -0.0126992952030094   0.007897496017639703
0.2508121024579697   -0.045934516302789455   -0.01621659552515325
0.2508121024579697   -0.045934516302789455   -0.01621659552515325
0.2508121024579697   -0.045934516302789455   -0.01621659552515325
0.2508121024579697   -0.045934516302789455   -0.01621659552515325
0.5518890021568557   0.04188816104743384   0.012385020026279624
0.5518890021568557   0.04188816104743384   0.012385020026279624
0.5518890021568557   0.04188816104743384   0.012385020026279624
0.5518890021568557   0.04188816104743384   0.012385020026279624
0.39388021271501117   -0.0027699487681064477   -0.017274549338696918
0.39388021271501117   -0.0027699487681064477   -0.017274549338696918
0.39388021271501117   -0.0027699487681064477   -0.017274549338696918
0.39388021271501117   -0.0027699487681064477   -0.017274549338696918
0.5403800126512693   0.01214002629171354   -0.015411792745922515
0.5403800126512693   0.01214002629171354   -0.015411792745922515
0.5403800126512693   0.01214002629171354   -0.015411792745922515
0.5403800126512693   0.01214002629171354   -0.015411792745922515
0.2618693585942767   -0.016638114916350137   0.009773283769938756
0.2618693585942767   -0.016638114916350137   0.009773283769938756
0.2618693585942767   -0.016638114916350137   0.009773283769938756
0.2618693585942767   -0.016638114916350137   0.009773283769938756
0.23982660493574307   -0.04676589559959782   -0.013259321108321499
0.23982660493574307   -0.04676589559959782   -0.013259321108321499
0.23982660493574307   -0.04676589559959782   -0.013259321108321499
0.23982660493574307   -0.04676589559959782   -0.013259321108321499
0.531573838196662   0.037838765994743034   0.015489229563080943
0.531573838196662   0.037838765994743034   0.015489229563080943
0.531573838196662   0.037838765994743034   0.015489229563080943
0.531573838196662   0.037838765994743034   0.015489229563080943
0.37169931948209656   -0.007048073863715282   -0.023379473069100834
0.37169931948209656   -0.007048073863715282   -0.023379473069100834
0.37169931948209656   -0.007048073863715282   -0.023379473069100834
0.37169931948209656   -0.007048073863715282   -0.023379473069100834
0.2922194241626125   0.030559174408300277   0.0018578305247580439
0.2922194241626125   0.030559174408300277   0.0018578305247580439
0.2922194241626125   0.030559174408300277   0.0018578305247580439
0.2922194241626125   0.030559174408300277   0.0018578305247580439
0.00880061971467097   -0.00998381355798876   -0.0013444531227873257
0.00880061971467097   -0.00998381355798876   -0.0013444531227873257
0.00880061971467097   -0.00998381355798876   -0.0013444531227873257
0.00880061971467097   -0.00998381355798876   -0.0013444531227873257
-0.009389775149882743   -0.03833600733028551   -0.01275273590960491
-0.009389775149882743   -0.03833600733028551   -0.01275273590960491
-0.009389775149882743   -0.03833600733028551   -0.01275273590960491
-0.009389775149882743   -0.03833600733028551   -0.01275273590960491
0.2867169200588961   0.04238269006364816   0.015753862664350075
0.2867169200588961   0.04238269006364816   0.015753862664350075
0.2867169200588961   0.04238269006364816   0.015753862664350075
0.2867169200588961   0.04238269006364816   0.015753862664350075
0.14232845945895337   0.006045238154429963   -0.001566107435704375
0.14232845945895337   0.006045238154429963   -0.001566107435704375
0.14232845945895337   0.006045238154429963   -0.001566107435704375
0.14232845945895337   0.006045238154429963   -0.001566107435704375
0.28034967227183466   0.02285207674542855   0.003448237047263346
0.28034967227183466   0.02285207674542855   0.003448237047263346
0.28034967227183466   0.02285207674542855   0.003448237047263346
0.28034967227183466   0.02285207674542855   0.003448237047263346
-0.002905293775395756   -0.018688160424642764   2.182405718727503e-05
-0.002905293775395756   -0.018688160424642764   2.182405718727503e-05
-0.002905293775395756   -0.018688160424642764   2.182405718727503e-05
-0.002905293775395756   -0.018688160424642764   2.182405718727503e-05
-0.020811937440720497   -0.04392964725226114   -0.011052914142323107
-0.020811937440720497   -0.04392964725226114   -0.011052914142323107
-0.020811937440720497   -0.04392964725226114   -0.011052914142323107
-0.020811937440720497   -0.04392964725226114   -0.011052914142323107
0.27377377929227437   0.035242509468437884   0.017414762875139544
0.27377377929227437   0.035242509468437884   0.017414762875139544
0.27377377929227437   0.035242509468437884   0.017414762875139544
0.27377377929227437   0.035242509468437884   0.017414762875139544
0.12832112260023024   -0.001012706610067006   -0.0055681433029807215
0.12832112260023024   -0.001012706610067006   -0.0055681433029807215
0.12832112260023024   -0.001012706610067006   -0.0055681433029807215
0.12832112260023024   -0.001012706610067006   -0.0055681433029807215
0.2676503220508417   0.0169844872514995   0.0050554988849178875
0.2676503220508417   0.0169844872514995   0.0050554988849178875
0.2676503220508417   0.0169844872514995   0.0050554988849178875
0.2676503220508417   0.0169844872514995   0.0050554988849178875
-0.014678973327283207   -0.025662118163320147   0.0013443773359223653
-0.014678973327283207   -0.025662118163320147   0.0013443773359223653
-0.014678973327283207   -0.025662118163320147   0.0013443773359223653
-0.014678973327283207   -0.025662118163320147   0.0013443773359223653
-0.032109856587539065   -0.04722749084634529   -0.008839506103410938
-0.032109856587539065   -0.04722749084634529   -0.008839506103410938
-0.032109856587539065   -0.04722749084634529   -0.008839506103410938
-0.032109856587539065   -0.04722749084634529   -0.008839506103410938
0.26146148586443585   0.029274879773584422   0.018874308161957502
0.26146148586443585   0.029274879773584422   0.018874308161957502
0.26146148586443585   0.029274879773584422   0.018874308161957502
0.26146148586443585   0.029274879773584422   0.018874308161957502
0.11805236125137397   -0.005451561852915916   -0.008492554251710763
0.11805236125137397   -0.005451561852915916   -0.008492554251710763
0.11805236125137397   -0.005451561852915916   -0.008492554251710763
0.11805236125137397   -0.005451561852915916   -0.008492554251710763
0.018518250105699   0.030636512222330246   0.006623373052034783
0.018518250105699   0.030636512222330246   0.006623373052034783
0.018518250105699   0.030636512222330246   0.006623373052034783
0.018518250105699   0.030636512222330246   0.006623373052034783
-0.2609288782537204   -0.01717436261847253   -0.008939716218562517
-0.2609288782537204   -0.01717436261847253   -0.008939716218562517
-0.2609288782537204   -0.01717436261847253   -0.008939716218562517
-0.2609288782537204   -0.01717436261847253   -0.008939716218562517
-0.27511746743964616   -0.035307511390165795   -0.008209394404597016
-0.27511746743964616   -0.035307511390165795   -0.008209394404597016
-0.27511746743964616   -0.035307511390165795   -0.008209394404597016
-0.27511746743964616   -0.035307511390165795   -0.008209394404597016
0.009315093825981818   0.03473366435696648   0.0077019372824658925
0.009315093825981818   0.03473366435696648   0.0077019372824658925
0.009315093825981818   0.03473366435696648   0.0077019372824658925
0.009315093825981818   0.03473366435696648   0.0077019372824658925
-0.1268899605686127   0.0037793728445499122   0.0005204917404266745
-0.1268899605686127   0.0037793728445499122   0.0005204917404266745
-0.1268899605686127   0.0037793728445499122   0.0005204917404266745
-0.1268899605686127   0.0037793728445499122   0.0005204917404266745
0.00737921049092706   0.024487450058083303   0.008268734906075293
0.00737921049092706   0.024487450058083303   0.008268734906075293
0.00737921049092706   0.024487450058083303   0.008268734906075293
0.00737921049092706   0.024487450058083303   0.008268734906075293
-0.2728673687070964   -0.024747081693787622   -0.007519330438226432
-0.2728673687070964   -0.024747081693787622   -0.007519330438226432
-0.2728673687070964   -0.024747081693787622   -0.007519330438226432
-0.2728673687070964   -0.024747081693787622   -0.007519330438226432
-0.28737021857604556   -0.04144583399043478   -0.006868475344361868
-0.28737021857604556   -0.04144583399043478   -0.006868475344361868
-0.28737021857604556   -0.04144583399043478   -0.006868475344361868
-0.28737021857604556   -0.04144583399043478   -0.006868475344361868
-0.0024719471212890877   0.027392720608029712   0.009324669594543103
-0.0024719471212890877   0.027392720608029712   0.009324669594543103
-0.0024719471212890877   0.027392720608029712   0.009324669594543103
-0.0024719471212890877   0.027392720608029712   0.009324669594543103
-0.1386341478906439   -0.002260175321634708   -0.002470667641725495
-0.1386341478906439   -0.002260175321634708   -0.002470667641725495
-0.1386341478906439   -0.002260175321634708   -0.002470667641725495
-0.1386341478906439   -0.002260175321634708   -0.002470667641725495
-0.004119953463944989   0.01856115483226364   0.009916203657029663
-0.004119953463944989   0.01856115483226364   0.009916203657029663
-0.004119953463944989   0.01856115483226364   0.009916203657029663
-0.004119953463944989   0.01856115483226364   0.009916203657029663
-0.2854564296206037   -0.0323484856018824   -0.006396878955702868
-0.2854564296206037   -0.0323484856018824   -0.006396878955702868
-0.2854564296206037   -0.0323484856018824   -0.006396878955702868
-0.2854564296206037   -0.0323484856018824   -0.006396878955702868
-0.2995325235057132   -0.046262443820746006   -0.004635124290202217
-0.2995325235057132   -0.046262443820746006   -0.004635124290202217
-0.2995325235057132   -0.046262443820746006   -0.004635124290202217
-0.2995325235057132   -0.046262443820746006   -0.004635124290202217
-0.014686816051943528   0.020477477753805942   0.010570727974415519
-0.014686816051943528   0.020477477753805942   0.010570727974415519
-0.014686816051943528   0.020477477753805942   0.010570727974415519
-0.014686816051943528   0.020477477753805942   0.010570727974415519
-0.1512735901758425   -0.008400161496071364   -0.005748144630636993
-0.1512735901758425   -0.008400161496071364   -0.005748144630636993
-0.1512735901758425   -0.008400161496071364   -0.005748144630636993
-0.1512735901758425   -0.008400161496071364   -0.005748144630636993
-0.24615888958558554   0.035910034216162554   0.011825830287480774
-0.24615888958558554   0.035910034216162554   0.011825830287480774
-0.24615888958558554   0.035910034216162554   0.011825830287480774
-0.24615888958558554   0.035910034216162554   0.011825830287480774
-0.522242000873633   -0.023527953538655597   -0.014583049988011194
-0.522242000873633   -0.023527953538655597   -0.014583049988011194
-0.522242000873633   -0.023527953538655597   -0.014583049988011194
-0.522242000873633   -0.023527953538655597   -0.014583049988011194
-0.5332876882709984   -0.028619766770329347   -0.0025979198550229524
-0.5332876882709984   -0.028619766770329347   -0.0025979198550229524
-0.5332876882709984   -0.028619766770329347   -0.0025979198550229524
-0.5332876882709984   -0.028619766770329347   -0.0025979198550229524
-0.2611982183289367   0.026365042890580927   -0.0002857031317947019
-0.2611982183289367   0.026365042890580927   -0.0002857031317947019
-0.2611982183289367   0.026365042890580927   -0.0002857031317947019
-0.2611982183289367   0.026365042890580927   -0.0002857031317947019
-0.38789276132147876   0.003686727389726571   0.002856925209581796
-0.38789276132147876   0.003686727389726571   0.002856925209581796
-0.38789276132147876   0.003686727389726571   0.002856925209581796
-0.38789276132147876   0.003686727389726571   0.002856925209581796
-0.2578345153052686   0.029641685641038806   0.013256169236088057
-0.2578345153052686   0.029641685641038806   0.013256169236088057
-0.2578345153052686   0.029641685641038806   0.013256169236088057
-0.2578345153052686   0.029641685641038806   0.013256169236088057
-0.5362364124241463   -0.03148143065027026   -0.01447987674082575
-0.5362364124241463   -0.03148143065027026   -0.01447987674082575
-0.5362364124241463   -0.03148143065027026   -0.01447987674082575
-0.5362364124241463   -0.03148143065027026   -0.01447987674082575
-0.5483683700675784   -0.0355310544613667   -0.0023709648159432363
-0.5483683700675784   -0.0355310544613667   -0.0023709648159432363
-0.5483683700675784   -0.0355310544613667   -0.0023709648159432363
-0.5483683700675784   -0.0355310544613667   -0.0023709648159432363
-0.273604374102732   0.019360190175307934   0.0011547228564655655
-0.273604374102732   0.019360190175307934   0.0011547228564655655
-0.273604374102732   0.019360190175307934   0.0011547228564655655
-0.273604374102732   0.019360190175307934   0.0011547228564655655
-0.3983776423580391   -0.0017949702221460445   0.00041057144683187205
-0.3983776423580391   -0.0017949702221460445   0.00041057144683187205
-0.3983776423580391   -0.0017949702221460445   0.00041057144683187205
-0.3983776423580391   -0.0017949702221460445   0.00041057144683187205
-0.2699135403183105   0.023689934035376066   0.015279147918502736
-0.2699135403183105   0.023689934035376066   0.015279147918502736
-0.2699135403183105   0.023689934035376066   0.015279147918502736
-0.2699135403183105   0.023689934035376066   0.015279147918502736
-0.5511998093165457   -0.039001403785981784   -0.013057811736169173
-0.5511998093165457   -0.039001403785981784   -0.013057811736169173
-0.5511998093165457   -0.039001403785981784   -0.013057811736169173
-0.5511998093165457   -0.039001403785981784   -0.013057811736169173
-0.5622367059962713   -0.0429479742117298   0.0011180059796485134
-0.5622367059962713   -0.0429479742117298   0.0011180059796485134
-0.5622367059962713   -0.0429479742117298   0.0011180059796485134
-0.5622367059962713   -0.0429479742117298   0.0011180059796485134
-0.28675305170466764   0.010988580955353655   0.0020112099389315574
-0.28675305170466764   0.010988580955353655   0.0020112099389315574
-0.28675305170466764   0.010988580955353655   0.0020112099389315574
-0.28675305170466764   0.010988580955353655   0.0020112099389315574
-0.41494466857132767   -0.009587379354735498   -0.002914405458528821
-0.41494466857132767   -0.009587379354735498   -0.002914405458528821
-0.41494466857132767   -0.009587379354735498   -0.002914405458528821
-0.41494466857132767   -0.009587379354735498   -0.002914405458528821
-0.503908937866365   0.03712710660808177   0.016427204901585737
-0.503908937866365   0.03712710660808177   0.016427204901585737
-0.503908937866365   0.03712710660808177   0.016427204901585737
-0.503908937866365   0.03712710660808177   0.016427204901585737
-0.7713984775907795   -0.03575715624231299   -0.013230246844967063
-0.7713984775907795   -0.03575715624231299   -0.013230246844967063
-0.7713984775907795   -0.03575715624231299   -0.013230246844967063
-0.7713984775907795   -0.03575715624231299   -0.013230246844967063
-0.7816301326008532   -0.016148836631576402   0.013887550726020763
-0.7816301326008532   -0.016148836631576402   0.013887550726020763
-0.7816301326008532   -0.016148836631576402   0.013887550726020763
-0.7816301326008532   -0.016148836631576402   0.013887550726020763
-0.5252785660585358   0.016093913961850656   -0.007265989524890298
-0.5252785660585358   0.016093913961850656   -0.007265989524890298
-0.5252785660585358   0.016093913961850656   -0.007265989524890298
-0.5252785660585358   0.016093913961850656   -0.007265989524890298
-0.6169668760824791   0.007579994079891156   0.014317706443833976
-0.6169668760824791   0.007579994079891156   0.014317706443833976
-0.6169668760824791   0.007579994079891156   0.014317706443833976
-0.6169668760824791   0.007579994079891156   0.014317706443833976
-0.5156577788751309   0.038045413365966466   0.018886446988012694
-0.5156577788751309   0.038045413365966466   0.018886446988012694
-0.5156577788751309   0.038045413365966466   0.018886446988012694
-0.5156577788751309   0.038045413365966466   0.018886446988012694
-0.7906847116645492   -0.037534127915981985   -0.01000005330804006
-0.7906847116645492   -0.037534127915981985   -0.01000005330804006
-0.7906847116645492   -0.037534127915981985   -0.01000005330804006
-0.7906847116645492   -0.037534127915981985   -0.01000005330804006
-0.8003737965246771   -0.019767172077257478   0.019170964179008806
-0.8003737965246771   -0.019767172077257478   0.019170964179008806
-0.8003737965246771   -0.019767172077257478   0.019170964179008806
-0.8003737965246771   -0.019767172077257478   0.019170964179008806
-0.5396647094560693   0.012071278164492855   -0.006454994384257527
-0.5396647094560693   0.012071278164492855   -0.006454994384257527
-0.5396647094560693   0.012071278164492855   -0.006454994384257527
-0.5396647094560693   0.012071278164492855   -0.006454994384257527
-0.6430469702856826   0.0037689084087879354   0.009358645084451798
-0.6430469702856826   0.0037689084087879354   0.009358645084451798
-0.6430469702856826   0.0037689084087879354   0.009358645084451798
-0.6430469702856826   0.0037689084087879354   0.009358645084451798
-0.5290343134542612   0.035350153715732524   0.023418110073542983
-0.5290343134542612   0.035350153715732524   0.023418110073542983
-0.5290343134542612   0.035350153715732524   0.023418110073542983
-0.5290343134542612   0.035350153715732524   0.023418110073542983
-0.8104504379043413   -0.042492293006351295   -0.00848712179020631
-0.8104504379043413   -0.042492293006351295   -0.00848712179020631
-0.8104504379043413   -0.042492293006351295   -0.00848712179020631
-0.8104504379043413   -0.042492293006351295   -0.00848712179020631
-0.8258076423426274   -0.03554011197979473   0.01897408155419155
-0.8258076423426274   -0.03554011197979473   0.01897408155419155
-0.8258076423426274   -0.03554011197979473   0.01897408155419155
-0.8258076423426274   -0.03554011197979473   0.01897408155419155
-0.5551255116607974   -0.00019277092240785332   -0.006081225632304343
-0.5551255116607974   -0.00019277092240785332   -0.006081225632304343
-0.5551255116607974   -0.00019277092240785332   -0.006081225632304343
-0.5551255116607974   -0.00019277092240785332   -0.006081225632304343
-0.6502452578365604   -0.0018064384558682811   0.007800676521208215
-0.6502452578365604   -0.0018064384558682811   0.007800676521208215
-0.6502452578365604   -0.0018064384558682811   0.007800676521208215
-0.6502452578365604   -0.0018064384558682811   0.007800676521208215
0.4434845700357531   0.024873494552192385   -0.02064669331625463
0.4434845700357531   0.024873494552192385   -0.02064669331625463
0.4434845700357531   0.024873494552192385   -0.02064669331625463
0.4434845700357531   0.024873494552192385   -0.02064669331625463
0.21035699042233902   0.003727085801408722   0.007754579899755209
0.21035699042233902   0.003727085801408722   0.007754579899755209
0.21035699042233902   0.003727085801408722   0.007754579899755209
0.21035699042233902   0.003727085801408722   0.007754579899755209
0.18747647240745674   -0.035545315454194815   -0.019679827969506198
0.18747647240745674   -0.035545315454194815   -0.019679827969506198
0.18747647240745674   -0.035545315454194815   -0.019679827969506198
0.18747647240745674   -0.035545315454194815   -0.019679827969506198
0.434178784448327   0.04049739267951941   0.009606357215908414
0.434178784448327   0.04049739267951941   0.009606357215908414
0.434178784448327   0.04049739267951941   0.009606357215908414
0.434178784448327   0.04049739267951941   0.009606357215908414
0.30240554495258387   0.004069775925490696   -0.008955669507998351
0.30240554495258387   0.004069775925490696   -0.008955669507998351
0.30240554495258387   0.004069775925490696   -0.008955669507998351
0.30240554495258387   0.004069775925490696   -0.008955669507998351
0.4225436335890562   0.011491401246534305   -0.019563405647460164
0.4225436335890562   0.011491401246534305   -0.019563405647460164
0.4225436335890562   0.011491401246534305   -0.019563405647460164
0.4225436335890562   0.011491401246534305   -0.019563405647460164
0.19888623946290104   -0.006764707825036458   0.008588399678555037
0.19888623946290104   -0.006764707825036458   0.008588399678555037
0.19888623946290104   -0.006764707825036458   0.008588399678555037
0.19888623946290104   -0.006764707825036458   0.008588399678555037
0.17681077671879789   -0.03896849578341907   -0.016820038689927156
0.17681077671879789   -0.03896849578341907   -0.016820038689927156
0.17681077671879789   -0.03896849578341907   -0.016820038689927156
0.17681077671879789   -0.03896849578341907   -0.016820038689927156
0.4175883326607577   0.035587815149103585   0.012700721263719544
0.4175883326607577   0.035587815149103585   0.012700721263719544
0.4175883326607577   0.035587815149103585   0.012700721263719544
0.4175883326607577   0.035587815149103585   0.012700721263719544
0.29302159957731416   -0.0019098464570829476   -0.01243407390645504
0.29302159957731416   -0.0019098464570829476   -0.01243407390645504
0.29302159957731416   -0.0019098464570829476   -0.01243407390645504
0.29302159957731416   -0.0019098464570829476   -0.01243407390645504
0.4062118241245491   0.0071307668183944045   -0.015724773086610983
0.4062118241245491   0.0071307668183944045   -0.015724773086610983
0.4062118241245491   0.0071307668183944045   -0.015724773086610983
0.4062118241245491   0.0071307668183944045   -0.015724773086610983
0.1878929442835101   -0.010805788424205945   0.01042809177441948
0.1878929442835101   -0.010805788424205945   0.01042809177441948
0.1878929442835101   -0.010805788424205945   0.01042809177441948
0.1878929442835101   -0.010805788424205945   0.01042809177441948
0.1672209892397253   -0.04093271159666749   -0.014015309437034981
0.1672209892397253   -0.04093271159666749   -0.014015309437034981
0.1672209892397253   -0.04093271159666749   -0.014015309437034981
0.1672209892397253   -0.04093271159666749   -0.014015309437034981
0.3988593173184579   0.03037715151487449   0.015144022146493184
0.3988593173184579   0.03037715151487449   0.015144022146493184
0.3988593173184579   0.03037715151487449   0.015144022146493184
0.3988593173184579   0.03037715151487449   0.015144022146493184
0.2739711427461357   -0.006377548477218518   -0.017667519425410633
0.2739711427461357   -0.006377548477218518   -0.017667519425410633
0.2739711427461357   -0.006377548477218518   -0.017667519425410633
0.2739711427461357   -0.006377548477218518   -0.017667519425410633
0.21408375635886068   0.03113733622680145   -0.001021840843025962
0.21408375635886068   0.03113733622680145   -0.001021840843025962
0.21408375635886068   0.03113733622680145   -0.001021840843025962
0.21408375635886068   0.03113733622680145   -0.001021840843025962
-0.01451734486881943   -0.003391808716465254   -0.00024989721749099495
-0.01451734486881943   -0.003391808716465254   -0.00024989721749099495
-0.01451734486881943   -0.003391808716465254   -0.00024989721749099495
-0.01451734486881943   -0.003391808716465254   -0.00024989721749099495
-0.030639383480581962   -0.026756751444960855   -0.012587041339232332
-0.030639383480581962   -0.026756751444960855   -0.012587041339232332
-0.030639383480581962   -0.026756751444960855   -0.012587041339232332
-0.030639383480581962   -0.026756751444960855   -0.012587041339232332
0.20870894491001662   0.036881387876739676   0.014055831212356922
0.20870894491001662   0.036881387876739676   0.014055831212356922
0.20870894491001662   0.036881387876739676   0.014055831212356922
0.20870894491001662   0.036881387876739676   0.014055831212356922
0.09294682878672428   0.009035763632217909   0.0006998392397610702
0.09294682878672428   0.009035763632217909   0.0006998392397610702
0.09294682878672428   0.009035763632217909   0.0006998392397610702
0.09294682878672428   0.009035763632217909   0.0006998392397610702
0.20321834528077307   0.02269087230310821   0.0007933486397733386
0.20321834528077307   0.02269087230310821   0.0007933486397733386
0.20321834528077307   0.02269087230310821   0.0007933486397733386
0.20321834528077307   0.02269087230310821   0.0007933486397733386
-0.025057408735153754   -0.012474860755146847   0.0010409416980947067
-0.025057408735153754   -0.012474860755146847   0.0010409416980947067
-0.025057408735153754   -0.012474860755146847   0.0010409416980947067
-0.025057408735153754   -0.012474860755146847   0.0010409416980947067
-0.04068058289783212   -0.033219204042800723   -0.01043944249093159
-0.04068058289783212   -0.033219204042800723   -0.01043944249093159
-0.04068058289783212   -0.033219204042800723   -0.01043944249093159
-0.04068058289783212   -0.033219204042800723   -0.01043944249093159
0.19686257752420658   0.029111550581560355   0.015358918972135505
0.19686257752420658   0.029111550581560355   0.015358918972135505
0.19686257752420658   0.029111550581560355   0.015358918972135505
0.19686257752420658   0.029111550581560355   0.015358918972135505
0.08052370694056396   0.0013363845722968136   -0.0031601857323201553
0.08052370694056396   0.0013363845722968136   -0.0031601857323201553
0.08052370694056396   0.0013363845722968136   -0.0031601857323201553
0.08052370694056396   0.0013363845722968136   -0.0031601857323201553
0.19155715847866028   0.015754089663233592   0.002189284662732228
0.19155715847866028   0.015754089663233592   0.002189284662732228
0.19155715847866028   0.015754089663233592   0.002189284662732228
0.19155715847866028   0.015754089663233592   0.002189284662732228
-0.035457845216199116   -0.019944424488387   0.002399466362819756
-0.035457845216199116   -0.019944424488387   0.002399466362819756
-0.035457845216199116   -0.019944424488387   0.002399466362819756
-0.035457845216199116   -0.019944424488387   0.002399466362819756
-0.050583524623123335   -0.038593547723370036   -0.00842281883525564
-0.050583524623123335   -0.038593547723370036   -0.00842281883525564
-0.050583524623123335   -0.038593547723370036   -0.00842281883525564
-0.050583524623123335   -0.038593547723370036   -0.00842281883525564
0.18592423197218116   0.021977238026317507   0.01659095460225838
0.18592423197218116   0.021977238026317507   0.01659095460225838
0.18592423197218116   0.021977238026317507   0.01659095460225838
0.18592423197218116   0.021977238026317507   0.01659095460225838
0.07106968752796708   -0.004433678919735378   -0.006353828768289205
0.07106968752796708   -0.004433678919735378   -0.006353828768289205
0.07106968752796708   -0.004433678919735378   -0.006353828768289205
0.07106968752796708   -0.004433678919735378   -0.006353828768289205
-0.005406798001737054   0.03675016862993997   0.0051608597715166234
-0.005406798001737054   0.03675016862993997   0.0051608597715166234
-0.005406798001737054   0.03675016862993997   0.0051608597715166234
-0.005406798001737054   0.03675016862993997   0.0051608597715166234
-0.2346373841073672   -0.010515051928832411   -0.0077783041672380634
-0.2346373841073672   -0.010515051928832411   -0.0077783041672380634
-0.2346373841073672   -0.010515051928832411   -0.0077783041672380634
-0.2346373841073672   -0.010515051928832411   -0.0077783041672380634
-0.24502164775717594   -0.01889453222423962   -0.006102304040406854
-0.24502164775717594   -0.01889453222423962   -0.006102304040406854
-0.24502164775717594   -0.01889453222423962   -0.006102304040406854
-0.24502164775717594   -0.01889453222423962   -0.006102304040406854
-0.015581380207269952   0.029775471770212433   0.006170751812154438
-0.015581380207269952   0.029775471770212433   0.006170751812154438
-0.015581380207269952   0.029775471770212433   0.006170751812154438
-0.015581380207269952   0.029775471770212433   0.006170751812154438
-0.12486291433334637   0.009325711803545723   0.0024423719529035447
-0.12486291433334637   0.009325711803545723   0.0024423719529035447
-0.12486291433334637   0.009325711803545723   0.0024423719529035447
-0.12486291433334637   0.009325711803545723   0.0024423719529035447
-0.015392146295139273   0.02969192292071095   0.007200470222309315
-0.015392146295139273   0.02969192292071095   0.007200470222309315
-0.015392146295139273   0.02969192292071095   0.007200470222309315
-0.015392146295139273   0.02969192292071095   0.007200470222309315
-0.2450198984396199   -0.018620000145048846   -0.006368089531817337
-0.2450198984396199   -0.018620000145048846   -0.006368089531817337
-0.2450198984396199   -0.018620000145048846   -0.006368089531817337
-0.2450198984396199   -0.018620000145048846   -0.006368089531817337
-0.25530872802566756   -0.025886673629571   -0.004235520689097338
-0.25530872802566756   -0.025886673629571   -0.004235520689097338
-0.25530872802566756   -0.025886673629571   -0.004235520689097338
-0.25530872802566756   -0.025886673629571   -0.004235520689097338
-0.026055178597981357   0.02177667924080326   0.0076916957247192075
-0.026055178597981357   0.02177667924080326   0.0076916957247192075
-0.026055178597981357   0.02177667924080326   0.0076916957247192075
-0.026055178597981357   0.02177667924080326   0.0076916957247192075
-0.13525618326209576   0.0024001176395427037   -0.0006776308522124398
-0.13525618326209576   0.0024001176395427037   -0.0006776308522124398
-0.13525618326209576   0.0024001176395427037   -0.0006776308522124398
-0.13525618326209576   0.0024001176395427037   -0.0006776308522124398
-0.025655734060255907   0.022653457360131392   0.008812140294018327
-0.025655734060255907   0.022653457360131392   0.008812140294018327
-0.025655734060255907   0.022653457360131392   0.008812140294018327
-0.025655734060255907   0.022653457360131392   0.008812140294018327
-0.25565720190353924   -0.026712481089047908   -0.005152082618978786
-0.25565720190353924   -0.026712481089047908   -0.005152082618978786
-0.25565720190353924   -0.026712481089047908   -0.005152082618978786
-0.25565720190353924   -0.026712481089047908   -0.005152082618978786
-0.2654662796723078   -0.03226915722321513   -0.002382983290310229
-0.2654662796723078   -0.03226915722321513   -0.002382983290310229
-0.2654662796723078   -0.03226915722321513   -0.002382983290310229
-0.2654662796723078   -0.03226915722321513   -0.002382983290310229
-0.03657758371887802   0.01404077866886628   0.008972559293734628
-0.03657758371887802   0.01404077866886628   0.008972559293734628
-0.03657758371887802   0.01404077866886628   0.008972559293734628
-0.03657758371887802   0.01404077866886628   0.008972559293734628
-0.1461318127259248   -0.00458013138077867   -0.004157059361304188
-0.1461318127259248   -0.00458013138077867   -0.004157059361304188
-0.1461318127259248   -0.00458013138077867   -0.004157059361304188
-0.1461318127259248   -0.00458013138077867   -0.004157059361304188
-0.22038801748973888   0.04195845711178248   0.010995019880284986
-0.22038801748973888   0.04195845711178248   0.010995019880284986
-0.22038801748973888   0.04195845711178248   0.010995019880284986
-0.22038801748973888   0.04195845711178248   0.010995019880284986
-0.4501090750282102   -0.017818805059498344   -0.01394550172151816
-0.4501090750282102   -0.017818805059498344   -0.01394550172151816
-0.4501090750282102   -0.017818805059498344   -0.01394550172151816
-0.4501090750282102   -0.017818805059498344   -0.01394550172151816
-0.45576733368333927   -0.012300150752484279   0.0009574440072818192
-0.45576733368333927   -0.012300150752484279   0.0009574440072818192
-0.45576733368333927   -0.012300150752484279   0.0009574440072818192
-0.45576733368333927   -0.012300150752484279   0.0009574440072818192
-0.2360692504537921   0.021439014419194324   -0.0016738641669176955
-0.2360692504537921   0.021439014419194324   -0.0016738641669176955
-0.2360692504537921   0.021439014419194324   -0.0016738641669176955
-0.2360692504537921   0.021439014419194324   -0.0016738641669176955
-0.338351198784012   0.008729048353926017   0.00413146386636077
-0.338351198784012   0.008729048353926017   0.00413146386636077
-0.338351198784012   0.008729048353926017   0.00413146386636077
-0.338351198784012   0.008729048353926017   0.00413146386636077
-0.23039548199786364   0.03517460774128126   0.012959384790633893
-0.23039548199786364   0.03517460774128126   0.012959384790633893
-0.23039548199786364   0.03517460774128126   0.012959384790633893
-0.23039548199786364   0.03517460774128126   0.012959384790633893
-0.46139834292874626   -0.02599298486405037   -0.013504768108186956
-0.46139834292874626   -0.02599298486405037   -0.013504768108186956
-0.46139834292874626   -0.02599298486405037   -0.013504768108186956
-0.46139834292874626   -0.02599298486405037   -0.013504768108186956
-0.46775221169021197   -0.019372575006539702   0.0016387345347074304
-0.46775221169021197   -0.019372575006539702   0.0016387345347074304
-0.46775221169021197   -0.019372575006539702   0.0016387345347074304
-0.46775221169021197   -0.019372575006539702   0.0016387345347074304
-0.24650577367204657   0.014028201665610973   -0.00013562421617070372
-0.24650577367204657   0.014028201665610973   -0.00013562421617070372
-0.24650577367204657   0.014028201665610973   -0.00013562421617070372
-0.24650577367204657   0.014028201665610973   -0.00013562421617070372
-0.34707402079907157   0.002588494800594532   0.001235755331619924
-0.34707402079907157   0.002588494800594532   0.001235755331619924
-0.34707402079907157   0.002588494800594532   0.001235755331619924
-0.34707402079907157   0.002588494800594532   0.001235755331619924
-0.2405897033706606   0.028688971284754776   0.014783957671613182
-0.2405897033706606   0.028688971284754776   0.014783957671613182
-0.2405897033706606   0.028688971284754776   0.014783957671613182
-0.2405897033706606   0.028688971284754776   0.014783957671613182
-0.4733678134456677   -0.03373287607975112   -0.01207897316935998
-0.4733678134456677   -0.03373287607975112   -0.01207897316935998
-0.4733678134456677   -0.03373287607975112   -0.01207897316935998
-0.4733678134456677   -0.03373287607975112   -0.01207897316935998
-0.4786038636506644   -0.027011970615407527   0.003859264031122342
-0.4786038636506644   -0.027011970615407527   0.003859264031122342
-0.4786038636506644   -0.027011970615407527   0.003859264031122342
-0.4786038636506644   -0.027011970615407527   0.003859264031122342
-0.25723780846089084   0.005513269380167503   0.0009769461633939748
-0.25723780846089084   0.005513269380167503   0.0009769461633939748
-0.25723780846089084   0.005513269380167503   0.0009769461633939748
-0.25723780846089084   0.005513269380167503   0.0009769461633939748
-0.3605351179845875   -0.005190936413653702   -0.0024715069656611084
-0.3605351179845875   -0.005190936413653702   -0.0024715069656611084
-0.3605351179845875   -0.005190936413653702   -0.0024715069656611084
-0.3605351179845875   -0.005190936413653702   -0.0024715069656611084
-0.4331348125413179   0.037635856056051395   0.015471149597393229
-0.4331348125413179   0.037635856056051395   0.015471149597393229
-0.4331348125413179   0.037635856056051395   0.015471149597393229
-0.4331348125413179   0.037635856056051395   0.015471149597393229
-0.655796876543375   -0.03036014837797034   -0.015150474137424482
-0.655796876543375   -0.03036014837797034   -0.015150474137424482
-0.655796876543375   -0.03036014837797034   -0.015150474137424482
-0.655796876543375   -0.03036014837797034   -0.015150474137424482
-0.6628294111144051   -0.007120893338115664   0.014210819031147306
-0.6628294111144051   -0.007120893338115664   0.014210819031147306
-0.6628294111144051   -0.007120893338115664   0.014210819031147306
-0.6628294111144051   -0.007120893338115664   0.014210819031147306
-0.45302900191630635   0.011095565147666506   -0.008746613057704036
-0.45302900191630635   0.011095565147666506   -0.008746613057704036
-0.45302900191630635   0.011095565147666506   -0.008746613057704036
-0.45302900191630635   0.011095565147666506   -0.008746613057704036
-0.5267616161358603   0.008306144017997785   0.01301401125324202
-0.5267616161358603   0.008306144017997785   0.01301401125324202
-0.5267616161358603   0.008306144017997785   0.01301401125324202
-0.5267616161358603   0.008306144017997785   0.01301401125324202
-0.44231351455127776   0.037771166626084124   0.01815522228901903
-0.44231351455127776   0.037771166626084124   0.01815522228901903
-0.44231351455127776   0.037771166626084124   0.01815522228901903
-0.44231351455127776   0.037771166626084124   0.01815522228901903
-0.6733738366946409   -0.033625433031740204   -0.012006769176402976
-0.6733738366946409   -0.033625433031740204   -0.012006769176402976
-0.6733738366946409   -0.033625433031740204   -0.012006769176402976
-0.6733738366946409   -0.033625433031740204   -0.012006769176402976
-0.6785422804987984   -0.010860609859941   0.017763136536317725
-0.6785422804987984   -0.010860609859941   0.017763136536317725
-0.6785422804987984   -0.010860609859941   0.017763136536317725
-0.6785422804987984   -0.010860609859941   0.017763136536317725
-0.4642941653185492   0.007034772499848824   -0.007478381113367717
-0.4642941653185492   0.007034772499848824   -0.007478381113367717
-0.4642941653185492   0.007034772499848824   -0.007478381113367717
-0.4642941653185492   0.007034772499848824   -0.007478381113367717
-0.5489597382439961   0.004151654835260005   0.00805140020769518
-0.5489597382439961   0.004151654835260005   0.00805140020769518
-0.5489597382439961   0.004151654835260005   0.00805140020769518
-0.5489597382439961   0.004151654835260005   0.00805140020769518
-0.4529289234906917   0.03498829528297551   0.021394305242793482
-0.4529289234906917   0.03498829528297551   0.021394305242793482
-0.4529289234906917   0.03498829528297551   0.021394305242793482
-0.4529289234906917   0.03498829528297551   0.021394305242793482
-0.6896145497619083   -0.03852116007831871   -0.009937659560846433
-0.6896145497619083   -0.03852116007831871   -0.009937659560846433
-0.6896145497619083   -0.03852116007831871   -0.009937659560846433
-0.6896145497619083   -0.03852116007831871   -0.009937659560846433
-0.6992870798538225   -0.02433337265657859   0.017377333889851597
-0.6992870798538225   -0.02433337265657859   0.017377333889851597
-0.6992870798538225   -0.02433337265657859   0.017377333889851597
-0.6992870798538225   -0.02433337265657859   0.017377333889851597
-0.4762134195783244   -0.004415805868870096   -0.006784680353715107
-0.4762134195783244   -0.004415805868870096   -0.006784680353715107
-0.4762134195783244   -0.004415805868870096   -0.006784680353715107
-0.4762134195783244   -0.004415805868870096   -0.006784680353715107
-0.5543569336860653   -0.0010775007894666816   0.006453480610884684
-0.5543569336860653   -0.0010775007894666816   0.006453480610884684
-0.5543569336860653   -0.0010775007894666816   0.006453480610884684
-0.5543569336860653   -0.0010775007894666816   0.006453480610884684
0.30786547522442087   0.017631989738457046   -0.020229385217084995
0.30786547522442087   0.017631989738457046   -0.020229385217084995
0.30786547522442087   0.017631989738457046   -0.020229385217084995
0.30786547522442087   0.017631989738457046   -0.020229385217084995
0.1314738035243398   0.007909282338785004   0.00858175129866545
0.1314738035243398   0.007909282338785004   0.00858175129866545
0.1314738035243398   0.007909282338785004   0.00858175129866545
0.1314738035243398   0.007909282338785004   0.00858175129866545
0.11069955754932685   -0.02990019678175844   -0.018902363191480663
0.11069955754932685   -0.02990019678175844   -0.018902363191480663
0.11069955754932685   -0.02990019678175844   -0.018902363191480663
0.11069955754932685   -0.02990019678175844   -0.018902363191480663
0.3009205787479057   0.03463482711832558   0.010438670438195245
0.3009205787479057   0.03463482711832558   0.010438670438195245
0.3009205787479057   0.03463482711832558   0.010438670438195245
0.3009205787479057   0.03463482711832558   0.010438670438195245
0.2014848104396077   0.004440239768151326   -0.0054956361974743805
0.2014848104396077   0.004440239768151326   -0.0054956361974743805
0.2014848104396077   0.004440239768151326   -0.0054956361974743805
0.2014848104396077   0.004440239768151326   -0.0054956361974743805
0.2892859369430076   0.005814674534732937   -0.018914386002704522
0.2892859369430076   0.005814674534732937   -0.018914386002704522
0.2892859369430076   0.005814674534732937   -0.018914386002704522
0.2892859369430076   0.005814674534732937   -0.018914386002704522
0.12211478379519224   -0.0012994597571984734   0.0095730310132884
0.12211478379519224   -0.0012994597571984734   0.0095730310132884
0.12211478379519224   -0.0012994597571984734   0.0095730310132884
0.12211478379519224   -0.0012994597571984734   0.0095730310132884
0.10187839989270776   -0.033319126032648444   -0.016124051877006017
0.10187839989270776   -0.033319126032648444   -0.016124051877006017
0.10187839989270776   -0.033319126032648444   -0.016124051877006017
0.10187839989270776   -0.033319126032648444   -0.016124051877006017
0.2863895586680784   0.029777840984392533   0.01351172701109705
0.2863895586680784   0.029777840984392533   0.01351172701109705
0.2863895586680784   0.029777840984392533   0.01351172701109705
0.2863895586680784   0.029777840984392533   0.01351172701109705
0.19248988931129063   -0.0012306882606306219   -0.008823754035152946
0.19248988931129063   -0.0012306882606306219   -0.008823754035152946
0.19248988931129063   -0.0012306882606306219   -0.008823754035152946
0.19248988931129063   -0.0012306882606306219   -0.008823754035152946
0.2749314758388782   0.0014301085849034792   -0.015430954735416872
0.2749314758388782   0.0014301085849034792   -0.015430954735416872
0.2749314758388782   0.0014301085849034792   -0.015430954735416872
0.2749314758388782   0.0014301085849034792   -0.015430954735416872
0.11300656223524827   -0.0053013141198192636   0.011498947922868258
0.11300656223524827   -0.0053013141198192636   0.011498947922868258
0.11300656223524827   -0.0053013141198192636   0.011498947922868258
0.11300656223524827   -0.0053013141198192636   0.011498947922868258
0.0940109327497379   -0.0363112087475697   -0.013449394597007712
0.0940109327497379   -0.0363112087475697   -0.013449394597007712
0.0940109327497379   -0.0363112087475697   -0.013449394597007712
0.0940109327497379   -0.0363112087475697   -0.013449394597007712
0.2693951789302831   0.023470896134448152   0.01546825978290442
0.2693951789302831   0.023470896134448152   0.01546825978290442
0.2693951789302831   0.023470896134448152   0.01546825978290442
0.2693951789302831   0.023470896134448152   0.01546825978290442
0.17690669276097137   -0.005839196649442199   -0.013455951898966981
0.17690669276097137   -0.005839196649442199   -0.013455951898966981
0.17690669276097137   -0.005839196649442199   -0.013455951898966981
0.17690669276097137   -0.005839196649442199   -0.013455951898966981
0.1325560532064454   0.02537775562640089   -0.0034754735784250854
0.1325560532064454   0.02537775562640089   -0.0034754735784250854
0.1325560532064454   0.02537775562640089   -0.0034754735784250854
0.1325560532064454   0.02537775562640089   -0.0034754735784250854
-0.04008804912488546   0.0018832326567664991   0.001059883309855232
-0.04008804912488546   0.0018832326567664991   0.001059883309855232
-0.04008804912488546   0.0018832326567664991   0.001059883309855232
-0.04008804912488546   0.0018832326567664991   0.001059883309855232
-0.05429225965402444   -0.020870128088320537   -0.011700544048903054
-0.05429225965402444   -0.020870128088320537   -0.011700544048903054
-0.05429225965402444   -0.020870128088320537   -0.011700544048903054
-0.05429225965402444   -0.020870128088320537   -0.011700544048903054
0.1290712702702027   0.030447179542551158   0.012608824088591266
0.1290712702702027   0.030447179542551158   0.012608824088591266
0.1290712702702027   0.030447179542551158   0.012608824088591266
0.1290712702702027   0.030447179542551158   0.012608824088591266
0.04090028496403476   0.008756403257961327   0.0015840451003162595
0.04090028496403476   0.008756403257961327   0.0015840451003162595
0.04090028496403476   0.008756403257961327   0.0015840451003162595
0.04090028496403476   0.008756403257961327   0.0015840451003162595
0.12342577893865064   0.01664941486222341   -0.0018208678888430715
0.12342577893865064   0.01664941486222341   -0.0018208678888430715
0.12342577893865064   0.01664941486222341   -0.0018208678888430715
0.12342577893865064   0.01664941486222341   -0.0018208678888430715
-0.04873551836113733   -0.007161113446660432   0.002374147773873383
-0.04873551836113733   -0.007161113446660432   0.002374147773873383
-0.04873551836113733   -0.007161113446660432   0.002374147773873383
-0.04873551836113733   -0.007161113446660432   0.002374147773873383
-0.06249036879308354   -0.027730164696687723   -0.009496711101799424
-0.06249036879308354   -0.027730164696687723   -0.009496711101799424
-0.06249036879308354   -0.027730164696687723   -0.009496711101799424
-0.06249036879308354   -0.027730164696687723   -0.009496711101799424
0.11900742516879209   0.02249208102610003   0.013709867444668076
0.11900742516879209   0.02249208102610003   0.013709867444668076
0.11900742516879209   0.02249208102610003   0.013709867444668076
0.11900742516879209   0.02249208102610003   0.013709867444668076
0.03075260609934581   0.0009451441462784149   -0.0021674925645538013
0.03075260609934581   0.0009451441462784149   -0.0021674925645538013
0.03075260609934581   0.0009451441462784149   -0.0021674925645538013
0.03075260609934581   0.0009451441462784149   -0.0021674925645538013
0.11354057049539057   0.00929075033510146   -0.00042307523134294846
0.11354057049539057   0.00929075033510146   -0.00042307523134294846
0.11354057049539057   0.00929075033510146   -0.00042307523134294846
0.11354057049539057   0.00929075033510146   -0.00042307523134294846
-0.05724186693110388   -0.014747186817106066   0.0037628203285182196
-0.05724186693110388   -0.014747186817106066   0.0037628203285182196
-0.05724186693110388   -0.014747186817106066   0.0037628203285182196
-0.05724186693110388   -0.014747186817106066   0.0037628203285182196
-0.0705743938911032   -0.03413298933509144   -0.007461556341501953
-0.0705743938911032   -0.03413298933509144   -0.007461556341501953
-0.0705743938911032   -0.03413298933509144   -0.007461556341501953
-0.0705743938911032   -0.03413298933509144   -0.007461556341501953
0.10992614105289136   0.014893593050692981   0.014921845120499325
0.10992614105289136   0.014893593050692981   0.014921845120499325
0.10992614105289136   0.014893593050692981   0.014921845120499325
0.10992614105289136   0.014893593050692981   0.014921845120499325
0.022663207029744906   -0.005480834224605829   -0.005463603113213691
0.022663207029744906   -0.005480834224605829   -0.005463603113213691
0.022663207029744906   -0.005480834224605829   -0.005463603113213691
0.022663207029744906   -0.005480834224605829   -0.005463603113213691
-0.03372407501310684   0.03181322335714186   0.002949763168372945
-0.03372407501310684   0.03181322335714186   0.002949763168372945
-0.03372407501310684   0.03181322335714186   0.002949763168372945
-0.03372407501310684   0.03181322335714186   0.002949763168372945
-0.2090484364473777   -0.00559423401989298   -0.006390417257023599
-0.2090484364473777   -0.00559423401989298   -0.006390417257023599
-0.2090484364473777   -0.00559423401989298   -0.006390417257023599
-0.2090484364473777   -0.00559423401989298   -0.006390417257023599
-0.2171595885292033   -0.012719028322680126   -0.004723540330375019
-0.2171595885292033   -0.012719028322680126   -0.004723540330375019
-0.2171595885292033   -0.012719028322680126   -0.004723540330375019
-0.2171595885292033   -0.012719028322680126   -0.004723540330375019
-0.04215598758042043   0.023200865952833806   0.004909822277961698
-0.04215598758042043   0.023200865952833806   0.004909822277961698
-0.04215598758042043   0.023200865952833806   0.004909822277961698
-0.04215598758042043   0.023200865952833806   0.004909822277961698
-0.12521149964170758   0.009018263788184426   0.00250291668872471
-0.12521149964170758   0.009018263788184426   0.00250291668872471
-0.12521149964170758   0.009018263788184426   0.00250291668872471
-0.12521149964170758   0.009018263788184426   0.00250291668872471
-0.04191875218359041   0.024277683379591533   0.005019181835355052
-0.04191875218359041   0.024277683379591533   0.005019181835355052
-0.04191875218359041   0.024277683379591533   0.005019181835355052
-0.04191875218359041   0.024277683379591533   0.005019181835355052
-0.21742632493259478   -0.013825346755999154   -0.004950903914013391
-0.21742632493259478   -0.013825346755999154   -0.004950903914013391
-0.21742632493259478   -0.013825346755999154   -0.004950903914013391
-0.21742632493259478   -0.013825346755999154   -0.004950903914013391
-0.22544638208455048   -0.02019351859147202   -0.002768089950088085
-0.22544638208455048   -0.02019351859147202   -0.002768089950088085
-0.22544638208455048   -0.02019351859147202   -0.002768089950088085
-0.22544638208455048   -0.02019351859147202   -0.002768089950088085
-0.050761110494774324   0.015015136380483272   0.0064042793125747245
-0.050761110494774324   0.015015136380483272   0.0064042793125747245
-0.050761110494774324   0.015015136380483272   0.0064042793125747245
-0.050761110494774324   0.015015136380483272   0.0064042793125747245
-0.13372927720826103   0.0017225326827098458   -0.0007128868574912284
-0.13372927720826103   0.0017225326827098458   -0.0007128868574912284
-0.13372927720826103   0.0017225326827098458   -0.0007128868574912284
-0.13372927720826103   0.0017225326827098458   -0.0007128868574912284
-0.05034741067065327   0.016731230536714894   0.0067566842769493035
-0.05034741067065327   0.016731230536714894   0.0067566842769493035
-0.05034741067065327   0.016731230536714894   0.0067566842769493035
-0.05034741067065327   0.016731230536714894   0.0067566842769493035
-0.22600153358997707   -0.02205106442900905   -0.0036863016396841202
-0.22600153358997707   -0.02205106442900905   -0.0036863016396841202
-0.22600153358997707   -0.02205106442900905   -0.0036863016396841202
-0.22600153358997707   -0.02205106442900905   -0.0036863016396841202
-0.2335856853943043   -0.027327510567531573   -0.0008607852128283437
-0.2335856853943043   -0.027327510567531573   -0.0008607852128283437
-0.2335856853943043   -0.027327510567531573   -0.0008607852128283437
-0.2335856853943043   -0.027327510567531573   -0.0008607852128283437
-0.05930006311518278   0.007063741456571021   0.007713366746437762
-0.05930006311518278   0.007063741456571021   0.007713366746437762
-0.05930006311518278   0.007063741456571021   0.007713366746437762
-0.05930006311518278   0.007063741456571021   0.007713366746437762
-0.14260487400771635   -0.0055784773958776936   -0.004202821259449387
-0.14260487400771635   -0.0055784773958776936   -0.004202821259449387
-0.14260487400771635   -0.0055784773958776936   -0.004202821259449387
-0.14260487400771635   -0.0055784773958776936   -0.004202821259449387
-0.19732270317709213   0.03738031055827336   0.00926370451623772
-0.19732270317709213   0.03738031055827336   0.00926370451623772
-0.19732270317709213   0.03738031055827336   0.00926370451623772
-0.19732270317709213   0.03738031055827336   0.00926370451623772
-0.37531394046199823   -0.013069546935599197   -0.012911284722951517
-0.37531394046199823   -0.013069546935599197   -0.012911284722951517
-0.37531394046199823   -0.013069546935599197   -0.012911284722951517
-0.37531394046199823   -0.013069546935599197   -0.012911284722951517
-0.3783405173720321   -0.006131324965361076   0.0027457058285452925
-0.3783405173720321   -0.006131324965361076   0.0027457058285452925
-0.3783405173720321   -0.006131324965361076   0.0027457058285452925
-0.3783405173720321   -0.006131324965361076   0.0027457058285452925
-0.21117401304868147   0.015151662102381495   -0.00266635335282946
-0.21117401304868147   0.015151662102381495   -0.00266635335282946
-0.21117401304868147   0.015151662102381495   -0.00266635335282946
-0.21117401304868147   0.015151662102381495   -0.00266635335282946
-0.2887874999894506   0.00840570012597118   0.0036143199681463525
-0.2887874999894506   0.00840570012597118   0.0036143199681463525
-0.2887874999894506   0.00840570012597118   0.0036143199681463525
-0.2887874999894506   0.00840570012597118   0.0036143199681463525
-0.2053713254627554   0.030177601322182494   0.011321145357001832
-0.2053713254627554   0.030177601322182494   0.011321145357001832
-0.2053713254627554   0.030177601322182494   0.011321145357001832
-0.2053713254627554   0.030177601322182494   0.011321145357001832
-0.38440668805262534   -0.021420747279834396   -0.012295725259949715
-0.38440668805262534   -0.021420747279834396   -0.012295725259949715
-0.38440668805262534   -0.021420747279834396   -0.012295725259949715
-0.38440668805262534   -0.021420747279834396   -0.012295725259949715
-0.3881203562627692   -0.01353927580180804   0.003641571037456919
-0.3881203562627692   -0.01353927580180804   0.003641571037456919
-0.3881203562627692   -0.01353927580180804   0.003641571037456919
-0.3881203562627692   -0.01353927580180804   0.003641571037456919
-0.2195519308512468   0.0076013361429154505   -0.0010906885179609634
-0.2195519308512468   0.0076013361429154505   -0.0010906885179609634
-0.2195519308512468   0.0076013361429154505   -0.0010906885179609634
-0.2195519308512468   0.0076013361429154505   -0.0010906885179609634
-0.2959101981651715   0.0018175117457942536   0.0003978730865688701
-0.2959101981651715   0.0018175117457942536   0.0003978730865688701
-0.2959101981651715   0.0018175117457942536   0.0003978730865688701
-0.2959101981651715   0.0018175117457942536   0.0003978730865688701
-0.2135383073006002   0.023303810715643858   0.013274954662547366
-0.2135383073006002   0.023303810715643858   0.013274954662547366
-0.2135383073006002   0.023303810715643858   0.013274954662547366
-0.2135383073006002   0.023303810715643858   0.013274954662547366
-0.39416226529291654   -0.02927003585403947   -0.010837214061050397
-0.39416226529291654   -0.02927003585403947   -0.010837214061050397
-0.39416226529291654   -0.02927003585403947   -0.010837214061050397
-0.39416226529291654   -0.02927003585403947   -0.010837214061050397
-0.3968089175877481   -0.021458818160674922   0.005687617586039178
-0.3968089175877481   -0.021458818160674922   0.005687617586039178
-0.3968089175877481   -0.021458818160674922   0.005687617586039178
-0.3968089175877481   -0.021458818160674922   0.005687617586039178
-0.22808010930751035   -0.0008071762075042774   0.00014676086111008006
-0.22808010930751035   -0.0008071762075042774   0.00014676086111008006
-0.22808010930751035   -0.0008071762075042774   0.00014676086111008006
-0.22808010930751035   -0.0008071762075042774   0.00014676086111008006
-0.30673694448892   -0.005892564001259114   -0.003360405190690573
-0.30673694448892   -0.005892564001259114   -0.003360405190690573
-0.30673694448892   -0.005892564001259114   -0.003360405190690573
-0.30673694448892   -0.005892564001259114   -0.003360405190690573
-0.3602782501297053   0.03467766311069269   0.01451995689222101
-0.3602782501297053   0.03467766311069269   0.01451995689222101
-0.3602782501297053   0.03467766311069269   0.01451995689222101
-0.3602782501297053   0.03467766311069269   0.01451995689222101
-0.5324623342569371   -0.02464189649374289   -0.016552259811049068
-0.5324623342569371   -0.02464189649374289   -0.016552259811049068
-0.5324623342569371   -0.02464189649374289   -0.016552259811049068
-0.5324623342569371   -0.02464189649374289   -0.016552259811049068
-0.5374194331016732   -0.0011601975339177034   0.014365004719726421
-0.5374194331016732   -0.0011601975339177034   0.014365004719726421
-0.5374194331016732   -0.0011601975339177034   0.014365004719726421
-0.5374194331016732   -0.0011601975339177034   0.014365004719726421
-0.3785507195304274   0.005423417683932841   -0.009860047612730946
-0.3785507195304274   0.005423417683932841   -0.009860047612730946
-0.3785507195304274   0.005423417683932841   -0.009860047612730946
-0.3785507195304274   0.005423417683932841   -0.009860047612730946
-0.4322311825621498   0.007888962588367493   0.01104492128775188
-0.4322311825621498   0.007888962588367493   0.01104492128775188
-0.4322311825621498   0.007888962588367493   0.01104492128775188
-0.4322311825621498   0.007888962588367493   0.01104492128775188
-0.36756371905161944   0.033364682354330655   0.017133690110914607
-0.36756371905161944   0.033364682354330655   0.017133690110914607
-0.36756371905161944   0.033364682354330655   0.017133690110914607
-0.36756371905161944   0.033364682354330655   0.017133690110914607
-0.5486346191459502   -0.029329647769780268   -0.01354147526578901
-0.5486346191459502   -0.029329647769780268   -0.01354147526578901
-0.5486346191459502   -0.029329647769780268   -0.01354147526578901
-0.5486346191459502   -0.029329647769780268   -0.01354147526578901
-0.5512691667858394   -0.005246563842289262   0.018089938643247302
-0.5512691667858394   -0.005246563842289262   0.018089938643247302
-0.5512691667858394   -0.005246563842289262   0.018089938643247302
-0.5512691667858394   -0.005246563842289262   0.018089938643247302
-0.38756083105989914   0.0012852713795259707   -0.008385350129532489
-0.38756083105989914   0.0012852713795259707   -0.008385350129532489
-0.38756083105989914   0.0012852713795259707   -0.008385350129532489
-0.38756083105989914   0.0012852713795259707   -0.008385350129532489
-0.4510975250835783   0.003209986001418988   0.005925123448234742
-0.4510975250835783   0.003209986001418988   0.005925123448234742
-0.4510975250835783   0.003209986001418988   0.005925123448234742
-0.4510975250835783   0.003209986001418988   0.005925123448234742
-0.37606467075489997   0.030210410158542686   0.020170312616452322
-0.37606467075489997   0.030210410158542686   0.020170312616452322
-0.37606467075489997   0.030210410158542686   0.020170312616452322
-0.37606467075489997   0.030210410158542686   0.020170312616452322
-0.5629286739415602   -0.03433504947202408   -0.011119111505621775
-0.5629286739415602   -0.03433504947202408   -0.011119111505621775
-0.5629286739415602   -0.03433504947202408   -0.011119111505621775
-0.5629286739415602   -0.03433504947202408   -0.011119111505621775
-0.5697960769845293   -0.018155570705530658   0.018099152869186987
-0.5697960769845293   -0.018155570705530658   0.018099152869186987
-0.5697960769845293   -0.018155570705530658   0.018099152869186987
-0.5697960769845293   -0.018155570705530658   0.018099152869186987
-0.3970046217991797   -0.00933170286692206   -0.007418018764879547
-0.3970046217991797   -0.00933170286692206   -0.007418018764879547
-0.3970046217991797   -0.00933170286692206   -0.007418018764879547
-0.3970046217991797   -0.00933170286692206   -0.007418018764879547
-0.45617461229557477   -0.0021769552518252078   0.003538293423888266
-0.45617461229557477   -0.0021769552518252078   0.003538293423888266
-0.45617461229557477   -0.0021769552518252078   0.003538293423888266
-0.45617461229557477   -0.0021769552518252078   0.003538293423888266
0.17302358048712832   0.010509738066754738   -0.019965747024274387
0.17302358048712832   0.010509738066754738   -0.019965747024274387
0.17302358048712832   0.010509738066754738   -0.019965747024274387
0.17302358048712832   0.010509738066754738   -0.019965747024274387
0.05141266229840954   0.011823157835063032   0.00945986020810652
0.05141266229840954   0.011823157835063032   0.00945986020810652
0.05141266229840954   0.011823157835063032   0.00945986020810652
0.05141266229840954   0.011823157835063032   0.00945986020810652
0.032881667110586835   -0.02458791227827673   -0.01763611490749749
0.032881667110586835   -0.02458791227827673   -0.01763611490749749
0.032881667110586835   -0.02458791227827673   -0.01763611490749749
0.032881667110586835   -0.02458791227827673   -0.01763611490749749
0.16850648345294955   0.028838175306735363   0.011377814508150886
0.16850648345294955   0.028838175306735363   0.011377814508150886
0.16850648345294955   0.028838175306735363   0.011377814508150886
0.16850648345294955   0.028838175306735363   0.011377814508150886
0.10028533724230625   0.004832904018714095   -0.0022851134168498316
0.10028533724230625   0.004832904018714095   -0.0022851134168498316
0.10028533724230625   0.004832904018714095   -0.0022851134168498316
0.10028533724230625   0.004832904018714095   -0.0022851134168498316
0.1568039906448892   5.373380416921758e-05   -0.018350208029585455
0.1568039906448892   5.373380416921758e-05   -0.018350208029585455
0.1568039906448892   5.373380416921758e-05   -0.018350208029585455
0.1568039906448892   5.373380416921758e-05   -0.018350208029585455
0.04421958569778208   0.0038319550034268367   0.010633610746775705
0.04421958569778208   0.0038319550034268367   0.010633610746775705
0.04421958569778208   0.0038319550034268367   0.010633610746775705
0.04421958569778208   0.0038319550034268367   0.010633610746775705
0.025898851704101684   -0.028025727605545104   -0.015015408974599033
0.025898851704101684   -0.028025727605545104   -0.015015408974599033
0.025898851704101684   -0.028025727605545104   -0.015015408974599033
0.025898851704101684   -0.028025727605545104   -0.015015408974599033
0.1559515376588407   0.02409935705939785   0.01466819811093364
0.1559515376588407   0.02409935705939785   0.01466819811093364
0.1559515376588407   0.02409935705939785   0.01466819811093364
0.1559515376588407   0.02409935705939785   0.01466819811093364
0.09162821847514904   -0.0005583913731480282   -0.005751029846212337
0.09162821847514904   -0.0005583913731480282   -0.005751029846212337
0.09162821847514904   -0.0005583913731480282   -0.005751029846212337
0.09162821847514904   -0.0005583913731480282   -0.005751029846212337
0.14430131531044857   -0.004365720336399273   -0.015117836235232064
0.14430131531044857   -0.004365720336399273   -0.015117836235232064
0.14430131531044857   -0.004365720336399273   -0.015117836235232064
0.14430131531044857   -0.004365720336399273   -0.015117836235232064
0.037056565611446435   -5.315865079305766e-05   0.012800591607373383
0.037056565611446435   -5.315865079305766e-05   0.012800591607373383
0.037056565611446435   -5.315865079305766e-05   0.012800591607373383
0.037056565611446435   -5.315865079305766e-05   0.012800591607373383
0.019666009595117686   -0.03207330171396314   -0.012523560123986635
0.019666009595117686   -0.03207330171396314   -0.012523560123986635
0.019666009595117686   -0.03207330171396314   -0.012523560123986635
0.019666009595117686   -0.03207330171396314   -0.012523560123986635
0.14037602036311056   0.01658571517136015   0.016327781386601774
0.14037602036311056   0.01658571517136015   0.016327781386601774
0.14037602036311056   0.01658571517136015   0.016327781386601774
0.14037602036311056   0.01658571517136015   0.016327781386601774
0.07939977617541583   -0.005317283054872678   -0.010035011836391092
0.07939977617541583   -0.005317283054872678   -0.010035011836391092
0.07939977617541583   -0.005317283054872678   -0.010035011836391092
0.07939977617541583   -0.005317283054872678   -0.010035011836391092
0.0497272874180322   0.01850462669302955   -0.0056484830517471605
0.0497272874180322   0.01850462669302955   -0.0056484830517471605
0.0497272874180322   0.01850462669302955   -0.0056484830517471605
0.0497272874180322   0.01850462669302955   -0.0056484830517471605
-0.06741887043532552   0.0056757399670129775   0.002223128661535647
-0.06741887043532552   0.0056757399670129775   0.002223128661535647
-0.06741887043532552   0.0056757399670129775   0.002223128661535647
-0.06741887043532552   0.0056757399670129775   0.002223128661535647
-0.07936743789426164   -0.01583005739909857   -0.010338652455193019
-0.07936743789426164   -0.01583005739909857   -0.010338652455193019
-0.07936743789426164   -0.01583005739909857   -0.010338652455193019
-0.07936743789426164   -0.01583005739909857   -0.010338652455193019
0.04811602038537317   0.022926532441392523   0.011021206746765483
0.04811602038537317   0.022926532441392523   0.011021206746765483
0.04811602038537317   0.022926532441392523   0.011021206746765483
0.04811602038537317   0.022926532441392523   0.011021206746765483
-0.012657714621070314   0.007483403962994009   0.0019696326182383345
-0.012657714621070314   0.007483403962994009   0.0019696326182383345
-0.012657714621070314   0.007483403962994009   0.0019696326182383345
-0.012657714621070314   0.007483403962994009   0.0019696326182383345
0.04245194918540149   0.00977252262127454   -0.004145139432975238
0.04245194918540149   0.00977252262127454   -0.004145139432975238
0.04245194918540149   0.00977252262127454   -0.004145139432975238
0.04245194918540149   0.00977252262127454   -0.004145139432975238
-0.07401893732329196   -0.0029916182079852   0.0035654112085420006
-0.07401893732329196   -0.0029916182079852   0.0035654112085420006
-0.07401893732329196   -0.0029916182079852   0.0035654112085420006
-0.07401893732329196   -0.0029916182079852   0.0035654112085420006
-0.08561001248844011   -0.022799047569511503   -0.008128337876157387
-0.08561001248844011   -0.022799047569511503   -0.008128337876157387
-0.08561001248844011   -0.022799047569511503   -0.008128337876157387
-0.08561001248844011   -0.022799047569511503   -0.008128337876157387
0.03992675312293665   0.015074764402424846   0.012023606111606557
0.03992675312293665   0.015074764402424846   0.012023606111606557
0.03992675312293665   0.015074764402424846   0.012023606111606557
0.03992675312293665   0.015074764402424846   0.012023606111606557
-0.02039292436580696   -7.537561622524003e-05   -0.0016571923787550345
-0.02039292436580696   -7.537561622524003e-05   -0.0016571923787550345
-0.02039292436580696   -7.537561622524003e-05   -0.0016571923787550345
-0.02039292436580696   -7.537561622524003e-05   -0.0016571923787550345
0.03442634357880988   0.0022942964815436733   -0.002697973688146834
0.03442634357880988   0.0022942964815436733   -0.002697973688146834
0.03442634357880988   0.0022942964815436733   -0.002697973688146834
0.03442634357880988   0.0022942964815436733   -0.002697973688146834
-0.08051873691031827   -0.01042771361463267   0.004956706059573895
-0.08051873691031827   -0.01042771361463267   0.004956706059573895
-0.08051873691031827   -0.01042771361463267   0.004956706059573895
-0.08051873691031827   -0.01042771361463267   0.004956706059573895
-0.09180216758511689   -0.02966291477998038   -0.006132385394859246
-0.09180216758511689   -0.02966291477998038   -0.006132385394859246
-0.09180216758511689   -0.02966291477998038   -0.006132385394859246
-0.09180216758511689   -0.02966291477998038   -0.006132385394859246
0.03275556635976949   0.007416582081760588   0.013434339903549105
0.03275556635976949   0.007416582081760588   0.013434339903549105
0.03275556635976949   0.007416582081760588   0.013434339903549105
0.03275556635976949   0.007416582081760588   0.013434339903549105
-0.027045334879875756   -0.006785738000479291   -0.005066188097229978
-0.027045334879875756   -0.006785738000479291   -0.005066188097229978
-0.027045334879875756   -0.006785738000479291   -0.005066188097229978
-0.027045334879875756   -0.006785738000479291   -0.005066188097229978
-0.06383338703324297   0.024910097035109133   0.0009161886038522565
-0.06383338703324297   0.024910097035109133   0.0009161886038522565
-0.06383338703324297   0.024910097035109133   0.0009161886038522565
-0.06383338703324297   0.024910097035109133   0.0009161886038522565
-0.18454925668875063   -0.002466002377034933   -0.005137716768045463
-0.18454925668875063   -0.002466002377034933   -0.005137716768045463
-0.18454925668875063   -0.002466002377034933   -0.005137716768045463
-0.18454925668875063   -0.002466002377034933   -0.005137716768045463
-0.1901898711491392   -0.008008173640814291   -0.003101492121559973
-0.1901898711491392   -0.008008173640814291   -0.003101492121559973
-0.1901898711491392   -0.008008173640814291   -0.003101492121559973
-0.1901898711491392   -0.008008173640814291   -0.003101492121559973
-0.07040889743592156   0.015111680974494973   0.003512311462912837
-0.07040889743592156   0.015111680974494973   0.003512311462912837
-0.07040889743592156   0.015111680974494973   0.003512311462912837
-0.07040889743592156   0.015111680974494973   0.003512311462912837
-0.12693628150846906   0.007217447174008195   0.0020222008169063204
-0.12693628150846906   0.007217447174008195   0.0020222008169063204
-0.12693628150846906   0.007217447174008195   0.0020222008169063204
-0.12693628150846906   0.007217447174008195   0.0020222008169063204
-0.07009200292912633   0.017227826184814395   0.0029806387865705473
-0.07009200292912633   0.017227826184814395   0.0029806387865705473
-0.07009200292912633   0.017227826184814395   0.0029806387865705473
-0.07009200292912633   0.017227826184814395   0.0029806387865705473
-0.19078490971022177   -0.010402462905418623   -0.0036823956623702834
-0.19078490971022177   -0.010402462905418623   -0.0036823956623702834
-0.19078490971022177   -0.010402462905418623   -0.0036823956623702834
-0.19078490971022177   -0.010402462905418623   -0.0036823956623702834
-0.19640893306820711   -0.015616411702818137   -0.0011056385304995522
-0.19640893306820711   -0.015616411702818137   -0.0011056385304995522
-0.19640893306820711   -0.015616411702818137   -0.0011056385304995522
-0.19640893306820711   -0.015616411702818137   -0.0011056385304995522
-0.07699529724976174   0.00714810656906496   0.004998084178657979
-0.07699529724976174   0.00714810656906496   0.004998084178657979
-0.07699529724976174   0.00714810656906496   0.004998084178657979
-0.07699529724976174   0.00714810656906496   0.004998084178657979
-0.13342061140590894   -1.9029154582204943e-05   -0.0012226197260187576
-0.13342061140590894   -1.9029154582204943e-05   -0.0012226197260187576
-0.13342061140590894   -1.9029154582204943e-05   -0.0012226197260187576
-0.13342061140590894   -1.9029154582204943e-05   -0.0012226197260187576
-0.07656972441726183   0.0095228072629296   0.004751247647293858
-0.07656972441726183   0.0095228072629296   0.004751247647293858
-0.07656972441726183   0.0095228072629296   0.004751247647293858
-0.07656972441726183   0.0095228072629296   0.004751247647293858
-0.19722917438622675   -0.018385780882202683   -0.002437475941215206
-0.19722917438622675   -0.018385780882202683   -0.002437475941215206
-0.19722917438622675   -0.018385780882202683   -0.002437475941215206
-0.19722917438622675   -0.018385780882202683   -0.002437475941215206
-0.20250213155058946   -0.022952695051037243   0.0008332526437877684
-0.20250213155058946   -0.022952695051037243   0.0008332526437877684
-0.20250213155058946   -0.022952695051037243   0.0008332526437877684
-0.20250213155058946   -0.022952695051037243   0.0008332526437877684
-0.08347688461257977   -0.0005162537951692407   0.006347368483014185
-0.08347688461257977   -0.0005162537951692407   0.006347368483014185
-0.08347688461257977   -0.0005162537951692407   0.006347368483014185
-0.08347688461257977   -0.0005162537951692407   0.006347368483014185
-0.14024881117619187   -0.007269203361294666   -0.004748697795353811
-0.14024881117619187   -0.007269203361294666   -0.004748697795353811
-0.14024881117619187   -0.007269203361294666   -0.004748697795353811
-0.14024881117619187   -0.007269203361294666   -0.004748697795353811
-0.17527789902808805   0.031058776772849725   0.007694292385382873
-0.17527789902808805   0.031058776772849725   0.007694292385382873
-0.17527789902808805   0.031058776772849725   0.007694292385382873
-0.17527789902808805   0.031058776772849725   0.007694292385382873
-0.29937407914208725   -0.0092275863846654   -0.011620092573561737
-0.29937407914208725   -0.0092275863846654   -0.011620092573561737
-0.29937407914208725   -0.0092275863846654   -0.011620092573561737
-0.29937407914208725   -0.0092275863846654   -0.011620092573561737
-0.29992307471364155   -0.00115491666383305   0.004549814481073229
-0.29992307471364155   -0.00115491666383305   0.004549814481073229
-0.29992307471364155   -0.00115491666383305   0.004549814481073229
-0.29992307471364155   -0.00115491666383305   0.004549814481073229
-0.18712671514895002   0.007805101852705235   -0.003598987614137305
-0.18712671514895002   0.007805101852705235   -0.003598987614137305
-0.18712671514895002   0.007805101852705235   -0.003598987614137305
-0.18712671514895002   0.007805101852705235   -0.003598987614137305
-0.2391682799124623   0.007094012599283939   0.0026264033996345713
-0.2391682799124623   0.007094012599283939   0.0026264033996345713
-0.2391682799124623   0.007094012599283939   0.0026264033996345713
-0.2391682799124623   0.007094012599283939   0.0026264033996345713
-0.18129238505007542   0.023614009432712087   0.009763755300232733
-0.18129238505007542   0.023614009432712087   0.009763755300232733
-0.18129238505007542   0.023614009432712087   0.009763755300232733
-0.18129238505007542   0.023614009432712087   0.009763755300232733
-0.30628814428188367   -0.017494563713206776   -0.010935886310763667
-0.30628814428188367   -0.017494563713206776   -0.010935886310763667
-0.30628814428188367   -0.017494563713206776   -0.010935886310763667
-0.30628814428188367   -0.017494563713206776   -0.010935886310763667
-0.30758664536758296   -0.008663523448077547   0.005619728043410233
-0.30758664536758296   -0.008663523448077547   0.005619728043410233
-0.30758664536758296   -0.008663523448077547   0.005619728043410233
-0.30758664536758296   -0.008663523448077547   0.005619728043410233
-0.1933784525560007   0.00045913664846230356   -0.0020287843207498855
-0.1933784525560007   0.00045913664846230356   -0.0020287843207498855
-0.1933784525560007   0.00045913664846230356   -0.0020287843207498855
-0.1933784525560007   0.00045913664846230356   -0.0020287843207498855
-0.24464802473664854   0.0003673808424264069   -0.000770202961434218
-0.24464802473664854   0.0003673808424264069   -0.000770202961434218
-0.24464802473664854   0.0003673808424264069   -0.000770202961434218
-0.24464802473664854   0.0003673808424264069   -0.000770202961434218
-0.18739000391814004   0.01660531528044376   0.01176728023657385
-0.18739000391814004   0.01660531528044376   0.01176728023657385
-0.18739000391814004   0.01660531528044376   0.01176728023657385
-0.18739000391814004   0.01660531528044376   0.01176728023657385
-0.3139070068489508   -0.025141614923567125   -0.009503987887946952
-0.3139070068489508   -0.025141614923567125   -0.009503987887946952
-0.3139070068489508   -0.025141614923567125   -0.009503987887946952
-0.3139070068489508   -0.025141614923567125   -0.009503987887946952
-0.3141903737857123   -0.016517028117840622   0.007707765787630326
-0.3141903737857123   -0.016517028117840622   0.007707765787630326
-0.3141903737857123   -0.016517028117840622   0.007707765787630326
-0.3141903737857123   -0.016517028117840622   0.007707765787630326
-0.19971236644796808   -0.007428048930852915   -0.0007425679632936111
-0.19971236644796808   -0.007428048930852915   -0.0007425679632936111
-0.19971236644796808   -0.007428048930852915   -0.0007425679632936111
-0.19971236644796808   -0.007428048930852915   -0.0007425679632936111
-0.25288970639691793   -0.007014010974120938   -0.0044922607751127705
-0.25288970639691793   -0.007014010974120938   -0.0044922607751127705
-0.25288970639691793   -0.007014010974120938   -0.0044922607751127705
-0.25288970639691793   -0.007014010974120938   -0.0044922607751127705
-0.2863588162014864   0.030612488523761708   0.013616147221023216
-0.2863588162014864   0.030612488523761708   0.013616147221023216
-0.2863588162014864   0.030612488523761708   0.013616147221023216
-0.2863588162014864   0.030612488523761708   0.013616147221023216
-0.4044509620413928   -0.018769700231371048   -0.017416863404550346
-0.4044509620413928   -0.018769700231371048   -0.017416863404550346
-0.4044509620413928   -0.018769700231371048   -0.017416863404550346
-0.4044509620413928   -0.018769700231371048   -0.017416863404550346
-0.4073263250257603   0.0045010108064609256   0.014303523495227056
-0.4073263250257603   0.0045010108064609256   0.014303523495227056
-0.4073263250257603   0.0045010108064609256   0.014303523495227056
-0.4073263250257603   0.0045010108064609256   0.014303523495227056
-0.3028499224113319   -0.0006413306006147063   -0.010598010070600527
-0.3028499224113319   -0.0006413306006147063   -0.010598010070600527
-0.3028499224113319   -0.0006413306006147063   -0.010598010070600527
-0.3028499224113319   -0.0006413306006147063   -0.010598010070600527
-0.335136734809371   0.0071815435443036285   0.008236775835438952
-0.335136734809371   0.0071815435443036285   0.008236775835438952
-0.335136734809371   0.0071815435443036285   0.008236775835438952
-0.335136734809371   0.0071815435443036285   0.008236775835438952
-0.2917869122747905   0.02796944221658991   0.016106267794902127
-0.2917869122747905   0.02796944221658991   0.016106267794902127
-0.2917869122747905   0.02796944221658991   0.016106267794902127
-0.2917869122747905   0.02796944221658991   0.016106267794902127
-0.41895694494793406   -0.024677371796376038   -0.01467119351280494
-0.41895694494793406   -0.024677371796376038   -0.01467119351280494
-0.41895694494793406   -0.024677371796376038   -0.01467119351280494
-0.41895694494793406   -0.024677371796376038   -0.01467119351280494
-0.41929256602690806   0.000265174369193516   0.018245899785814083
-0.41929256602690806   0.000265174369193516   0.018245899785814083
-0.41929256602690806   0.000265174369193516   0.018245899785814083
-0.41929256602690806   0.000265174369193516   0.018245899785814083
-0.3097409186414284   -0.004739694444892334   -0.00907546732900981
-0.3097409186414284   -0.004739694444892334   -0.00907546732900981
-0.3097409186414284   -0.004739694444892334   -0.00907546732900981
-0.3097409186414284   -0.004739694444892334   -0.00907546732900981
-0.3505577138584354   0.0021905459070030026   0.003132682884027644
-0.3505577138584354   0.0021905459070030026   0.003132682884027644
-0.3505577138584354   0.0021905459070030026   0.003132682884027644
-0.3505577138584354   0.0021905459070030026   0.003132682884027644
-0.2982188309335663   0.024658163986487125   0.019137112778925075
-0.2982188309335663   0.024658163986487125   0.019137112778925075
-0.2982188309335663   0.024658163986487125   0.019137112778925075
-0.2982188309335663   0.024658163986487125   0.019137112778925075
-0.43134648061162106   -0.029664510939033648   -0.012093987829523735
-0.43134648061162106   -0.029664510939033648   -0.012093987829523735
-0.43134648061162106   -0.029664510939033648   -0.012093987829523735
-0.43134648061162106   -0.029664510939033648   -0.012093987829523735
-0.43581450132296135   -0.011849925454376978   0.01880074782162741
-0.43581450132296135   -0.011849925454376978   0.01880074782162741
-0.43581450132296135   -0.011849925454376978   0.01880074782162741
-0.43581450132296135   -0.011849925454376978   0.01880074782162741
-0.3168609156629684   -0.0142462708753847   -0.007915700841114003
-0.3168609156629684   -0.0142462708753847   -0.007915700841114003
-0.3168609156629684   -0.0142462708753847   -0.007915700841114003
-0.3168609156629684   -0.0142462708753847   -0.007915700841114003
-0.3553957315620755   -0.0031573814862363853   0.00013820548632011848
-0.3553957315620755   -0.0031573814862363853   0.00013820548632011848
-0.3553957315620755   -0.0031573814862363853   0.00013820548632011848
-0.3553957315620755   -0.0031573814862363853   0.00013820548632011848
0.03697616805458771   0.0030257398105214394   -0.020090735670764286
0.03697616805458771   0.0030257398105214394   -0.020090735670764286
0.03697616805458771   0.0030257398105214394   -0.020090735670764286
0.03697616805458771   0.0030257398105214394   -0.020090735670764286
-0.02929220044126688   0.01492377309128979   0.010189807746017882
-0.02929220044126688   0.01492377309128979   0.010189807746017882
-0.02929220044126688   0.01492377309128979   0.010189807746017882
-0.02929220044126688   0.01492377309128979   0.010189807746017882
-0.04567412543324472   -0.01951868245123339   -0.016225865395483277
-0.04567412543324472   -0.01951868245123339   -0.016225865395483277
-0.04567412543324472   -0.01951868245123339   -0.016225865395483277
-0.04567412543324472   -0.01951868245123339   -0.016225865395483277
0.03449512485769589   0.021798813224625742   0.012464161071981733
0.03449512485769589   0.021798813224625742   0.012464161071981733
0.03449512485769589   0.021798813224625742   0.012464161071981733
0.03449512485769589   0.021798813224625742   0.012464161071981733
-0.0018009643962588326   0.0047927391281946865   0.0017120253233774492
-0.0018009643962588326   0.0047927391281946865   0.0017120253233774492
-0.0018009643962588326   0.0047927391281946865   0.0017120253233774492
-0.0018009643962588326   0.0047927391281946865   0.0017120253233774492
0.022802626354248796   -0.006181718882303024   -0.018017799338324963
0.022802626354248796   -0.006181718882303024   -0.018017799338324963
0.022802626354248796   -0.006181718882303024   -0.018017799338324963
0.022802626354248796   -0.006181718882303024   -0.018017799338324963
-0.03466061979458789   0.007782856790905108   0.011540123555662347
-0.03466061979458789   0.007782856790905108   0.011540123555662347
-0.03466061979458789   0.007782856790905108   0.011540123555662347
-0.03466061979458789   0.007782856790905108   0.011540123555662347
-0.051100326595309255   -0.023004174954299437   -0.01379759770338748
-0.051100326595309255   -0.023004174954299437   -0.01379759770338748
-0.051100326595309255   -0.023004174954299437   -0.01379759770338748
-0.051100326595309255   -0.023004174954299437   -0.01379759770338748
0.023392466723658863   0.017084159201101505   0.01714858884476063
0.023392466723658863   0.017084159201101505   0.01714858884476063
0.023392466723658863   0.017084159201101505   0.01714858884476063
0.023392466723658863   0.017084159201101505   0.01714858884476063
-0.010465952404573238   -0.00043642938553358325   -0.002288993137653557
-0.010465952404573238   -0.00043642938553358325   -0.002288993137653557
-0.010465952404573238   -0.00043642938553358325   -0.002288993137653557
-0.010465952404573238   -0.00043642938553358325   -0.002288993137653557
0.011415142400859446   -0.010726946940012819   -0.014926926628123092
0.011415142400859446   -0.010726946940012819   -0.014926926628123092
0.011415142400859446   -0.010726946940012819   -0.014926926628123092
0.011415142400859446   -0.010726946940012819   -0.014926926628123092
-0.04007082501490365   0.003859108444420836   0.0144866267999198
-0.04007082501490365   0.003859108444420836   0.0144866267999198
-0.04007082501490365   0.003859108444420836   0.0144866267999198
-0.04007082501490365   0.003859108444420836   0.0144866267999198
-0.05606689138101805   -0.02826158027809892   -0.011465784116580304
-0.05606689138101805   -0.02826158027809892   -0.011465784116580304
-0.05606689138101805   -0.02826158027809892   -0.011465784116580304
-0.05606689138101805   -0.02826158027809892   -0.011465784116580304
0.007970223684531867   0.007268783744018184   0.01960101695511785
0.007970223684531867   0.007268783744018184   0.01960101695511785
0.007970223684531867   0.007268783744018184   0.01960101695511785
0.007970223684531867   0.007268783744018184   0.01960101695511785
-0.01998831960324054   -0.005658965416536986   -0.006944054719897111
-0.01998831960324054   -0.005658965416536986   -0.006944054719897111
-0.01998831960324054   -0.005658965416536986   -0.006944054719897111
-0.01998831960324054   -0.005658965416536986   -0.006944054719897111
-0.03381446720325844   0.010377036905491037   -0.007874789878141136
-0.03381446720325844   0.010377036905491037   -0.007874789878141136
-0.03381446720325844   0.010377036905491037   -0.007874789878141136
-0.03381446720325844   0.010377036905491037   -0.007874789878141136
-0.0954002247069632   0.004034309256072753   0.0026120738446813885
-0.0954002247069632   0.004034309256072753   0.0026120738446813885
-0.0954002247069632   0.004034309256072753   0.0026120738446813885
-0.0954002247069632   0.004034309256072753   0.0026120738446813885
-0.10390638253280167   -0.011379264418615672   -0.008485374635085313
-0.10390638253280167   -0.011379264418615672   -0.008485374635085313
-0.10390638253280167   -0.011379264418615672   -0.008485374635085313
-0.10390638253280167   -0.011379264418615672   -0.008485374635085313
-0.03485876928971316   0.010200411260725378   0.008131821610215743
-0.03485876928971316   0.010200411260725378   0.008131821610215743
-0.03485876928971316   0.010200411260725378   0.008131821610215743
-0.03485876928971316   0.010200411260725378   0.008131821610215743
-0.0668786021890682   0.003100155832272286   0.0016889422027109354
-0.0668786021890682   0.003100155832272286   0.0016889422027109354
-0.0668786021890682   0.003100155832272286   0.0016889422027109354
-0.0668786021890682   0.003100155832272286   0.0016889422027109354
-0.03943846495391932   0.0019151207784666013   -0.006481366228556286
-0.03943846495391932   0.0019151207784666013   -0.006481366228556286
-0.03943846495391932   0.0019151207784666013   -0.006481366228556286
-0.03943846495391932   0.0019151207784666013   -0.006481366228556286
-0.09989259582774619   -0.003659882895507737   0.003864177367083199
-0.09989259582774619   -0.003659882895507737   0.003864177367083199
-0.09989259582774619   -0.003659882895507737   0.003864177367083199
-0.09989259582774619   -0.003659882895507737   0.003864177367083199
-0.10814357645363111   -0.01820443888582895   -0.006302080753094676
-0.10814357645363111   -0.01820443888582895   -0.006302080753094676
-0.10814357645363111   -0.01820443888582895   -0.006302080753094676
-0.10814357645363111   -0.01820443888582895   -0.006302080753094676
-0.041375296741441234   0.0026522998362850433   0.009171076775367666
-0.041375296741441234   0.0026522998362850433   0.009171076775367666
-0.041375296741441234   0.0026522998362850433   0.009171076775367666
-0.041375296741441234   0.0026522998362850433   0.009171076775367666
-0.07222830514431006   -0.003781356241704682   -0.0017759369296044343
-0.07222830514431006   -0.003781356241704682   -0.0017759369296044343
-0.07222830514431006   -0.003781356241704682   -0.0017759369296044343
-0.07222830514431006   -0.003781356241704682   -0.0017759369296044343
-0.045798690412312534   -0.005444803229569915   -0.0048487885131334
-0.045798690412312534   -0.005444803229569915   -0.0048487885131334
-0.045798690412312534   -0.005444803229569915   -0.0048487885131334
-0.045798690412312534   -0.005444803229569915   -0.0048487885131334
-0.10432950469313186   -0.010716657730343419   0.005280496893915997
-0.10432950469313186   -0.010716657730343419   0.005280496893915997
-0.10432950469313186   -0.010716657730343419   0.005280496893915997
-0.10432950469313186   -0.010716657730343419   0.005280496893915997
-0.11240862804869298   -0.025177365280913154   -0.0043712025013571435
-0.11240862804869298   -0.025177365280913154   -0.0043712025013571435
-0.11240862804869298   -0.025177365280913154   -0.0043712025013571435
-0.11240862804869298   -0.025177365280913154   -0.0043712025013571435
-0.04683318837763154   -0.0049343181801974525   0.011375468802450564
-0.04683318837763154   -0.0049343181801974525   0.011375468802450564
-0.04683318837763154   -0.0049343181801974525   0.011375468802450564
-0.04683318837763154   -0.0049343181801974525   0.011375468802450564
-0.07753667550899472   -0.010525981043251385   -0.005283315401521745
-0.07753667550899472   -0.010525981043251385   -0.005283315401521745
-0.07753667550899472   -0.010525981043251385   -0.005283315401521745
-0.07753667550899472   -0.010525981043251385   -0.005283315401521745
-0.09357634951081448   0.016591061857050456   -0.00082530277555465
-0.09357634951081448   0.016591061857050456   -0.00082530277555465
-0.09357634951081448   0.016591061857050456   -0.00082530277555465
-0.09357634951081448   0.016591061857050456   -0.00082530277555465
-0.16069071393277157   -0.0056280226726384865   -0.004615347976352122
-0.16069071393277157   -0.0056280226726384865   -0.004615347976352122
-0.16069071393277157   -0.0056280226726384865   -0.004615347976352122
-0.16069071393277157   -0.0056280226726384865   -0.004615347976352122
-0.16242620411732125   -0.004206483135453083   -0.0010612024054431225
-0.16242620411732125   -0.004206483135453083   -0.0010612024054431225
-0.16242620411732125   -0.004206483135453083   -0.0010612024054431225
-0.16242620411732125   -0.004206483135453083   -0.0010612024054431225
-0.09941781261386892   0.001313763440730132   0.0012644471002317224
-0.09941781261386892   0.001313763440730132   0.0012644471002317224
-0.09941781261386892   0.001313763440730132   0.0012644471002317224
-0.09941781261386892   0.001313763440730132   0.0012644471002317224
-0.12874993515117847   0.0018789647820724835   0.0006423138780908156
-0.12874993515117847   0.0018789647820724835   0.0006423138780908156
-0.12874993515117847   0.0018789647820724835   0.0006423138780908156
-0.12874993515117847   0.0018789647820724835   0.0006423138780908156
-0.09785424955676332   0.009166127852537582   0.0012298979739522858
-0.09785424955676332   0.009166127852537582   0.0012298979739522858
-0.09785424955676332   0.009166127852537582   0.0012298979739522858
-0.09785424955676332   0.009166127852537582   0.0012298979739522858
-0.1645371370114174   -0.012606217384251092   -0.003216132627125912
-0.1645371370114174   -0.012606217384251092   -0.003216132627125912
-0.1645371370114174   -0.012606217384251092   -0.003216132627125912
-0.1645371370114174   -0.012606217384251092   -0.003216132627125912
-0.16640634183210984   -0.011540580296113635   0.0009656944351130996
-0.16640634183210984   -0.011540580296113635   0.0009656944351130996
-0.16640634183210984   -0.011540580296113635   0.0009656944351130996
-0.16640634183210984   -0.011540580296113635   0.0009656944351130996
-0.10390015072139895   -0.005903361621014177   0.002613970643251361
-0.10390015072139895   -0.005903361621014177   0.002613970643251361
-0.10390015072139895   -0.005903361621014177   0.002613970643251361
-0.10390015072139895   -0.005903361621014177   0.002613970643251361
-0.13305441512971192   -0.004791801461667265   -0.0025380010729468203
-0.13305441512971192   -0.004791801461667265   -0.0025380010729468203
-0.13305441512971192   -0.004791801461667265   -0.0025380010729468203
-0.13305441512971192   -0.004791801461667265   -0.0025380010729468203
-0.10229876243209328   0.0016927556588501279   0.003024794809915356
-0.10229876243209328   0.0016927556588501279   0.003024794809915356
-0.10229876243209328   0.0016927556588501279   0.003024794809915356
-0.10229876243209328   0.0016927556588501279   0.003024794809915356
-0.16866866799319996   -0.019797635447762713   -0.0020888812186903036
-0.16866866799319996   -0.019797635447762713   -0.0020888812186903036
-0.16866866799319996   -0.019797635447762713   -0.0020888812186903036
-0.16866866799319996   -0.019797635447762713   -0.0020888812186903036
-0.17027940162485872   -0.018562816600761596   0.002917071467346717
-0.17027940162485872   -0.018562816600761596   0.002917071467346717
-0.17027940162485872   -0.018562816600761596   0.002917071467346717
-0.17027940162485872   -0.018562816600761596   0.002917071467346717
-0.10821653019317501   -0.012695418203880385   0.0041073396991999755
-0.10821653019317501   -0.012695418203880385   0.0041073396991999755
-0.10821653019317501   -0.012695418203880385   0.0041073396991999755
-0.10821653019317501   -0.012695418203880385   0.0041073396991999755
-0.13768611929426047   -0.011497112986192437   -0.005995092379974348
-0.13768611929426047   -0.011497112986192437   -0.005995092379974348
-0.13768611929426047   -0.011497112986192437   -0.005995092379974348
-0.13768611929426047   -0.011497112986192437   -0.005995092379974348
-0.1525921045023109   0.023752301965554307   0.006497374537760428
-0.1525921045023109   0.023752301965554307   0.006497374537760428
-0.1525921045023109   0.023752301965554307   0.006497374537760428
-0.1525921045023109   0.023752301965554307   0.006497374537760428
-0.2236282797989552   -0.0094785535221929   -0.010305030562930924
-0.2236282797989552   -0.0094785535221929   -0.010305030562930924
-0.2236282797989552   -0.0094785535221929   -0.010305030562930924
-0.2236282797989552   -0.0094785535221929   -0.010305030562930924
-0.22073974952955094   0.0031174485672794267   0.006575780339334588
-0.22073974952955094   0.0031174485672794267   0.006575780339334588
-0.22073974952955094   0.0031174485672794267   0.006575780339334588
-0.22073974952955094   0.0031174485672794267   0.006575780339334588
-0.16287663900375252   -0.002994109597526641   -0.004525750375525897
-0.16287663900375252   -0.002994109597526641   -0.004525750375525897
-0.16287663900375252   -0.002994109597526641   -0.004525750375525897
-0.16287663900375252   -0.002994109597526641   -0.004525750375525897
-0.1892658725573326   0.0036120801189662988   0.000990257072449369
-0.1892658725573326   0.0036120801189662988   0.000990257072449369
-0.1892658725573326   0.0036120801189662988   0.000990257072449369
-0.1892658725573326   0.0036120801189662988   0.000990257072449369
-0.1563848185473585   0.016384272631359532   0.008554969677558004
-0.1563848185473585   0.016384272631359532   0.008554969677558004
-0.1563848185473585   0.016384272631359532   0.008554969677558004
-0.1563848185473585   0.016384272631359532   0.008554969677558004
-0.22803194159959908   -0.017061305275264685   -0.009706426168369565
-0.22803194159959908   -0.017061305275264685   -0.009706426168369565
-0.22803194159959908   -0.017061305275264685   -0.009706426168369565
-0.22803194159959908   -0.017061305275264685   -0.009706426168369565
-0.22606045524503032   -0.004114368934733305   0.007785690452301699
-0.22606045524503032   -0.004114368934733305   0.007785690452301699
-0.22606045524503032   -0.004114368934733305   0.007785690452301699
-0.22606045524503032   -0.004114368934733305   0.007785690452301699
-0.16682106172613106   -0.009580676031573462   -0.0030678092995332137
-0.16682106172613106   -0.009580676031573462   -0.0030678092995332137
-0.16682106172613106   -0.009580676031573462   -0.0030678092995332137
-0.16682106172613106   -0.009580676031573462   -0.0030678092995332137
-0.19287132053028283   -0.00281113374085961   -0.002456144198684661
-0.19287132053028283   -0.00281113374085961   -0.002456144198684661
-0.19287132053028283   -0.00281113374085961   -0.002456144198684661
-0.19287132053028283   -0.00281113374085961   -0.002456144198684661
-0.1602609331953766   0.009599024041058508   0.010553133281607062
-0.1602609331953766   0.009599024041058508   0.010553133281607062
-0.1602609331953766   0.009599024041058508   0.010553133281607062
-0.1602609331953766   0.009599024041058508   0.010553133281607062
-0.2332526509629407   -0.02392613619452122   -0.008363520877462343
-0.2332526509629407   -0.02392613619452122   -0.008363520877462343
-0.2332526509629407   -0.02392613619452122   -0.008363520877462343
-0.2332526509629407   -0.02392613619452122   -0.008363520877462343
-0.23038158649554866   -0.011424474493976926   0.009944524268651595
-0.23038158649554866   -0.011424474493976926   0.009944524268651595
-0.23038158649554866   -0.011424474493976926   0.009944524268651595
-0.23038158649554866   -0.011424474493976926   0.009944524268651595
-0.17078458863815996   -0.016349284951494257   -0.00182239524842856
-0.17078458863815996   -0.016349284951494257   -0.00182239524842856
-0.17078458863815996   -0.016349284951494257   -0.00182239524842856
-0.17078458863815996   -0.016349284951494257   -0.00182239524842856
-0.19833031406056614   -0.009403161322926686   -0.006004069358035385
-0.19833031406056614   -0.009403161322926686   -0.006004069358035385
-0.19833031406056614   -0.009403161322926686   -0.006004069358035385
-0.19833031406056614   -0.009403161322926686   -0.006004069358035385
-0.21193948514947733   0.025790038050310125   0.01287035111195545
-0.21193948514947733   0.025790038050310125   0.01287035111195545
-0.21193948514947733   0.025790038050310125   0.01287035111195545
-0.21193948514947733   0.025790038050310125   0.01287035111195545
-0.27478129011290026   -0.013901528017669362   -0.017037322717583247
-0.27478129011290026   -0.013901528017669362   -0.017037322717583247
-0.27478129011290026   -0.013901528017669362   -0.017037322717583247
-0.27478129011290026   -0.013901528017669362   -0.017037322717583247
-0.2750604788550657   0.009874161229746298   0.014190005524938262
-0.2750604788550657   0.009874161229746298   0.014190005524938262
-0.2750604788550657   0.009874161229746298   0.014190005524938262
-0.2750604788550657   0.009874161229746298   0.014190005524938262
-0.22624129144164834   -0.007402132055708027   -0.010412348598172673
-0.22624129144164834   -0.007402132055708027   -0.010412348598172673
-0.22624129144164834   -0.007402132055708027   -0.010412348598172673
-0.22624129144164834   -0.007402132055708027   -0.010412348598172673
-0.23694550963621105   0.005962192552842624   0.004735181684288823
-0.23694550963621105   0.005962192552842624   0.004735181684288823
-0.23694550963621105   0.005962192552842624   0.004735181684288823
-0.23694550963621105   0.005962192552842624   0.004735181684288823
-0.21523463057207382   0.022037578766796795   0.015181244927198929
-0.21523463057207382   0.022037578766796795   0.015181244927198929
-0.21523463057207382   0.022037578766796795   0.015181244927198929
-0.21523463057207382   0.022037578766796795   0.015181244927198929
-0.28690441131287203   -0.020402821180989114   -0.014752674353354457
-0.28690441131287203   -0.020402821180989114   -0.014752674353354457
-0.28690441131287203   -0.020402821180989114   -0.014752674353354457
-0.28690441131287203   -0.020402821180989114   -0.014752674353354457
-0.28473137016921773   0.005728320703952551   0.01825505994300395
-0.28473137016921773   0.005728320703952551   0.01825505994300395
-0.28473137016921773   0.005728320703952551   0.01825505994300395
-0.28473137016921773   0.005728320703952551   0.01825505994300395
-0.2308528050428644   -0.011193408058026821   -0.00909701941357511
-0.2308528050428644   -0.011193408058026821   -0.00909701941357511
-0.2308528050428644   -0.011193408058026821   -0.00909701941357511
-0.2308528050428644   -0.011193408058026821   -0.00909701941357511
-0.24852334435541923   0.0009402479390698618   -9.18630411217234e-05
-0.24852334435541923   0.0009402479390698618   -9.18630411217234e-05
-0.24852334435541923   0.0009402479390698618   -9.18630411217234e-05
-0.24852334435541923   0.0009402479390698618   -9.18630411217234e-05
-0.21940265527178449   0.01877926330966495   0.01818105807413272
-0.21940265527178449   0.01877926330966495   0.01818105807413272
-0.21940265527178449   0.01877926330966495   0.01818105807413272
-0.21940265527178449   0.01877926330966495   0.01818105807413272
-0.2970270681296999   -0.025089898853138955   -0.01240521030230785
-0.2970270681296999   -0.025089898853138955   -0.01240521030230785
-0.2970270681296999   -0.025089898853138955   -0.01240521030230785
-0.2970270681296999   -0.025089898853138955   -0.01240521030230785
-0.2989470943093013   -0.005225633450710587   0.019273664928604745
-0.2989470943093013   -0.005225633450710587   0.019273664928604745
-0.2989470943093013   -0.005225633450710587   0.019273664928604745
-0.2989470943093013   -0.005225633450710587   0.019273664928604745
-0.23548800358219163   -0.019155559580113023   -0.007856476078430884
-0.23548800358219163   -0.019155559580113023   -0.007856476078430884
-0.23548800358219163   -0.019155559580113023   -0.007856476078430884
-0.23548800358219163   -0.019155559580113023   -0.007856476078430884
-0.25286635973608734   -0.004067932903644655   -0.003484089026720113
-0.25286635973608734   -0.004067932903644655   -0.003484089026720113
-0.25286635973608734   -0.004067932903644655   -0.003484089026720113
-0.25286635973608734   -0.004067932903644655   -0.003484089026720113
-0.10658993232645797   -0.00687110149677796   -0.02148683330912978
-0.10658993232645797   -0.00687110149677796   -0.02148683330912978
-0.10658993232645797   -0.00687110149677796   -0.02148683330912978
-0.10658993232645797   -0.00687110149677796   -0.02148683330912978
-0.1091437477705706   0.016214419003077428   0.009606897349925304
-0.1091437477705706   0.016214419003077428   0.009606897349925304
-0.1091437477705706   0.016214419003077428   0.009606897349925304
-0.1091437477705706   0.016214419003077428   0.009606897349925304
-0.12342063200194113   -0.015209684373513532   -0.014662570059077631
-0.12342063200194113   -0.015209684373513532   -0.014662570059077631
-0.12342063200194113   -0.015209684373513532   -0.014662570059077631
-0.12342063200194113   -0.015209684373513532   -0.014662570059077631
-0.109055506632671   0.009121455659633768   0.01427481884808542
-0.109055506632671   0.009121455659633768   0.01427481884808542
-0.109055506632671   0.009121455659633768   0.01427481884808542
-0.109055506632671   0.009121455659633768   0.01427481884808542
-0.10640977427521318   0.002886043035971779   0.0098050216966918
-0.10640977427521318   0.002886043035971779   0.0098050216966918
-0.10640977427521318   0.002886043035971779   0.0098050216966918
-0.10640977427521318   0.002886043035971779   0.0098050216966918
-0.120410785121767   -0.015292687144345991   -0.018087430793414027
-0.120410785121767   -0.015292687144345991   -0.018087430793414027
-0.120410785121767   -0.015292687144345991   -0.018087430793414027
-0.120410785121767   -0.015292687144345991   -0.018087430793414027
-0.11343644101403827   0.00783337092927321   0.0122153295776499
-0.11343644101403827   0.00783337092927321   0.0122153295776499
-0.11343644101403827   0.00783337092927321   0.0122153295776499
-0.11343644101403827   0.00783337092927321   0.0122153295776499
-0.12782076063454326   -0.019081145034992704   -0.012464704977508286
-0.12782076063454326   -0.019081145034992704   -0.012464704977508286
-0.12782076063454326   -0.019081145034992704   -0.012464704977508286
-0.12782076063454326   -0.019081145034992704   -0.012464704977508286
-0.12012455484709136   0.0038912241203006327   0.026714623258093664
-0.12012455484709136   0.0038912241203006327   0.026714623258093664
-0.12012455484709136   0.0038912241203006327   0.026714623258093664
-0.12012455484709136   0.0038912241203006327   0.026714623258093664
-0.11650598040687982   -0.0037487861280237136   0.003990857135412081
-0.11650598040687982   -0.0037487861280237136   0.003990857135412081
-0.11650598040687982   -0.0037487861280237136   0.003990857135412081
-0.11650598040687982   -0.0037487861280237136   0.003990857135412081
-0.13318159270396016   -0.02049686569547006   -0.014182476210478173
-0.13318159270396016   -0.02049686569547006   -0.014182476210478173
-0.13318159270396016   -0.02049686569547006   -0.014182476210478173
-0.13318159270396016   -0.02049686569547006   -0.014182476210478173
-0.11806584875067497   0.0020048188077777113   0.015223890599062678
-0.11806584875067497   0.0020048188077777113   0.015223890599062678
-0.11806584875067497   0.0020048188077777113   0.015223890599062678
-0.11806584875067497   0.0020048188077777113   0.015223890599062678
-0.13144464045166107   -0.026506650072403277   -0.00986128799079651
-0.13144464045166107   -0.026506650072403277   -0.00986128799079651
-0.13144464045166107   -0.026506650072403277   -0.00986128799079651
-0.13144464045166107   -0.026506650072403277   -0.00986128799079651
-0.13728043620762698   -0.013395953188849608   0.024970849709875845
-0.13728043620762698   -0.013395953188849608   0.024970849709875845
-0.13728043620762698   -0.013395953188849608   0.024970849709875845
-0.13728043620762698   -0.013395953188849608   0.024970849709875845
-0.12548086126043412   -0.011570723545413983   -0.005312333270177266
-0.12548086126043412   -0.011570723545413983   -0.005312333270177266
-0.12548086126043412   -0.011570723545413983   -0.005312333270177266
-0.12548086126043412   -0.011570723545413983   -0.005312333270177266
-0.11710461431115039   -0.0030213222530670047   -0.010961694096830206
-0.11710461431115039   -0.0030213222530670047   -0.010961694096830206
-0.11710461431115039   -0.0030213222530670047   -0.010961694096830206
-0.11710461431115039   -0.0030213222530670047   -0.010961694096830206
-0.12141697190397856   -0.01502810783938986   -0.0006551815906784028
-0.12141697190397856   -0.01502810783938986   -0.0006551815906784028
-0.12141697190397856   -0.01502810783938986   -0.0006551815906784028
-0.12141697190397856   -0.01502810783938986   -0.0006551815906784028
-0.12249911635362194   -0.010080141397158866   -0.005630594615296686
-0.12249911635362194   -0.010080141397158866   -0.005630594615296686
-0.12249911635362194   -0.010080141397158866   -0.005630594615296686
-0.12249911635362194   -0.010080141397158866   -0.005630594615296686
-0.12144508871543008   -0.01991523613364493   -7.9301866391063e-05
-0.12144508871543008   -0.01991523613364493   -7.9301866391063e-05
-0.12144508871543008   -0.01991523613364493   -7.9301866391063e-05
-0.12144508871543008   -0.01991523613364493   -7.9301866391063e-05
-0.1196008330900082   -0.012538362264123377   -0.00025803670237591666
-0.1196008330900082   -0.012538362264123377   -0.00025803670237591666
-0.1196008330900082   -0.012538362264123377   -0.00025803670237591666
-0.1196008330900082   -0.012538362264123377   -0.00025803670237591666
-0.1214786798635191   -0.010652028270147367   -0.009510465470334385
-0.1214786798635191   -0.010652028270147367   -0.009510465470334385
-0.1214786798635191   -0.010652028270147367   -0.009510465470334385
-0.1214786798635191   -0.010652028270147367   -0.009510465470334385
-0.12324588053370575   -0.02012370458883079   0.0006791476759553006
-0.12324588053370575   -0.02012370458883079   0.0006791476759553006
-0.12324588053370575   -0.02012370458883079   0.0006791476759553006
-0.12324588053370575   -0.02012370458883079   0.0006791476759553006
-0.12472583693905916   -0.016589710847424624   -0.0036884364455627245
-0.12472583693905916   -0.016589710847424624   -0.0036884364455627245
-0.12472583693905916   -0.016589710847424624   -0.0036884364455627245
-0.12472583693905916   -0.016589710847424624   -0.0036884364455627245
-0.12611504998642623   -0.02594185864102796   0.002924561869112074
-0.12611504998642623   -0.02594185864102796   0.002924561869112074
-0.12611504998642623   -0.02594185864102796   0.002924561869112074
-0.12611504998642623   -0.02594185864102796   0.002924561869112074
-0.12256657197742798   -0.01782755932835352   -0.0033136634834168973
-0.12256657197742798   -0.01782755932835352   -0.0033136634834168973
-0.12256657197742798   -0.01782755932835352   -0.0033136634834168973
-0.12256657197742798   -0.01782755932835352   -0.0033136634834168973
-0.1264511801624049   -0.01761390144445383   -0.007084046207355357
-0.1264511801624049   -0.01761390144445383   -0.007084046207355357
-0.1264511801624049   -0.01761390144445383   -0.007084046207355357
-0.1264511801624049   -0.01761390144445383   -0.007084046207355357
-0.12538512653614411   -0.025913087817065233   0.002338492538651251
-0.12538512653614411   -0.025913087817065233   0.002338492538651251
-0.12538512653614411   -0.025913087817065233   0.002338492538651251
-0.12538512653614411   -0.025913087817065233   0.002338492538651251
-0.12674924458560888   -0.02354650738540122   -0.0017694210155909237
-0.12674924458560888   -0.02354650738540122   -0.0017694210155909237
-0.12674924458560888   -0.02354650738540122   -0.0017694210155909237
-0.12674924458560888   -0.02354650738540122   -0.0017694210155909237
-0.1297143294838356   -0.03350801159578989   0.005791628371717034
-0.1297143294838356   -0.03350801159578989   0.005791628371717034
-0.1297143294838356   -0.03350801159578989   0.005791628371717034
-0.1297143294838356   -0.03350801159578989   0.005791628371717034
-0.12655136004202883   -0.02413413167829259   -0.007163691157838507
-0.12655136004202883   -0.02413413167829259   -0.007163691157838507
-0.12655136004202883   -0.02413413167829259   -0.007163691157838507
-0.12655136004202883   -0.02413413167829259   -0.007163691157838507
-0.11800078039661517   0.0034271393760109507   -0.0020294712692613187
-0.11800078039661517   0.0034271393760109507   -0.0020294712692613187
-0.11800078039661517   0.0034271393760109507   -0.0020294712692613187
-0.11800078039661517   0.0034271393760109507   -0.0020294712692613187
-0.13580141688640374   -0.025810665274390295   -0.006569894012118272
-0.13580141688640374   -0.025810665274390295   -0.006569894012118272
-0.13580141688640374   -0.025810665274390295   -0.006569894012118272
-0.13580141688640374   -0.025810665274390295   -0.006569894012118272
-0.1304377575513819   -0.0048239014582584505   0.0015960675428018153
-0.1304377575513819   -0.0048239014582584505   0.0015960675428018153
-0.1304377575513819   -0.0048239014582584505   0.0015960675428018153
-0.1304377575513819   -0.0048239014582584505   0.0015960675428018153
-0.12563580018857082   -0.027417357922901675   -0.003976797264299194
-0.12563580018857082   -0.027417357922901675   -0.003976797264299194
-0.12563580018857082   -0.027417357922901675   -0.003976797264299194
-0.12563580018857082   -0.027417357922901675   -0.003976797264299194
-0.12737829151137303   -0.014095606912606915   -0.0027823705751515606
-0.12737829151137303   -0.014095606912606915   -0.0027823705751515606
-0.12737829151137303   -0.014095606912606915   -0.0027823705751515606
-0.12737829151137303   -0.014095606912606915   -0.0027823705751515606
-0.11997465748592549   -0.0030568194071018025   -3.162226687137594e-05
-0.11997465748592549   -0.0030568194071018025   -3.162226687137594e-05
-0.11997465748592549   -0.0030568194071018025   -3.162226687137594e-05
-0.11997465748592549   -0.0030568194071018025   -3.162226687137594e-05
-0.13681121484308334   -0.02989675456311553   -0.00519836581084826
-0.13681121484308334   -0.02989675456311553   -0.00519836581084826
-0.13681121484308334   -0.02989675456311553   -0.00519836581084826
-0.13681121484308334   -0.02989675456311553   -0.00519836581084826
-0.132086722603003   -0.011358782687191479   0.003523437193968893
-0.132086722603003   -0.011358782687191479   0.003523437193968893
-0.132086722603003   -0.011358782687191479   0.003523437193968893
-0.132086722603003   -0.011358782687191479   0.003523437193968893
-0.12772152653021426   -0.03255446220265296   -0.0027021330461108493
-0.12772152653021426   -0.03255446220265296   -0.0027021330461108493
-0.12772152653021426   -0.03255446220265296   -0.0027021330461108493
-0.12772152653021426   -0.03255446220265296   -0.0027021330461108493
-0.12911180386029814   -0.01905868371964941   -0.005403854666644954
-0.12911180386029814   -0.01905868371964941   -0.005403854666644954
-0.12911180386029814   -0.01905868371964941   -0.005403854666644954
-0.12911180386029814   -0.01905868371964941   -0.005403854666644954
-0.12223256281906122   -0.009712494589830346   0.001900717896832784
-0.12223256281906122   -0.009712494589830346   0.001900717896832784
-0.12223256281906122   -0.009712494589830346   0.001900717896832784
-0.12223256281906122   -0.009712494589830346   0.001900717896832784
-0.1383716207509111   -0.03499668473676805   -0.004263151495997104
-0.1383716207509111   -0.03499668473676805   -0.004263151495997104
-0.1383716207509111   -0.03499668473676805   -0.004263151495997104
-0.1383716207509111   -0.03499668473676805   -0.004263151495997104
-0.13345895075759098   -0.017482137909380427   0.0054161617361080504
-0.13345895075759098   -0.017482137909380427   0.0054161617361080504
-0.13345895075759098   -0.017482137909380427   0.0054161617361080504
-0.13345895075759098   -0.017482137909380427   0.0054161617361080504
-0.12932564469937435   -0.037442446199365556   -0.0007554827704548276
-0.12932564469937435   -0.037442446199365556   -0.0007554827704548276
-0.12932564469937435   -0.037442446199365556   -0.0007554827704548276
-0.12932564469937435   -0.037442446199365556   -0.0007554827704548276
-0.13115515185438056   -0.024241407525793575   -0.008281751012850518
-0.13115515185438056   -0.024241407525793575   -0.008281751012850518
-0.13115515185438056   -0.024241407525793575   -0.008281751012850518
-0.13115515185438056   -0.024241407525793575   -0.008281751012850518
-0.1253735311726372   0.013487646810101443   0.006271222472222782
-0.1253735311726372   0.013487646810101443   0.006271222472222782
-0.1253735311726372   0.013487646810101443   0.006271222472222782
-0.1253735311726372   0.013487646810101443   0.006271222472222782
-0.15018435279646608   -0.019527794219959458   -0.009244801040100621
-0.15018435279646608   -0.019527794219959458   -0.009244801040100621
-0.15018435279646608   -0.019527794219959458   -0.009244801040100621
-0.15018435279646608   -0.019527794219959458   -0.009244801040100621
-0.1423601599499463   0.0037324969902100685   0.008590803509351451
-0.1423601599499463   0.0037324969902100685   0.008590803509351451
-0.1423601599499463   0.0037324969902100685   0.008590803509351451
-0.1423601599499463   0.0037324969902100685   0.008590803509351451
-0.1351550306288853   -0.021279762997697384   -0.005534436305276089
-0.1351550306288853   -0.021279762997697384   -0.005534436305276089
-0.1351550306288853   -0.021279762997697384   -0.005534436305276089
-0.1351550306288853   -0.021279762997697384   -0.005534436305276089
-0.1382232999457814   -0.005760870121172365   -0.0016591919099354525
-0.1382232999457814   -0.005760870121172365   -0.0016591919099354525
-0.1382232999457814   -0.005760870121172365   -0.0016591919099354525
-0.1382232999457814   -0.005760870121172365   -0.0016591919099354525
-0.12679718237300713   0.006768283499175902   0.00820675847724145
-0.12679718237300713   0.006768283499175902   0.00820675847724145
-0.12679718237300713   0.006768283499175902   0.00820675847724145
-0.12679718237300713   0.006768283499175902   0.00820675847724145
-0.15166890638930156   -0.02526644769014031   -0.008953984007074443
-0.15166890638930156   -0.02526644769014031   -0.008953984007074443
-0.15166890638930156   -0.02526644769014031   -0.008953984007074443
-0.15166890638930156   -0.02526644769014031   -0.008953984007074443
-0.14510654116912244   -0.0026729448601139037   0.009756326000755962
-0.14510654116912244   -0.0026729448601139037   0.009756326000755962
-0.14510654116912244   -0.0026729448601139037   0.009756326000755962
-0.14510654116912244   -0.0026729448601139037   0.009756326000755962
-0.13661071579288273   -0.026063663628698545   -0.004391647813924718
-0.13661071579288273   -0.026063663628698545   -0.004391647813924718
-0.13661071579288273   -0.026063663628698545   -0.004391647813924718
-0.13661071579288273   -0.026063663628698545   -0.004391647813924718
-0.13966950335992398   -0.011155163585053994   -0.004738908015799007
-0.13966950335992398   -0.011155163585053994   -0.004738908015799007
-0.13966950335992398   -0.011155163585053994   -0.004738908015799007
-0.13966950335992398   -0.011155163585053994   -0.004738908015799007
-0.12835476010399144   0.0007425329609394848   0.01008193404089189
-0.12835476010399144   0.0007425329609394848   0.01008193404089189
-0.12835476010399144   0.0007425329609394848   0.01008193404089189
-0.12835476010399144   0.0007425329609394848   0.01008193404089189
-0.1541854471224017   -0.030302091714141444   -0.008009056911612609
-0.1541854471224017   -0.030302091714141444   -0.008009056911612609
-0.1541854471224017   -0.030302091714141444   -0.008009056911612609
-0.1541854471224017   -0.030302091714141444   -0.008009056911612609
-0.1469642191897779   -0.008838389030123715   0.011911714910049772
-0.1469642191897779   -0.008838389030123715   0.011911714910049772
-0.1469642191897779   -0.008838389030123715   0.011911714910049772
-0.1469642191897779   -0.008838389030123715   0.011911714910049772
-0.1378896852774694   -0.03087685109892443   -0.003342797673740035
-0.1378896852774694   -0.03087685109892443   -0.003342797673740035
-0.1378896852774694   -0.03087685109892443   -0.003342797673740035
-0.1378896852774694   -0.03087685109892443   -0.003342797673740035
-0.14212691338074293   -0.016271370995409578   -0.007734941977932084
-0.14212691338074293   -0.016271370995409578   -0.007734941977932084
-0.14212691338074293   -0.016271370995409578   -0.007734941977932084
-0.14212691338074293   -0.016271370995409578   -0.007734941977932084
-0.13803911231335925   0.019370911264042563   0.012582695891435357
-0.13803911231335925   0.019370911264042563   0.012582695891435357
-0.13803911231335925   0.019370911264042563   0.012582695891435357
-0.13803911231335925   0.019370911264042563   0.012582695891435357
-0.14994225474068232   -0.012019253006749442   -0.013319215453713585
-0.14994225474068232   -0.012019253006749442   -0.013319215453713585
-0.14994225474068232   -0.012019253006749442   -0.013319215453713585
-0.14994225474068232   -0.012019253006749442   -0.013319215453713585
-0.14686489039862216   0.013355073373221855   0.01399727750345052
-0.14686489039862216   0.013355073373221855   0.01399727750345052
-0.14686489039862216   0.013355073373221855   0.01399727750345052
-0.14686489039862216   0.013355073373221855   0.01399727750345052
-0.14941511439584768   -0.01480506434496692   -0.008146407384978478
-0.14941511439584768   -0.01480506434496692   -0.008146407384978478
-0.14941511439584768   -0.01480506434496692   -0.008146407384978478
-0.14941511439584768   -0.01480506434496692   -0.008146407384978478
-0.1410197452174897   0.0033217273836983335   0.0007376665512656873
-0.1410197452174897   0.0033217273836983335   0.0007376665512656873
-0.1410197452174897   0.0033217273836983335   0.0007376665512656873
-0.1410197452174897   0.0033217273836983335   0.0007376665512656873
-0.13890512806682512   0.015056051934937833   0.014542407980225729
-0.13890512806682512   0.015056051934937833   0.014542407980225729
-0.13890512806682512   0.015056051934937833   0.014542407980225729
-0.13890512806682512   0.015056051934937833   0.014542407980225729
-0.15816131311405612   -0.01729247929309304   -0.011837283407400642
-0.15816131311405612   -0.01729247929309304   -0.011837283407400642
-0.15816131311405612   -0.01729247929309304   -0.011837283407400642
-0.15816131311405612   -0.01729247929309304   -0.011837283407400642
-0.1533258678042653   0.009729273947210924   0.017989453374006897
-0.1533258678042653   0.009729273947210924   0.017989453374006897
-0.1533258678042653   0.009729273947210924   0.017989453374006897
-0.1533258678042653   0.009729273947210924   0.017989453374006897
-0.15153085880011813   -0.017637601719272186   -0.007400605295064136
-0.15153085880011813   -0.017637601719272186   -0.007400605295064136
-0.15153085880011813   -0.017637601719272186   -0.007400605295064136
-0.15153085880011813   -0.017637601719272186   -0.007400605295064136
-0.14800712664178853   -0.0010539849320607073   -0.00295053769228726
-0.14800712664178853   -0.0010539849320607073   -0.00295053769228726
-0.14800712664178853   -0.0010539849320607073   -0.00295053769228726
-0.14800712664178853   -0.0010539849320607073   -0.00295053769228726
-0.14061779894491927   0.012148679580506729   0.017378412681147537
-0.14061779894491927   0.012148679580506729   0.017378412681147537
-0.14061779894491927   0.012148679580506729   0.017378412681147537
-0.14061779894491927   0.012148679580506729   0.017378412681147537
-0.1652494457999764   -0.021067525493082134   -0.010831637164255612
-0.1652494457999764   -0.021067525493082134   -0.010831637164255612
-0.1652494457999764   -0.021067525493082134   -0.010831637164255612
-0.1652494457999764   -0.021067525493082134   -0.010831637164255612
-0.1645206249019911   0.00045002395248656263   0.019204062904358873
-0.1645206249019911   0.00045002395248656263   0.019204062904358873
-0.1645206249019911   0.00045002395248656263   0.019204062904358873
-0.1645206249019911   0.00045002395248656263   0.019204062904358873
-0.1534783819840592   -0.02307521879197043   -0.006422269299509905
-0.1534783819840592   -0.02307521879197043   -0.006422269299509905
-0.1534783819840592   -0.02307521879197043   -0.006422269299509905
-0.1534783819840592   -0.02307521879197043   -0.006422269299509905
-0.15130717486318063   -0.005112393549130619   -0.006241161712902438
-0.15130717486318063   -0.005112393549130619   -0.006241161712902438
-0.15130717486318063   -0.005112393549130619   -0.006241161712902438
-0.15130717486318063   -0.005112393549130619   -0.006241161712902438
-0.2831499964273585   -0.02602279609044013   -0.027572929460866896
-0.2831499964273585   -0.02602279609044013   -0.027572929460866896
-0.2831499964273585   -0.02602279609044013   -0.027572929460866896
-0.2831499964273585   -0.02602279609044013   -0.027572929460866896
-0.1814783118267922   0.014788765530058805   0.0064416596379639045
-0.1814783118267922   0.014788765530058805   0.0064416596379639045
-0.1814783118267922   0.014788765530058805   0.0064416596379639045
-0.1814783118267922   0.014788765530058805   0.0064416596379639045
-0.1907700361890888   -0.012571523800151713   -0.01247554889442416
-0.1907700361890888   -0.012571523800151713   -0.01247554889442416
-0.1907700361890888   -0.012571523800151713   -0.01247554889442416
-0.1907700361890888   -0.012571523800151713   -0.01247554889442416
-0.30199702984749915   -0.035021551394918735   0.030480182261788846
-0.30199702984749915   -0.035021551394918735   0.030480182261788846
-0.30199702984749915   -0.035021551394918735   0.030480182261788846
-0.30199702984749915   -0.035021551394918735   0.030480182261788846
-0.21980785736107908   -0.008704620368048269   0.029777020651096373
-0.21980785736107908   -0.008704620368048269   0.029777020651096373
-0.21980785736107908   -0.008704620368048269   0.029777020651096373
-0.21980785736107908   -0.008704620368048269   0.029777020651096373
-0.3128655948509701   -0.038560303819782885   -0.02032389033069874
-0.3128655948509701   -0.038560303819782885   -0.02032389033069874
-0.3128655948509701   -0.038560303819782885   -0.02032389033069874
-0.3128655948509701   -0.038560303819782885   -0.02032389033069874
-0.1875723242560941   -0.01670362444576329   0.007645111416161023
-0.1875723242560941   -0.01670362444576329   0.007645111416161023
-0.1875723242560941   -0.01670362444576329   0.007645111416161023
-0.1875723242560941   -0.01670362444576329   0.007645111416161023
-0.19403845821744972   -0.0180508654324658   -0.009081921135380124
-0.19403845821744972   -0.0180508654324658   -0.009081921135380124
-0.19403845821744972   -0.0180508654324658   -0.009081921135380124
-0.19403845821744972   -0.0180508654324658   -0.009081921135380124
-0.31209927299903073   -0.04880253453963287   0.00048671606054630093
-0.31209927299903073   -0.04880253453963287   0.00048671606054630093
-0.31209927299903073   -0.04880253453963287   0.00048671606054630093
-0.31209927299903073   -0.04880253453963287   0.00048671606054630093
-0.24405137816570596   -0.02943728675605414   0.006974247685713712
-0.24405137816570596   -0.02943728675605414   0.006974247685713712
-0.24405137816570596   -0.02943728675605414   0.006974247685713712
-0.24405137816570596   -0.02943728675605414   0.006974247685713712
-0.3144625275515513   -0.0436214277671228   -0.016510663474563612
-0.3144625275515513   -0.0436214277671228   -0.016510663474563612
-0.3144625275515513   -0.0436214277671228   -0.016510663474563612
-0.3144625275515513   -0.0436214277671228   -0.016510663474563612
-0.1939651695567459   -0.02552193809679241   -0.0012444051675362263
-0.1939651695567459   -0.02552193809679241   -0.0012444051675362263
-0.1939651695567459   -0.02552193809679241   -0.0012444051675362263
-0.1939651695567459   -0.02552193809679241   -0.0012444051675362263
-0.19448396739195198   -0.031169759110249395   -0.006694648712798079
-0.19448396739195198   -0.031169759110249395   -0.006694648712798079
-0.19448396739195198   -0.031169759110249395   -0.006694648712798079
-0.19448396739195198   -0.031169759110249395   -0.006694648712798079
-0.3201685425460463   -0.07430553176604865   0.00449021083193624
-0.3201685425460463   -0.07430553176604865   0.00449021083193624
-0.3201685425460463   -0.07430553176604865   0.00449021083193624
-0.3201685425460463   -0.07430553176604865   0.00449021083193624
-0.24417361235316387   -0.04038471617225011   0.0006383763597131997
-0.24417361235316387   -0.04038471617225011   0.0006383763597131997
-0.24417361235316387   -0.04038471617225011   0.0006383763597131997
-0.24417361235316387   -0.04038471617225011   0.0006383763597131997
-0.19592180596628453   -0.033329539533003646   -0.01765750599643364
-0.19592180596628453   -0.033329539533003646   -0.01765750599643364
-0.19592180596628453   -0.033329539533003646   -0.01765750599643364
-0.19592180596628453   -0.033329539533003646   -0.01765750599643364
-0.13610303311736136   -0.0896620426331382   -0.016728660888362355
-0.13610303311736136   -0.0896620426331382   -0.016728660888362355
-0.13610303311736136   -0.0896620426331382   -0.016728660888362355
-0.13610303311736136   -0.0896620426331382   -0.016728660888362355
-0.11945023861930953   -0.019741300431577492   -0.0012044734521821018
-0.11945023861930953   -0.019741300431577492   -0.0012044734521821018
-0.11945023861930953   -0.019741300431577492   -0.0012044734521821018
-0.11945023861930953   -0.019741300431577492   -0.0012044734521821018
-0.2088731557997098   -0.09463967373754115   -0.020922997010139607
-0.2088731557997098   -0.09463967373754115   -0.020922997010139607
-0.2088731557997098   -0.09463967373754115   -0.020922997010139607
-0.2088731557997098   -0.09463967373754115   -0.020922997010139607
-0.16320839676778273   -0.06288448984675363   -0.004802263584702501
-0.16320839676778273   -0.06288448984675363   -0.004802263584702501
-0.16320839676778273   -0.06288448984675363   -0.004802263584702501
-0.16320839676778273   -0.06288448984675363   -0.004802263584702501
-0.19592136139538097   -0.03746280836796875   -0.013340890358066966
-0.19592136139538097   -0.03746280836796875   -0.013340890358066966
-0.19592136139538097   -0.03746280836796875   -0.013340890358066966
-0.19592136139538097   -0.03746280836796875   -0.013340890358066966
-0.1331882595301575   -0.07770439230766936   -0.01193148613033294
-0.1331882595301575   -0.07770439230766936   -0.01193148613033294
-0.1331882595301575   -0.07770439230766936   -0.01193148613033294
-0.1331882595301575   -0.07770439230766936   -0.01193148613033294
-0.12110190582802437   -0.02551833903770673   2.9015727316374898e-05
-0.12110190582802437   -0.02551833903770673   2.9015727316374898e-05
-0.12110190582802437   -0.02551833903770673   2.9015727316374898e-05
-0.12110190582802437   -0.02551833903770673   2.9015727316374898e-05
-0.20989832797243124   -0.09412730908733469   -0.012304826255420686
-0.20989832797243124   -0.09412730908733469   -0.012304826255420686
-0.20989832797243124   -0.09412730908733469   -0.012304826255420686
-0.20989832797243124   -0.09412730908733469   -0.012304826255420686
-0.1615950841026275   -0.0589380125511211   -0.005105513304280217
-0.1615950841026275   -0.0589380125511211   -0.005105513304280217
-0.1615950841026275   -0.0589380125511211   -0.005105513304280217
-0.1615950841026275   -0.0589380125511211   -0.005105513304280217
-0.19925424112373474   -0.043164124551805245   -0.010047576547465804
-0.19925424112373474   -0.043164124551805245   -0.010047576547465804
-0.19925424112373474   -0.043164124551805245   -0.010047576547465804
-0.19925424112373474   -0.043164124551805245   -0.010047576547465804
-0.13340190698067722   -0.07813743787719223   -0.008851891196462378
-0.13340190698067722   -0.07813743787719223   -0.008851891196462378
-0.13340190698067722   -0.07813743787719223   -0.008851891196462378
-0.13340190698067722   -0.07813743787719223   -0.008851891196462378
-0.12139022558877735   -0.03264322753418136   0.0017914447847014064
-0.12139022558877735   -0.03264322753418136   0.0017914447847014064
-0.12139022558877735   -0.03264322753418136   0.0017914447847014064
-0.12139022558877735   -0.03264322753418136   0.0017914447847014064
-0.2096821665575663   -0.0954766555856498   -0.01837874806547179
-0.2096821665575663   -0.0954766555856498   -0.01837874806547179
-0.2096821665575663   -0.0954766555856498   -0.01837874806547179
-0.2096821665575663   -0.0954766555856498   -0.01837874806547179
-0.16435624921074035   -0.06332933754891068   -0.00951665707258141
-0.16435624921074035   -0.06332933754891068   -0.00951665707258141
-0.16435624921074035   -0.06332933754891068   -0.00951665707258141
-0.16435624921074035   -0.06332933754891068   -0.00951665707258141
-0.11944503844137054   -0.02153796400938981   -0.001562766132156718
-0.11944503844137054   -0.02153796400938981   -0.001562766132156718
-0.11944503844137054   -0.02153796400938981   -0.001562766132156718
-0.11944503844137054   -0.02153796400938981   -0.001562766132156718
-0.10169395717770369   -0.06891461893126183   -0.011892686288243089
-0.10169395717770369   -0.06891461893126183   -0.011892686288243089
-0.10169395717770369   -0.06891461893126183   -0.011892686288243089
-0.10169395717770369   -0.06891461893126183   -0.011892686288243089
-0.08770902303657145   -0.01811927028864242   0.004586863754997717
-0.08770902303657145   -0.01811927028864242   0.004586863754997717
-0.08770902303657145   -0.01811927028864242   0.004586863754997717
-0.08770902303657145   -0.01811927028864242   0.004586863754997717
-0.13277568442274412   -0.07453518356510341   -0.01303781933583203
-0.13277568442274412   -0.07453518356510341   -0.01303781933583203
-0.13277568442274412   -0.07453518356510341   -0.01303781933583203
-0.13277568442274412   -0.07453518356510341   -0.01303781933583203
-0.10993988347105926   -0.04636362831314121   -0.005459409066369926
-0.10993988347105926   -0.04636362831314121   -0.005459409066369926
-0.10993988347105926   -0.04636362831314121   -0.005459409066369926
-0.10993988347105926   -0.04636362831314121   -0.005459409066369926
-0.12032947475058146   -0.025524270242056987   0.0001823157019348908
-0.12032947475058146   -0.025524270242056987   0.0001823157019348908
-0.12032947475058146   -0.025524270242056987   0.0001823157019348908
-0.12032947475058146   -0.025524270242056987   0.0001823157019348908
-0.10086329923295677   -0.06783825013591117   -0.011465537379658197
-0.10086329923295677   -0.06783825013591117   -0.011465537379658197
-0.10086329923295677   -0.06783825013591117   -0.011465537379658197
-0.10086329923295677   -0.06783825013591117   -0.011465537379658197
-0.08800947790234225   -0.022878499343616413   0.005965632621199858
-0.08800947790234225   -0.022878499343616413   0.005965632621199858
-0.08800947790234225   -0.022878499343616413   0.005965632621199858
-0.08800947790234225   -0.022878499343616413   0.005965632621199858
-0.1334640478073312   -0.0757118899022422   -0.011588143304682273
-0.1334640478073312   -0.0757118899022422   -0.011588143304682273
-0.1334640478073312   -0.0757118899022422   -0.011588143304682273
-0.1334640478073312   -0.0757118899022422   -0.011588143304682273
-0.10997375764385321   -0.04811696161917339   -0.007091370305735173
-0.10997375764385321   -0.04811696161917339   -0.007091370305735173
-0.10997375764385321   -0.04811696161917339   -0.007091370305735173
-0.10997375764385321   -0.04811696161917339   -0.007091370305735173
-0.12163548876163291   -0.030356896362832987   0.0021996583843999704
-0.12163548876163291   -0.030356896362832987   0.0021996583843999704
-0.12163548876163291   -0.030356896362832987   0.0021996583843999704
-0.12163548876163291   -0.030356896362832987   0.0021996583843999704
-0.10023153289179025   -0.06862698882677407   -0.009396152842882517
-0.10023153289179025   -0.06862698882677407   -0.009396152842882517
-0.10023153289179025   -0.06862698882677407   -0.009396152842882517
-0.10023153289179025   -0.06862698882677407   -0.009396152842882517
-0.08727820788098105   -0.027386342371381142   0.0074775995510662895
-0.08727820788098105   -0.027386342371381142   0.0074775995510662895
-0.08727820788098105   -0.027386342371381142   0.0074775995510662895
-0.08727820788098105   -0.027386342371381142   0.0074775995510662895
-0.13219870820200616   -0.07659202662527856   -0.008302169190345463
-0.13219870820200616   -0.07659202662527856   -0.008302169190345463
-0.13219870820200616   -0.07659202662527856   -0.008302169190345463
-0.13219870820200616   -0.07659202662527856   -0.008302169190345463
-0.1099454578017939   -0.05047258948394308   -0.008265128609027526
-0.1099454578017939   -0.05047258948394308   -0.008265128609027526
-0.1099454578017939   -0.05047258948394308   -0.008265128609027526
-0.1099454578017939   -0.05047258948394308   -0.008265128609027526
-0.08444984043550413   -0.002874396534540625   0.008287675026031588
-0.08444984043550413   -0.002874396534540625   0.008287675026031588
-0.08444984043550413   -0.002874396534540625   0.008287675026031588
-0.08444984043550413   -0.002874396534540625   0.008287675026031588
-0.08136361243261418   -0.036787286108784734   -0.0072582784195447635
-0.08136361243261418   -0.036787286108784734   -0.0072582784195447635
-0.08136361243261418   -0.036787286108784734   -0.0072582784195447635
-0.08136361243261418   -0.036787286108784734   -0.0072582784195447635
-0.07041871262955014   -0.0053154530930419365   0.009550795218666024
-0.07041871262955014   -0.0053154530930419365   0.009550795218666024
-0.07041871262955014   -0.0053154530930419365   0.009550795218666024
-0.07041871262955014   -0.0053154530930419365   0.009550795218666024
-0.09444341898773445   -0.042120609521219   -0.005083776768240748
-0.09444341898773445   -0.042120609521219   -0.005083776768240748
-0.09444341898773445   -0.042120609521219   -0.005083776768240748
-0.09444341898773445   -0.042120609521219   -0.005083776768240748
-0.08293264908027483   -0.021548364500578007   -0.0029778115136654387
-0.08293264908027483   -0.021548364500578007   -0.0029778115136654387
-0.08293264908027483   -0.021548364500578007   -0.0029778115136654387
-0.08293264908027483   -0.021548364500578007   -0.0029778115136654387
-0.08472466901662322   -0.008174108917475399   0.00956347248357179
-0.08472466901662322   -0.008174108917475399   0.00956347248357179
-0.08472466901662322   -0.008174108917475399   0.00956347248357179
-0.08472466901662322   -0.008174108917475399   0.00956347248357179
-0.08090690514220233   -0.04003139623832649   -0.008174224199310333
-0.08090690514220233   -0.04003139623832649   -0.008174224199310333
-0.08090690514220233   -0.04003139623832649   -0.008174224199310333
-0.08090690514220233   -0.04003139623832649   -0.008174224199310333
-0.07077705008324654   -0.00996152663078644   0.010285371466007283
-0.07077705008324654   -0.00996152663078644   0.010285371466007283
-0.07077705008324654   -0.00996152663078644   0.010285371466007283
-0.07077705008324654   -0.00996152663078644   0.010285371466007283
-0.09468910614079878   -0.04470663265054735   -0.005604375264153873
-0.09468910614079878   -0.04470663265054735   -0.005604375264153873
-0.09468910614079878   -0.04470663265054735   -0.005604375264153873
-0.09468910614079878   -0.04470663265054735   -0.005604375264153873
-0.08280746345894281   -0.025255046639248165   -0.005079107391906822
-0.08280746345894281   -0.025255046639248165   -0.005079107391906822
-0.08280746345894281   -0.025255046639248165   -0.005079107391906822
-0.08280746345894281   -0.025255046639248165   -0.005079107391906822
-0.08498897209367655   -0.012685877384909599   0.010875539705821499
-0.08498897209367655   -0.012685877384909599   0.010875539705821499
-0.08498897209367655   -0.012685877384909599   0.010875539705821499
-0.08498897209367655   -0.012685877384909599   0.010875539705821499
-0.08094437855236745   -0.0424494763184219   -0.008063321191961813
-0.08094437855236745   -0.0424494763184219   -0.008063321191961813
-0.08094437855236745   -0.0424494763184219   -0.008063321191961813
-0.08094437855236745   -0.0424494763184219   -0.008063321191961813
-0.07045089699901966   -0.014334249601364157   0.011931421535619255
-0.07045089699901966   -0.014334249601364157   0.011931421535619255
-0.07045089699901966   -0.014334249601364157   0.011931421535619255
-0.07045089699901966   -0.014334249601364157   0.011931421535619255
-0.09350660883370207   -0.047270814431674774   -0.0037799331522450916
-0.09350660883370207   -0.047270814431674774   -0.0037799331522450916
-0.09350660883370207   -0.047270814431674774   -0.0037799331522450916
-0.09350660883370207   -0.047270814431674774   -0.0037799331522450916
-0.0828532413898108   -0.028490909874998464   -0.00657638558482776
-0.0828532413898108   -0.028490909874998464   -0.00657638558482776
-0.0828532413898108   -0.028490909874998464   -0.00657638558482776
-0.0828532413898108   -0.028490909874998464   -0.00657638558482776
-0.0680242579756886   0.009632025823543089   0.013019181932755338
-0.0680242579756886   0.009632025823543089   0.013019181932755338
-0.0680242579756886   0.009632025823543089   0.013019181932755338
-0.0680242579756886   0.009632025823543089   0.013019181932755338
-0.04726189936457673   -0.012326214453223093   -0.0045656751348177715
-0.04726189936457673   -0.012326214453223093   -0.0045656751348177715
-0.04726189936457673   -0.012326214453223093   -0.0045656751348177715
-0.04726189936457673   -0.012326214453223093   -0.0045656751348177715
-0.041825247670882804   0.010920622697230204   0.01289216110104225
-0.041825247670882804   0.010920622697230204   0.01289216110104225
-0.041825247670882804   0.010920622697230204   0.01289216110104225
-0.041825247670882804   0.010920622697230204   0.01289216110104225
-0.07541587197596637   -0.018365984583332256   -0.0023844700231247518
-0.07541587197596637   -0.018365984583332256   -0.0023844700231247518
-0.07541587197596637   -0.018365984583332256   -0.0023844700231247518
-0.07541587197596637   -0.018365984583332256   -0.0023844700231247518
-0.05724911298313379   -0.0012468094405273904   -0.0022333283051377975
-0.05724911298313379   -0.0012468094405273904   -0.0022333283051377975
-0.05724911298313379   -0.0012468094405273904   -0.0022333283051377975
-0.05724911298313379   -0.0012468094405273904   -0.0022333283051377975
-0.06720077705519102   0.006110073833036713   0.01421494616438302
-0.06720077705519102   0.006110073833036713   0.01421494616438302
-0.06720077705519102   0.006110073833036713   0.01421494616438302
-0.06720077705519102   0.006110073833036713   0.01421494616438302
-0.05013853539395556   -0.013653628521435538   -0.004100026295651975
-0.05013853539395556   -0.013653628521435538   -0.004100026295651975
-0.05013853539395556   -0.013653628521435538   -0.004100026295651975
-0.05013853539395556   -0.013653628521435538   -0.004100026295651975
-0.04387970900412821   0.00861276661831181   0.016200086596865913
-0.04387970900412821   0.00861276661831181   0.016200086596865913
-0.04387970900412821   0.00861276661831181   0.016200086596865913
-0.04387970900412821   0.00861276661831181   0.016200086596865913
-0.07535554713501742   -0.01959247256118783   -0.0029761678624456653
-0.07535554713501742   -0.01959247256118783   -0.0029761678624456653
-0.07535554713501742   -0.01959247256118783   -0.0029761678624456653
-0.07535554713501742   -0.01959247256118783   -0.0029761678624456653
-0.05924520594420071   -0.003759400213711057   -0.003311812096121736
-0.05924520594420071   -0.003759400213711057   -0.003311812096121736
-0.05924520594420071   -0.003759400213711057   -0.003311812096121736
-0.05924520594420071   -0.003759400213711057   -0.003311812096121736
-0.06675837062380627   0.00406705450123955   0.01635018763118267
-0.06675837062380627   0.00406705450123955   0.01635018763118267
-0.06675837062380627   0.00406705450123955   0.01635018763118267
-0.06675837062380627   0.00406705450123955   0.01635018763118267
-0.053065798042595286   -0.01563567297137214   -0.005481919005789341
-0.053065798042595286   -0.01563567297137214   -0.005481919005789341
-0.053065798042595286   -0.01563567297137214   -0.005481919005789341
-0.053065798042595286   -0.01563567297137214   -0.005481919005789341
-0.05010396094890311   0.0022565752665394305   0.01686227995788336
-0.05010396094890311   0.0022565752665394305   0.01686227995788336
-0.05010396094890311   0.0022565752665394305   0.01686227995788336
-0.05010396094890311   0.0022565752665394305   0.01686227995788336
-0.07462020912613893   -0.02078399721525785   -0.002465391486083368
-0.07462020912613893   -0.02078399721525785   -0.002465391486083368
-0.07462020912613893   -0.02078399721525785   -0.002465391486083368
-0.07462020912613893   -0.02078399721525785   -0.002465391486083368
-0.06031495208716291   -0.005629903355328583   -0.004959904502099885
-0.06031495208716291   -0.005629903355328583   -0.004959904502099885
-0.06031495208716291   -0.005629903355328583   -0.004959904502099885
-0.06031495208716291   -0.005629903355328583   -0.004959904502099885
-0.6791836071308632   -0.09753248962659183   -0.057459320841218256
-0.6791836071308632   -0.09753248962659183   -0.057459320841218256
-0.6791836071308632   -0.09753248962659183   -0.057459320841218256
-0.6791836071308632   -0.09753248962659183   -0.057459320841218256
-0.23747617036927285   -0.38749997743164616   -0.04470469375734018
-0.23747617036927285   -0.38749997743164616   -0.04470469375734018
-0.23747617036927285   -0.38749997743164616   -0.04470469375734018
-0.23747617036927285   -0.38749997743164616   -0.04470469375734018
-0.18159162453573383   -0.01702526873634445   5.6190242894963056e-05
-0.18159162453573383   -0.01702526873634445   5.6190242894963056e-05
-0.18159162453573383   -0.01702526873634445   5.6190242894963056e-05
-0.18159162453573383   -0.01702526873634445   5.6190242894963056e-05
-0.7289376289679935   -0.45252914308758196   -0.2362933544111151
-0.7289376289679935   -0.45252914308758196   -0.2362933544111151
-0.7289376289679935   -0.45252914308758196   -0.2362933544111151
-0.7289376289679935   -0.45252914308758196   -0.2362933544111151
-0.44530831746362276   -0.22470841872789826   -0.03279672901908891
-0.44530831746362276   -0.22470841872789826   -0.03279672901908891
-0.44530831746362276   -0.22470841872789826   -0.03279672901908891
-0.44530831746362276   -0.22470841872789826   -0.03279672901908891
-0.631317672828475   -0.12260521650307794   -0.0781175002980314
-0.631317672828475   -0.12260521650307794   -0.0781175002980314
-0.631317672828475   -0.12260521650307794   -0.0781175002980314
-0.631317672828475   -0.12260521650307794   -0.0781175002980314
-0.2570190827838601   -0.3247566974294568   -0.06934967230462269
-0.2570190827838601   -0.3247566974294568   -0.06934967230462269
-0.2570190827838601   -0.3247566974294568   -0.06934967230462269
-0.2570190827838601   -0.3247566974294568   -0.06934967230462269
-0.1857583423636091   -0.02225204696655718   0.006898223290499269
-0.1857583423636091   -0.02225204696655718   0.006898223290499269
-0.1857583423636091   -0.02225204696655718   0.006898223290499269
-0.1857583423636091   -0.02225204696655718   0.006898223290499269
-0.6824552189243976   -0.4052804474274778   -0.21754713327037511
-0.6824552189243976   -0.4052804474274778   -0.21754713327037511
-0.6824552189243976   -0.4052804474274778   -0.21754713327037511
-0.6824552189243976   -0.4052804474274778   -0.21754713327037511
-0.41970455615084395   -0.20315099319285446   0.016582004554980205
-0.41970455615084395   -0.20315099319285446   0.016582004554980205
-0.41970455615084395   -0.20315099319285446   0.016582004554980205
-0.41970455615084395   -0.20315099319285446   0.016582004554980205
-0.5929593912769124   -0.11678465824950325   -0.05856378421092777
-0.5929593912769124   -0.11678465824950325   -0.05856378421092777
-0.5929593912769124   -0.11678465824950325   -0.05856378421092777
-0.5929593912769124   -0.11678465824950325   -0.05856378421092777
-0.25054161623505894   -0.28603528236849685   -0.053234910664808975
-0.25054161623505894   -0.28603528236849685   -0.053234910664808975
-0.25054161623505894   -0.28603528236849685   -0.053234910664808975
-0.25054161623505894   -0.28603528236849685   -0.053234910664808975
-0.21464727998722602   -0.05641105140367274   -0.011558649915008273
-0.21464727998722602   -0.05641105140367274   -0.011558649915008273
-0.21464727998722602   -0.05641105140367274   -0.011558649915008273
-0.21464727998722602   -0.05641105140367274   -0.011558649915008273
-0.6222111346306332   -0.3427127228939547   -0.19298477150491755
-0.6222111346306332   -0.3427127228939547   -0.19298477150491755
-0.6222111346306332   -0.3427127228939547   -0.19298477150491755
-0.6222111346306332   -0.3427127228939547   -0.19298477150491755
-0.3890883583133851   -0.17651995921543412   0.07251404771481851
-0.3890883583133851   -0.17651995921543412   0.07251404771481851
-0.3890883583133851   -0.17651995921543412   0.07251404771481851
-0.3890883583133851   -0.17651995921543412   0.07251404771481851
-0.17318252207238458   -0.09656624515614962   -0.01417018454839622
-0.17318252207238458   -0.09656624515614962   -0.01417018454839622
-0.17318252207238458   -0.09656624515614962   -0.01417018454839622
-0.17318252207238458   -0.09656624515614962   -0.01417018454839622
-0.08166249951619989   -0.1269696811139949   -0.02025283099843701
-0.08166249951619989   -0.1269696811139949   -0.02025283099843701
-0.08166249951619989   -0.1269696811139949   -0.02025283099843701
-0.08166249951619989   -0.1269696811139949   -0.02025283099843701
-0.07104261106022144   -0.06254770726841345   0.0017062905960105249
-0.07104261106022144   -0.06254770726841345   0.0017062905960105249
-0.07104261106022144   -0.06254770726841345   0.0017062905960105249
-0.07104261106022144   -0.06254770726841345   0.0017062905960105249
-0.21448955760901384   -0.18237614011740738   0.0009173962575593636
-0.21448955760901384   -0.18237614011740738   0.0009173962575593636
-0.21448955760901384   -0.18237614011740738   0.0009173962575593636
-0.21448955760901384   -0.18237614011740738   0.0009173962575593636
-0.11448861496351628   -0.08802365750549876   0.0372459375803274
-0.11448861496351628   -0.08802365750549876   0.0372459375803274
-0.11448861496351628   -0.08802365750549876   0.0372459375803274
-0.11448861496351628   -0.08802365750549876   0.0372459375803274
-0.19804760482422606   -0.09011646677299898   -0.00913251316291248
-0.19804760482422606   -0.09011646677299898   -0.00913251316291248
-0.19804760482422606   -0.09011646677299898   -0.00913251316291248
-0.19804760482422606   -0.09011646677299898   -0.00913251316291248
-0.09371401344077677   -0.1610368302085898   -0.013161598366589759
-0.09371401344077677   -0.1610368302085898   -0.013161598366589759
-0.09371401344077677   -0.1610368302085898   -0.013161598366589759
-0.09371401344077677   -0.1610368302085898   -0.013161598366589759
-0.0771984817893311   -0.06475510939974717   0.001856325999416781
-0.0771984817893311   -0.06475510939974717   0.001856325999416781
-0.0771984817893311   -0.06475510939974717   0.001856325999416781
-0.0771984817893311   -0.06475510939974717   0.001856325999416781
-0.2256645509169873   -0.1806311999979925   -0.0342536664449552
-0.2256645509169873   -0.1806311999979925   -0.0342536664449552
-0.2256645509169873   -0.1806311999979925   -0.0342536664449552
-0.2256645509169873   -0.1806311999979925   -0.0342536664449552
-0.1374183970185012   -0.1123774340276172   0.0165762165925243
-0.1374183970185012   -0.1123774340276172   0.0165762165925243
-0.1374183970185012   -0.1123774340276172   0.0165762165925243
-0.1374183970185012   -0.1123774340276172   0.0165762165925243
-0.20493999233116192   -0.09410590950896758   -0.01715616400485442
-0.20493999233116192   -0.09410590950896758   -0.01715616400485442
-0.20493999233116192   -0.09410590950896758   -0.01715616400485442
-0.20493999233116192   -0.09410590950896758   -0.01715616400485442
-0.09736603830382204   -0.15072339781743785   -0.013013168155347206
-0.09736603830382204   -0.15072339781743785   -0.013013168155347206
-0.09736603830382204   -0.15072339781743785   -0.013013168155347206
-0.09736603830382204   -0.15072339781743785   -0.013013168155347206
-0.08683963626118117   -0.0666820727174001   0.0027516359793953223
-0.08683963626118117   -0.0666820727174001   0.0027516359793953223
-0.08683963626118117   -0.0666820727174001   0.0027516359793953223
-0.08683963626118117   -0.0666820727174001   0.0027516359793953223
-0.24214893281437566   -0.17594053995621328   -0.02953742549821551
-0.24214893281437566   -0.17594053995621328   -0.02953742549821551
-0.24214893281437566   -0.17594053995621328   -0.02953742549821551
-0.24214893281437566   -0.17594053995621328   -0.02953742549821551
-0.14441315635293658   -0.10601740560026134   0.017451874139509976
-0.14441315635293658   -0.10601740560026134   0.017451874139509976
-0.14441315635293658   -0.10601740560026134   0.017451874139509976
-0.14441315635293658   -0.10601740560026134   0.017451874139509976
-0.06295692343088581   -0.057939667717851626   0.0042450360319900675
-0.06295692343088581   -0.057939667717851626   0.0042450360319900675
-0.06295692343088581   -0.057939667717851626   0.0042450360319900675
-0.06295692343088581   -0.057939667717851626   0.0042450360319900675
-0.03977319790426176   -0.04197232547248161   -0.010006738192379214
-0.03977319790426176   -0.04197232547248161   -0.010006738192379214
-0.03977319790426176   -0.04197232547248161   -0.010006738192379214
-0.03977319790426176   -0.04197232547248161   -0.010006738192379214
-0.0381166125164168   -0.0521611083652273   0.004173484757221195
-0.0381166125164168   -0.0521611083652273   0.004173484757221195
-0.0381166125164168   -0.0521611083652273   0.004173484757221195
-0.0381166125164168   -0.0521611083652273   0.004173484757221195
-0.0708880001567341   -0.056136972709351154   -0.003931389445615064
-0.0708880001567341   -0.056136972709351154   -0.003931389445615064
-0.0708880001567341   -0.056136972709351154   -0.003931389445615064
-0.0708880001567341   -0.056136972709351154   -0.003931389445615064
-0.044546598975403015   -0.043779729806883445   0.018781877186075435
-0.044546598975403015   -0.043779729806883445   0.018781877186075435
-0.044546598975403015   -0.043779729806883445   0.018781877186075435
-0.044546598975403015   -0.043779729806883445   0.018781877186075435
-0.06961743041086646   -0.05836589298390589   0.004650379558277908
-0.06961743041086646   -0.05836589298390589   0.004650379558277908
-0.06961743041086646   -0.05836589298390589   0.004650379558277908
-0.06961743041086646   -0.05836589298390589   0.004650379558277908
-0.04009580909664843   -0.050640814925036554   -0.007242791584127712
-0.04009580909664843   -0.050640814925036554   -0.007242791584127712
-0.04009580909664843   -0.050640814925036554   -0.007242791584127712
-0.04009580909664843   -0.050640814925036554   -0.007242791584127712
-0.03885147022394501   -0.05371963545287837   0.00376055135875074
-0.03885147022394501   -0.05371963545287837   0.00376055135875074
-0.03885147022394501   -0.05371963545287837   0.00376055135875074
-0.03885147022394501   -0.05371963545287837   0.00376055135875074
-0.07574316399577895   -0.06521844333058126   0.009596248898011585
-0.07574316399577895   -0.06521844333058126   0.009596248898011585
-0.07574316399577895   -0.06521844333058126   0.009596248898011585
-0.07574316399577895   -0.06521844333058126   0.009596248898011585
-0.04895197870142799   -0.04888513377124639   0.015604192146142766
-0.04895197870142799   -0.04888513377124639   0.015604192146142766
-0.04895197870142799   -0.04888513377124639   0.015604192146142766
-0.04895197870142799   -0.04888513377124639   0.015604192146142766
-0.0754778817616078   -0.06054682057041988   0.006251037308705973
-0.0754778817616078   -0.06054682057041988   0.006251037308705973
-0.0754778817616078   -0.06054682057041988   0.006251037308705973
-0.0754778817616078   -0.06054682057041988   0.006251037308705973
-0.04249910642520344   -0.061773612180127016   -0.006423652920292754
-0.04249910642520344   -0.061773612180127016   -0.006423652920292754
-0.04249910642520344   -0.061773612180127016   -0.006423652920292754
-0.04249910642520344   -0.061773612180127016   -0.006423652920292754
-0.039839454901304944   -0.05539396877391182   0.00532886676578697
-0.039839454901304944   -0.05539396877391182   0.00532886676578697
-0.039839454901304944   -0.05539396877391182   0.00532886676578697
-0.039839454901304944   -0.05539396877391182   0.00532886676578697
-0.08939822191127622   -0.07954036639594134   0.0028170014074613246
-0.08939822191127622   -0.07954036639594134   0.0028170014074613246
-0.08939822191127622   -0.07954036639594134   0.0028170014074613246
-0.08939822191127622   -0.07954036639594134   0.0028170014074613246
-0.055204714669180525   -0.055483726637896996   0.006945689238505113
-0.055204714669180525   -0.055483726637896996   0.006945689238505113
-0.055204714669180525   -0.055483726637896996   0.006945689238505113
-0.055204714669180525   -0.055483726637896996   0.006945689238505113
-0.03176206102498927   -0.023166663330875387   0.011243284062377037
-0.03176206102498927   -0.023166663330875387   0.011243284062377037
-0.03176206102498927   -0.023166663330875387   0.011243284062377037
-0.03176206102498927   -0.023166663330875387   0.011243284062377037
-0.02326512606790802   -0.0021613252309637255   -0.0023103546181627993
-0.02326512606790802   -0.0021613252309637255   -0.0023103546181627993
-0.02326512606790802   -0.0021613252309637255   -0.0023103546181627993
-0.02326512606790802   -0.0021613252309637255   -0.0023103546181627993
-0.02200797120128681   -0.0252319825006102   0.006923910548355596
-0.02200797120128681   -0.0252319825006102   0.006923910548355596
-0.02200797120128681   -0.0252319825006102   0.006923910548355596
-0.02200797120128681   -0.0252319825006102   0.006923910548355596
-0.030072689302935014   -0.00674653013581637   -0.0010214774047808187
-0.030072689302935014   -0.00674653013581637   -0.0010214774047808187
-0.030072689302935014   -0.00674653013581637   -0.0010214774047808187
-0.030072689302935014   -0.00674653013581637   -0.0010214774047808187
-0.024707399006059706   -0.013554826541031857   0.005571652711201717
-0.024707399006059706   -0.013554826541031857   0.005571652711201717
-0.024707399006059706   -0.013554826541031857   0.005571652711201717
-0.024707399006059706   -0.013554826541031857   0.005571652711201717
-0.03167131918199191   -0.026418054661332225   0.010656897725450563
-0.03167131918199191   -0.026418054661332225   0.010656897725450563
-0.03167131918199191   -0.026418054661332225   0.010656897725450563
-0.03167131918199191   -0.026418054661332225   0.010656897725450563
-0.01990280775350465   -0.005053924406369077   -0.0027283303069747145
-0.01990280775350465   -0.005053924406369077   -0.0027283303069747145
-0.01990280775350465   -0.005053924406369077   -0.0027283303069747145
-0.01990280775350465   -0.005053924406369077   -0.0027283303069747145
-0.02044670959853185   -0.02745047860192226   0.006433998436704609
-0.02044670959853185   -0.02745047860192226   0.006433998436704609
-0.02044670959853185   -0.02745047860192226   0.006433998436704609
-0.02044670959853185   -0.02745047860192226   0.006433998436704609
-0.030651653752497756   -0.011445170172167621   0.0024851684352762207
-0.030651653752497756   -0.011445170172167621   0.0024851684352762207
-0.030651653752497756   -0.011445170172167621   0.0024851684352762207
-0.030651653752497756   -0.011445170172167621   0.0024851684352762207
-0.023016146896462076   -0.01561305059530031   0.0064100187459730585
-0.023016146896462076   -0.01561305059530031   0.0064100187459730585
-0.023016146896462076   -0.01561305059530031   0.0064100187459730585
-0.023016146896462076   -0.01561305059530031   0.0064100187459730585
-0.032141944024779004   -0.02863217982847678   0.012220726730179154
-0.032141944024779004   -0.02863217982847678   0.012220726730179154
-0.032141944024779004   -0.02863217982847678   0.012220726730179154
-0.032141944024779004   -0.02863217982847678   0.012220726730179154
-0.019203838905880562   -0.010510888525243057   -0.004291238176718153
-0.019203838905880562   -0.010510888525243057   -0.004291238176718153
-0.019203838905880562   -0.010510888525243057   -0.004291238176718153
-0.019203838905880562   -0.010510888525243057   -0.004291238176718153
-0.0175916269757947   -0.029908756825246744   0.007115373021987719
-0.0175916269757947   -0.029908756825246744   0.007115373021987719
-0.0175916269757947   -0.029908756825246744   0.007115373021987719
-0.0175916269757947   -0.029908756825246744   0.007115373021987719
-0.033679360568111105   -0.022466374191089003   0.0032017438489333264
-0.033679360568111105   -0.022466374191089003   0.0032017438489333264
-0.033679360568111105   -0.022466374191089003   0.0032017438489333264
-0.033679360568111105   -0.022466374191089003   0.0032017438489333264
-0.02257726003548481   -0.01956385545788164   0.005262279902318328
-0.02257726003548481   -0.01956385545788164   0.005262279902318328
-0.02257726003548481   -0.01956385545788164   0.005262279902318328
-0.02257726003548481   -0.01956385545788164   0.005262279902318328
-0.02085332184915   -0.003844913061867897   0.011432254306531466
-0.02085332184915   -0.003844913061867897   0.011432254306531466
-0.02085332184915   -0.003844913061867897   0.011432254306531466
-0.02085332184915   -0.003844913061867897   0.011432254306531466
-0.004385564168674319   0.002043831975958462   -0.00023151095569745443
-0.004385564168674319   0.002043831975958462   -0.00023151095569745443
-0.004385564168674319   0.002043831975958462   -0.00023151095569745443
-0.004385564168674319   0.002043831975958462   -0.00023151095569745443
0.0003541798938951244   -0.0013026286283653787   0.007162257881848143
0.0003541798938951244   -0.0013026286283653787   0.007162257881848143
0.0003541798938951244   -0.0013026286283653787   0.007162257881848143
0.0003541798938951244   -0.0013026286283653787   0.007162257881848143
-0.018213971987984346   0.0012748190585358775   -0.0006128949442781441
-0.018213971987984346   0.0012748190585358775   -0.0006128949442781441
-0.018213971987984346   0.0012748190585358775   -0.0006128949442781441
-0.018213971987984346   0.0012748190585358775   -0.0006128949442781441
-0.010914283926017523   -0.0009013913374597263   -0.0008065172395226277
-0.010914283926017523   -0.0009013913374597263   -0.0008065172395226277
-0.010914283926017523   -0.0009013913374597263   -0.0008065172395226277
-0.010914283926017523   -0.0009013913374597263   -0.0008065172395226277
-0.01671608537501727   -0.0037657181855823866   0.011917075364675499
-0.01671608537501727   -0.0037657181855823866   0.011917075364675499
-0.01671608537501727   -0.0037657181855823866   0.011917075364675499
-0.01671608537501727   -0.0037657181855823866   0.011917075364675499
-0.0005386670589063705   0.004342948275917827   -0.0029475537864463715
-0.0005386670589063705   0.004342948275917827   -0.0029475537864463715
-0.0005386670589063705   0.004342948275917827   -0.0029475537864463715
-0.0005386670589063705   0.004342948275917827   -0.0029475537864463715
0.002570799981496524   -0.0016431836131779246   0.008843929761089917
0.002570799981496524   -0.0016431836131779246   0.008843929761089917
0.002570799981496524   -0.0016431836131779246   0.008843929761089917
0.002570799981496524   -0.0016431836131779246   0.008843929761089917
-0.016292906074492998   0.0006234187873959576   -0.0008708813324193531
-0.016292906074492998   0.0006234187873959576   -0.0008708813324193531
-0.016292906074492998   0.0006234187873959576   -0.0008708813324193531
-0.016292906074492998   0.0006234187873959576   -0.0008708813324193531
-0.007591446728975638   -0.0003871747034544578   0.0010499649149833387
-0.007591446728975638   -0.0003871747034544578   0.0010499649149833387
-0.007591446728975638   -0.0003871747034544578   0.0010499649149833387
-0.007591446728975638   -0.0003871747034544578   0.0010499649149833387
-0.014523426122625683   -0.004259022786131428   0.01285896000044461
-0.014523426122625683   -0.004259022786131428   0.01285896000044461
-0.014523426122625683   -0.004259022786131428   0.01285896000044461
-0.014523426122625683   -0.004259022786131428   0.01285896000044461
0.0013136390360352615   0.0037515769667561525   -0.002836635546146639
0.0013136390360352615   0.0037515769667561525   -0.002836635546146639
0.0013136390360352615   0.0037515769667561525   -0.002836635546146639
0.0013136390360352615   0.0037515769667561525   -0.002836635546146639
0.004672556071112939   -0.002701863121193988   0.008652513786987934
0.004672556071112939   -0.002701863121193988   0.008652513786987934
0.004672556071112939   -0.002701863121193988   0.008652513786987934
0.004672556071112939   -0.002701863121193988   0.008652513786987934
-0.01319384877501562   0.00015214137177746402   -0.000956634171141085
-0.01319384877501562   0.00015214137177746402   -0.000956634171141085
-0.01319384877501562   0.00015214137177746402   -0.000956634171141085
-0.01319384877501562   0.00015214137177746402   -0.000956634171141085
-0.004688046527415168   -0.00017882723329932078   0.0025944886608588657
-0.004688046527415168   -0.00017882723329932078   0.0025944886608588657
-0.004688046527415168   -0.00017882723329932078   0.0025944886608588657
-0.004688046527415168   -0.00017882723329932078   0.0025944886608588657
              </DataArray>   
             <DataArray type="Float64" NumberOfComponents="3" Name="Displacements" format="ascii">   
0.0   0.0   0.0
-0.0019022974232711213   -0.0012563070229923315   -0.0006377611466564675
0.0   0.0   0.0
0.0   0.0   0.0
-0.0019022974232711213   -0.0012563070229923315   -0.0006377611466564675
-0.0012096945796596684   -0.0011304872240838664   -0.00046866224993267775
0.0   0.0   0.0
-0.0011852386401799803   -0.0011867366777907613   -0.00039281051594796605
0.0   0.0   0.0
0.0   0.0   0.0
-0.0011852386401799803   -0.0011867366777907613   -0.00039281051594796605
0.0   0.0   0.0
0.0   0.0   0.0
-0.0011852386401799803   -0.0011867366777907613   -0.00039281051594796605
-0.0019901862908301474   -0.001338024110589926   -0.0005122917070120774
-0.0019022974232711213   -0.0012563070229923315   -0.0006377611466564675
0.0   0.0   0.0
-0.0011852386401799803   -0.0011867366777907613   -0.00039281051594796605
-0.0019022974232711213   -0.0012563070229923315   -0.0006377611466564675
0.0   0.0   0.0
0.0   0.0   0.0
-0.0019901862908301474   -0.001338024110589926   -0.0005122917070120774
0.0   0.0   0.0
0.0   0.0   0.0
-0.0019901862908301474   -0.001338024110589926   -0.0005122917070120774
-0.0011852386401799803   -0.0011867366777907613   -0.00039281051594796605
0.0   0.0   0.0
-0.0011880058530793968   -0.001215628954458922   -0.00031713364311302907
0.0   0.0   0.0
0.0   0.0   0.0
-0.0011880058530793968   -0.001215628954458922   -0.00031713364311302907
0.0   0.0   0.0
0.0   0.0   0.0
-0.0011880058530793968   -0.001215628954458922   -0.00031713364311302907
-0.002051645640514691   -0.0013777916008922805   -0.0003921969802885656
-0.0019901862908301474   -0.001338024110589926   -0.0005122917070120774
0.0   0.0   0.0
-0.0011880058530793968   -0.001215628954458922   -0.00031713364311302907
-0.0019901862908301474   -0.001338024110589926   -0.0005122917070120774
0.0   0.0   0.0
0.0   0.0   0.0
-0.002051645640514691   -0.0013777916008922805   -0.0003921969802885656
0.0   0.0   0.0
0.0   0.0   0.0
-0.002051645640514691   -0.0013777916008922805   -0.0003921969802885656
-0.0011880058530793968   -0.001215628954458922   -0.00031713364311302907
0.0   0.0   0.0
-0.0011867328085002355   -0.00122314384704498   -0.0002389645526021207
0.0   0.0   0.0
0.0   0.0   0.0
-0.0011867328085002355   -0.00122314384704498   -0.0002389645526021207
0.0   0.0   0.0
0.0   0.0   0.0
-0.0011867328085002355   -0.00122314384704498   -0.0002389645526021207
-0.0021846170030031414   -0.001408133163170312   -0.0002529510186801498
-0.002051645640514691   -0.0013777916008922805   -0.0003921969802885656
0.0   0.0   0.0
-0.0011867328085002355   -0.00122314384704498   -0.0002389645526021207
-0.002051645640514691   -0.0013777916008922805   -0.0003921969802885656
0.0   0.0   0.0
0.0   0.0   0.0
-0.0012096945796596684   -0.0011304872240838664   -0.00046866224993267775
0.0   0.0   0.0
0.0   0.0   0.0
-0.0012096945796596684   -0.0011304872240838664   -0.00046866224993267775
-0.0005515668263308371   -0.0010844616817685343   -0.00035672095788142017
0.0   0.0   0.0
-0.0005299283929432093   -0.001121005314743802   -0.0003208428072940582
0.0   0.0   0.0
0.0   0.0   0.0
-0.0005299283929432093   -0.001121005314743802   -0.0003208428072940582
0.0   0.0   0.0
0.0   0.0   0.0
-0.0005299283929432093   -0.001121005314743802   -0.0003208428072940582
-0.0011852386401799803   -0.0011867366777907613   -0.00039281051594796605
-0.0012096945796596684   -0.0011304872240838664   -0.00046866224993267775
0.0   0.0   0.0
-0.0005299283929432093   -0.001121005314743802   -0.0003208428072940582
-0.0012096945796596684   -0.0011304872240838664   -0.00046866224993267775
0.0   0.0   0.0
0.0   0.0   0.0
-0.0011852386401799803   -0.0011867366777907613   -0.00039281051594796605
0.0   0.0   0.0
0.0   0.0   0.0
-0.0011852386401799803   -0.0011867366777907613   -0.00039281051594796605
-0.0005299283929432093   -0.001121005314743802   -0.0003208428072940582
0.0   0.0   0.0
-0.0005175403858094432   -0.0011349579683847613   -0.000285966215938737
0.0   0.0   0.0
0.0   0.0   0.0
-0.0005175403858094432   -0.0011349579683847613   -0.000285966215938737
0.0   0.0   0.0
0.0   0.0   0.0
-0.0005175403858094432   -0.0011349579683847613   -0.000285966215938737
-0.0011880058530793968   -0.001215628954458922   -0.00031713364311302907
-0.0011852386401799803   -0.0011867366777907613   -0.00039281051594796605
0.0   0.0   0.0
-0.0005175403858094432   -0.0011349579683847613   -0.000285966215938737
-0.0011852386401799803   -0.0011867366777907613   -0.00039281051594796605
0.0   0.0   0.0
0.0   0.0   0.0
-0.0011880058530793968   -0.001215628954458922   -0.00031713364311302907
0.0   0.0   0.0
0.0   0.0   0.0
-0.0011880058530793968   -0.001215628954458922   -0.00031713364311302907
-0.0005175403858094432   -0.0011349579683847613   -0.000285966215938737
0.0   0.0   0.0
-0.0005061650871285039   -0.001129191853392145   -0.0002499775478898903
0.0   0.0   0.0
0.0   0.0   0.0
-0.0005061650871285039   -0.001129191853392145   -0.0002499775478898903
0.0   0.0   0.0
0.0   0.0   0.0
-0.0005061650871285039   -0.001129191853392145   -0.0002499775478898903
-0.0011867328085002355   -0.00122314384704498   -0.0002389645526021207
-0.0011880058530793968   -0.001215628954458922   -0.00031713364311302907
0.0   0.0   0.0
-0.0005061650871285039   -0.001129191853392145   -0.0002499775478898903
-0.0011880058530793968   -0.001215628954458922   -0.00031713364311302907
0.0   0.0   0.0
0.0   0.0   0.0
-0.0005515668263308371   -0.0010844616817685343   -0.00035672095788142017
0.0   0.0   0.0
0.0   0.0   0.0
-0.0005515668263308371   -0.0010844616817685343   -0.00035672095788142017
6.974853738956354e-05   -0.0010904487079499378   -0.00028555879801290824
0.0   0.0   0.0
8.382702981740123e-05   -0.0011093123666596463   -0.00029035725482749297
0.0   0.0   0.0
0.0   0.0   0.0
8.382702981740123e-05   -0.0011093123666596463   -0.00029035725482749297
0.0   0.0   0.0
0.0   0.0   0.0
8.382702981740123e-05   -0.0011093123666596463   -0.00029035725482749297
-0.0005299283929432093   -0.001121005314743802   -0.0003208428072940582
-0.0005515668263308371   -0.0010844616817685343   -0.00035672095788142017
0.0   0.0   0.0
8.382702981740123e-05   -0.0011093123666596463   -0.00029035725482749297
-0.0005515668263308371   -0.0010844616817685343   -0.00035672095788142017
0.0   0.0   0.0
0.0   0.0   0.0
-0.0005299283929432093   -0.001121005314743802   -0.0003208428072940582
0.0   0.0   0.0
0.0   0.0   0.0
-0.0005299283929432093   -0.001121005314743802   -0.0003208428072940582
8.382702981740123e-05   -0.0011093123666596463   -0.00029035725482749297
0.0   0.0   0.0
9.501471758188487e-05   -0.0011076811434490423   -0.00029474739030491804
0.0   0.0   0.0
0.0   0.0   0.0
9.501471758188487e-05   -0.0011076811434490423   -0.00029474739030491804
0.0   0.0   0.0
0.0   0.0   0.0
9.501471758188487e-05   -0.0011076811434490423   -0.00029474739030491804
-0.0005175403858094432   -0.0011349579683847613   -0.000285966215938737
-0.0005299283929432093   -0.001121005314743802   -0.0003208428072940582
0.0   0.0   0.0
9.501471758188487e-05   -0.0011076811434490423   -0.00029474739030491804
-0.0005299283929432093   -0.001121005314743802   -0.0003208428072940582
0.0   0.0   0.0
0.0   0.0   0.0
-0.0005175403858094432   -0.0011349579683847613   -0.000285966215938737
0.0   0.0   0.0
0.0   0.0   0.0
-0.0005175403858094432   -0.0011349579683847613   -0.000285966215938737
9.501471758188487e-05   -0.0011076811434490423   -0.00029474739030491804
0.0   0.0   0.0
0.00010987680740287227   -0.0010838854530024272   -0.0002993268336105083
0.0   0.0   0.0
0.0   0.0   0.0
0.00010987680740287227   -0.0010838854530024272   -0.0002993268336105083
0.0   0.0   0.0
0.0   0.0   0.0
0.00010987680740287227   -0.0010838854530024272   -0.0002993268336105083
-0.0005061650871285039   -0.001129191853392145   -0.0002499775478898903
-0.0005175403858094432   -0.0011349579683847613   -0.000285966215938737
0.0   0.0   0.0
0.00010987680740287227   -0.0010838854530024272   -0.0002993268336105083
-0.0005175403858094432   -0.0011349579683847613   -0.000285966215938737
0.0   0.0   0.0
0.0   0.0   0.0
6.974853738956354e-05   -0.0010904487079499378   -0.00028555879801290824
0.0   0.0   0.0
0.0   0.0   0.0
6.974853738956354e-05   -0.0010904487079499378   -0.00028555879801290824
0.0007446664740960416   -0.001142855589718364   -0.0002505898161959975
0.0   0.0   0.0
0.0007467020103061523   -0.0011487229123624191   -0.00029819441021516256
0.0   0.0   0.0
0.0   0.0   0.0
0.0007467020103061523   -0.0011487229123624191   -0.00029819441021516256
0.0   0.0   0.0
0.0   0.0   0.0
0.0007467020103061523   -0.0011487229123624191   -0.00029819441021516256
8.382702981740123e-05   -0.0011093123666596463   -0.00029035725482749297
6.974853738956354e-05   -0.0010904487079499378   -0.00028555879801290824
0.0   0.0   0.0
0.0007467020103061523   -0.0011487229123624191   -0.00029819441021516256
6.974853738956354e-05   -0.0010904487079499378   -0.00028555879801290824
0.0   0.0   0.0
0.0   0.0   0.0
8.382702981740123e-05   -0.0011093123666596463   -0.00029035725482749297
0.0   0.0   0.0
0.0   0.0   0.0
8.382702981740123e-05   -0.0011093123666596463   -0.00029035725482749297
0.0007467020103061523   -0.0011487229123624191   -0.00029819441021516256
0.0   0.0   0.0
0.000744117059665091   -0.0011323246794174553   -0.0003439440503770497
0.0   0.0   0.0
0.0   0.0   0.0
0.000744117059665091   -0.0011323246794174553   -0.0003439440503770497
0.0   0.0   0.0
0.0   0.0   0.0
0.000744117059665091   -0.0011323246794174553   -0.0003439440503770497
9.501471758188487e-05   -0.0011076811434490423   -0.00029474739030491804
8.382702981740123e-05   -0.0011093123666596463   -0.00029035725482749297
0.0   0.0   0.0
0.000744117059665091   -0.0011323246794174553   -0.0003439440503770497
8.382702981740123e-05   -0.0011093123666596463   -0.00029035725482749297
0.0   0.0   0.0
0.0   0.0   0.0
9.501471758188487e-05   -0.0011076811434490423   -0.00029474739030491804
0.0   0.0   0.0
0.0   0.0   0.0
9.501471758188487e-05   -0.0011076811434490423   -0.00029474739030491804
0.000744117059665091   -0.0011323246794174553   -0.0003439440503770497
0.0   0.0   0.0
0.000759117442837531   -0.0010887078406397561   -0.0003888871772043679
0.0   0.0   0.0
0.0   0.0   0.0
0.000759117442837531   -0.0010887078406397561   -0.0003888871772043679
0.0   0.0   0.0
0.0   0.0   0.0
0.000759117442837531   -0.0010887078406397561   -0.0003888871772043679
0.00010987680740287227   -0.0010838854530024272   -0.0002993268336105083
9.501471758188487e-05   -0.0011076811434490423   -0.00029474739030491804
0.0   0.0   0.0
0.000759117442837531   -0.0010887078406397561   -0.0003888871772043679
9.501471758188487e-05   -0.0011076811434490423   -0.00029474739030491804
0.0   0.0   0.0
0.0   0.0   0.0
0.0007446664740960416   -0.001142855589718364   -0.0002505898161959975
0.0   0.0   0.0
0.0   0.0   0.0
0.0007446664740960416   -0.001142855589718364   -0.0002505898161959975
0.0016849523177903394   -0.001275993942286279   -0.00023701167533662072
0.0   0.0   0.0
0.0015833661906232515   -0.0012617770206526592   -0.00034517073855402317
0.0   0.0   0.0
0.0   0.0   0.0
0.0015833661906232515   -0.0012617770206526592   -0.00034517073855402317
0.0   0.0   0.0
0.0   0.0   0.0
0.0015833661906232515   -0.0012617770206526592   -0.00034517073855402317
0.0007467020103061523   -0.0011487229123624191   -0.00029819441021516256
0.0007446664740960416   -0.001142855589718364   -0.0002505898161959975
0.0   0.0   0.0
0.0015833661906232515   -0.0012617770206526592   -0.00034517073855402317
0.0007446664740960416   -0.001142855589718364   -0.0002505898161959975
0.0   0.0   0.0
0.0   0.0   0.0
0.0007467020103061523   -0.0011487229123624191   -0.00029819441021516256
0.0   0.0   0.0
0.0   0.0   0.0
0.0007467020103061523   -0.0011487229123624191   -0.00029819441021516256
0.0015833661906232515   -0.0012617770206526592   -0.00034517073855402317
0.0   0.0   0.0
0.0015367976811274794   -0.001235550706302887   -0.00043669773148275376
0.0   0.0   0.0
0.0   0.0   0.0
0.0015367976811274794   -0.001235550706302887   -0.00043669773148275376
0.0   0.0   0.0
0.0   0.0   0.0
0.0015367976811274794   -0.001235550706302887   -0.00043669773148275376
0.000744117059665091   -0.0011323246794174553   -0.0003439440503770497
0.0007467020103061523   -0.0011487229123624191   -0.00029819441021516256
0.0   0.0   0.0
0.0015367976811274794   -0.001235550706302887   -0.00043669773148275376
0.0007467020103061523   -0.0011487229123624191   -0.00029819441021516256
0.0   0.0   0.0
0.0   0.0   0.0
0.000744117059665091   -0.0011323246794174553   -0.0003439440503770497
0.0   0.0   0.0
0.0   0.0   0.0
0.000744117059665091   -0.0011323246794174553   -0.0003439440503770497
0.0015367976811274794   -0.001235550706302887   -0.00043669773148275376
0.0   0.0   0.0
0.0014670417709340775   -0.0011686726098593188   -0.0005336960225102012
0.0   0.0   0.0
0.0   0.0   0.0
0.0014670417709340775   -0.0011686726098593188   -0.0005336960225102012
0.0   0.0   0.0
0.0   0.0   0.0
0.0014670417709340775   -0.0011686726098593188   -0.0005336960225102012
0.000759117442837531   -0.0010887078406397561   -0.0003888871772043679
0.000744117059665091   -0.0011323246794174553   -0.0003439440503770497
0.0   0.0   0.0
0.0014670417709340775   -0.0011686726098593188   -0.0005336960225102012
0.000744117059665091   -0.0011323246794174553   -0.0003439440503770497
0.0   0.0   0.0
-0.0019022974232711213   -0.0012563070229923315   -0.0006377611466564675
-0.0035470172693591487   -0.0034949983156657284   -0.0008595277100723933
-0.0012096945796596684   -0.0011304872240838664   -0.00046866224993267775
-0.0019901862908301474   -0.001338024110589926   -0.0005122917070120774
-0.0035470172693591487   -0.0034949983156657284   -0.0008595277100723933
-0.0022636451661449445   -0.003382061188266845   -0.00070811535728569
-0.0012096945796596684   -0.0011304872240838664   -0.00046866224993267775
-0.0022654000182302262   -0.0034394925879961936   -0.0006381212682904318
-0.0019901862908301474   -0.001338024110589926   -0.0005122917070120774
-0.0011852386401799803   -0.0011867366777907613   -0.00039281051594796605
-0.0022654000182302262   -0.0034394925879961936   -0.0006381212682904318
-0.0012096945796596684   -0.0011304872240838664   -0.00046866224993267775
-0.0019901862908301474   -0.001338024110589926   -0.0005122917070120774
-0.0022654000182302262   -0.0034394925879961936   -0.0006381212682904318
-0.0036520673472444933   -0.0035752343185308237   -0.0007460068835437418
-0.0035470172693591487   -0.0034949983156657284   -0.0008595277100723933
-0.0019901862908301474   -0.001338024110589926   -0.0005122917070120774
-0.0022654000182302262   -0.0034394925879961936   -0.0006381212682904318
-0.0035470172693591487   -0.0034949983156657284   -0.0008595277100723933
-0.0012096945796596684   -0.0011304872240838664   -0.00046866224993267775
-0.0019901862908301474   -0.001338024110589926   -0.0005122917070120774
-0.0036520673472444933   -0.0035752343185308237   -0.0007460068835437418
-0.0011852386401799803   -0.0011867366777907613   -0.00039281051594796605
-0.002051645640514691   -0.0013777916008922805   -0.0003921969802885656
-0.0036520673472444933   -0.0035752343185308237   -0.0007460068835437418
-0.0022654000182302262   -0.0034394925879961936   -0.0006381212682904318
-0.0011852386401799803   -0.0011867366777907613   -0.00039281051594796605
-0.002273333929100422   -0.0034745877414850794   -0.0005709197395834953
-0.002051645640514691   -0.0013777916008922805   -0.0003921969802885656
-0.0011880058530793968   -0.001215628954458922   -0.00031713364311302907
-0.002273333929100422   -0.0034745877414850794   -0.0005709197395834953
-0.0011852386401799803   -0.0011867366777907613   -0.00039281051594796605
-0.002051645640514691   -0.0013777916008922805   -0.0003921969802885656
-0.002273333929100422   -0.0034745877414850794   -0.0005709197395834953
-0.0037246673383934284   -0.0036206292234489314   -0.000634933371910254
-0.0036520673472444933   -0.0035752343185308237   -0.0007460068835437418
-0.002051645640514691   -0.0013777916008922805   -0.0003921969802885656
-0.002273333929100422   -0.0034745877414850794   -0.0005709197395834953
-0.0036520673472444933   -0.0035752343185308237   -0.0007460068835437418
-0.0011852386401799803   -0.0011867366777907613   -0.00039281051594796605
-0.002051645640514691   -0.0013777916008922805   -0.0003921969802885656
-0.0037246673383934284   -0.0036206292234489314   -0.000634933371910254
-0.0011880058530793968   -0.001215628954458922   -0.00031713364311302907
-0.0021846170030031414   -0.001408133163170312   -0.0002529510186801498
-0.0037246673383934284   -0.0036206292234489314   -0.000634933371910254
-0.002273333929100422   -0.0034745877414850794   -0.0005709197395834953
-0.0011880058530793968   -0.001215628954458922   -0.00031713364311302907
-0.0022655360042629132   -0.0034929402023558993   -0.0005080766639197368
-0.0021846170030031414   -0.001408133163170312   -0.0002529510186801498
-0.0011867328085002355   -0.00122314384704498   -0.0002389645526021207
-0.0022655360042629132   -0.0034929402023558993   -0.0005080766639197368
-0.0011880058530793968   -0.001215628954458922   -0.00031713364311302907
-0.0021846170030031414   -0.001408133163170312   -0.0002529510186801498
-0.0022655360042629132   -0.0034929402023558993   -0.0005080766639197368
-0.0038104355074655896   -0.003647274520442917   -0.000534010041647947
-0.0037246673383934284   -0.0036206292234489314   -0.000634933371910254
-0.0021846170030031414   -0.001408133163170312   -0.0002529510186801498
-0.0022655360042629132   -0.0034929402023558993   -0.0005080766639197368
-0.0037246673383934284   -0.0036206292234489314   -0.000634933371910254
-0.0011880058530793968   -0.001215628954458922   -0.00031713364311302907
-0.0012096945796596684   -0.0011304872240838664   -0.00046866224993267775
-0.0022636451661449445   -0.003382061188266845   -0.00070811535728569
-0.0005515668263308371   -0.0010844616817685343   -0.00035672095788142017
-0.0011852386401799803   -0.0011867366777907613   -0.00039281051594796605
-0.0022636451661449445   -0.003382061188266845   -0.00070811535728569
-0.0010519180390803468   -0.003329503198739992   -0.0006048439628683335
-0.0005515668263308371   -0.0010844616817685343   -0.00035672095788142017
-0.001041906875762766   -0.0033659687898687524   -0.0005688892446650041
-0.0011852386401799803   -0.0011867366777907613   -0.00039281051594796605
-0.0005299283929432093   -0.001121005314743802   -0.0003208428072940582
-0.001041906875762766   -0.0033659687898687524   -0.0005688892446650041
-0.0005515668263308371   -0.0010844616817685343   -0.00035672095788142017
-0.0011852386401799803   -0.0011867366777907613   -0.00039281051594796605
-0.001041906875762766   -0.0033659687898687524   -0.0005688892446650041
-0.0022654000182302262   -0.0034394925879961936   -0.0006381212682904318
-0.0022636451661449445   -0.003382061188266845   -0.00070811535728569
-0.0011852386401799803   -0.0011867366777907613   -0.00039281051594796605
-0.001041906875762766   -0.0033659687898687524   -0.0005688892446650041
-0.0022636451661449445   -0.003382061188266845   -0.00070811535728569
-0.0005515668263308371   -0.0010844616817685343   -0.00035672095788142017
-0.0011852386401799803   -0.0011867366777907613   -0.00039281051594796605
-0.0022654000182302262   -0.0034394925879961936   -0.0006381212682904318
-0.0005299283929432093   -0.001121005314743802   -0.0003208428072940582
-0.0011880058530793968   -0.001215628954458922   -0.00031713364311302907
-0.0022654000182302262   -0.0034394925879961936   -0.0006381212682904318
-0.001041906875762766   -0.0033659687898687524   -0.0005688892446650041
-0.0005299283929432093   -0.001121005314743802   -0.0003208428072940582
-0.0010329299477663876   -0.0033836865518071845   -0.0005363357140878651
-0.0011880058530793968   -0.001215628954458922   -0.00031713364311302907
-0.0005175403858094432   -0.0011349579683847613   -0.000285966215938737
-0.0010329299477663876   -0.0033836865518071845   -0.0005363357140878651
-0.0005299283929432093   -0.001121005314743802   -0.0003208428072940582
-0.0011880058530793968   -0.001215628954458922   -0.00031713364311302907
-0.0010329299477663876   -0.0033836865518071845   -0.0005363357140878651
-0.002273333929100422   -0.0034745877414850794   -0.0005709197395834953
-0.0022654000182302262   -0.0034394925879961936   -0.0006381212682904318
-0.0011880058530793968   -0.001215628954458922   -0.00031713364311302907
-0.0010329299477663876   -0.0033836865518071845   -0.0005363357140878651
-0.0022654000182302262   -0.0034394925879961936   -0.0006381212682904318
-0.0005299283929432093   -0.001121005314743802   -0.0003208428072940582
-0.0011880058530793968   -0.001215628954458922   -0.00031713364311302907
-0.002273333929100422   -0.0034745877414850794   -0.0005709197395834953
-0.0005175403858094432   -0.0011349579683847613   -0.000285966215938737
-0.0011867328085002355   -0.00122314384704498   -0.0002389645526021207
-0.002273333929100422   -0.0034745877414850794   -0.0005709197395834953
-0.0010329299477663876   -0.0033836865518071845   -0.0005363357140878651
-0.0005175403858094432   -0.0011349579683847613   -0.000285966215938737
-0.0010199703062339263   -0.0033833219712067256   -0.0005080415876750524
-0.0011867328085002355   -0.00122314384704498   -0.0002389645526021207
-0.0005061650871285039   -0.001129191853392145   -0.0002499775478898903
-0.0010199703062339263   -0.0033833219712067256   -0.0005080415876750524
-0.0005175403858094432   -0.0011349579683847613   -0.000285966215938737
-0.0011867328085002355   -0.00122314384704498   -0.0002389645526021207
-0.0010199703062339263   -0.0033833219712067256   -0.0005080415876750524
-0.0022655360042629132   -0.0034929402023558993   -0.0005080766639197368
-0.002273333929100422   -0.0034745877414850794   -0.0005709197395834953
-0.0011867328085002355   -0.00122314384704498   -0.0002389645526021207
-0.0010199703062339263   -0.0033833219712067256   -0.0005080415876750524
-0.002273333929100422   -0.0034745877414850794   -0.0005709197395834953
-0.0005175403858094432   -0.0011349579683847613   -0.000285966215938737
-0.0005515668263308371   -0.0010844616817685343   -0.00035672095788142017
-0.0010519180390803468   -0.003329503198739992   -0.0006048439628683335
6.974853738956354e-05   -0.0010904487079499378   -0.00028555879801290824
-0.0005299283929432093   -0.001121005314743802   -0.0003208428072940582
-0.0010519180390803468   -0.003329503198739992   -0.0006048439628683335
0.00011595739628404249   -0.0033311241961176863   -0.000539766455240261
6.974853738956354e-05   -0.0010904487079499378   -0.00028555879801290824
0.00012809975523968387   -0.0033482621307378492   -0.0005372125998743302
-0.0005299283929432093   -0.001121005314743802   -0.0003208428072940582
8.382702981740123e-05   -0.0011093123666596463   -0.00029035725482749297
0.00012809975523968387   -0.0033482621307378492   -0.0005372125998743302
6.974853738956354e-05   -0.0010904487079499378   -0.00028555879801290824
-0.0005299283929432093   -0.001121005314743802   -0.0003208428072940582
0.00012809975523968387   -0.0033482621307378492   -0.0005372125998743302
-0.001041906875762766   -0.0033659687898687524   -0.0005688892446650041
-0.0010519180390803468   -0.003329503198739992   -0.0006048439628683335
-0.0005299283929432093   -0.001121005314743802   -0.0003208428072940582
0.00012809975523968387   -0.0033482621307378492   -0.0005372125998743302
-0.0010519180390803468   -0.003329503198739992   -0.0006048439628683335
6.974853738956354e-05   -0.0010904487079499378   -0.00028555879801290824
-0.0005299283929432093   -0.001121005314743802   -0.0003208428072940582
-0.001041906875762766   -0.0033659687898687524   -0.0005688892446650041
8.382702981740123e-05   -0.0011093123666596463   -0.00029035725482749297
-0.0005175403858094432   -0.0011349579683847613   -0.000285966215938737
-0.001041906875762766   -0.0033659687898687524   -0.0005688892446650041
0.00012809975523968387   -0.0033482621307378492   -0.0005372125998743302
8.382702981740123e-05   -0.0011093123666596463   -0.00029035725482749297
0.0001365669509415578   -0.0033470884655002393   -0.0005385154738848999
-0.0005175403858094432   -0.0011349579683847613   -0.000285966215938737
9.501471758188487e-05   -0.0011076811434490423   -0.00029474739030491804
0.0001365669509415578   -0.0033470884655002393   -0.0005385154738848999
8.382702981740123e-05   -0.0011093123666596463   -0.00029035725482749297
-0.0005175403858094432   -0.0011349579683847613   -0.000285966215938737
0.0001365669509415578   -0.0033470884655002393   -0.0005385154738848999
-0.0010329299477663876   -0.0033836865518071845   -0.0005363357140878651
-0.001041906875762766   -0.0033659687898687524   -0.0005688892446650041
-0.0005175403858094432   -0.0011349579683847613   -0.000285966215938737
0.0001365669509415578   -0.0033470884655002393   -0.0005385154738848999
-0.001041906875762766   -0.0033659687898687524   -0.0005688892446650041
8.382702981740123e-05   -0.0011093123666596463   -0.00029035725482749297
-0.0005175403858094432   -0.0011349579683847613   -0.000285966215938737
-0.0010329299477663876   -0.0033836865518071845   -0.0005363357140878651
9.501471758188487e-05   -0.0011076811434490423   -0.00029474739030491804
-0.0005061650871285039   -0.001129191853392145   -0.0002499775478898903
-0.0010329299477663876   -0.0033836865518071845   -0.0005363357140878651
0.0001365669509415578   -0.0033470884655002393   -0.0005385154738848999
9.501471758188487e-05   -0.0011076811434490423   -0.00029474739030491804
0.0001455812467011911   -0.0033270489831617226   -0.0005437348811602575
-0.0005061650871285039   -0.001129191853392145   -0.0002499775478898903
0.00010987680740287227   -0.0010838854530024272   -0.0002993268336105083
0.0001455812467011911   -0.0033270489831617226   -0.0005437348811602575
9.501471758188487e-05   -0.0011076811434490423   -0.00029474739030491804
-0.0005061650871285039   -0.001129191853392145   -0.0002499775478898903
0.0001455812467011911   -0.0033270489831617226   -0.0005437348811602575
-0.0010199703062339263   -0.0033833219712067256   -0.0005080415876750524
-0.0010329299477663876   -0.0033836865518071845   -0.0005363357140878651
-0.0005061650871285039   -0.001129191853392145   -0.0002499775478898903
0.0001455812467011911   -0.0033270489831617226   -0.0005437348811602575
-0.0010329299477663876   -0.0033836865518071845   -0.0005363357140878651
9.501471758188487e-05   -0.0011076811434490423   -0.00029474739030491804
6.974853738956354e-05   -0.0010904487079499378   -0.00028555879801290824
0.00011595739628404249   -0.0033311241961176863   -0.000539766455240261
0.0007446664740960416   -0.001142855589718364   -0.0002505898161959975
8.382702981740123e-05   -0.0011093123666596463   -0.00029035725482749297
0.00011595739628404249   -0.0033311241961176863   -0.000539766455240261
0.0013540982101964394   -0.003384986825568616   -0.0005097493982576867
0.0007446664740960416   -0.001142855589718364   -0.0002505898161959975
0.0013615070290641242   -0.00338452479214054   -0.0005416730265174779
8.382702981740123e-05   -0.0011093123666596463   -0.00029035725482749297
0.0007467020103061523   -0.0011487229123624191   -0.00029819441021516256
0.0013615070290641242   -0.00338452479214054   -0.0005416730265174779
0.0007446664740960416   -0.001142855589718364   -0.0002505898161959975
8.382702981740123e-05   -0.0011093123666596463   -0.00029035725482749297
0.0013615070290641242   -0.00338452479214054   -0.0005416730265174779
0.00012809975523968387   -0.0033482621307378492   -0.0005372125998743302
0.00011595739628404249   -0.0033311241961176863   -0.000539766455240261
8.382702981740123e-05   -0.0011093123666596463   -0.00029035725482749297
0.0013615070290641242   -0.00338452479214054   -0.0005416730265174779
0.00011595739628404249   -0.0033311241961176863   -0.000539766455240261
0.0007446664740960416   -0.001142855589718364   -0.0002505898161959975
8.382702981740123e-05   -0.0011093123666596463   -0.00029035725482749297
0.00012809975523968387   -0.0033482621307378492   -0.0005372125998743302
0.0007467020103061523   -0.0011487229123624191   -0.00029819441021516256
9.501471758188487e-05   -0.0011076811434490423   -0.00029474739030491804
0.00012809975523968387   -0.0033482621307378492   -0.0005372125998743302
0.0013615070290641242   -0.00338452479214054   -0.0005416730265174779
0.0007467020103061523   -0.0011487229123624191   -0.00029819441021516256
0.0013562795448304038   -0.0033661353967908065   -0.0005779593264359519
9.501471758188487e-05   -0.0011076811434490423   -0.00029474739030491804
0.000744117059665091   -0.0011323246794174553   -0.0003439440503770497
0.0013562795448304038   -0.0033661353967908065   -0.0005779593264359519
0.0007467020103061523   -0.0011487229123624191   -0.00029819441021516256
9.501471758188487e-05   -0.0011076811434490423   -0.00029474739030491804
0.0013562795448304038   -0.0033661353967908065   -0.0005779593264359519
0.0001365669509415578   -0.0033470884655002393   -0.0005385154738848999
0.00012809975523968387   -0.0033482621307378492   -0.0005372125998743302
9.501471758188487e-05   -0.0011076811434490423   -0.00029474739030491804
0.0013562795448304038   -0.0033661353967908065   -0.0005779593264359519
0.00012809975523968387   -0.0033482621307378492   -0.0005372125998743302
0.0007467020103061523   -0.0011487229123624191   -0.00029819441021516256
9.501471758188487e-05   -0.0011076811434490423   -0.00029474739030491804
0.0001365669509415578   -0.0033470884655002393   -0.0005385154738848999
0.000744117059665091   -0.0011323246794174553   -0.0003439440503770497
0.00010987680740287227   -0.0010838854530024272   -0.0002993268336105083
0.0001365669509415578   -0.0033470884655002393   -0.0005385154738848999
0.0013562795448304038   -0.0033661353967908065   -0.0005779593264359519
0.000744117059665091   -0.0011323246794174553   -0.0003439440503770497
0.0013536698079905807   -0.0033248325287606934   -0.000617262123471913
0.00010987680740287227   -0.0010838854530024272   -0.0002993268336105083
0.000759117442837531   -0.0010887078406397561   -0.0003888871772043679
0.0013536698079905807   -0.0033248325287606934   -0.000617262123471913
0.000744117059665091   -0.0011323246794174553   -0.0003439440503770497
0.00010987680740287227   -0.0010838854530024272   -0.0002993268336105083
0.0013536698079905807   -0.0033248325287606934   -0.000617262123471913
0.0001455812467011911   -0.0033270489831617226   -0.0005437348811602575
0.0001365669509415578   -0.0033470884655002393   -0.0005385154738848999
0.00010987680740287227   -0.0010838854530024272   -0.0002993268336105083
0.0013536698079905807   -0.0033248325287606934   -0.000617262123471913
0.0001365669509415578   -0.0033470884655002393   -0.0005385154738848999
0.000744117059665091   -0.0011323246794174553   -0.0003439440503770497
0.0007446664740960416   -0.001142855589718364   -0.0002505898161959975
0.0013540982101964394   -0.003384986825568616   -0.0005097493982576867
0.0016849523177903394   -0.001275993942286279   -0.00023701167533662072
0.0007467020103061523   -0.0011487229123624191   -0.00029819441021516256
0.0013540982101964394   -0.003384986825568616   -0.0005097493982576867
0.002849561842650211   -0.003484915798367909   -0.0005023608792255266
0.0016849523177903394   -0.001275993942286279   -0.00023701167533662072
0.0027931643881366187   -0.0034749979439112192   -0.0005743244906925666
0.0007467020103061523   -0.0011487229123624191   -0.00029819441021516256
0.0015833661906232515   -0.0012617770206526592   -0.00034517073855402317
0.0027931643881366187   -0.0034749979439112192   -0.0005743244906925666
0.0016849523177903394   -0.001275993942286279   -0.00023701167533662072
0.0007467020103061523   -0.0011487229123624191   -0.00029819441021516256
0.0027931643881366187   -0.0034749979439112192   -0.0005743244906925666
0.0013615070290641242   -0.00338452479214054   -0.0005416730265174779
0.0013540982101964394   -0.003384986825568616   -0.0005097493982576867
0.0007467020103061523   -0.0011487229123624191   -0.00029819441021516256
0.0027931643881366187   -0.0034749979439112192   -0.0005743244906925666
0.0013540982101964394   -0.003384986825568616   -0.0005097493982576867
0.0016849523177903394   -0.001275993942286279   -0.00023701167533662072
0.0007467020103061523   -0.0011487229123624191   -0.00029819441021516256
0.0013615070290641242   -0.00338452479214054   -0.0005416730265174779
0.0015833661906232515   -0.0012617770206526592   -0.00034517073855402317
0.000744117059665091   -0.0011323246794174553   -0.0003439440503770497
0.0013615070290641242   -0.00338452479214054   -0.0005416730265174779
0.0027931643881366187   -0.0034749979439112192   -0.0005743244906925666
0.0015833661906232515   -0.0012617770206526592   -0.00034517073855402317
0.0027426284918667153   -0.003446706333968959   -0.0006554547873104019
0.000744117059665091   -0.0011323246794174553   -0.0003439440503770497
0.0015367976811274794   -0.001235550706302887   -0.00043669773148275376
0.0027426284918667153   -0.003446706333968959   -0.0006554547873104019
0.0015833661906232515   -0.0012617770206526592   -0.00034517073855402317
0.000744117059665091   -0.0011323246794174553   -0.0003439440503770497
0.0027426284918667153   -0.003446706333968959   -0.0006554547873104019
0.0013562795448304038   -0.0033661353967908065   -0.0005779593264359519
0.0013615070290641242   -0.00338452479214054   -0.0005416730265174779
0.000744117059665091   -0.0011323246794174553   -0.0003439440503770497
0.0027426284918667153   -0.003446706333968959   -0.0006554547873104019
0.0013615070290641242   -0.00338452479214054   -0.0005416730265174779
0.0015833661906232515   -0.0012617770206526592   -0.00034517073855402317
0.000744117059665091   -0.0011323246794174553   -0.0003439440503770497
0.0013562795448304038   -0.0033661353967908065   -0.0005779593264359519
0.0015367976811274794   -0.001235550706302887   -0.00043669773148275376
0.000759117442837531   -0.0010887078406397561   -0.0003888871772043679
0.0013562795448304038   -0.0033661353967908065   -0.0005779593264359519
0.0027426284918667153   -0.003446706333968959   -0.0006554547873104019
0.0015367976811274794   -0.001235550706302887   -0.00043669773148275376
0.0026662318575202647   -0.0033841108710954463   -0.0007400135647267858
0.000759117442837531   -0.0010887078406397561   -0.0003888871772043679
0.0014670417709340775   -0.0011686726098593188   -0.0005336960225102012
0.0026662318575202647   -0.0033841108710954463   -0.0007400135647267858
0.0015367976811274794   -0.001235550706302887   -0.00043669773148275376
0.000759117442837531   -0.0010887078406397561   -0.0003888871772043679
0.0026662318575202647   -0.0033841108710954463   -0.0007400135647267858
0.0013536698079905807   -0.0033248325287606934   -0.000617262123471913
0.0013562795448304038   -0.0033661353967908065   -0.0005779593264359519
0.000759117442837531   -0.0010887078406397561   -0.0003888871772043679
0.0026662318575202647   -0.0033841108710954463   -0.0007400135647267858
0.0013562795448304038   -0.0033661353967908065   -0.0005779593264359519
0.0015367976811274794   -0.001235550706302887   -0.00043669773148275376
-0.0035470172693591487   -0.0034949983156657284   -0.0008595277100723933
-0.0048524199798288346   -0.00653855526079056   -0.0009798935083491142
-0.0022636451661449445   -0.003382061188266845   -0.00070811535728569
-0.0036520673472444933   -0.0035752343185308237   -0.0007460068835437418
-0.0048524199798288346   -0.00653855526079056   -0.0009798935083491142
-0.003120606834166087   -0.006452508046149107   -0.0008575579044455233
-0.0022636451661449445   -0.003382061188266845   -0.00070811535728569
-0.0031263236902561472   -0.006501913046982644   -0.0008034094096466364
-0.0036520673472444933   -0.0035752343185308237   -0.0007460068835437418
-0.0022654000182302262   -0.0034394925879961936   -0.0006381212682904318
-0.0031263236902561472   -0.006501913046982644   -0.0008034094096466364
-0.0022636451661449445   -0.003382061188266845   -0.00070811535728569
-0.0036520673472444933   -0.0035752343185308237   -0.0007460068835437418
-0.0031263236902561472   -0.006501913046982644   -0.0008034094096466364
-0.004937160355235224   -0.006606139909923687   -0.0008955869684417087
-0.0048524199798288346   -0.00653855526079056   -0.0009798935083491142
-0.0036520673472444933   -0.0035752343185308237   -0.0007460068835437418
-0.0031263236902561472   -0.006501913046982644   -0.0008034094096466364
-0.0048524199798288346   -0.00653855526079056   -0.0009798935083491142
-0.0022636451661449445   -0.003382061188266845   -0.00070811535728569
-0.0036520673472444933   -0.0035752343185308237   -0.0007460068835437418
-0.004937160355235224   -0.006606139909923687   -0.0008955869684417087
-0.0022654000182302262   -0.0034394925879961936   -0.0006381212682904318
-0.0037246673383934284   -0.0036206292234489314   -0.000634933371910254
-0.004937160355235224   -0.006606139909923687   -0.0008955869684417087
-0.0031263236902561472   -0.006501913046982644   -0.0008034094096466364
-0.0022654000182302262   -0.0034394925879961936   -0.0006381212682904318
-0.0031331929788678513   -0.006536387591315633   -0.000753220582454386
-0.0037246673383934284   -0.0036206292234489314   -0.000634933371910254
-0.002273333929100422   -0.0034745877414850794   -0.0005709197395834953
-0.0031331929788678513   -0.006536387591315633   -0.000753220582454386
-0.0022654000182302262   -0.0034394925879961936   -0.0006381212682904318
-0.0037246673383934284   -0.0036206292234489314   -0.000634933371910254
-0.0031331929788678513   -0.006536387591315633   -0.000753220582454386
-0.004990065417828181   -0.006648625281028039   -0.00081708075769319
-0.004937160355235224   -0.006606139909923687   -0.0008955869684417087
-0.0037246673383934284   -0.0036206292234489314   -0.000634933371910254
-0.0031331929788678513   -0.006536387591315633   -0.000753220582454386
-0.004937160355235224   -0.006606139909923687   -0.0008955869684417087
-0.0022654000182302262   -0.0034394925879961936   -0.0006381212682904318
-0.0037246673383934284   -0.0036206292234489314   -0.000634933371910254
-0.004990065417828181   -0.006648625281028039   -0.00081708075769319
-0.002273333929100422   -0.0034745877414850794   -0.0005709197395834953
-0.0038104355074655896   -0.003647274520442917   -0.000534010041647947
-0.004990065417828181   -0.006648625281028039   -0.00081708075769319
-0.0031331929788678513   -0.006536387591315633   -0.000753220582454386
-0.002273333929100422   -0.0034745877414850794   -0.0005709197395834953
-0.003126129368950345   -0.006559211215597017   -0.000706145054614981
-0.0038104355074655896   -0.003647274520442917   -0.000534010041647947
-0.0022655360042629132   -0.0034929402023558993   -0.0005080766639197368
-0.003126129368950345   -0.006559211215597017   -0.000706145054614981
-0.002273333929100422   -0.0034745877414850794   -0.0005709197395834953
-0.0038104355074655896   -0.003647274520442917   -0.000534010041647947
-0.003126129368950345   -0.006559211215597017   -0.000706145054614981
-0.00505025976090815   -0.006679411081708174   -0.0007449183221923817
-0.004990065417828181   -0.006648625281028039   -0.00081708075769319
-0.0038104355074655896   -0.003647274520442917   -0.000534010041647947
-0.003126129368950345   -0.006559211215597017   -0.000706145054614981
-0.004990065417828181   -0.006648625281028039   -0.00081708075769319
-0.002273333929100422   -0.0034745877414850794   -0.0005709197395834953
-0.0022636451661449445   -0.003382061188266845   -0.00070811535728569
-0.003120606834166087   -0.006452508046149107   -0.0008575579044455233
-0.0010519180390803468   -0.003329503198739992   -0.0006048439628683335
-0.0022654000182302262   -0.0034394925879961936   -0.0006381212682904318
-0.003120606834166087   -0.006452508046149107   -0.0008575579044455233
-0.0014893316964712706   -0.006409508420496336   -0.0007726147056176018
-0.0010519180390803468   -0.003329503198739992   -0.0006048439628683335
-0.0014844850430314313   -0.006441013888091883   -0.000741902750774102
-0.0022654000182302262   -0.0034394925879961936   -0.0006381212682904318
-0.001041906875762766   -0.0033659687898687524   -0.0005688892446650041
-0.0014844850430314313   -0.006441013888091883   -0.000741902750774102
-0.0010519180390803468   -0.003329503198739992   -0.0006048439628683335
-0.0022654000182302262   -0.0034394925879961936   -0.0006381212682904318
-0.0014844850430314313   -0.006441013888091883   -0.000741902750774102
-0.0031263236902561472   -0.006501913046982644   -0.0008034094096466364
-0.003120606834166087   -0.006452508046149107   -0.0008575579044455233
-0.0022654000182302262   -0.0034394925879961936   -0.0006381212682904318
-0.0014844850430314313   -0.006441013888091883   -0.000741902750774102
-0.003120606834166087   -0.006452508046149107   -0.0008575579044455233
-0.0010519180390803468   -0.003329503198739992   -0.0006048439628683335
-0.0022654000182302262   -0.0034394925879961936   -0.0006381212682904318
-0.0031263236902561472   -0.006501913046982644   -0.0008034094096466364
-0.001041906875762766   -0.0033659687898687524   -0.0005688892446650041
-0.002273333929100422   -0.0034745877414850794   -0.0005709197395834953
-0.0031263236902561472   -0.006501913046982644   -0.0008034094096466364
-0.0014844850430314313   -0.006441013888091883   -0.000741902750774102
-0.001041906875762766   -0.0033659687898687524   -0.0005688892446650041
-0.0014788060845680776   -0.00645955645021286   -0.0007149543267894772
-0.002273333929100422   -0.0034745877414850794   -0.0005709197395834953
-0.0010329299477663876   -0.0033836865518071845   -0.0005363357140878651
-0.0014788060845680776   -0.00645955645021286   -0.0007149543267894772
-0.001041906875762766   -0.0033659687898687524   -0.0005688892446650041
-0.002273333929100422   -0.0034745877414850794   -0.0005709197395834953
-0.0014788060845680776   -0.00645955645021286   -0.0007149543267894772
-0.0031331929788678513   -0.006536387591315633   -0.000753220582454386
-0.0031263236902561472   -0.006501913046982644   -0.0008034094096466364
-0.002273333929100422   -0.0034745877414850794   -0.0005709197395834953
-0.0014788060845680776   -0.00645955645021286   -0.0007149543267894772
-0.0031263236902561472   -0.006501913046982644   -0.0008034094096466364
-0.001041906875762766   -0.0033659687898687524   -0.0005688892446650041
-0.002273333929100422   -0.0034745877414850794   -0.0005709197395834953
-0.0031331929788678513   -0.006536387591315633   -0.000753220582454386
-0.0010329299477663876   -0.0033836865518071845   -0.0005363357140878651
-0.0022655360042629132   -0.0034929402023558993   -0.0005080766639197368
-0.0031331929788678513   -0.006536387591315633   -0.000753220582454386
-0.0014788060845680776   -0.00645955645021286   -0.0007149543267894772
-0.0010329299477663876   -0.0033836865518071845   -0.0005363357140878651
-0.0014701689596035036   -0.006465400950127459   -0.0006917614768342523
-0.0022655360042629132   -0.0034929402023558993   -0.0005080766639197368
-0.0010199703062339263   -0.0033833219712067256   -0.0005080415876750524
-0.0014701689596035036   -0.006465400950127459   -0.0006917614768342523
-0.0010329299477663876   -0.0033836865518071845   -0.0005363357140878651
-0.0022655360042629132   -0.0034929402023558993   -0.0005080766639197368
-0.0014701689596035036   -0.006465400950127459   -0.0006917614768342523
-0.003126129368950345   -0.006559211215597017   -0.000706145054614981
-0.0031331929788678513   -0.006536387591315633   -0.000753220582454386
-0.0022655360042629132   -0.0034929402023558993   -0.0005080766639197368
-0.0014701689596035036   -0.006465400950127459   -0.0006917614768342523
-0.0031331929788678513   -0.006536387591315633   -0.000753220582454386
-0.0010329299477663876   -0.0033836865518071845   -0.0005363357140878651
-0.0010519180390803468   -0.003329503198739992   -0.0006048439628683335
-0.0014893316964712706   -0.006409508420496336   -0.0007726147056176018
0.00011595739628404249   -0.0033311241961176863   -0.000539766455240261
-0.001041906875762766   -0.0033659687898687524   -0.0005688892446650041
-0.0014893316964712706   -0.006409508420496336   -0.0007726147056176018
9.355720315872167e-05   -0.006407200710334986   -0.0007201771884878218
0.00011595739628404249   -0.0033311241961176863   -0.000539766455240261
0.00010157445990438702   -0.006421059417251609   -0.0007127834302095043
-0.001041906875762766   -0.0033659687898687524   -0.0005688892446650041
0.00012809975523968387   -0.0033482621307378492   -0.0005372125998743302
0.00010157445990438702   -0.006421059417251609   -0.0007127834302095043
0.00011595739628404249   -0.0033311241961176863   -0.000539766455240261
-0.001041906875762766   -0.0033659687898687524   -0.0005688892446650041
0.00010157445990438702   -0.006421059417251609   -0.0007127834302095043
-0.0014844850430314313   -0.006441013888091883   -0.000741902750774102
-0.0014893316964712706   -0.006409508420496336   -0.0007726147056176018
-0.001041906875762766   -0.0033659687898687524   -0.0005688892446650041
0.00010157445990438702   -0.006421059417251609   -0.0007127834302095043
-0.0014893316964712706   -0.006409508420496336   -0.0007726147056176018
0.00011595739628404249   -0.0033311241961176863   -0.000539766455240261
-0.001041906875762766   -0.0033659687898687524   -0.0005688892446650041
-0.0014844850430314313   -0.006441013888091883   -0.000741902750774102
0.00012809975523968387   -0.0033482621307378492   -0.0005372125998743302
-0.0010329299477663876   -0.0033836865518071845   -0.0005363357140878651
-0.0014844850430314313   -0.006441013888091883   -0.000741902750774102
0.00010157445990438702   -0.006421059417251609   -0.0007127834302095043
0.00012809975523968387   -0.0033482621307378492   -0.0005372125998743302
0.00010711248819841866   -0.006422005013695715   -0.0007090586976878754
-0.0010329299477663876   -0.0033836865518071845   -0.0005363357140878651
0.0001365669509415578   -0.0033470884655002393   -0.0005385154738848999
0.00010711248819841866   -0.006422005013695715   -0.0007090586976878754
0.00012809975523968387   -0.0033482621307378492   -0.0005372125998743302
-0.0010329299477663876   -0.0033836865518071845   -0.0005363357140878651
0.00010711248819841866   -0.006422005013695715   -0.0007090586976878754
-0.0014788060845680776   -0.00645955645021286   -0.0007149543267894772
-0.0014844850430314313   -0.006441013888091883   -0.000741902750774102
-0.0010329299477663876   -0.0033836865518071845   -0.0005363357140878651
0.00010711248819841866   -0.006422005013695715   -0.0007090586976878754
-0.0014844850430314313   -0.006441013888091883   -0.000741902750774102
0.00012809975523968387   -0.0033482621307378492   -0.0005372125998743302
-0.0010329299477663876   -0.0033836865518071845   -0.0005363357140878651
-0.0014788060845680776   -0.00645955645021286   -0.0007149543267894772
0.0001365669509415578   -0.0033470884655002393   -0.0005385154738848999
-0.0010199703062339263   -0.0033833219712067256   -0.0005080415876750524
-0.0014788060845680776   -0.00645955645021286   -0.0007149543267894772
0.00010711248819841866   -0.006422005013695715   -0.0007090586976878754
0.0001365669509415578   -0.0033470884655002393   -0.0005385154738848999
0.00011144000801772825   -0.006409846496068162   -0.0007092217012282077
-0.0010199703062339263   -0.0033833219712067256   -0.0005080415876750524
0.0001455812467011911   -0.0033270489831617226   -0.0005437348811602575
0.00011144000801772825   -0.006409846496068162   -0.0007092217012282077
0.0001365669509415578   -0.0033470884655002393   -0.0005385154738848999
-0.0010199703062339263   -0.0033833219712067256   -0.0005080415876750524
0.00011144000801772825   -0.006409846496068162   -0.0007092217012282077
-0.0014701689596035036   -0.006465400950127459   -0.0006917614768342523
-0.0014788060845680776   -0.00645955645021286   -0.0007149543267894772
-0.0010199703062339263   -0.0033833219712067256   -0.0005080415876750524
0.00011144000801772825   -0.006409846496068162   -0.0007092217012282077
-0.0014788060845680776   -0.00645955645021286   -0.0007149543267894772
0.0001365669509415578   -0.0033470884655002393   -0.0005385154738848999
0.00011595739628404249   -0.0033311241961176863   -0.000539766455240261
9.355720315872167e-05   -0.006407200710334986   -0.0007201771884878218
0.0013540982101964394   -0.003384986825568616   -0.0005097493982576867
0.00012809975523968387   -0.0033482621307378492   -0.0005372125998743302
9.355720315872167e-05   -0.006407200710334986   -0.0007201771884878218
0.0017443212626116567   -0.0064431560265622925   -0.0006993822402815153
0.0013540982101964394   -0.003384986825568616   -0.0005097493982576867
0.0017515780489368291   -0.006440800418442107   -0.0007157818451758848
0.00012809975523968387   -0.0033482621307378492   -0.0005372125998743302
0.0013615070290641242   -0.00338452479214054   -0.0005416730265174779
0.0017515780489368291   -0.006440800418442107   -0.0007157818451758848
0.0013540982101964394   -0.003384986825568616   -0.0005097493982576867
0.00012809975523968387   -0.0033482621307378492   -0.0005372125998743302
0.0017515780489368291   -0.006440800418442107   -0.0007157818451758848
0.00010157445990438702   -0.006421059417251609   -0.0007127834302095043
9.355720315872167e-05   -0.006407200710334986   -0.0007201771884878218
0.00012809975523968387   -0.0033482621307378492   -0.0005372125998743302
0.0017515780489368291   -0.006440800418442107   -0.0007157818451758848
9.355720315872167e-05   -0.006407200710334986   -0.0007201771884878218
0.0013540982101964394   -0.003384986825568616   -0.0005097493982576867
0.00012809975523968387   -0.0033482621307378492   -0.0005372125998743302
0.00010157445990438702   -0.006421059417251609   -0.0007127834302095043
0.0013615070290641242   -0.00338452479214054   -0.0005416730265174779
0.0001365669509415578   -0.0033470884655002393   -0.0005385154738848999
0.00010157445990438702   -0.006421059417251609   -0.0007127834302095043
0.0017515780489368291   -0.006440800418442107   -0.0007157818451758848
0.0013615070290641242   -0.00338452479214054   -0.0005416730265174779
0.0017484157734017334   -0.006425846571834032   -0.0007355808941781553
0.0001365669509415578   -0.0033470884655002393   -0.0005385154738848999
0.0013562795448304038   -0.0033661353967908065   -0.0005779593264359519
0.0017484157734017334   -0.006425846571834032   -0.0007355808941781553
0.0013615070290641242   -0.00338452479214054   -0.0005416730265174779
0.0001365669509415578   -0.0033470884655002393   -0.0005385154738848999
0.0017484157734017334   -0.006425846571834032   -0.0007355808941781553
0.00010711248819841866   -0.006422005013695715   -0.0007090586976878754
0.00010157445990438702   -0.006421059417251609   -0.0007127834302095043
0.0001365669509415578   -0.0033470884655002393   -0.0005385154738848999
0.0017484157734017334   -0.006425846571834032   -0.0007355808941781553
0.00010157445990438702   -0.006421059417251609   -0.0007127834302095043
0.0013615070290641242   -0.00338452479214054   -0.0005416730265174779
0.0001365669509415578   -0.0033470884655002393   -0.0005385154738848999
0.00010711248819841866   -0.006422005013695715   -0.0007090586976878754
0.0013562795448304038   -0.0033661353967908065   -0.0005779593264359519
0.0001455812467011911   -0.0033270489831617226   -0.0005437348811602575
0.00010711248819841866   -0.006422005013695715   -0.0007090586976878754
0.0017484157734017334   -0.006425846571834032   -0.0007355808941781553
0.0013562795448304038   -0.0033661353967908065   -0.0005779593264359519
0.0017429641294940178   -0.006395132787822975   -0.0007591855719751491
0.0001455812467011911   -0.0033270489831617226   -0.0005437348811602575
0.0013536698079905807   -0.0033248325287606934   -0.000617262123471913
0.0017429641294940178   -0.006395132787822975   -0.0007591855719751491
0.0013562795448304038   -0.0033661353967908065   -0.0005779593264359519
0.0001455812467011911   -0.0033270489831617226   -0.0005437348811602575
0.0017429641294940178   -0.006395132787822975   -0.0007591855719751491
0.00011144000801772825   -0.006409846496068162   -0.0007092217012282077
0.00010711248819841866   -0.006422005013695715   -0.0007090586976878754
0.0001455812467011911   -0.0033270489831617226   -0.0005437348811602575
0.0017429641294940178   -0.006395132787822975   -0.0007591855719751491
0.00010711248819841866   -0.006422005013695715   -0.0007090586976878754
0.0013562795448304038   -0.0033661353967908065   -0.0005779593264359519
0.0013540982101964394   -0.003384986825568616   -0.0005097493982576867
0.0017443212626116567   -0.0064431560265622925   -0.0006993822402815153
0.002849561842650211   -0.003484915798367909   -0.0005023608792255266
0.0013615070290641242   -0.00338452479214054   -0.0005416730265174779
0.0017443212626116567   -0.0064431560265622925   -0.0006993822402815153
0.0036249553152052174   -0.006508119132769019   -0.0007007138963410223
0.002849561842650211   -0.003484915798367909   -0.0005023608792255266
0.003595290772788597   -0.006496358641486375   -0.0007438455232984456
0.0013615070290641242   -0.00338452479214054   -0.0005416730265174779
0.0027931643881366187   -0.0034749979439112192   -0.0005743244906925666
0.003595290772788597   -0.006496358641486375   -0.0007438455232984456
0.002849561842650211   -0.003484915798367909   -0.0005023608792255266
0.0013615070290641242   -0.00338452479214054   -0.0005416730265174779
0.003595290772788597   -0.006496358641486375   -0.0007438455232984456
0.0017515780489368291   -0.006440800418442107   -0.0007157818451758848
0.0017443212626116567   -0.0064431560265622925   -0.0006993822402815153
0.0013615070290641242   -0.00338452479214054   -0.0005416730265174779
0.003595290772788597   -0.006496358641486375   -0.0007438455232984456
0.0017443212626116567   -0.0064431560265622925   -0.0006993822402815153
0.002849561842650211   -0.003484915798367909   -0.0005023608792255266
0.0013615070290641242   -0.00338452479214054   -0.0005416730265174779
0.0017515780489368291   -0.006440800418442107   -0.0007157818451758848
0.0027931643881366187   -0.0034749979439112192   -0.0005743244906925666
0.0013562795448304038   -0.0033661353967908065   -0.0005779593264359519
0.0017515780489368291   -0.006440800418442107   -0.0007157818451758848
0.003595290772788597   -0.006496358641486375   -0.0007438455232984456
0.0027931643881366187   -0.0034749979439112192   -0.0005743244906925666
0.003565416479517452   -0.006473409226008624   -0.0007931081783704442
0.0013562795448304038   -0.0033661353967908065   -0.0005779593264359519
0.0027426284918667153   -0.003446706333968959   -0.0006554547873104019
0.003565416479517452   -0.006473409226008624   -0.0007931081783704442
0.0027931643881366187   -0.0034749979439112192   -0.0005743244906925666
0.0013562795448304038   -0.0033661353967908065   -0.0005779593264359519
0.003565416479517452   -0.006473409226008624   -0.0007931081783704442
0.0017484157734017334   -0.006425846571834032   -0.0007355808941781553
0.0017515780489368291   -0.006440800418442107   -0.0007157818451758848
0.0013562795448304038   -0.0033661353967908065   -0.0005779593264359519
0.003565416479517452   -0.006473409226008624   -0.0007931081783704442
0.0017515780489368291   -0.006440800418442107   -0.0007157818451758848
0.0027931643881366187   -0.0034749979439112192   -0.0005743244906925666
0.0013562795448304038   -0.0033661353967908065   -0.0005779593264359519
0.0017484157734017334   -0.006425846571834032   -0.0007355808941781553
0.0027426284918667153   -0.003446706333968959   -0.0006554547873104019
0.0013536698079905807   -0.0033248325287606934   -0.000617262123471913
0.0017484157734017334   -0.006425846571834032   -0.0007355808941781553
0.003565416479517452   -0.006473409226008624   -0.0007931081783704442
0.0027426284918667153   -0.003446706333968959   -0.0006554547873104019
0.0035111350062739227   -0.0064256726217648856   -0.0008485088362791438
0.0013536698079905807   -0.0033248325287606934   -0.000617262123471913
0.0026662318575202647   -0.0033841108710954463   -0.0007400135647267858
0.0035111350062739227   -0.0064256726217648856   -0.0008485088362791438
0.0027426284918667153   -0.003446706333968959   -0.0006554547873104019
0.0013536698079905807   -0.0033248325287606934   -0.000617262123471913
0.0035111350062739227   -0.0064256726217648856   -0.0008485088362791438
0.0017429641294940178   -0.006395132787822975   -0.0007591855719751491
0.0017484157734017334   -0.006425846571834032   -0.0007355808941781553
0.0013536698079905807   -0.0033248325287606934   -0.000617262123471913
0.0035111350062739227   -0.0064256726217648856   -0.0008485088362791438
0.0017484157734017334   -0.006425846571834032   -0.0007355808941781553
0.0027426284918667153   -0.003446706333968959   -0.0006554547873104019
-0.0048524199798288346   -0.00653855526079056   -0.0009798935083491142
-0.005786416945033185   -0.010138143930754814   -0.0010462643969588038
-0.003120606834166087   -0.006452508046149107   -0.0008575579044455233
-0.004937160355235224   -0.006606139909923687   -0.0008955869684417087
-0.005786416945033185   -0.010138143930754814   -0.0010462643969588038
-0.003758156192700429   -0.010083640551733488   -0.0009469407446277299
-0.003120606834166087   -0.006452508046149107   -0.0008575579044455233
-0.0037615209620516133   -0.01012597225476225   -0.0009083056514085061
-0.004937160355235224   -0.006606139909923687   -0.0008955869684417087
-0.0031263236902561472   -0.006501913046982644   -0.0008034094096466364
-0.0037615209620516133   -0.01012597225476225   -0.0009083056514085061
-0.003120606834166087   -0.006452508046149107   -0.0008575579044455233
-0.004937160355235224   -0.006606139909923687   -0.0008955869684417087
-0.0037615209620516133   -0.01012597225476225   -0.0009083056514085061
-0.00584284124362525   -0.010195470387865705   -0.0009905791738073317
-0.005786416945033185   -0.010138143930754814   -0.0010462643969588038
-0.004937160355235224   -0.006606139909923687   -0.0008955869684417087
-0.0037615209620516133   -0.01012597225476225   -0.0009083056514085061
-0.005786416945033185   -0.010138143930754814   -0.0010462643969588038
-0.003120606834166087   -0.006452508046149107   -0.0008575579044455233
-0.004937160355235224   -0.006606139909923687   -0.0008955869684417087
-0.00584284124362525   -0.010195470387865705   -0.0009905791738073317
-0.0031263236902561472   -0.006501913046982644   -0.0008034094096466364
-0.004990065417828181   -0.006648625281028039   -0.00081708075769319
-0.00584284124362525   -0.010195470387865705   -0.0009905791738073317
-0.0037615209620516133   -0.01012597225476225   -0.0009083056514085061
-0.0031263236902561472   -0.006501913046982644   -0.0008034094096466364
-0.003763551870057085   -0.010159631386558938   -0.000873540875480503
-0.004990065417828181   -0.006648625281028039   -0.00081708075769319
-0.0031331929788678513   -0.006536387591315633   -0.000753220582454386
-0.003763551870057085   -0.010159631386558938   -0.000873540875480503
-0.0031263236902561472   -0.006501913046982644   -0.0008034094096466364
-0.004990065417828181   -0.006648625281028039   -0.00081708075769319
-0.003763551870057085   -0.010159631386558938   -0.000873540875480503
-0.005874646434653397   -0.010236149150690472   -0.0009402867484988642
-0.00584284124362525   -0.010195470387865705   -0.0009905791738073317
-0.004990065417828181   -0.006648625281028039   -0.00081708075769319
-0.003763551870057085   -0.010159631386558938   -0.000873540875480503
-0.00584284124362525   -0.010195470387865705   -0.0009905791738073317
-0.0031263236902561472   -0.006501913046982644   -0.0008034094096466364
-0.004990065417828181   -0.006648625281028039   -0.00081708075769319
-0.005874646434653397   -0.010236149150690472   -0.0009402867484988642
-0.0031331929788678513   -0.006536387591315633   -0.000753220582454386
-0.00505025976090815   -0.006679411081708174   -0.0007449183221923817
-0.005874646434653397   -0.010236149150690472   -0.0009402867484988642
-0.003763551870057085   -0.010159631386558938   -0.000873540875480503
-0.0031331929788678513   -0.006536387591315633   -0.000753220582454386
-0.0037545952971657914   -0.010187420107308293   -0.0008421246313309555
-0.00505025976090815   -0.006679411081708174   -0.0007449183221923817
-0.003126129368950345   -0.006559211215597017   -0.000706145054614981
-0.0037545952971657914   -0.010187420107308293   -0.0008421246313309555
-0.0031331929788678513   -0.006536387591315633   -0.000753220582454386
-0.00505025976090815   -0.006679411081708174   -0.0007449183221923817
-0.0037545952971657914   -0.010187420107308293   -0.0008421246313309555
-0.005907311409189359   -0.010272815939599679   -0.0008960348508697832
-0.005874646434653397   -0.010236149150690472   -0.0009402867484988642
-0.00505025976090815   -0.006679411081708174   -0.0007449183221923817
-0.0037545952971657914   -0.010187420107308293   -0.0008421246313309555
-0.005874646434653397   -0.010236149150690472   -0.0009402867484988642
-0.0031331929788678513   -0.006536387591315633   -0.000753220582454386
-0.003120606834166087   -0.006452508046149107   -0.0008575579044455233
-0.003758156192700429   -0.010083640551733488   -0.0009469407446277299
-0.0014893316964712706   -0.006409508420496336   -0.0007726147056176018
-0.0031263236902561472   -0.006501913046982644   -0.0008034094096466364
-0.003758156192700429   -0.010083640551733488   -0.0009469407446277299
-0.0018576828941850342   -0.01005530499408579   -0.0008782013477400823
-0.0014893316964712706   -0.006409508420496336   -0.0007726147056176018
-0.0018530305555643325   -0.010081783517875939   -0.0008525606229824334
-0.0031263236902561472   -0.006501913046982644   -0.0008034094096466364
-0.0014844850430314313   -0.006441013888091883   -0.000741902750774102
-0.0018530305555643325   -0.010081783517875939   -0.0008525606229824334
-0.0014893316964712706   -0.006409508420496336   -0.0007726147056176018
-0.0031263236902561472   -0.006501913046982644   -0.0008034094096466364
-0.0018530305555643325   -0.010081783517875939   -0.0008525606229824334
-0.0037615209620516133   -0.01012597225476225   -0.0009083056514085061
-0.003758156192700429   -0.010083640551733488   -0.0009469407446277299
-0.0031263236902561472   -0.006501913046982644   -0.0008034094096466364
-0.0018530305555643325   -0.010081783517875939   -0.0008525606229824334
-0.003758156192700429   -0.010083640551733488   -0.0009469407446277299
-0.0014893316964712706   -0.006409508420496336   -0.0007726147056176018
-0.0031263236902561472   -0.006501913046982644   -0.0008034094096466364
-0.0037615209620516133   -0.01012597225476225   -0.0009083056514085061
-0.0014844850430314313   -0.006441013888091883   -0.000741902750774102
-0.0031331929788678513   -0.006536387591315633   -0.000753220582454386
-0.0037615209620516133   -0.01012597225476225   -0.0009083056514085061
-0.0018530305555643325   -0.010081783517875939   -0.0008525606229824334
-0.0014844850430314313   -0.006441013888091883   -0.000741902750774102
-0.0018471015644024144   -0.010100984154354559   -0.0008307262031551398
-0.0031331929788678513   -0.006536387591315633   -0.000753220582454386
-0.0014788060845680776   -0.00645955645021286   -0.0007149543267894772
-0.0018471015644024144   -0.010100984154354559   -0.0008307262031551398
-0.0014844850430314313   -0.006441013888091883   -0.000741902750774102
-0.0031331929788678513   -0.006536387591315633   -0.000753220582454386
-0.0018471015644024144   -0.010100984154354559   -0.0008307262031551398
-0.003763551870057085   -0.010159631386558938   -0.000873540875480503
-0.0037615209620516133   -0.01012597225476225   -0.0009083056514085061
-0.0031331929788678513   -0.006536387591315633   -0.000753220582454386
-0.0018471015644024144   -0.010100984154354559   -0.0008307262031551398
-0.0037615209620516133   -0.01012597225476225   -0.0009083056514085061
-0.0014844850430314313   -0.006441013888091883   -0.000741902750774102
-0.0031331929788678513   -0.006536387591315633   -0.000753220582454386
-0.003763551870057085   -0.010159631386558938   -0.000873540875480503
-0.0014788060845680776   -0.00645955645021286   -0.0007149543267894772
-0.003126129368950345   -0.006559211215597017   -0.000706145054614981
-0.003763551870057085   -0.010159631386558938   -0.000873540875480503
-0.0018471015644024144   -0.010100984154354559   -0.0008307262031551398
-0.0014788060845680776   -0.00645955645021286   -0.0007149543267894772
-0.0018387923350653276   -0.01011303399068834   -0.0008127653986960191
-0.003126129368950345   -0.006559211215597017   -0.000706145054614981
-0.0014701689596035036   -0.006465400950127459   -0.0006917614768342523
-0.0018387923350653276   -0.01011303399068834   -0.0008127653986960191
-0.0014788060845680776   -0.00645955645021286   -0.0007149543267894772
-0.003126129368950345   -0.006559211215597017   -0.000706145054614981
-0.0018387923350653276   -0.01011303399068834   -0.0008127653986960191
-0.0037545952971657914   -0.010187420107308293   -0.0008421246313309555
-0.003763551870057085   -0.010159631386558938   -0.000873540875480503
-0.003126129368950345   -0.006559211215597017   -0.000706145054614981
-0.0018387923350653276   -0.01011303399068834   -0.0008127653986960191
-0.003763551870057085   -0.010159631386558938   -0.000873540875480503
-0.0014788060845680776   -0.00645955645021286   -0.0007149543267894772
-0.0014893316964712706   -0.006409508420496336   -0.0007726147056176018
-0.0018576828941850342   -0.01005530499408579   -0.0008782013477400823
9.355720315872167e-05   -0.006407200710334986   -0.0007201771884878218
-0.0014844850430314313   -0.006441013888091883   -0.000741902750774102
-0.0018576828941850342   -0.01005530499408579   -0.0008782013477400823
-9.095454878018655e-06   -0.010050328676857434   -0.0008384099303048936
9.355720315872167e-05   -0.006407200710334986   -0.0007201771884878218
-1.2990575322042045e-06   -0.010060833324921947   -0.000825878384154687
-0.0014844850430314313   -0.006441013888091883   -0.000741902750774102
0.00010157445990438702   -0.006421059417251609   -0.0007127834302095043
-1.2990575322042045e-06   -0.010060833324921947   -0.000825878384154687
9.355720315872167e-05   -0.006407200710334986   -0.0007201771884878218
-0.0014844850430314313   -0.006441013888091883   -0.000741902750774102
-1.2990575322042045e-06   -0.010060833324921947   -0.000825878384154687
-0.0018530305555643325   -0.010081783517875939   -0.0008525606229824334
-0.0018576828941850342   -0.01005530499408579   -0.0008782013477400823
-0.0014844850430314313   -0.006441013888091883   -0.000741902750774102
-1.2990575322042045e-06   -0.010060833324921947   -0.000825878384154687
-0.0018576828941850342   -0.01005530499408579   -0.0008782013477400823
9.355720315872167e-05   -0.006407200710334986   -0.0007201771884878218
-0.0014844850430314313   -0.006441013888091883   -0.000741902750774102
-0.0018530305555643325   -0.010081783517875939   -0.0008525606229824334
0.00010157445990438702   -0.006421059417251609   -0.0007127834302095043
-0.0014788060845680776   -0.00645955645021286   -0.0007149543267894772
-0.0018530305555643325   -0.010081783517875939   -0.0008525606229824334
-1.2990575322042045e-06   -0.010060833324921947   -0.000825878384154687
0.00010157445990438702   -0.006421059417251609   -0.0007127834302095043
4.572354848585845e-06   -0.010064008473451107   -0.0008171089645287481
-0.0014788060845680776   -0.00645955645021286   -0.0007149543267894772
0.00010711248819841866   -0.006422005013695715   -0.0007090586976878754
4.572354848585845e-06   -0.010064008473451107   -0.0008171089645287481
0.00010157445990438702   -0.006421059417251609   -0.0007127834302095043
-0.0014788060845680776   -0.00645955645021286   -0.0007149543267894772
4.572354848585845e-06   -0.010064008473451107   -0.0008171089645287481
-0.0018471015644024144   -0.010100984154354559   -0.0008307262031551398
-0.0018530305555643325   -0.010081783517875939   -0.0008525606229824334
-0.0014788060845680776   -0.00645955645021286   -0.0007149543267894772
4.572354848585845e-06   -0.010064008473451107   -0.0008171089645287481
-0.0018530305555643325   -0.010081783517875939   -0.0008525606229824334
0.00010157445990438702   -0.006421059417251609   -0.0007127834302095043
-0.0014788060845680776   -0.00645955645021286   -0.0007149543267894772
-0.0018471015644024144   -0.010100984154354559   -0.0008307262031551398
0.00010711248819841866   -0.006422005013695715   -0.0007090586976878754
-0.0014701689596035036   -0.006465400950127459   -0.0006917614768342523
-0.0018471015644024144   -0.010100984154354559   -0.0008307262031551398
4.572354848585845e-06   -0.010064008473451107   -0.0008171089645287481
0.00010711248819841866   -0.006422005013695715   -0.0007090586976878754
8.730051932883364e-06   -0.01005975265183753   -0.0008122647217694717
-0.0014701689596035036   -0.006465400950127459   -0.0006917614768342523
0.00011144000801772825   -0.006409846496068162   -0.0007092217012282077
8.730051932883364e-06   -0.01005975265183753   -0.0008122647217694717
0.00010711248819841866   -0.006422005013695715   -0.0007090586976878754
-0.0014701689596035036   -0.006465400950127459   -0.0006917614768342523
8.730051932883364e-06   -0.01005975265183753   -0.0008122647217694717
-0.0018387923350653276   -0.01011303399068834   -0.0008127653986960191
-0.0018471015644024144   -0.010100984154354559   -0.0008307262031551398
-0.0014701689596035036   -0.006465400950127459   -0.0006917614768342523
8.730051932883364e-06   -0.01005975265183753   -0.0008122647217694717
-0.0018471015644024144   -0.010100984154354559   -0.0008307262031551398
0.00010711248819841866   -0.006422005013695715   -0.0007090586976878754
9.355720315872167e-05   -0.006407200710334986   -0.0007201771884878218
-9.095454878018655e-06   -0.010050328676857434   -0.0008384099303048936
0.0017443212626116567   -0.0064431560265622925   -0.0006993822402815153
0.00010157445990438702   -0.006421059417251609   -0.0007127834302095043
-9.095454878018655e-06   -0.010050328676857434   -0.0008384099303048936
0.0019031270569098355   -0.010066687960046559   -0.0008274483358851993
0.0017443212626116567   -0.0064431560265622925   -0.0006993822402815153
0.0019125052334567113   -0.010062111785090774   -0.0008282932814804542
0.00010157445990438702   -0.006421059417251609   -0.0007127834302095043
0.0017515780489368291   -0.006440800418442107   -0.0007157818451758848
0.0019125052334567113   -0.010062111785090774   -0.0008282932814804542
0.0017443212626116567   -0.0064431560265622925   -0.0006993822402815153
0.00010157445990438702   -0.006421059417251609   -0.0007127834302095043
0.0019125052334567113   -0.010062111785090774   -0.0008282932814804542
-1.2990575322042045e-06   -0.010060833324921947   -0.000825878384154687
-9.095454878018655e-06   -0.010050328676857434   -0.0008384099303048936
0.00010157445990438702   -0.006421059417251609   -0.0007127834302095043
0.0019125052334567113   -0.010062111785090774   -0.0008282932814804542
-9.095454878018655e-06   -0.010050328676857434   -0.0008384099303048936
0.0017443212626116567   -0.0064431560265622925   -0.0006993822402815153
0.00010157445990438702   -0.006421059417251609   -0.0007127834302095043
-1.2990575322042045e-06   -0.010060833324921947   -0.000825878384154687
0.0017515780489368291   -0.006440800418442107   -0.0007157818451758848
0.00010711248819841866   -0.006422005013695715   -0.0007090586976878754
-1.2990575322042045e-06   -0.010060833324921947   -0.000825878384154687
0.0019125052334567113   -0.010062111785090774   -0.0008282932814804542
0.0017515780489368291   -0.006440800418442107   -0.0007157818451758848
0.0019144367392763637   -0.010050811066662915   -0.0008326947934031226
0.00010711248819841866   -0.006422005013695715   -0.0007090586976878754
0.0017484157734017334   -0.006425846571834032   -0.0007355808941781553
0.0019144367392763637   -0.010050811066662915   -0.0008326947934031226
0.0017515780489368291   -0.006440800418442107   -0.0007157818451758848
0.00010711248819841866   -0.006422005013695715   -0.0007090586976878754
0.0019144367392763637   -0.010050811066662915   -0.0008326947934031226
4.572354848585845e-06   -0.010064008473451107   -0.0008171089645287481
-1.2990575322042045e-06   -0.010060833324921947   -0.000825878384154687
0.00010711248819841866   -0.006422005013695715   -0.0007090586976878754
0.0019144367392763637   -0.010050811066662915   -0.0008326947934031226
-1.2990575322042045e-06   -0.010060833324921947   -0.000825878384154687
0.0017515780489368291   -0.006440800418442107   -0.0007157818451758848
0.00010711248819841866   -0.006422005013695715   -0.0007090586976878754
4.572354848585845e-06   -0.010064008473451107   -0.0008171089645287481
0.0017484157734017334   -0.006425846571834032   -0.0007355808941781553
0.00011144000801772825   -0.006409846496068162   -0.0007092217012282077
4.572354848585845e-06   -0.010064008473451107   -0.0008171089645287481
0.0019144367392763637   -0.010050811066662915   -0.0008326947934031226
0.0017484157734017334   -0.006425846571834032   -0.0007355808941781553
0.0019115020006723674   -0.010030000142496099   -0.0008407923314281873
0.00011144000801772825   -0.006409846496068162   -0.0007092217012282077
0.0017429641294940178   -0.006395132787822975   -0.0007591855719751491
0.0019115020006723674   -0.010030000142496099   -0.0008407923314281873
0.0017484157734017334   -0.006425846571834032   -0.0007355808941781553
0.00011144000801772825   -0.006409846496068162   -0.0007092217012282077
0.0019115020006723674   -0.010030000142496099   -0.0008407923314281873
8.730051932883364e-06   -0.01005975265183753   -0.0008122647217694717
4.572354848585845e-06   -0.010064008473451107   -0.0008171089645287481
0.00011144000801772825   -0.006409846496068162   -0.0007092217012282077
0.0019115020006723674   -0.010030000142496099   -0.0008407923314281873
4.572354848585845e-06   -0.010064008473451107   -0.0008171089645287481
0.0017484157734017334   -0.006425846571834032   -0.0007355808941781553
0.0017443212626116567   -0.0064431560265622925   -0.0006993822402815153
0.0019031270569098355   -0.010066687960046559   -0.0008274483358851993
0.0036249553152052174   -0.006508119132769019   -0.0007007138963410223
0.0017515780489368291   -0.006440800418442107   -0.0007157818451758848
0.0019031270569098355   -0.010066687960046559   -0.0008274483358851993
0.004014571740911482   -0.01009654883907374   -0.0008392275962944677
0.0036249553152052174   -0.006508119132769019   -0.0007007138963410223
0.00401282127403562   -0.010081712794710238   -0.0008543731060750924
0.0017515780489368291   -0.006440800418442107   -0.0007157818451758848
0.003595290772788597   -0.006496358641486375   -0.0007438455232984456
0.00401282127403562   -0.010081712794710238   -0.0008543731060750924
0.0036249553152052174   -0.006508119132769019   -0.0007007138963410223
0.0017515780489368291   -0.006440800418442107   -0.0007157818451758848
0.00401282127403562   -0.010081712794710238   -0.0008543731060750924
0.0019125052334567113   -0.010062111785090774   -0.0008282932814804542
0.0019031270569098355   -0.010066687960046559   -0.0008274483358851993
0.0017515780489368291   -0.006440800418442107   -0.0007157818451758848
0.00401282127403562   -0.010081712794710238   -0.0008543731060750924
0.0019031270569098355   -0.010066687960046559   -0.0008274483358851993
0.0036249553152052174   -0.006508119132769019   -0.0007007138963410223
0.0017515780489368291   -0.006440800418442107   -0.0007157818451758848
0.0019125052334567113   -0.010062111785090774   -0.0008282932814804542
0.003595290772788597   -0.006496358641486375   -0.0007438455232984456
0.0017484157734017334   -0.006425846571834032   -0.0007355808941781553
0.0019125052334567113   -0.010062111785090774   -0.0008282932814804542
0.00401282127403562   -0.010081712794710238   -0.0008543731060750924
0.003595290772788597   -0.006496358641486375   -0.0007438455232984456
0.004004493952258197   -0.010063369363200073   -0.000875297129792633
0.0017484157734017334   -0.006425846571834032   -0.0007355808941781553
0.003565416479517452   -0.006473409226008624   -0.0007931081783704442
0.004004493952258197   -0.010063369363200073   -0.000875297129792633
0.003595290772788597   -0.006496358641486375   -0.0007438455232984456
0.0017484157734017334   -0.006425846571834032   -0.0007355808941781553
0.004004493952258197   -0.010063369363200073   -0.000875297129792633
0.0019144367392763637   -0.010050811066662915   -0.0008326947934031226
0.0019125052334567113   -0.010062111785090774   -0.0008282932814804542
0.0017484157734017334   -0.006425846571834032   -0.0007355808941781553
0.004004493952258197   -0.010063369363200073   -0.000875297129792633
0.0019125052334567113   -0.010062111785090774   -0.0008282932814804542
0.003595290772788597   -0.006496358641486375   -0.0007438455232984456
0.0017484157734017334   -0.006425846571834032   -0.0007355808941781553
0.0019144367392763637   -0.010050811066662915   -0.0008326947934031226
0.003565416479517452   -0.006473409226008624   -0.0007931081783704442
0.0017429641294940178   -0.006395132787822975   -0.0007591855719751491
0.0019144367392763637   -0.010050811066662915   -0.0008326947934031226
0.004004493952258197   -0.010063369363200073   -0.000875297129792633
0.003565416479517452   -0.006473409226008624   -0.0007931081783704442
0.003978933769633379   -0.010028790020008494   -0.0009019575916144375
0.0017429641294940178   -0.006395132787822975   -0.0007591855719751491
0.0035111350062739227   -0.0064256726217648856   -0.0008485088362791438
0.003978933769633379   -0.010028790020008494   -0.0009019575916144375
0.003565416479517452   -0.006473409226008624   -0.0007931081783704442
0.0017429641294940178   -0.006395132787822975   -0.0007591855719751491
0.003978933769633379   -0.010028790020008494   -0.0009019575916144375
0.0019115020006723674   -0.010030000142496099   -0.0008407923314281873
0.0019144367392763637   -0.010050811066662915   -0.0008326947934031226
0.0017429641294940178   -0.006395132787822975   -0.0007591855719751491
0.003978933769633379   -0.010028790020008494   -0.0009019575916144375
0.0019144367392763637   -0.010050811066662915   -0.0008326947934031226
0.003565416479517452   -0.006473409226008624   -0.0007931081783704442
-0.005786416945033185   -0.010138143930754814   -0.0010462643969588038
-0.0063481556462075175   -0.014047446871323071   -0.0010667813222968562
-0.003758156192700429   -0.010083640551733488   -0.0009469407446277299
-0.00584284124362525   -0.010195470387865705   -0.0009905791738073317
-0.0063481556462075175   -0.014047446871323071   -0.0010667813222968562
-0.004175086793119185   -0.014025456388525639   -0.000988037958401634
-0.003758156192700429   -0.010083640551733488   -0.0009469407446277299
-0.004172438919705711   -0.014061410768025822   -0.000964427010201666
-0.00584284124362525   -0.010195470387865705   -0.0009905791738073317
-0.0037615209620516133   -0.01012597225476225   -0.0009083056514085061
-0.004172438919705711   -0.014061410768025822   -0.000964427010201666
-0.003758156192700429   -0.010083640551733488   -0.0009469407446277299
-0.00584284124362525   -0.010195470387865705   -0.0009905791738073317
-0.004172438919705711   -0.014061410768025822   -0.000964427010201666
-0.006373790876701296   -0.014095832192205764   -0.0010383353736591289
-0.0063481556462075175   -0.014047446871323071   -0.0010667813222968562
-0.00584284124362525   -0.010195470387865705   -0.0009905791738073317
-0.004172438919705711   -0.014061410768025822   -0.000964427010201666
-0.0063481556462075175   -0.014047446871323071   -0.0010667813222968562
-0.003758156192700429   -0.010083640551733488   -0.0009469407446277299
-0.00584284124362525   -0.010195470387865705   -0.0009905791738073317
-0.006373790876701296   -0.014095832192205764   -0.0010383353736591289
-0.0037615209620516133   -0.01012597225476225   -0.0009083056514085061
-0.005874646434653397   -0.010236149150690472   -0.0009402867484988642
-0.006373790876701296   -0.014095832192205764   -0.0010383353736591289
-0.004172438919705711   -0.014061410768025822   -0.000964427010201666
-0.0037615209620516133   -0.01012597225476225   -0.0009083056514085061
-0.00416585164414192   -0.014094694842308382   -0.000944740224990553
-0.005874646434653397   -0.010236149150690472   -0.0009402867484988642
-0.003763551870057085   -0.010159631386558938   -0.000873540875480503
-0.00416585164414192   -0.014094694842308382   -0.000944740224990553
-0.0037615209620516133   -0.01012597225476225   -0.0009083056514085061
-0.005874646434653397   -0.010236149150690472   -0.0009402867484988642
-0.00416585164414192   -0.014094694842308382   -0.000944740224990553
-0.006381143947904119   -0.014135437459041817   -0.0010155340697950571
-0.006373790876701296   -0.014095832192205764   -0.0010383353736591289
-0.005874646434653397   -0.010236149150690472   -0.0009402867484988642
-0.00416585164414192   -0.014094694842308382   -0.000944740224990553
-0.006373790876701296   -0.014095832192205764   -0.0010383353736591289
-0.0037615209620516133   -0.01012597225476225   -0.0009083056514085061
-0.005874646434653397   -0.010236149150690472   -0.0009402867484988642
-0.006381143947904119   -0.014135437459041817   -0.0010155340697950571
-0.003763551870057085   -0.010159631386558938   -0.000873540875480503
-0.005907311409189359   -0.010272815939599679   -0.0008960348508697832
-0.006381143947904119   -0.014135437459041817   -0.0010155340697950571
-0.00416585164414192   -0.014094694842308382   -0.000944740224990553
-0.003763551870057085   -0.010159631386558938   -0.000873540875480503
-0.004151119951247619   -0.014127856640530028   -0.0009286927022873232
-0.005907311409189359   -0.010272815939599679   -0.0008960348508697832
-0.0037545952971657914   -0.010187420107308293   -0.0008421246313309555
-0.004151119951247619   -0.014127856640530028   -0.0009286927022873232
-0.003763551870057085   -0.010159631386558938   -0.000873540875480503
-0.005907311409189359   -0.010272815939599679   -0.0008960348508697832
-0.004151119951247619   -0.014127856640530028   -0.0009286927022873232
-0.006382698821109062   -0.014178632210648563   -0.0009988733689392448
-0.006381143947904119   -0.014135437459041817   -0.0010155340697950571
-0.005907311409189359   -0.010272815939599679   -0.0008960348508697832
-0.004151119951247619   -0.014127856640530028   -0.0009286927022873232
-0.006381143947904119   -0.014135437459041817   -0.0010155340697950571
-0.003763551870057085   -0.010159631386558938   -0.000873540875480503
-0.003758156192700429   -0.010083640551733488   -0.0009469407446277299
-0.004175086793119185   -0.014025456388525639   -0.000988037958401634
-0.0018576828941850342   -0.01005530499408579   -0.0008782013477400823
-0.0037615209620516133   -0.01012597225476225   -0.0009083056514085061
-0.004175086793119185   -0.014025456388525639   -0.000988037958401634
-0.0021566904844128685   -0.014012612997043667   -0.0009344644783541033
-0.0018576828941850342   -0.01005530499408579   -0.0008782013477400823
-0.0021481837208276126   -0.014034291264903935   -0.0009137188450105743
-0.0037615209620516133   -0.01012597225476225   -0.0009083056514085061
-0.0018530305555643325   -0.010081783517875939   -0.0008525606229824334
-0.0021481837208276126   -0.014034291264903935   -0.0009137188450105743
-0.0018576828941850342   -0.01005530499408579   -0.0008782013477400823
-0.0037615209620516133   -0.01012597225476225   -0.0009083056514085061
-0.0021481837208276126   -0.014034291264903935   -0.0009137188450105743
-0.004172438919705711   -0.014061410768025822   -0.000964427010201666
-0.004175086793119185   -0.014025456388525639   -0.000988037958401634
-0.0037615209620516133   -0.01012597225476225   -0.0009083056514085061
-0.0021481837208276126   -0.014034291264903935   -0.0009137188450105743
-0.004175086793119185   -0.014025456388525639   -0.000988037958401634
-0.0018576828941850342   -0.01005530499408579   -0.0008782013477400823
-0.0037615209620516133   -0.01012597225476225   -0.0009083056514085061
-0.004172438919705711   -0.014061410768025822   -0.000964427010201666
-0.0018530305555643325   -0.010081783517875939   -0.0008525606229824334
-0.003763551870057085   -0.010159631386558938   -0.000873540875480503
-0.004172438919705711   -0.014061410768025822   -0.000964427010201666
-0.0021481837208276126   -0.014034291264903935   -0.0009137188450105743
-0.0018530305555643325   -0.010081783517875939   -0.0008525606229824334
-0.0021379865991805478   -0.014054266821304838   -0.0008968953203847144
-0.003763551870057085   -0.010159631386558938   -0.000873540875480503
-0.0018471015644024144   -0.010100984154354559   -0.0008307262031551398
-0.0021379865991805478   -0.014054266821304838   -0.0008968953203847144
-0.0018530305555643325   -0.010081783517875939   -0.0008525606229824334
-0.003763551870057085   -0.010159631386558938   -0.000873540875480503
-0.0021379865991805478   -0.014054266821304838   -0.0008968953203847144
-0.00416585164414192   -0.014094694842308382   -0.000944740224990553
-0.004172438919705711   -0.014061410768025822   -0.000964427010201666
-0.003763551870057085   -0.010159631386558938   -0.000873540875480503
-0.0021379865991805478   -0.014054266821304838   -0.0008968953203847144
-0.004172438919705711   -0.014061410768025822   -0.000964427010201666
-0.0018530305555643325   -0.010081783517875939   -0.0008525606229824334
-0.003763551870057085   -0.010159631386558938   -0.000873540875480503
-0.00416585164414192   -0.014094694842308382   -0.000944740224990553
-0.0018471015644024144   -0.010100984154354559   -0.0008307262031551398
-0.0037545952971657914   -0.010187420107308293   -0.0008421246313309555
-0.00416585164414192   -0.014094694842308382   -0.000944740224990553
-0.0021379865991805478   -0.014054266821304838   -0.0008968953203847144
-0.0018471015644024144   -0.010100984154354559   -0.0008307262031551398
-0.0021259137676220433   -0.014072607311152046   -0.0008840932488391797
-0.0037545952971657914   -0.010187420107308293   -0.0008421246313309555
-0.0018387923350653276   -0.01011303399068834   -0.0008127653986960191
-0.0021259137676220433   -0.014072607311152046   -0.0008840932488391797
-0.0018471015644024144   -0.010100984154354559   -0.0008307262031551398
-0.0037545952971657914   -0.010187420107308293   -0.0008421246313309555
-0.0021259137676220433   -0.014072607311152046   -0.0008840932488391797
-0.004151119951247619   -0.014127856640530028   -0.0009286927022873232
-0.00416585164414192   -0.014094694842308382   -0.000944740224990553
-0.0037545952971657914   -0.010187420107308293   -0.0008421246313309555
-0.0021259137676220433   -0.014072607311152046   -0.0008840932488391797
-0.00416585164414192   -0.014094694842308382   -0.000944740224990553
-0.0018471015644024144   -0.010100984154354559   -0.0008307262031551398
-0.0018576828941850342   -0.01005530499408579   -0.0008782013477400823
-0.0021566904844128685   -0.014012612997043667   -0.0009344644783541033
-9.095454878018655e-06   -0.010050328676857434   -0.0008384099303048936
-0.0018530305555643325   -0.010081783517875939   -0.0008525606229824334
-0.0021566904844128685   -0.014012612997043667   -0.0009344644783541033
-0.0001929676450066939   -0.014005107459362256   -0.0009070197674953793
-9.095454878018655e-06   -0.010050328676857434   -0.0008384099303048936
-0.00018143456308937516   -0.014012207110417878   -0.0008893586628000709
-0.0018530305555643325   -0.010081783517875939   -0.0008525606229824334
-1.2990575322042045e-06   -0.010060833324921947   -0.000825878384154687
-0.00018143456308937516   -0.014012207110417878   -0.0008893586628000709
-9.095454878018655e-06   -0.010050328676857434   -0.0008384099303048936
-0.0018530305555643325   -0.010081783517875939   -0.0008525606229824334
-0.00018143456308937516   -0.014012207110417878   -0.0008893586628000709
-0.0021481837208276126   -0.014034291264903935   -0.0009137188450105743
-0.0021566904844128685   -0.014012612997043667   -0.0009344644783541033
-0.0018530305555643325   -0.010081783517875939   -0.0008525606229824334
-0.00018143456308937516   -0.014012207110417878   -0.0008893586628000709
-0.0021566904844128685   -0.014012612997043667   -0.0009344644783541033
-9.095454878018655e-06   -0.010050328676857434   -0.0008384099303048936
-0.0018530305555643325   -0.010081783517875939   -0.0008525606229824334
-0.0021481837208276126   -0.014034291264903935   -0.0009137188450105743
-1.2990575322042045e-06   -0.010060833324921947   -0.000825878384154687
-0.0018471015644024144   -0.010100984154354559   -0.0008307262031551398
-0.0021481837208276126   -0.014034291264903935   -0.0009137188450105743
-0.00018143456308937516   -0.014012207110417878   -0.0008893586628000709
-1.2990575322042045e-06   -0.010060833324921947   -0.000825878384154687
-0.00017132320514618162   -0.014017478080059605   -0.000875590170024376
-0.0018471015644024144   -0.010100984154354559   -0.0008307262031551398
4.572354848585845e-06   -0.010064008473451107   -0.0008171089645287481
-0.00017132320514618162   -0.014017478080059605   -0.000875590170024376
-1.2990575322042045e-06   -0.010060833324921947   -0.000825878384154687
-0.0018471015644024144   -0.010100984154354559   -0.0008307262031551398
-0.00017132320514618162   -0.014017478080059605   -0.000875590170024376
-0.0021379865991805478   -0.014054266821304838   -0.0008968953203847144
-0.0021481837208276126   -0.014034291264903935   -0.0009137188450105743
-0.0018471015644024144   -0.010100984154354559   -0.0008307262031551398
-0.00017132320514618162   -0.014017478080059605   -0.000875590170024376
-0.0021481837208276126   -0.014034291264903935   -0.0009137188450105743
-1.2990575322042045e-06   -0.010060833324921947   -0.000825878384154687
-0.0018471015644024144   -0.010100984154354559   -0.0008307262031551398
-0.0021379865991805478   -0.014054266821304838   -0.0008968953203847144
4.572354848585845e-06   -0.010064008473451107   -0.0008171089645287481
-0.0018387923350653276   -0.01011303399068834   -0.0008127653986960191
-0.0021379865991805478   -0.014054266821304838   -0.0008968953203847144
-0.00017132320514618162   -0.014017478080059605   -0.000875590170024376
4.572354848585845e-06   -0.010064008473451107   -0.0008171089645287481
-0.00016336658641873738   -0.014020890043105914   -0.0008658534549878484
-0.0018387923350653276   -0.01011303399068834   -0.0008127653986960191
8.730051932883364e-06   -0.01005975265183753   -0.0008122647217694717
-0.00016336658641873738   -0.014020890043105914   -0.0008658534549878484
4.572354848585845e-06   -0.010064008473451107   -0.0008171089645287481
-0.0018387923350653276   -0.01011303399068834   -0.0008127653986960191
-0.00016336658641873738   -0.014020890043105914   -0.0008658534549878484
-0.0021259137676220433   -0.014072607311152046   -0.0008840932488391797
-0.0021379865991805478   -0.014054266821304838   -0.0008968953203847144
-0.0018387923350653276   -0.01011303399068834   -0.0008127653986960191
-0.00016336658641873738   -0.014020890043105914   -0.0008658534549878484
-0.0021379865991805478   -0.014054266821304838   -0.0008968953203847144
4.572354848585845e-06   -0.010064008473451107   -0.0008171089645287481
-9.095454878018655e-06   -0.010050328676857434   -0.0008384099303048936
-0.0001929676450066939   -0.014005107459362256   -0.0009070197674953793
0.0019031270569098355   -0.010066687960046559   -0.0008274483358851993
-1.2990575322042045e-06   -0.010060833324921947   -0.000825878384154687
-0.0001929676450066939   -0.014005107459362256   -0.0009070197674953793
0.0018304742848821748   -0.014001638974173333   -0.000905988559940549
0.0019031270569098355   -0.010066687960046559   -0.0008274483358851993
0.0018455216885030845   -0.013994587364046128   -0.0008915616197211892
-1.2990575322042045e-06   -0.010060833324921947   -0.000825878384154687
0.0019125052334567113   -0.010062111785090774   -0.0008282932814804542
0.0018455216885030845   -0.013994587364046128   -0.0008915616197211892
0.0019031270569098355   -0.010066687960046559   -0.0008274483358851993
-1.2990575322042045e-06   -0.010060833324921947   -0.000825878384154687
0.0018455216885030845   -0.013994587364046128   -0.0008915616197211892
-0.00018143456308937516   -0.014012207110417878   -0.0008893586628000709
-0.0001929676450066939   -0.014005107459362256   -0.0009070197674953793
-1.2990575322042045e-06   -0.010060833324921947   -0.000825878384154687
0.0018455216885030845   -0.013994587364046128   -0.0008915616197211892
-0.0001929676450066939   -0.014005107459362256   -0.0009070197674953793
0.0019031270569098355   -0.010066687960046559   -0.0008274483358851993
-1.2990575322042045e-06   -0.010060833324921947   -0.000825878384154687
-0.00018143456308937516   -0.014012207110417878   -0.0008893586628000709
0.0019125052334567113   -0.010062111785090774   -0.0008282932814804542
4.572354848585845e-06   -0.010064008473451107   -0.0008171089645287481
-0.00018143456308937516   -0.014012207110417878   -0.0008893586628000709
0.0018455216885030845   -0.013994587364046128   -0.0008915616197211892
0.0019125052334567113   -0.010062111785090774   -0.0008282932814804542
0.0018560101981630074   -0.013986552100738759   -0.0008809123188099754
4.572354848585845e-06   -0.010064008473451107   -0.0008171089645287481
0.0019144367392763637   -0.010050811066662915   -0.0008326947934031226
0.0018560101981630074   -0.013986552100738759   -0.0008809123188099754
0.0019125052334567113   -0.010062111785090774   -0.0008282932814804542
4.572354848585845e-06   -0.010064008473451107   -0.0008171089645287481
0.0018560101981630074   -0.013986552100738759   -0.0008809123188099754
-0.00017132320514618162   -0.014017478080059605   -0.000875590170024376
-0.00018143456308937516   -0.014012207110417878   -0.0008893586628000709
4.572354848585845e-06   -0.010064008473451107   -0.0008171089645287481
0.0018560101981630074   -0.013986552100738759   -0.0008809123188099754
-0.00018143456308937516   -0.014012207110417878   -0.0008893586628000709
0.0019125052334567113   -0.010062111785090774   -0.0008282932814804542
4.572354848585845e-06   -0.010064008473451107   -0.0008171089645287481
-0.00017132320514618162   -0.014017478080059605   -0.000875590170024376
0.0019144367392763637   -0.010050811066662915   -0.0008326947934031226
8.730051932883364e-06   -0.01005975265183753   -0.0008122647217694717
-0.00017132320514618162   -0.014017478080059605   -0.000875590170024376
0.0018560101981630074   -0.013986552100738759   -0.0008809123188099754
0.0019144367392763637   -0.010050811066662915   -0.0008326947934031226
0.0018590262138665804   -0.013974955465060088   -0.0008739657151754172
8.730051932883364e-06   -0.01005975265183753   -0.0008122647217694717
0.0019115020006723674   -0.010030000142496099   -0.0008407923314281873
0.0018590262138665804   -0.013974955465060088   -0.0008739657151754172
0.0019144367392763637   -0.010050811066662915   -0.0008326947934031226
8.730051932883364e-06   -0.01005975265183753   -0.0008122647217694717
0.0018590262138665804   -0.013974955465060088   -0.0008739657151754172
-0.00016336658641873738   -0.014020890043105914   -0.0008658534549878484
-0.00017132320514618162   -0.014017478080059605   -0.000875590170024376
8.730051932883364e-06   -0.01005975265183753   -0.0008122647217694717
0.0018590262138665804   -0.013974955465060088   -0.0008739657151754172
-0.00017132320514618162   -0.014017478080059605   -0.000875590170024376
0.0019144367392763637   -0.010050811066662915   -0.0008326947934031226
0.0019031270569098355   -0.010066687960046559   -0.0008274483358851993
0.0018304742848821748   -0.014001638974173333   -0.000905988559940549
0.004014571740911482   -0.01009654883907374   -0.0008392275962944677
0.0019125052334567113   -0.010062111785090774   -0.0008282932814804542
0.0018304742848821748   -0.014001638974173333   -0.000905988559940549
0.004022395116832963   -0.013996538453954613   -0.0009288938775537121
0.004014571740911482   -0.01009654883907374   -0.0008392275962944677
0.004051465161823706   -0.013978265110508531   -0.0009166809807493954
0.0019125052334567113   -0.010062111785090774   -0.0008282932814804542
0.00401282127403562   -0.010081712794710238   -0.0008543731060750924
0.004051465161823706   -0.013978265110508531   -0.0009166809807493954
0.004014571740911482   -0.01009654883907374   -0.0008392275962944677
0.0019125052334567113   -0.010062111785090774   -0.0008282932814804542
0.004051465161823706   -0.013978265110508531   -0.0009166809807493954
0.0018455216885030845   -0.013994587364046128   -0.0008915616197211892
0.0018304742848821748   -0.014001638974173333   -0.000905988559940549
0.0019125052334567113   -0.010062111785090774   -0.0008282932814804542
0.004051465161823706   -0.013978265110508531   -0.0009166809807493954
0.0018304742848821748   -0.014001638974173333   -0.000905988559940549
0.004014571740911482   -0.01009654883907374   -0.0008392275962944677
0.0019125052334567113   -0.010062111785090774   -0.0008282932814804542
0.0018455216885030845   -0.013994587364046128   -0.0008915616197211892
0.00401282127403562   -0.010081712794710238   -0.0008543731060750924
0.0019144367392763637   -0.010050811066662915   -0.0008326947934031226
0.0018455216885030845   -0.013994587364046128   -0.0008915616197211892
0.004051465161823706   -0.013978265110508531   -0.0009166809807493954
0.00401282127403562   -0.010081712794710238   -0.0008543731060750924
0.004067494591713831   -0.013963937740152109   -0.0009102199425980327
0.0019144367392763637   -0.010050811066662915   -0.0008326947934031226
0.004004493952258197   -0.010063369363200073   -0.000875297129792633
0.004067494591713831   -0.013963937740152109   -0.0009102199425980327
0.00401282127403562   -0.010081712794710238   -0.0008543731060750924
0.0019144367392763637   -0.010050811066662915   -0.0008326947934031226
0.004067494591713831   -0.013963937740152109   -0.0009102199425980327
0.0018560101981630074   -0.013986552100738759   -0.0008809123188099754
0.0018455216885030845   -0.013994587364046128   -0.0008915616197211892
0.0019144367392763637   -0.010050811066662915   -0.0008326947934031226
0.004067494591713831   -0.013963937740152109   -0.0009102199425980327
0.0018455216885030845   -0.013994587364046128   -0.0008915616197211892
0.00401282127403562   -0.010081712794710238   -0.0008543731060750924
0.0019144367392763637   -0.010050811066662915   -0.0008326947934031226
0.0018560101981630074   -0.013986552100738759   -0.0008809123188099754
0.004004493952258197   -0.010063369363200073   -0.000875297129792633
0.0019115020006723674   -0.010030000142496099   -0.0008407923314281873
0.0018560101981630074   -0.013986552100738759   -0.0008809123188099754
0.004067494591713831   -0.013963937740152109   -0.0009102199425980327
0.004004493952258197   -0.010063369363200073   -0.000875297129792633
0.004072795811945882   -0.013941271433492698   -0.0009096093016890058
0.0019115020006723674   -0.010030000142496099   -0.0008407923314281873
0.003978933769633379   -0.010028790020008494   -0.0009019575916144375
0.004072795811945882   -0.013941271433492698   -0.0009096093016890058
0.004004493952258197   -0.010063369363200073   -0.000875297129792633
0.0019115020006723674   -0.010030000142496099   -0.0008407923314281873
0.004072795811945882   -0.013941271433492698   -0.0009096093016890058
0.0018590262138665804   -0.013974955465060088   -0.0008739657151754172
0.0018560101981630074   -0.013986552100738759   -0.0008809123188099754
0.0019115020006723674   -0.010030000142496099   -0.0008407923314281873
0.004072795811945882   -0.013941271433492698   -0.0009096093016890058
0.0018560101981630074   -0.013986552100738759   -0.0008809123188099754
0.004004493952258197   -0.010063369363200073   -0.000875297129792633
-0.0063481556462075175   -0.014047446871323071   -0.0010667813222968562
-0.006539956631340863   -0.018018766683859357   -0.0010500574931257443
-0.004175086793119185   -0.014025456388525639   -0.000988037958401634
-0.006373790876701296   -0.014095832192205764   -0.0010383353736591289
-0.006539956631340863   -0.018018766683859357   -0.0010500574931257443
-0.004373220212300666   -0.01802933714844929   -0.000992152257790002
-0.004175086793119185   -0.014025456388525639   -0.000988037958401634
-0.004360866705989511   -0.01805883976455678   -0.0009832537505777437
-0.006373790876701296   -0.014095832192205764   -0.0010383353736591289
-0.004172438919705711   -0.014061410768025822   -0.000964427010201666
-0.004360866705989511   -0.01805883976455678   -0.0009832537505777437
-0.004175086793119185   -0.014025456388525639   -0.000988037958401634
-0.006373790876701296   -0.014095832192205764   -0.0010383353736591289
-0.004360866705989511   -0.01805883976455678   -0.0009832537505777437
-0.006531423986266128   -0.018058281153156254   -0.0010485750990440871
-0.006539956631340863   -0.018018766683859357   -0.0010500574931257443
-0.006373790876701296   -0.014095832192205764   -0.0010383353736591289
-0.004360866705989511   -0.01805883976455678   -0.0009832537505777437
-0.006539956631340863   -0.018018766683859357   -0.0010500574931257443
-0.004175086793119185   -0.014025456388525639   -0.000988037958401634
-0.006373790876701296   -0.014095832192205764   -0.0010383353736591289
-0.006531423986266128   -0.018058281153156254   -0.0010485750990440871
-0.004172438919705711   -0.014061410768025822   -0.000964427010201666
-0.006381143947904119   -0.014135437459041817   -0.0010155340697950571
-0.006531423986266128   -0.018058281153156254   -0.0010485750990440871
-0.004360866705989511   -0.01805883976455678   -0.0009832537505777437
-0.004172438919705711   -0.014061410768025822   -0.000964427010201666
-0.004341990976108825   -0.018091673121252712   -0.0009783699133015388
-0.006381143947904119   -0.014135437459041817   -0.0010155340697950571
-0.00416585164414192   -0.014094694842308382   -0.000944740224990553
-0.004341990976108825   -0.018091673121252712   -0.0009783699133015388
-0.004172438919705711   -0.014061410768025822   -0.000964427010201666
-0.006381143947904119   -0.014135437459041817   -0.0010155340697950571
-0.004341990976108825   -0.018091673121252712   -0.0009783699133015388
-0.006510649103420674   -0.01809682471457535   -0.0010530886173403004
-0.006531423986266128   -0.018058281153156254   -0.0010485750990440871
-0.006381143947904119   -0.014135437459041817   -0.0010155340697950571
-0.004341990976108825   -0.018091673121252712   -0.0009783699133015388
-0.006531423986266128   -0.018058281153156254   -0.0010485750990440871
-0.004172438919705711   -0.014061410768025822   -0.000964427010201666
-0.006381143947904119   -0.014135437459041817   -0.0010155340697950571
-0.006510649103420674   -0.01809682471457535   -0.0010530886173403004
-0.00416585164414192   -0.014094694842308382   -0.000944740224990553
-0.006382698821109062   -0.014178632210648563   -0.0009988733689392448
-0.006510649103420674   -0.01809682471457535   -0.0010530886173403004
-0.004341990976108825   -0.018091673121252712   -0.0009783699133015388
-0.00416585164414192   -0.014094694842308382   -0.000944740224990553
-0.0043177800431933545   -0.018130108220619424   -0.0009774250653284777
-0.006382698821109062   -0.014178632210648563   -0.0009988733689392448
-0.004151119951247619   -0.014127856640530028   -0.0009286927022873232
-0.0043177800431933545   -0.018130108220619424   -0.0009774250653284777
-0.00416585164414192   -0.014094694842308382   -0.000944740224990553
-0.006382698821109062   -0.014178632210648563   -0.0009988733689392448
-0.0043177800431933545   -0.018130108220619424   -0.0009774250653284777
-0.006477474816271461   -0.01814663227081039   -0.001063914546566376
-0.006510649103420674   -0.01809682471457535   -0.0010530886173403004
-0.006382698821109062   -0.014178632210648563   -0.0009988733689392448
-0.0043177800431933545   -0.018130108220619424   -0.0009774250653284777
-0.006510649103420674   -0.01809682471457535   -0.0010530886173403004
-0.00416585164414192   -0.014094694842308382   -0.000944740224990553
-0.004175086793119185   -0.014025456388525639   -0.000988037958401634
-0.004373220212300666   -0.01802933714844929   -0.000992152257790002
-0.0021566904844128685   -0.014012612997043667   -0.0009344644783541033
-0.004172438919705711   -0.014061410768025822   -0.000964427010201666
-0.004373220212300666   -0.01802933714844929   -0.000992152257790002
-0.002387888494562297   -0.018031474687838007   -0.0009537047841101171
-0.0021566904844128685   -0.014012612997043667   -0.0009344644783541033
-0.002371623739639445   -0.018048314527300335   -0.0009376872679466991
-0.004172438919705711   -0.014061410768025822   -0.000964427010201666
-0.0021481837208276126   -0.014034291264903935   -0.0009137188450105743
-0.002371623739639445   -0.018048314527300335   -0.0009376872679466991
-0.0021566904844128685   -0.014012612997043667   -0.0009344644783541033
-0.004172438919705711   -0.014061410768025822   -0.000964427010201666
-0.002371623739639445   -0.018048314527300335   -0.0009376872679466991
-0.004360866705989511   -0.01805883976455678   -0.0009832537505777437
-0.004373220212300666   -0.01802933714844929   -0.000992152257790002
-0.004172438919705711   -0.014061410768025822   -0.000964427010201666
-0.002371623739639445   -0.018048314527300335   -0.0009376872679466991
-0.004373220212300666   -0.01802933714844929   -0.000992152257790002
-0.0021566904844128685   -0.014012612997043667   -0.0009344644783541033
-0.004172438919705711   -0.014061410768025822   -0.000964427010201666
-0.004360866705989511   -0.01805883976455678   -0.0009832537505777437
-0.0021481837208276126   -0.014034291264903935   -0.0009137188450105743
-0.00416585164414192   -0.014094694842308382   -0.000944740224990553
-0.004360866705989511   -0.01805883976455678   -0.0009832537505777437
-0.002371623739639445   -0.018048314527300335   -0.0009376872679466991
-0.0021481837208276126   -0.014034291264903935   -0.0009137188450105743
-0.0023533505466379525   -0.01806892570333778   -0.0009256955725840059
-0.00416585164414192   -0.014094694842308382   -0.000944740224990553
-0.0021379865991805478   -0.014054266821304838   -0.0008968953203847144
-0.0023533505466379525   -0.01806892570333778   -0.0009256955725840059
-0.0021481837208276126   -0.014034291264903935   -0.0009137188450105743
-0.00416585164414192   -0.014094694842308382   -0.000944740224990553
-0.0023533505466379525   -0.01806892570333778   -0.0009256955725840059
-0.004341990976108825   -0.018091673121252712   -0.0009783699133015388
-0.004360866705989511   -0.01805883976455678   -0.0009832537505777437
-0.00416585164414192   -0.014094694842308382   -0.000944740224990553
-0.0023533505466379525   -0.01806892570333778   -0.0009256955725840059
-0.004360866705989511   -0.01805883976455678   -0.0009832537505777437
-0.0021481837208276126   -0.014034291264903935   -0.0009137188450105743
-0.00416585164414192   -0.014094694842308382   -0.000944740224990553
-0.004341990976108825   -0.018091673121252712   -0.0009783699133015388
-0.0021379865991805478   -0.014054266821304838   -0.0008968953203847144
-0.004151119951247619   -0.014127856640530028   -0.0009286927022873232
-0.004341990976108825   -0.018091673121252712   -0.0009783699133015388
-0.0023533505466379525   -0.01806892570333778   -0.0009256955725840059
-0.0021379865991805478   -0.014054266821304838   -0.0008968953203847144
-0.002333700857064888   -0.01809337278401497   -0.0009178658119528386
-0.004151119951247619   -0.014127856640530028   -0.0009286927022873232
-0.0021259137676220433   -0.014072607311152046   -0.0008840932488391797
-0.002333700857064888   -0.01809337278401497   -0.0009178658119528386
-0.0021379865991805478   -0.014054266821304838   -0.0008968953203847144
-0.004151119951247619   -0.014127856640530028   -0.0009286927022873232
-0.002333700857064888   -0.01809337278401497   -0.0009178658119528386
-0.0043177800431933545   -0.018130108220619424   -0.0009774250653284777
-0.004341990976108825   -0.018091673121252712   -0.0009783699133015388
-0.004151119951247619   -0.014127856640530028   -0.0009286927022873232
-0.002333700857064888   -0.01809337278401497   -0.0009178658119528386
-0.004341990976108825   -0.018091673121252712   -0.0009783699133015388
-0.0021379865991805478   -0.014054266821304838   -0.0008968953203847144
-0.0021566904844128685   -0.014012612997043667   -0.0009344644783541033
-0.002387888494562297   -0.018031474687838007   -0.0009537047841101171
-0.0001929676450066939   -0.014005107459362256   -0.0009070197674953793
-0.0021481837208276126   -0.014034291264903935   -0.0009137188450105743
-0.002387888494562297   -0.018031474687838007   -0.0009537047841101171
-0.0004585865781272733   -0.01802076214739005   -0.000938297062272142
-0.0001929676450066939   -0.014005107459362256   -0.0009070197674953793
-0.00043944907733183   -0.018024474274210982   -0.0009155168310114957
-0.0021481837208276126   -0.014034291264903935   -0.0009137188450105743
-0.00018143456308937516   -0.014012207110417878   -0.0008893586628000709
-0.00043944907733183   -0.018024474274210982   -0.0009155168310114957
-0.0001929676450066939   -0.014005107459362256   -0.0009070197674953793
-0.0021481837208276126   -0.014034291264903935   -0.0009137188450105743
-0.00043944907733183   -0.018024474274210982   -0.0009155168310114957
-0.002371623739639445   -0.018048314527300335   -0.0009376872679466991
-0.002387888494562297   -0.018031474687838007   -0.0009537047841101171
-0.0021481837208276126   -0.014034291264903935   -0.0009137188450105743
-0.00043944907733183   -0.018024474274210982   -0.0009155168310114957
-0.002387888494562297   -0.018031474687838007   -0.0009537047841101171
-0.0001929676450066939   -0.014005107459362256   -0.0009070197674953793
-0.0021481837208276126   -0.014034291264903935   -0.0009137188450105743
-0.002371623739639445   -0.018048314527300335   -0.0009376872679466991
-0.00018143456308937516   -0.014012207110417878   -0.0008893586628000709
-0.0021379865991805478   -0.014054266821304838   -0.0008968953203847144
-0.002371623739639445   -0.018048314527300335   -0.0009376872679466991
-0.00043944907733183   -0.018024474274210982   -0.0009155168310114957
-0.00018143456308937516   -0.014012207110417878   -0.0008893586628000709
-0.00042130961048966894   -0.01803167544135618   -0.0008967385427442135
-0.0021379865991805478   -0.014054266821304838   -0.0008968953203847144
-0.00017132320514618162   -0.014017478080059605   -0.000875590170024376
-0.00042130961048966894   -0.01803167544135618   -0.0008967385427442135
-0.00018143456308937516   -0.014012207110417878   -0.0008893586628000709
-0.0021379865991805478   -0.014054266821304838   -0.0008968953203847144
-0.00042130961048966894   -0.01803167544135618   -0.0008967385427442135
-0.0023533505466379525   -0.01806892570333778   -0.0009256955725840059
-0.002371623739639445   -0.018048314527300335   -0.0009376872679466991
-0.0021379865991805478   -0.014054266821304838   -0.0008968953203847144
-0.00042130961048966894   -0.01803167544135618   -0.0008967385427442135
-0.002371623739639445   -0.018048314527300335   -0.0009376872679466991
-0.00018143456308937516   -0.014012207110417878   -0.0008893586628000709
-0.0021379865991805478   -0.014054266821304838   -0.0008968953203847144
-0.0023533505466379525   -0.01806892570333778   -0.0009256955725840059
-0.00017132320514618162   -0.014017478080059605   -0.000875590170024376
-0.0021259137676220433   -0.014072607311152046   -0.0008840932488391797
-0.0023533505466379525   -0.01806892570333778   -0.0009256955725840059
-0.00042130961048966894   -0.01803167544135618   -0.0008967385427442135
-0.00017132320514618162   -0.014017478080059605   -0.000875590170024376
-0.00040578922039387794   -0.01804252387277292   -0.000882099470392603
-0.0021259137676220433   -0.014072607311152046   -0.0008840932488391797
-0.00016336658641873738   -0.014020890043105914   -0.0008658534549878484
-0.00040578922039387794   -0.01804252387277292   -0.000882099470392603
-0.00017132320514618162   -0.014017478080059605   -0.000875590170024376
-0.0021259137676220433   -0.014072607311152046   -0.0008840932488391797
-0.00040578922039387794   -0.01804252387277292   -0.000882099470392603
-0.002333700857064888   -0.01809337278401497   -0.0009178658119528386
-0.0023533505466379525   -0.01806892570333778   -0.0009256955725840059
-0.0021259137676220433   -0.014072607311152046   -0.0008840932488391797
-0.00040578922039387794   -0.01804252387277292   -0.000882099470392603
-0.0023533505466379525   -0.01806892570333778   -0.0009256955725840059
-0.00017132320514618162   -0.014017478080059605   -0.000875590170024376
-0.0001929676450066939   -0.014005107459362256   -0.0009070197674953793
-0.0004585865781272733   -0.01802076214739005   -0.000938297062272142
0.0018304742848821748   -0.014001638974173333   -0.000905988559940549
-0.00018143456308937516   -0.014012207110417878   -0.0008893586628000709
-0.0004585865781272733   -0.01802076214739005   -0.000938297062272142
0.00152822901598386   -0.01799703705886325   -0.0009467133433647392
0.0018304742848821748   -0.014001638974173333   -0.000905988559940549
0.0015525363516894438   -0.017987556165509243   -0.0009172720460946532
-0.00018143456308937516   -0.014012207110417878   -0.0008893586628000709
0.0018455216885030845   -0.013994587364046128   -0.0008915616197211892
0.0015525363516894438   -0.017987556165509243   -0.0009172720460946532
0.0018304742848821748   -0.014001638974173333   -0.000905988559940549
-0.00018143456308937516   -0.014012207110417878   -0.0008893586628000709
0.0015525363516894438   -0.017987556165509243   -0.0009172720460946532
-0.00043944907733183   -0.018024474274210982   -0.0009155168310114957
-0.0004585865781272733   -0.01802076214739005   -0.000938297062272142
-0.00018143456308937516   -0.014012207110417878   -0.0008893586628000709
0.0015525363516894438   -0.017987556165509243   -0.0009172720460946532
-0.0004585865781272733   -0.01802076214739005   -0.000938297062272142
0.0018304742848821748   -0.014001638974173333   -0.000905988559940549
-0.00018143456308937516   -0.014012207110417878   -0.0008893586628000709
-0.00043944907733183   -0.018024474274210982   -0.0009155168310114957
0.0018455216885030845   -0.013994587364046128   -0.0008915616197211892
-0.00017132320514618162   -0.014017478080059605   -0.000875590170024376
-0.00043944907733183   -0.018024474274210982   -0.0009155168310114957
0.0015525363516894438   -0.017987556165509243   -0.0009172720460946532
0.0018455216885030845   -0.013994587364046128   -0.0008915616197211892
0.0015751264806795331   -0.017982611984205556   -0.0008918177886019416
-0.00017132320514618162   -0.014017478080059605   -0.000875590170024376
0.0018560101981630074   -0.013986552100738759   -0.0008809123188099754
0.0015751264806795331   -0.017982611984205556   -0.0008918177886019416
0.0018455216885030845   -0.013994587364046128   -0.0008915616197211892
-0.00017132320514618162   -0.014017478080059605   -0.000875590170024376
0.0015751264806795331   -0.017982611984205556   -0.0008918177886019416
-0.00042130961048966894   -0.01803167544135618   -0.0008967385427442135
-0.00043944907733183   -0.018024474274210982   -0.0009155168310114957
-0.00017132320514618162   -0.014017478080059605   -0.000875590170024376
0.0015751264806795331   -0.017982611984205556   -0.0008918177886019416
-0.00043944907733183   -0.018024474274210982   -0.0009155168310114957
0.0018455216885030845   -0.013994587364046128   -0.0008915616197211892
-0.00017132320514618162   -0.014017478080059605   -0.000875590170024376
-0.00042130961048966894   -0.01803167544135618   -0.0008967385427442135
0.0018560101981630074   -0.013986552100738759   -0.0008809123188099754
-0.00016336658641873738   -0.014020890043105914   -0.0008658534549878484
-0.00042130961048966894   -0.01803167544135618   -0.0008967385427442135
0.0015751264806795331   -0.017982611984205556   -0.0008918177886019416
0.0018560101981630074   -0.013986552100738759   -0.0008809123188099754
0.0015876152475094469   -0.017979889184830115   -0.0008700902169734978
-0.00016336658641873738   -0.014020890043105914   -0.0008658534549878484
0.0018590262138665804   -0.013974955465060088   -0.0008739657151754172
0.0015876152475094469   -0.017979889184830115   -0.0008700902169734978
0.0018560101981630074   -0.013986552100738759   -0.0008809123188099754
-0.00016336658641873738   -0.014020890043105914   -0.0008658534549878484
0.0015876152475094469   -0.017979889184830115   -0.0008700902169734978
-0.00040578922039387794   -0.01804252387277292   -0.000882099470392603
-0.00042130961048966894   -0.01803167544135618   -0.0008967385427442135
-0.00016336658641873738   -0.014020890043105914   -0.0008658534549878484
0.0015876152475094469   -0.017979889184830115   -0.0008700902169734978
-0.00042130961048966894   -0.01803167544135618   -0.0008967385427442135
0.0018560101981630074   -0.013986552100738759   -0.0008809123188099754
0.0018304742848821748   -0.014001638974173333   -0.000905988559940549
0.00152822901598386   -0.01799703705886325   -0.0009467133433647392
0.004022395116832963   -0.013996538453954613   -0.0009288938775537121
0.0018455216885030845   -0.013994587364046128   -0.0008915616197211892
0.00152822901598386   -0.01799703705886325   -0.0009467133433647392
0.003653827985735152   -0.017957011879247118   -0.0009803225866963938
0.004022395116832963   -0.013996538453954613   -0.0009288938775537121
0.0037166539671411   -0.01793553507305234   -0.0009414977674244078
0.0018455216885030845   -0.013994587364046128   -0.0008915616197211892
0.004051465161823706   -0.013978265110508531   -0.0009166809807493954
0.0037166539671411   -0.01793553507305234   -0.0009414977674244078
0.004022395116832963   -0.013996538453954613   -0.0009288938775537121
0.0018455216885030845   -0.013994587364046128   -0.0008915616197211892
0.0037166539671411   -0.01793553507305234   -0.0009414977674244078
0.0015525363516894438   -0.017987556165509243   -0.0009172720460946532
0.00152822901598386   -0.01799703705886325   -0.0009467133433647392
0.0018455216885030845   -0.013994587364046128   -0.0008915616197211892
0.0037166539671411   -0.01793553507305234   -0.0009414977674244078
0.00152822901598386   -0.01799703705886325   -0.0009467133433647392
0.004022395116832963   -0.013996538453954613   -0.0009288938775537121
0.0018455216885030845   -0.013994587364046128   -0.0008915616197211892
0.0015525363516894438   -0.017987556165509243   -0.0009172720460946532
0.004051465161823706   -0.013978265110508531   -0.0009166809807493954
0.0018560101981630074   -0.013986552100738759   -0.0008809123188099754
0.0015525363516894438   -0.017987556165509243   -0.0009172720460946532
0.0037166539671411   -0.01793553507305234   -0.0009414977674244078
0.004051465161823706   -0.013978265110508531   -0.0009166809807493954
0.003760139034512342   -0.017925101519931687   -0.0009083640939193969
0.0018560101981630074   -0.013986552100738759   -0.0008809123188099754
0.004067494591713831   -0.013963937740152109   -0.0009102199425980327
0.003760139034512342   -0.017925101519931687   -0.0009083640939193969
0.004051465161823706   -0.013978265110508531   -0.0009166809807493954
0.0018560101981630074   -0.013986552100738759   -0.0008809123188099754
0.003760139034512342   -0.017925101519931687   -0.0009083640939193969
0.0015751264806795331   -0.017982611984205556   -0.0008918177886019416
0.0015525363516894438   -0.017987556165509243   -0.0009172720460946532
0.0018560101981630074   -0.013986552100738759   -0.0008809123188099754
0.003760139034512342   -0.017925101519931687   -0.0009083640939193969
0.0015525363516894438   -0.017987556165509243   -0.0009172720460946532
0.004051465161823706   -0.013978265110508531   -0.0009166809807493954
0.0018560101981630074   -0.013986552100738759   -0.0008809123188099754
0.0015751264806795331   -0.017982611984205556   -0.0008918177886019416
0.004067494591713831   -0.013963937740152109   -0.0009102199425980327
0.0018590262138665804   -0.013974955465060088   -0.0008739657151754172
0.0015751264806795331   -0.017982611984205556   -0.0008918177886019416
0.003760139034512342   -0.017925101519931687   -0.0009083640939193969
0.004067494591713831   -0.013963937740152109   -0.0009102199425980327
0.0037991662579707737   -0.017913970471868674   -0.0008811610562334446
0.0018590262138665804   -0.013974955465060088   -0.0008739657151754172
0.004072795811945882   -0.013941271433492698   -0.0009096093016890058
0.0037991662579707737   -0.017913970471868674   -0.0008811610562334446
0.004067494591713831   -0.013963937740152109   -0.0009102199425980327
0.0018590262138665804   -0.013974955465060088   -0.0008739657151754172
0.0037991662579707737   -0.017913970471868674   -0.0008811610562334446
0.0015876152475094469   -0.017979889184830115   -0.0008700902169734978
0.0015751264806795331   -0.017982611984205556   -0.0008918177886019416
0.0018590262138665804   -0.013974955465060088   -0.0008739657151754172
0.0037991662579707737   -0.017913970471868674   -0.0008811610562334446
0.0015751264806795331   -0.017982611984205556   -0.0008918177886019416
0.004067494591713831   -0.013963937740152109   -0.0009102199425980327
-0.006539956631340863   -0.018018766683859357   -0.0010500574931257443
-0.006361082069233519   -0.021803477508016617   -0.0010050317939962737
-0.004373220212300666   -0.01802933714844929   -0.000992152257790002
-0.006531423986266128   -0.018058281153156254   -0.0010485750990440871
-0.006361082069233519   -0.021803477508016617   -0.0010050317939962737
-0.0043541747959876444   -0.021846981206310106   -0.0009703985341197596
-0.004373220212300666   -0.01802933714844929   -0.000992152257790002
-0.004328567183366368   -0.02186892092334282   -0.0009757463925558416
-0.006531423986266128   -0.018058281153156254   -0.0010485750990440871
-0.004360866705989511   -0.01805883976455678   -0.0009832537505777437
-0.004328567183366368   -0.02186892092334282   -0.0009757463925558416
-0.004373220212300666   -0.01802933714844929   -0.000992152257790002
-0.006531423986266128   -0.018058281153156254   -0.0010485750990440871
-0.004328567183366368   -0.02186892092334282   -0.0009757463925558416
-0.0063148080704050384   -0.021833114731796503   -0.0010304065702976294
-0.006361082069233519   -0.021803477508016617   -0.0010050317939962737
-0.006531423986266128   -0.018058281153156254   -0.0010485750990440871
-0.004328567183366368   -0.02186892092334282   -0.0009757463925558416
-0.006361082069233519   -0.021803477508016617   -0.0010050317939962737
-0.004373220212300666   -0.01802933714844929   -0.000992152257790002
-0.006531423986266128   -0.018058281153156254   -0.0010485750990440871
-0.0063148080704050384   -0.021833114731796503   -0.0010304065702976294
-0.004360866705989511   -0.01805883976455678   -0.0009832537505777437
-0.006510649103420674   -0.01809682471457535   -0.0010530886173403004
-0.0063148080704050384   -0.021833114731796503   -0.0010304065702976294
-0.004328567183366368   -0.02186892092334282   -0.0009757463925558416
-0.004360866705989511   -0.01805883976455678   -0.0009832537505777437
-0.004294026870010118   -0.021900338309199942   -0.0009851829084624466
-0.006510649103420674   -0.01809682471457535   -0.0010530886173403004
-0.004341990976108825   -0.018091673121252712   -0.0009783699133015388
-0.004294026870010118   -0.021900338309199942   -0.0009851829084624466
-0.004360866705989511   -0.01805883976455678   -0.0009832537505777437
-0.006510649103420674   -0.01809682471457535   -0.0010530886173403004
-0.004294026870010118   -0.021900338309199942   -0.0009851829084624466
-0.00626226597654385   -0.02186971798207545   -0.0010622068205605126
-0.0063148080704050384   -0.021833114731796503   -0.0010304065702976294
-0.006510649103420674   -0.01809682471457535   -0.0010530886173403004
-0.004294026870010118   -0.021900338309199942   -0.0009851829084624466
-0.0063148080704050384   -0.021833114731796503   -0.0010304065702976294
-0.004360866705989511   -0.01805883976455678   -0.0009832537505777437
-0.006510649103420674   -0.01809682471457535   -0.0010530886173403004
-0.00626226597654385   -0.02186971798207545   -0.0010622068205605126
-0.004341990976108825   -0.018091673121252712   -0.0009783699133015388
-0.006477474816271461   -0.01814663227081039   -0.001063914546566376
-0.00626226597654385   -0.02186971798207545   -0.0010622068205605126
-0.004294026870010118   -0.021900338309199942   -0.0009851829084624466
-0.004341990976108825   -0.018091673121252712   -0.0009783699133015388
-0.004257024223577784   -0.021943158710290254   -0.0009988195458282493
-0.006477474816271461   -0.01814663227081039   -0.001063914546566376
-0.0043177800431933545   -0.018130108220619424   -0.0009774250653284777
-0.004257024223577784   -0.021943158710290254   -0.0009988195458282493
-0.004341990976108825   -0.018091673121252712   -0.0009783699133015388
-0.006477474816271461   -0.01814663227081039   -0.001063914546566376
-0.004257024223577784   -0.021943158710290254   -0.0009988195458282493
-0.0061909196959206445   -0.02192555268776249   -0.0011005651739314777
-0.00626226597654385   -0.02186971798207545   -0.0010622068205605126
-0.006477474816271461   -0.01814663227081039   -0.001063914546566376
-0.004257024223577784   -0.021943158710290254   -0.0009988195458282493
-0.00626226597654385   -0.02186971798207545   -0.0010622068205605126
-0.004341990976108825   -0.018091673121252712   -0.0009783699133015388
-0.004373220212300666   -0.01802933714844929   -0.000992152257790002
-0.0043541747959876444   -0.021846981206310106   -0.0009703985341197596
-0.002387888494562297   -0.018031474687838007   -0.0009537047841101171
-0.004360866705989511   -0.01805883976455678   -0.0009832537505777437
-0.0043541747959876444   -0.021846981206310106   -0.0009703985341197596
-0.002553694429583903   -0.021863966727142414   -0.0009482881198978724
-0.002387888494562297   -0.018031474687838007   -0.0009537047841101171
-0.002525881183358787   -0.021875293971659503   -0.000936614308243333
-0.004360866705989511   -0.01805883976455678   -0.0009832537505777437
-0.002371623739639445   -0.018048314527300335   -0.0009376872679466991
-0.002525881183358787   -0.021875293971659503   -0.000936614308243333
-0.002387888494562297   -0.018031474687838007   -0.0009537047841101171
-0.004360866705989511   -0.01805883976455678   -0.0009832537505777437
-0.002525881183358787   -0.021875293971659503   -0.000936614308243333
-0.004328567183366368   -0.02186892092334282   -0.0009757463925558416
-0.0043541747959876444   -0.021846981206310106   -0.0009703985341197596
-0.004360866705989511   -0.01805883976455678   -0.0009832537505777437
-0.002525881183358787   -0.021875293971659503   -0.000936614308243333
-0.0043541747959876444   -0.021846981206310106   -0.0009703985341197596
-0.002387888494562297   -0.018031474687838007   -0.0009537047841101171
-0.004360866705989511   -0.01805883976455678   -0.0009832537505777437
-0.004328567183366368   -0.02186892092334282   -0.0009757463925558416
-0.002371623739639445   -0.018048314527300335   -0.0009376872679466991
-0.004341990976108825   -0.018091673121252712   -0.0009783699133015388
-0.004328567183366368   -0.02186892092334282   -0.0009757463925558416
-0.002525881183358787   -0.021875293971659503   -0.000936614308243333
-0.002371623739639445   -0.018048314527300335   -0.0009376872679466991
-0.0024959903666744707   -0.02189571882277896   -0.0009289776169536096
-0.004341990976108825   -0.018091673121252712   -0.0009783699133015388
-0.0023533505466379525   -0.01806892570333778   -0.0009256955725840059
-0.0024959903666744707   -0.02189571882277896   -0.0009289776169536096
-0.002371623739639445   -0.018048314527300335   -0.0009376872679466991
-0.004341990976108825   -0.018091673121252712   -0.0009783699133015388
-0.0024959903666744707   -0.02189571882277896   -0.0009289776169536096
-0.004294026870010118   -0.021900338309199942   -0.0009851829084624466
-0.004328567183366368   -0.02186892092334282   -0.0009757463925558416
-0.004341990976108825   -0.018091673121252712   -0.0009783699133015388
-0.0024959903666744707   -0.02189571882277896   -0.0009289776169536096
-0.004328567183366368   -0.02186892092334282   -0.0009757463925558416
-0.002371623739639445   -0.018048314527300335   -0.0009376872679466991
-0.004341990976108825   -0.018091673121252712   -0.0009783699133015388
-0.004294026870010118   -0.021900338309199942   -0.0009851829084624466
-0.0023533505466379525   -0.01806892570333778   -0.0009256955725840059
-0.0043177800431933545   -0.018130108220619424   -0.0009774250653284777
-0.004294026870010118   -0.021900338309199942   -0.0009851829084624466
-0.0024959903666744707   -0.02189571882277896   -0.0009289776169536096
-0.0023533505466379525   -0.01806892570333778   -0.0009256955725840059
-0.0024652676444539305   -0.021925492052651187   -0.0009255812947042996
-0.0043177800431933545   -0.018130108220619424   -0.0009774250653284777
-0.002333700857064888   -0.01809337278401497   -0.0009178658119528386
-0.0024652676444539305   -0.021925492052651187   -0.0009255812947042996
-0.0023533505466379525   -0.01806892570333778   -0.0009256955725840059
-0.0043177800431933545   -0.018130108220619424   -0.0009774250653284777
-0.0024652676444539305   -0.021925492052651187   -0.0009255812947042996
-0.004257024223577784   -0.021943158710290254   -0.0009988195458282493
-0.004294026870010118   -0.021900338309199942   -0.0009851829084624466
-0.0043177800431933545   -0.018130108220619424   -0.0009774250653284777
-0.0024652676444539305   -0.021925492052651187   -0.0009255812947042996
-0.004294026870010118   -0.021900338309199942   -0.0009851829084624466
-0.0023533505466379525   -0.01806892570333778   -0.0009256955725840059
-0.002387888494562297   -0.018031474687838007   -0.0009537047841101171
-0.002553694429583903   -0.021863966727142414   -0.0009482881198978724
-0.0004585865781272733   -0.01802076214739005   -0.000938297062272142
-0.002371623739639445   -0.018048314527300335   -0.0009376872679466991
-0.002553694429583903   -0.021863966727142414   -0.0009482881198978724
-0.0008074955203263215   -0.02185047640545967   -0.0009450239852085943
-0.0004585865781272733   -0.01802076214739005   -0.000938297062272142
-0.000776744928732628   -0.021850537427380044   -0.0009169123357822298
-0.002371623739639445   -0.018048314527300335   -0.0009376872679466991
-0.00043944907733183   -0.018024474274210982   -0.0009155168310114957
-0.000776744928732628   -0.021850537427380044   -0.0009169123357822298
-0.0004585865781272733   -0.01802076214739005   -0.000938297062272142
-0.002371623739639445   -0.018048314527300335   -0.0009376872679466991
-0.000776744928732628   -0.021850537427380044   -0.0009169123357822298
-0.002525881183358787   -0.021875293971659503   -0.000936614308243333
-0.002553694429583903   -0.021863966727142414   -0.0009482881198978724
-0.002371623739639445   -0.018048314527300335   -0.0009376872679466991
-0.000776744928732628   -0.021850537427380044   -0.0009169123357822298
-0.002553694429583903   -0.021863966727142414   -0.0009482881198978724
-0.0004585865781272733   -0.01802076214739005   -0.000938297062272142
-0.002371623739639445   -0.018048314527300335   -0.0009376872679466991
-0.002525881183358787   -0.021875293971659503   -0.000936614308243333
-0.00043944907733183   -0.018024474274210982   -0.0009155168310114957
-0.0023533505466379525   -0.01806892570333778   -0.0009256955725840059
-0.002525881183358787   -0.021875293971659503   -0.000936614308243333
-0.000776744928732628   -0.021850537427380044   -0.0009169123357822298
-0.00043944907733183   -0.018024474274210982   -0.0009155168310114957
-0.0007467809535047181   -0.021859051778256325   -0.0008928517186566712
-0.0023533505466379525   -0.01806892570333778   -0.0009256955725840059
-0.00042130961048966894   -0.01803167544135618   -0.0008967385427442135
-0.0007467809535047181   -0.021859051778256325   -0.0008928517186566712
-0.00043944907733183   -0.018024474274210982   -0.0009155168310114957
-0.0023533505466379525   -0.01806892570333778   -0.0009256955725840059
-0.0007467809535047181   -0.021859051778256325   -0.0008928517186566712
-0.0024959903666744707   -0.02189571882277896   -0.0009289776169536096
-0.002525881183358787   -0.021875293971659503   -0.000936614308243333
-0.0023533505466379525   -0.01806892570333778   -0.0009256955725840059
-0.0007467809535047181   -0.021859051778256325   -0.0008928517186566712
-0.002525881183358787   -0.021875293971659503   -0.000936614308243333
-0.00043944907733183   -0.018024474274210982   -0.0009155168310114957
-0.0023533505466379525   -0.01806892570333778   -0.0009256955725840059
-0.0024959903666744707   -0.02189571882277896   -0.0009289776169536096
-0.00042130961048966894   -0.01803167544135618   -0.0008967385427442135
-0.002333700857064888   -0.01809337278401497   -0.0009178658119528386
-0.0024959903666744707   -0.02189571882277896   -0.0009289776169536096
-0.0007467809535047181   -0.021859051778256325   -0.0008928517186566712
-0.00042130961048966894   -0.01803167544135618   -0.0008967385427442135
-0.0007199899212978923   -0.021876706698035348   -0.0008729811852243635
-0.002333700857064888   -0.01809337278401497   -0.0009178658119528386
-0.00040578922039387794   -0.01804252387277292   -0.000882099470392603
-0.0007199899212978923   -0.021876706698035348   -0.0008729811852243635
-0.00042130961048966894   -0.01803167544135618   -0.0008967385427442135
-0.002333700857064888   -0.01809337278401497   -0.0009178658119528386
-0.0007199899212978923   -0.021876706698035348   -0.0008729811852243635
-0.0024652676444539305   -0.021925492052651187   -0.0009255812947042996
-0.0024959903666744707   -0.02189571882277896   -0.0009289776169536096
-0.002333700857064888   -0.01809337278401497   -0.0009178658119528386
-0.0007199899212978923   -0.021876706698035348   -0.0008729811852243635
-0.0024959903666744707   -0.02189571882277896   -0.0009289776169536096
-0.00042130961048966894   -0.01803167544135618   -0.0008967385427442135
-0.0004585865781272733   -0.01802076214739005   -0.000938297062272142
-0.0008074955203263215   -0.02185047640545967   -0.0009450239852085943
0.00152822901598386   -0.01799703705886325   -0.0009467133433647392
-0.00043944907733183   -0.018024474274210982   -0.0009155168310114957
-0.0008074955203263215   -0.02185047640545967   -0.0009450239852085943
0.0009978411043236087   -0.021807310042281453   -0.0009620780810832084
0.00152822901598386   -0.01799703705886325   -0.0009467133433647392
0.0010354611937523246   -0.02179534243032566   -0.0009176631337942627
-0.00043944907733183   -0.018024474274210982   -0.0009155168310114957
0.0015525363516894438   -0.017987556165509243   -0.0009172720460946532
0.0010354611937523246   -0.02179534243032566   -0.0009176631337942627
0.00152822901598386   -0.01799703705886325   -0.0009467133433647392
-0.00043944907733183   -0.018024474274210982   -0.0009155168310114957
0.0010354611937523246   -0.02179534243032566   -0.0009176631337942627
-0.000776744928732628   -0.021850537427380044   -0.0009169123357822298
-0.0008074955203263215   -0.02185047640545967   -0.0009450239852085943
-0.00043944907733183   -0.018024474274210982   -0.0009155168310114957
0.0010354611937523246   -0.02179534243032566   -0.0009176631337942627
-0.0008074955203263215   -0.02185047640545967   -0.0009450239852085943
0.00152822901598386   -0.01799703705886325   -0.0009467133433647392
-0.00043944907733183   -0.018024474274210982   -0.0009155168310114957
-0.000776744928732628   -0.021850537427380044   -0.0009169123357822298
0.0015525363516894438   -0.017987556165509243   -0.0009172720460946532
-0.00042130961048966894   -0.01803167544135618   -0.0008967385427442135
-0.000776744928732628   -0.021850537427380044   -0.0009169123357822298
0.0010354611937523246   -0.02179534243032566   -0.0009176631337942627
0.0015525363516894438   -0.017987556165509243   -0.0009172720460946532
0.0010741130470409673   -0.021793042373576897   -0.000877553295983579
-0.00042130961048966894   -0.01803167544135618   -0.0008967385427442135
0.0015751264806795331   -0.017982611984205556   -0.0008918177886019416
0.0010741130470409673   -0.021793042373576897   -0.000877553295983579
0.0015525363516894438   -0.017987556165509243   -0.0009172720460946532
-0.00042130961048966894   -0.01803167544135618   -0.0008967385427442135
0.0010741130470409673   -0.021793042373576897   -0.000877553295983579
-0.0007467809535047181   -0.021859051778256325   -0.0008928517186566712
-0.000776744928732628   -0.021850537427380044   -0.0009169123357822298
-0.00042130961048966894   -0.01803167544135618   -0.0008967385427442135
0.0010741130470409673   -0.021793042373576897   -0.000877553295983579
-0.000776744928732628   -0.021850537427380044   -0.0009169123357822298
0.0015525363516894438   -0.017987556165509243   -0.0009172720460946532
-0.00042130961048966894   -0.01803167544135618   -0.0008967385427442135
-0.0007467809535047181   -0.021859051778256325   -0.0008928517186566712
0.0015751264806795331   -0.017982611984205556   -0.0008918177886019416
-0.00040578922039387794   -0.01804252387277292   -0.000882099470392603
-0.0007467809535047181   -0.021859051778256325   -0.0008928517186566712
0.0010741130470409673   -0.021793042373576897   -0.000877553295983579
0.0015751264806795331   -0.017982611984205556   -0.0008918177886019416
0.001099951792916016   -0.021798642191743885   -0.0008411791529063259
-0.00040578922039387794   -0.01804252387277292   -0.000882099470392603
0.0015876152475094469   -0.017979889184830115   -0.0008700902169734978
0.001099951792916016   -0.021798642191743885   -0.0008411791529063259
0.0015751264806795331   -0.017982611984205556   -0.0008918177886019416
-0.00040578922039387794   -0.01804252387277292   -0.000882099470392603
0.001099951792916016   -0.021798642191743885   -0.0008411791529063259
-0.0007199899212978923   -0.021876706698035348   -0.0008729811852243635
-0.0007467809535047181   -0.021859051778256325   -0.0008928517186566712
-0.00040578922039387794   -0.01804252387277292   -0.000882099470392603
0.001099951792916016   -0.021798642191743885   -0.0008411791529063259
-0.0007467809535047181   -0.021859051778256325   -0.0008928517186566712
0.0015751264806795331   -0.017982611984205556   -0.0008918177886019416
0.00152822901598386   -0.01799703705886325   -0.0009467133433647392
0.0009978411043236087   -0.021807310042281453   -0.0009620780810832084
0.003653827985735152   -0.017957011879247118   -0.0009803225866963938
0.0015525363516894438   -0.017987556165509243   -0.0009172720460946532
0.0009978411043236087   -0.021807310042281453   -0.0009620780810832084
0.0029160036394433727   -0.021733032994562286   -0.0010053798507353837
0.003653827985735152   -0.017957011879247118   -0.0009803225866963938
0.003016178664394098   -0.021708540763549188   -0.0009406361054296379
0.0015525363516894438   -0.017987556165509243   -0.0009172720460946532
0.0037166539671411   -0.01793553507305234   -0.0009414977674244078
0.003016178664394098   -0.021708540763549188   -0.0009406361054296379
0.003653827985735152   -0.017957011879247118   -0.0009803225866963938
0.0015525363516894438   -0.017987556165509243   -0.0009172720460946532
0.003016178664394098   -0.021708540763549188   -0.0009406361054296379
0.0010354611937523246   -0.02179534243032566   -0.0009176631337942627
0.0009978411043236087   -0.021807310042281453   -0.0009620780810832084
0.0015525363516894438   -0.017987556165509243   -0.0009172720460946532
0.003016178664394098   -0.021708540763549188   -0.0009406361054296379
0.0009978411043236087   -0.021807310042281453   -0.0009620780810832084
0.003653827985735152   -0.017957011879247118   -0.0009803225866963938
0.0015525363516894438   -0.017987556165509243   -0.0009172720460946532
0.0010354611937523246   -0.02179534243032566   -0.0009176631337942627
0.0037166539671411   -0.01793553507305234   -0.0009414977674244078
0.0015751264806795331   -0.017982611984205556   -0.0008918177886019416
0.0010354611937523246   -0.02179534243032566   -0.0009176631337942627
0.003016178664394098   -0.021708540763549188   -0.0009406361054296379
0.0037166539671411   -0.01793553507305234   -0.0009414977674244078
0.0030905279846252303   -0.02170174104680627   -0.000881629113044439
0.0015751264806795331   -0.017982611984205556   -0.0008918177886019416
0.003760139034512342   -0.017925101519931687   -0.0009083640939193969
0.0030905279846252303   -0.02170174104680627   -0.000881629113044439
0.0037166539671411   -0.01793553507305234   -0.0009414977674244078
0.0015751264806795331   -0.017982611984205556   -0.0008918177886019416
0.0030905279846252303   -0.02170174104680627   -0.000881629113044439
0.0010741130470409673   -0.021793042373576897   -0.000877553295983579
0.0010354611937523246   -0.02179534243032566   -0.0009176631337942627
0.0015751264806795331   -0.017982611984205556   -0.0008918177886019416
0.0030905279846252303   -0.02170174104680627   -0.000881629113044439
0.0010354611937523246   -0.02179534243032566   -0.0009176631337942627
0.0037166539671411   -0.01793553507305234   -0.0009414977674244078
0.0015751264806795331   -0.017982611984205556   -0.0008918177886019416
0.0010741130470409673   -0.021793042373576897   -0.000877553295983579
0.003760139034512342   -0.017925101519931687   -0.0009083640939193969
0.0015876152475094469   -0.017979889184830115   -0.0008700902169734978
0.0010741130470409673   -0.021793042373576897   -0.000877553295983579
0.0030905279846252303   -0.02170174104680627   -0.000881629113044439
0.003760139034512342   -0.017925101519931687   -0.0009083640939193969
0.0031662139876264903   -0.021701740096888033   -0.000828628757486958
0.0015876152475094469   -0.017979889184830115   -0.0008700902169734978
0.0037991662579707737   -0.017913970471868674   -0.0008811610562334446
0.0031662139876264903   -0.021701740096888033   -0.000828628757486958
0.003760139034512342   -0.017925101519931687   -0.0009083640939193969
0.0015876152475094469   -0.017979889184830115   -0.0008700902169734978
0.0031662139876264903   -0.021701740096888033   -0.000828628757486958
0.001099951792916016   -0.021798642191743885   -0.0008411791529063259
0.0010741130470409673   -0.021793042373576897   -0.000877553295983579
0.0015876152475094469   -0.017979889184830115   -0.0008700902169734978
0.0031662139876264903   -0.021701740096888033   -0.000828628757486958
0.0010741130470409673   -0.021793042373576897   -0.000877553295983579
0.003760139034512342   -0.017925101519931687   -0.0009083640939193969
-0.006361082069233519   -0.021803477508016617   -0.0010050317939962737
-0.005806445419693816   -0.02514652152469377   -0.0009380447603086547
-0.0043541747959876444   -0.021846981206310106   -0.0009703985341197596
-0.0063148080704050384   -0.021833114731796503   -0.0010304065702976294
-0.005806445419693816   -0.02514652152469377   -0.0009380447603086547
-0.004118842803502272   -0.025224519521322587   -0.0009326321345777732
-0.0043541747959876444   -0.021846981206310106   -0.0009703985341197596
-0.0040771076576052705   -0.02523576889021597   -0.0009511454652416715
-0.0063148080704050384   -0.021833114731796503   -0.0010304065702976294
-0.004328567183366368   -0.02186892092334282   -0.0009757463925558416
-0.0040771076576052705   -0.02523576889021597   -0.0009511454652416715
-0.0043541747959876444   -0.021846981206310106   -0.0009703985341197596
-0.0063148080704050384   -0.021833114731796503   -0.0010304065702976294
-0.0040771076576052705   -0.02523576889021597   -0.0009511454652416715
-0.005719154537691041   -0.025163175633745063   -0.00099004061271845
-0.005806445419693816   -0.02514652152469377   -0.0009380447603086547
-0.0063148080704050384   -0.021833114731796503   -0.0010304065702976294
-0.0040771076576052705   -0.02523576889021597   -0.0009511454652416715
-0.005806445419693816   -0.02514652152469377   -0.0009380447603086547
-0.0043541747959876444   -0.021846981206310106   -0.0009703985341197596
-0.0063148080704050384   -0.021833114731796503   -0.0010304065702976294
-0.005719154537691041   -0.025163175633745063   -0.00099004061271845
-0.004328567183366368   -0.02186892092334282   -0.0009757463925558416
-0.00626226597654385   -0.02186971798207545   -0.0010622068205605126
-0.005719154537691041   -0.025163175633745063   -0.00099004061271845
-0.0040771076576052705   -0.02523576889021597   -0.0009511454652416715
-0.004328567183366368   -0.02186892092334282   -0.0009757463925558416
-0.004024671946778038   -0.02526288177825575   -0.000973781866039052
-0.00626226597654385   -0.02186971798207545   -0.0010622068205605126
-0.004294026870010118   -0.021900338309199942   -0.0009851829084624466
-0.004024671946778038   -0.02526288177825575   -0.000973781866039052
-0.004328567183366368   -0.02186892092334282   -0.0009757463925558416
-0.00626226597654385   -0.02186971798207545   -0.0010622068205605126
-0.004024671946778038   -0.02526288177825575   -0.000973781866039052
-0.005632275442657327   -0.025195001636681945   -0.0010487476530387193
-0.005719154537691041   -0.025163175633745063   -0.00099004061271845
-0.00626226597654385   -0.02186971798207545   -0.0010622068205605126
-0.004024671946778038   -0.02526288177825575   -0.000973781866039052
-0.005719154537691041   -0.025163175633745063   -0.00099004061271845
-0.004328567183366368   -0.02186892092334282   -0.0009757463925558416
-0.00626226597654385   -0.02186971798207545   -0.0010622068205605126
-0.005632275442657327   -0.025195001636681945   -0.0010487476530387193
-0.004294026870010118   -0.021900338309199942   -0.0009851829084624466
-0.0061909196959206445   -0.02192555268776249   -0.0011005651739314777
-0.005632275442657327   -0.025195001636681945   -0.0010487476530387193
-0.004024671946778038   -0.02526288177825575   -0.000973781866039052
-0.004294026870010118   -0.021900338309199942   -0.0009851829084624466
-0.003972970808377578   -0.02530740144388144   -0.0010005020538583224
-0.0061909196959206445   -0.02192555268776249   -0.0011005651739314777
-0.004257024223577784   -0.021943158710290254   -0.0009988195458282493
-0.003972970808377578   -0.02530740144388144   -0.0010005020538583224
-0.004294026870010118   -0.021900338309199942   -0.0009851829084624466
-0.0061909196959206445   -0.02192555268776249   -0.0011005651739314777
-0.003972970808377578   -0.02530740144388144   -0.0010005020538583224
-0.00552104307810549   -0.025254349435570055   -0.0011140572481479745
-0.005632275442657327   -0.025195001636681945   -0.0010487476530387193
-0.0061909196959206445   -0.02192555268776249   -0.0011005651739314777
-0.003972970808377578   -0.02530740144388144   -0.0010005020538583224
-0.005632275442657327   -0.025195001636681945   -0.0010487476530387193
-0.004294026870010118   -0.021900338309199942   -0.0009851829084624466
-0.0043541747959876444   -0.021846981206310106   -0.0009703985341197596
-0.004118842803502272   -0.025224519521322587   -0.0009326321345777732
-0.002553694429583903   -0.021863966727142414   -0.0009482881198978724
-0.004328567183366368   -0.02186892092334282   -0.0009757463925558416
-0.004118842803502272   -0.025224519521322587   -0.0009326321345777732
-0.002655245979533975   -0.025260692045288115   -0.000930595363597493
-0.002553694429583903   -0.021863966727142414   -0.0009482881198978724
-0.0026124942926581537   -0.025264324767014713   -0.000922221522371392
-0.004328567183366368   -0.02186892092334282   -0.0009757463925558416
-0.002525881183358787   -0.021875293971659503   -0.000936614308243333
-0.0026124942926581537   -0.025264324767014713   -0.000922221522371392
-0.002553694429583903   -0.021863966727142414   -0.0009482881198978724
-0.004328567183366368   -0.02186892092334282   -0.0009757463925558416
-0.0026124942926581537   -0.025264324767014713   -0.000922221522371392
-0.0040771076576052705   -0.02523576889021597   -0.0009511454652416715
-0.004118842803502272   -0.025224519521322587   -0.0009326321345777732
-0.004328567183366368   -0.02186892092334282   -0.0009757463925558416
-0.0026124942926581537   -0.025264324767014713   -0.000922221522371392
-0.004118842803502272   -0.025224519521322587   -0.0009326321345777732
-0.002553694429583903   -0.021863966727142414   -0.0009482881198978724
-0.004328567183366368   -0.02186892092334282   -0.0009757463925558416
-0.0040771076576052705   -0.02523576889021597   -0.0009511454652416715
-0.002525881183358787   -0.021875293971659503   -0.000936614308243333
-0.004294026870010118   -0.021900338309199942   -0.0009851829084624466
-0.0040771076576052705   -0.02523576889021597   -0.0009511454652416715
-0.0026124942926581537   -0.025264324767014713   -0.000922221522371392
-0.002525881183358787   -0.021875293971659503   -0.000936614308243333
-0.0025683427760340334   -0.025282137570884242   -0.0009178482965234319
-0.004294026870010118   -0.021900338309199942   -0.0009851829084624466
-0.0024959903666744707   -0.02189571882277896   -0.0009289776169536096
-0.0025683427760340334   -0.025282137570884242   -0.0009178482965234319
-0.002525881183358787   -0.021875293971659503   -0.000936614308243333
-0.004294026870010118   -0.021900338309199942   -0.0009851829084624466
-0.0025683427760340334   -0.025282137570884242   -0.0009178482965234319
-0.004024671946778038   -0.02526288177825575   -0.000973781866039052
-0.0040771076576052705   -0.02523576889021597   -0.0009511454652416715
-0.004294026870010118   -0.021900338309199942   -0.0009851829084624466
-0.0025683427760340334   -0.025282137570884242   -0.0009178482965234319
-0.0040771076576052705   -0.02523576889021597   -0.0009511454652416715
-0.002525881183358787   -0.021875293971659503   -0.000936614308243333
-0.004294026870010118   -0.021900338309199942   -0.0009851829084624466
-0.004024671946778038   -0.02526288177825575   -0.000973781866039052
-0.0024959903666744707   -0.02189571882277896   -0.0009289776169536096
-0.004257024223577784   -0.021943158710290254   -0.0009988195458282493
-0.004024671946778038   -0.02526288177825575   -0.000973781866039052
-0.0025683427760340334   -0.025282137570884242   -0.0009178482965234319
-0.0024959903666744707   -0.02189571882277896   -0.0009289776169536096
-0.0025242492283063887   -0.02531493202615349   -0.0009174353488828604
-0.004257024223577784   -0.021943158710290254   -0.0009988195458282493
-0.0024652676444539305   -0.021925492052651187   -0.0009255812947042996
-0.0025242492283063887   -0.02531493202615349   -0.0009174353488828604
-0.0024959903666744707   -0.02189571882277896   -0.0009289776169536096
-0.004257024223577784   -0.021943158710290254   -0.0009988195458282493
-0.0025242492283063887   -0.02531493202615349   -0.0009174353488828604
-0.003972970808377578   -0.02530740144388144   -0.0010005020538583224
-0.004024671946778038   -0.02526288177825575   -0.000973781866039052
-0.004257024223577784   -0.021943158710290254   -0.0009988195458282493
-0.0025242492283063887   -0.02531493202615349   -0.0009174353488828604
-0.004024671946778038   -0.02526288177825575   -0.000973781866039052
-0.0024959903666744707   -0.02189571882277896   -0.0009289776169536096
-0.002553694429583903   -0.021863966727142414   -0.0009482881198978724
-0.002655245979533975   -0.025260692045288115   -0.000930595363597493
-0.0008074955203263215   -0.02185047640545967   -0.0009450239852085943
-0.002525881183358787   -0.021875293971659503   -0.000936614308243333
-0.002655245979533975   -0.025260692045288115   -0.000930595363597493
-0.0012399922606334587   -0.025253407911652953   -0.0009413809884908711
-0.0008074955203263215   -0.02185047640545967   -0.0009450239852085943
-0.0011931714133770692   -0.02524845930797849   -0.0009070559811270513
-0.002525881183358787   -0.021875293971659503   -0.000936614308243333
-0.000776744928732628   -0.021850537427380044   -0.0009169123357822298
-0.0011931714133770692   -0.02524845930797849   -0.0009070559811270513
-0.0008074955203263215   -0.02185047640545967   -0.0009450239852085943
-0.002525881183358787   -0.021875293971659503   -0.000936614308243333
-0.0011931714133770692   -0.02524845930797849   -0.0009070559811270513
-0.0026124942926581537   -0.025264324767014713   -0.000922221522371392
-0.002655245979533975   -0.025260692045288115   -0.000930595363597493
-0.002525881183358787   -0.021875293971659503   -0.000936614308243333
-0.0011931714133770692   -0.02524845930797849   -0.0009070559811270513
-0.002655245979533975   -0.025260692045288115   -0.000930595363597493
-0.0008074955203263215   -0.02185047640545967   -0.0009450239852085943
-0.002525881183358787   -0.021875293971659503   -0.000936614308243333
-0.0026124942926581537   -0.025264324767014713   -0.000922221522371392
-0.000776744928732628   -0.021850537427380044   -0.0009169123357822298
-0.0024959903666744707   -0.02189571882277896   -0.0009289776169536096
-0.0026124942926581537   -0.025264324767014713   -0.000922221522371392
-0.0011931714133770692   -0.02524845930797849   -0.0009070559811270513
-0.000776744928732628   -0.021850537427380044   -0.0009169123357822298
-0.0011476918857133839   -0.02525637375213833   -0.0008769970058812664
-0.0024959903666744707   -0.02189571882277896   -0.0009289776169536096
-0.0007467809535047181   -0.021859051778256325   -0.0008928517186566712
-0.0011476918857133839   -0.02525637375213833   -0.0008769970058812664
-0.000776744928732628   -0.021850537427380044   -0.0009169123357822298
-0.0024959903666744707   -0.02189571882277896   -0.0009289776169536096
-0.0011476918857133839   -0.02525637375213833   -0.0008769970058812664
-0.0025683427760340334   -0.025282137570884242   -0.0009178482965234319
-0.0026124942926581537   -0.025264324767014713   -0.000922221522371392
-0.0024959903666744707   -0.02189571882277896   -0.0009289776169536096
-0.0011476918857133839   -0.02525637375213833   -0.0008769970058812664
-0.0026124942926581537   -0.025264324767014713   -0.000922221522371392
-0.000776744928732628   -0.021850537427380044   -0.0009169123357822298
-0.0024959903666744707   -0.02189571882277896   -0.0009289776169536096
-0.0025683427760340334   -0.025282137570884242   -0.0009178482965234319
-0.0007467809535047181   -0.021859051778256325   -0.0008928517186566712
-0.0024652676444539305   -0.021925492052651187   -0.0009255812947042996
-0.0025683427760340334   -0.025282137570884242   -0.0009178482965234319
-0.0011476918857133839   -0.02525637375213833   -0.0008769970058812664
-0.0007467809535047181   -0.021859051778256325   -0.0008928517186566712
-0.0011065663059819358   -0.025278945963100263   -0.0008508403967031812
-0.0024652676444539305   -0.021925492052651187   -0.0009255812947042996
-0.0007199899212978923   -0.021876706698035348   -0.0008729811852243635
-0.0011065663059819358   -0.025278945963100263   -0.0008508403967031812
-0.0007467809535047181   -0.021859051778256325   -0.0008928517186566712
-0.0024652676444539305   -0.021925492052651187   -0.0009255812947042996
-0.0011065663059819358   -0.025278945963100263   -0.0008508403967031812
-0.0025242492283063887   -0.02531493202615349   -0.0009174353488828604
-0.0025683427760340334   -0.025282137570884242   -0.0009178482965234319
-0.0024652676444539305   -0.021925492052651187   -0.0009255812947042996
-0.0011065663059819358   -0.025278945963100263   -0.0008508403967031812
-0.0025683427760340334   -0.025282137570884242   -0.0009178482965234319
-0.0007467809535047181   -0.021859051778256325   -0.0008928517186566712
-0.0008074955203263215   -0.02185047640545967   -0.0009450239852085943
-0.0012399922606334587   -0.025253407911652953   -0.0009413809884908711
0.0009978411043236087   -0.021807310042281453   -0.0009620780810832084
-0.000776744928732628   -0.021850537427380044   -0.0009169123357822298
-0.0012399922606334587   -0.025253407911652953   -0.0009413809884908711
0.00023985575955345708   -0.025201098142792193   -0.000967244857503964
0.0009978411043236087   -0.021807310042281453   -0.0009620780810832084
0.00029688812218368313   -0.02518530106294121   -0.0009070364465596271
-0.000776744928732628   -0.021850537427380044   -0.0009169123357822298
0.0010354611937523246   -0.02179534243032566   -0.0009176631337942627
0.00029688812218368313   -0.02518530106294121   -0.0009070364465596271
0.0009978411043236087   -0.021807310042281453   -0.0009620780810832084
-0.000776744928732628   -0.021850537427380044   -0.0009169123357822298
0.00029688812218368313   -0.02518530106294121   -0.0009070364465596271
-0.0011931714133770692   -0.02524845930797849   -0.0009070559811270513
-0.0012399922606334587   -0.025253407911652953   -0.0009413809884908711
-0.000776744928732628   -0.021850537427380044   -0.0009169123357822298
0.00029688812218368313   -0.02518530106294121   -0.0009070364465596271
-0.0012399922606334587   -0.025253407911652953   -0.0009413809884908711
0.0009978411043236087   -0.021807310042281453   -0.0009620780810832084
-0.000776744928732628   -0.021850537427380044   -0.0009169123357822298
-0.0011931714133770692   -0.02524845930797849   -0.0009070559811270513
0.0010354611937523246   -0.02179534243032566   -0.0009176631337942627
-0.0007467809535047181   -0.021859051778256325   -0.0008928517186566712
-0.0011931714133770692   -0.02524845930797849   -0.0009070559811270513
0.00029688812218368313   -0.02518530106294121   -0.0009070364465596271
0.0010354611937523246   -0.02179534243032566   -0.0009176631337942627
0.0003571144981068167   -0.02518388022576326   -0.0008522256556222502
-0.0007467809535047181   -0.021859051778256325   -0.0008928517186566712
0.0010741130470409673   -0.021793042373576897   -0.000877553295983579
0.0003571144981068167   -0.02518388022576326   -0.0008522256556222502
0.0010354611937523246   -0.02179534243032566   -0.0009176631337942627
-0.0007467809535047181   -0.021859051778256325   -0.0008928517186566712
0.0003571144981068167   -0.02518388022576326   -0.0008522256556222502
-0.0011476918857133839   -0.02525637375213833   -0.0008769970058812664
-0.0011931714133770692   -0.02524845930797849   -0.0009070559811270513
-0.0007467809535047181   -0.021859051778256325   -0.0008928517186566712
0.0003571144981068167   -0.02518388022576326   -0.0008522256556222502
-0.0011931714133770692   -0.02524845930797849   -0.0009070559811270513
0.0010354611937523246   -0.02179534243032566   -0.0009176631337942627
-0.0007467809535047181   -0.021859051778256325   -0.0008928517186566712
-0.0011476918857133839   -0.02525637375213833   -0.0008769970058812664
0.0010741130470409673   -0.021793042373576897   -0.000877553295983579
-0.0007199899212978923   -0.021876706698035348   -0.0008729811852243635
-0.0011476918857133839   -0.02525637375213833   -0.0008769970058812664
0.0003571144981068167   -0.02518388022576326   -0.0008522256556222502
0.0010741130470409673   -0.021793042373576897   -0.000877553295983579
0.0004011589799766195   -0.025196163607017066   -0.0008011266813594797
-0.0007199899212978923   -0.021876706698035348   -0.0008729811852243635
0.001099951792916016   -0.021798642191743885   -0.0008411791529063259
0.0004011589799766195   -0.025196163607017066   -0.0008011266813594797
0.0010741130470409673   -0.021793042373576897   -0.000877553295983579
-0.0007199899212978923   -0.021876706698035348   -0.0008729811852243635
0.0004011589799766195   -0.025196163607017066   -0.0008011266813594797
-0.0011065663059819358   -0.025278945963100263   -0.0008508403967031812
-0.0011476918857133839   -0.02525637375213833   -0.0008769970058812664
-0.0007199899212978923   -0.021876706698035348   -0.0008729811852243635
0.0004011589799766195   -0.025196163607017066   -0.0008011266813594797
-0.0011476918857133839   -0.02525637375213833   -0.0008769970058812664
0.0010741130470409673   -0.021793042373576897   -0.000877553295983579
0.0009978411043236087   -0.021807310042281453   -0.0009620780810832084
0.00023985575955345708   -0.025201098142792193   -0.000967244857503964
0.0029160036394433727   -0.021733032994562286   -0.0010053798507353837
0.0010354611937523246   -0.02179534243032566   -0.0009176631337942627
0.00023985575955345708   -0.025201098142792193   -0.000967244857503964
0.0018142530947623564   -0.025098855283335476   -0.0010219509851151234
0.0029160036394433727   -0.021733032994562286   -0.0010053798507353837
0.001959672247754741   -0.025068636789881544   -0.0009297481953710312
0.0010354611937523246   -0.02179534243032566   -0.0009176631337942627
0.003016178664394098   -0.021708540763549188   -0.0009406361054296379
0.001959672247754741   -0.025068636789881544   -0.0009297481953710312
0.0029160036394433727   -0.021733032994562286   -0.0010053798507353837
0.0010354611937523246   -0.02179534243032566   -0.0009176631337942627
0.001959672247754741   -0.025068636789881544   -0.0009297481953710312
0.00029688812218368313   -0.02518530106294121   -0.0009070364465596271
0.00023985575955345708   -0.025201098142792193   -0.000967244857503964
0.0010354611937523246   -0.02179534243032566   -0.0009176631337942627
0.001959672247754741   -0.025068636789881544   -0.0009297481953710312
0.00023985575955345708   -0.025201098142792193   -0.000967244857503964
0.0029160036394433727   -0.021733032994562286   -0.0010053798507353837
0.0010354611937523246   -0.02179534243032566   -0.0009176631337942627
0.00029688812218368313   -0.02518530106294121   -0.0009070364465596271
0.003016178664394098   -0.021708540763549188   -0.0009406361054296379
0.0010741130470409673   -0.021793042373576897   -0.000877553295983579
0.00029688812218368313   -0.02518530106294121   -0.0009070364465596271
0.001959672247754741   -0.025068636789881544   -0.0009297481953710312
0.003016178664394098   -0.021708540763549188   -0.0009406361054296379
0.0020712393853838723   -0.025063400487679965   -0.0008442429727705548
0.0010741130470409673   -0.021793042373576897   -0.000877553295983579
0.0030905279846252303   -0.02170174104680627   -0.000881629113044439
0.0020712393853838723   -0.025063400487679965   -0.0008442429727705548
0.003016178664394098   -0.021708540763549188   -0.0009406361054296379
0.0010741130470409673   -0.021793042373576897   -0.000877553295983579
0.0020712393853838723   -0.025063400487679965   -0.0008442429727705548
0.0003571144981068167   -0.02518388022576326   -0.0008522256556222502
0.00029688812218368313   -0.02518530106294121   -0.0009070364465596271
0.0010741130470409673   -0.021793042373576897   -0.000877553295983579
0.0020712393853838723   -0.025063400487679965   -0.0008442429727705548
0.00029688812218368313   -0.02518530106294121   -0.0009070364465596271
0.003016178664394098   -0.021708540763549188   -0.0009406361054296379
0.0010741130470409673   -0.021793042373576897   -0.000877553295983579
0.0003571144981068167   -0.02518388022576326   -0.0008522256556222502
0.0030905279846252303   -0.02170174104680627   -0.000881629113044439
0.001099951792916016   -0.021798642191743885   -0.0008411791529063259
0.0003571144981068167   -0.02518388022576326   -0.0008522256556222502
0.0020712393853838723   -0.025063400487679965   -0.0008442429727705548
0.0030905279846252303   -0.02170174104680627   -0.000881629113044439
0.0021872432972585374   -0.02507251610094041   -0.0007661264466292918
0.001099951792916016   -0.021798642191743885   -0.0008411791529063259
0.0031662139876264903   -0.021701740096888033   -0.000828628757486958
0.0021872432972585374   -0.02507251610094041   -0.0007661264466292918
0.0030905279846252303   -0.02170174104680627   -0.000881629113044439
0.001099951792916016   -0.021798642191743885   -0.0008411791529063259
0.0021872432972585374   -0.02507251610094041   -0.0007661264466292918
0.0004011589799766195   -0.025196163607017066   -0.0008011266813594797
0.0003571144981068167   -0.02518388022576326   -0.0008522256556222502
0.001099951792916016   -0.021798642191743885   -0.0008411791529063259
0.0021872432972585374   -0.02507251610094041   -0.0007661264466292918
0.0003571144981068167   -0.02518388022576326   -0.0008522256556222502
0.0030905279846252303   -0.02170174104680627   -0.000881629113044439
-0.005806445419693816   -0.02514652152469377   -0.0009380447603086547
-0.004871710927151613   -0.02776796810638406   -0.0008517665889612002
-0.004118842803502272   -0.025224519521322587   -0.0009326321345777732
-0.005719154537691041   -0.025163175633745063   -0.00099004061271845
-0.004871710927151613   -0.02776796810638406   -0.0008517665889612002
-0.003669702646142098   -0.027882924144080935   -0.0008861326245035227
-0.004118842803502272   -0.025224519521322587   -0.0009326321345777732
-0.003610130656701542   -0.02787718800732072   -0.0009145944322233018
-0.005719154537691041   -0.025163175633745063   -0.00099004061271845
-0.0040771076576052705   -0.02523576889021597   -0.0009511454652416715
-0.003610130656701542   -0.02787718800732072   -0.0009145944322233018
-0.004118842803502272   -0.025224519521322587   -0.0009326321345777732
-0.005719154537691041   -0.025163175633745063   -0.00099004061271845
-0.003610130656701542   -0.02787718800732072   -0.0009145944322233018
-0.004742487248539672   -0.027764853433075318   -0.0009284716069171782
-0.004871710927151613   -0.02776796810638406   -0.0008517665889612002
-0.005719154537691041   -0.025163175633745063   -0.00099004061271845
-0.003610130656701542   -0.02787718800732072   -0.0009145944322233018
-0.004871710927151613   -0.02776796810638406   -0.0008517665889612002
-0.004118842803502272   -0.025224519521322587   -0.0009326321345777732
-0.005719154537691041   -0.025163175633745063   -0.00099004061271845
-0.004742487248539672   -0.027764853433075318   -0.0009284716069171782
-0.0040771076576052705   -0.02523576889021597   -0.0009511454652416715
-0.005632275442657327   -0.025195001636681945   -0.0010487476530387193
-0.004742487248539672   -0.027764853433075318   -0.0009284716069171782
-0.003610130656701542   -0.02787718800732072   -0.0009145944322233018
-0.0040771076576052705   -0.02523576889021597   -0.0009511454652416715
-0.0035399369234154518   -0.027894059208903713   -0.0009472447764975622
-0.005632275442657327   -0.025195001636681945   -0.0010487476530387193
-0.004024671946778038   -0.02526288177825575   -0.000973781866039052
-0.0035399369234154518   -0.027894059208903713   -0.0009472447764975622
-0.0040771076576052705   -0.02523576889021597   -0.0009511454652416715
-0.005632275442657327   -0.025195001636681945   -0.0010487476530387193
-0.0035399369234154518   -0.027894059208903713   -0.0009472447764975622
-0.004623501704599058   -0.027785645839768894   -0.0010110850512897807
-0.004742487248539672   -0.027764853433075318   -0.0009284716069171782
-0.005632275442657327   -0.025195001636681945   -0.0010487476530387193
-0.0035399369234154518   -0.027894059208903713   -0.0009472447764975622
-0.004742487248539672   -0.027764853433075318   -0.0009284716069171782
-0.0040771076576052705   -0.02523576889021597   -0.0009511454652416715
-0.005632275442657327   -0.025195001636681945   -0.0010487476530387193
-0.004623501704599058   -0.027785645839768894   -0.0010110850512897807
-0.004024671946778038   -0.02526288177825575   -0.000973781866039052
-0.00552104307810549   -0.025254349435570055   -0.0011140572481479745
-0.004623501704599058   -0.027785645839768894   -0.0010110850512897807
-0.0035399369234154518   -0.027894059208903713   -0.0009472447764975622
-0.004024671946778038   -0.02526288177825575   -0.000973781866039052
-0.0034762644890530313   -0.02793394153181398   -0.000983818414256089
-0.00552104307810549   -0.025254349435570055   -0.0011140572481479745
-0.003972970808377578   -0.02530740144388144   -0.0010005020538583224
-0.0034762644890530313   -0.02793394153181398   -0.000983818414256089
-0.004024671946778038   -0.02526288177825575   -0.000973781866039052
-0.00552104307810549   -0.025254349435570055   -0.0011140572481479745
-0.0034762644890530313   -0.02793394153181398   -0.000983818414256089
-0.00447828922871851   -0.02784074554900925   -0.0010992735376762755
-0.004623501704599058   -0.027785645839768894   -0.0010110850512897807
-0.00552104307810549   -0.025254349435570055   -0.0011140572481479745
-0.0034762644890530313   -0.02793394153181398   -0.000983818414256089
-0.004623501704599058   -0.027785645839768894   -0.0010110850512897807
-0.004024671946778038   -0.02526288177825575   -0.000973781866039052
-0.004118842803502272   -0.025224519521322587   -0.0009326321345777732
-0.003669702646142098   -0.027882924144080935   -0.0008861326245035227
-0.002655245979533975   -0.025260692045288115   -0.000930595363597493
-0.0040771076576052705   -0.02523576889021597   -0.0009511454652416715
-0.003669702646142098   -0.027882924144080935   -0.0008861326245035227
-0.002684798222043493   -0.02795656664556386   -0.0009130573056695024
-0.002655245979533975   -0.025260692045288115   -0.000930595363597493
-0.002623788804149582   -0.027947186044193835   -0.0009043726329195636
-0.0040771076576052705   -0.02523576889021597   -0.0009511454652416715
-0.0026124942926581537   -0.025264324767014713   -0.000922221522371392
-0.002623788804149582   -0.027947186044193835   -0.0009043726329195636
-0.002655245979533975   -0.025260692045288115   -0.000930595363597493
-0.0040771076576052705   -0.02523576889021597   -0.0009511454652416715
-0.002623788804149582   -0.027947186044193835   -0.0009043726329195636
-0.003610130656701542   -0.02787718800732072   -0.0009145944322233018
-0.003669702646142098   -0.027882924144080935   -0.0008861326245035227
-0.0040771076576052705   -0.02523576889021597   -0.0009511454652416715
-0.002623788804149582   -0.027947186044193835   -0.0009043726329195636
-0.003669702646142098   -0.027882924144080935   -0.0008861326245035227
-0.002655245979533975   -0.025260692045288115   -0.000930595363597493
-0.0040771076576052705   -0.02523576889021597   -0.0009511454652416715
-0.003610130656701542   -0.02787718800732072   -0.0009145944322233018
-0.0026124942926581537   -0.025264324767014713   -0.000922221522371392
-0.004024671946778038   -0.02526288177825575   -0.000973781866039052
-0.003610130656701542   -0.02787718800732072   -0.0009145944322233018
-0.002623788804149582   -0.027947186044193835   -0.0009043726329195636
-0.0026124942926581537   -0.025264324767014713   -0.000922221522371392
-0.002563564039325673   -0.027957359308123222   -0.0008997649048144067
-0.004024671946778038   -0.02526288177825575   -0.000973781866039052
-0.0025683427760340334   -0.025282137570884242   -0.0009178482965234319
-0.002563564039325673   -0.027957359308123222   -0.0008997649048144067
-0.0026124942926581537   -0.025264324767014713   -0.000922221522371392
-0.004024671946778038   -0.02526288177825575   -0.000973781866039052
-0.002563564039325673   -0.027957359308123222   -0.0008997649048144067
-0.0035399369234154518   -0.027894059208903713   -0.0009472447764975622
-0.003610130656701542   -0.02787718800732072   -0.0009145944322233018
-0.004024671946778038   -0.02526288177825575   -0.000973781866039052
-0.002563564039325673   -0.027957359308123222   -0.0008997649048144067
-0.003610130656701542   -0.02787718800732072   -0.0009145944322233018
-0.0026124942926581537   -0.025264324767014713   -0.000922221522371392
-0.004024671946778038   -0.02526288177825575   -0.000973781866039052
-0.0035399369234154518   -0.027894059208903713   -0.0009472447764975622
-0.0025683427760340334   -0.025282137570884242   -0.0009178482965234319
-0.003972970808377578   -0.02530740144388144   -0.0010005020538583224
-0.0035399369234154518   -0.027894059208903713   -0.0009472447764975622
-0.002563564039325673   -0.027957359308123222   -0.0008997649048144067
-0.0025683427760340334   -0.025282137570884242   -0.0009178482965234319
-0.0025080715238018146   -0.02798770520102891   -0.0009000752006345419
-0.003972970808377578   -0.02530740144388144   -0.0010005020538583224
-0.0025242492283063887   -0.02531493202615349   -0.0009174353488828604
-0.0025080715238018146   -0.02798770520102891   -0.0009000752006345419
-0.0025683427760340334   -0.025282137570884242   -0.0009178482965234319
-0.003972970808377578   -0.02530740144388144   -0.0010005020538583224
-0.0025080715238018146   -0.02798770520102891   -0.0009000752006345419
-0.0034762644890530313   -0.02793394153181398   -0.000983818414256089
-0.0035399369234154518   -0.027894059208903713   -0.0009472447764975622
-0.003972970808377578   -0.02530740144388144   -0.0010005020538583224
-0.0025080715238018146   -0.02798770520102891   -0.0009000752006345419
-0.0035399369234154518   -0.027894059208903713   -0.0009472447764975622
-0.0025683427760340334   -0.025282137570884242   -0.0009178482965234319
-0.002655245979533975   -0.025260692045288115   -0.000930595363597493
-0.002684798222043493   -0.02795656664556386   -0.0009130573056695024
-0.0012399922606334587   -0.025253407911652953   -0.0009413809884908711
-0.0026124942926581537   -0.025264324767014713   -0.000922221522371392
-0.002684798222043493   -0.02795656664556386   -0.0009130573056695024
-0.0017411724071174312   -0.027993911818084315   -0.0009451692446597964
-0.0012399922606334587   -0.025253407911652953   -0.0009413809884908711
-0.0016724265069064741   -0.02798019988446657   -0.0009014008457799878
-0.0026124942926581537   -0.025264324767014713   -0.000922221522371392
-0.0011931714133770692   -0.02524845930797849   -0.0009070559811270513
-0.0016724265069064741   -0.02798019988446657   -0.0009014008457799878
-0.0012399922606334587   -0.025253407911652953   -0.0009413809884908711
-0.0026124942926581537   -0.025264324767014713   -0.000922221522371392
-0.0016724265069064741   -0.02798019988446657   -0.0009014008457799878
-0.002623788804149582   -0.027947186044193835   -0.0009043726329195636
-0.002684798222043493   -0.02795656664556386   -0.0009130573056695024
-0.0026124942926581537   -0.025264324767014713   -0.000922221522371392
-0.0016724265069064741   -0.02798019988446657   -0.0009014008457799878
-0.002684798222043493   -0.02795656664556386   -0.0009130573056695024
-0.0012399922606334587   -0.025253407911652953   -0.0009413809884908711
-0.0026124942926581537   -0.025264324767014713   -0.000922221522371392
-0.002623788804149582   -0.027947186044193835   -0.0009043726329195636
-0.0011931714133770692   -0.02524845930797849   -0.0009070559811270513
-0.0025683427760340334   -0.025282137570884242   -0.0009178482965234319
-0.002623788804149582   -0.027947186044193835   -0.0009043726329195636
-0.0016724265069064741   -0.02798019988446657   -0.0009014008457799878
-0.0011931714133770692   -0.02524845930797849   -0.0009070559811270513
-0.00160683419051239   -0.027983755924639538   -0.0008612678064665349
-0.0025683427760340334   -0.025282137570884242   -0.0009178482965234319
-0.0011476918857133839   -0.02525637375213833   -0.0008769970058812664
-0.00160683419051239   -0.027983755924639538   -0.0008612678064665349
-0.0011931714133770692   -0.02524845930797849   -0.0009070559811270513
-0.0025683427760340334   -0.025282137570884242   -0.0009178482965234319
-0.00160683419051239   -0.027983755924639538   -0.0008612678064665349
-0.002563564039325673   -0.027957359308123222   -0.0008997649048144067
-0.002623788804149582   -0.027947186044193835   -0.0009043726329195636
-0.0025683427760340334   -0.025282137570884242   -0.0009178482965234319
-0.00160683419051239   -0.027983755924639538   -0.0008612678064665349
-0.002623788804149582   -0.027947186044193835   -0.0009043726329195636
-0.0011931714133770692   -0.02524845930797849   -0.0009070559811270513
-0.0025683427760340334   -0.025282137570884242   -0.0009178482965234319
-0.002563564039325673   -0.027957359308123222   -0.0008997649048144067
-0.0011476918857133839   -0.02525637375213833   -0.0008769970058812664
-0.0025242492283063887   -0.02531493202615349   -0.0009174353488828604
-0.002563564039325673   -0.027957359308123222   -0.0008997649048144067
-0.00160683419051239   -0.027983755924639538   -0.0008612678064665349
-0.0011476918857133839   -0.02525637375213833   -0.0008769970058812664
-0.0015521651903184573   -0.028007809025889202   -0.00082696873928278
-0.0025242492283063887   -0.02531493202615349   -0.0009174353488828604
-0.0011065663059819358   -0.025278945963100263   -0.0008508403967031812
-0.0015521651903184573   -0.028007809025889202   -0.00082696873928278
-0.0011476918857133839   -0.02525637375213833   -0.0008769970058812664
-0.0025242492283063887   -0.02531493202615349   -0.0009174353488828604
-0.0015521651903184573   -0.028007809025889202   -0.00082696873928278
-0.0025080715238018146   -0.02798770520102891   -0.0009000752006345419
-0.002563564039325673   -0.027957359308123222   -0.0008997649048144067
-0.0025242492283063887   -0.02531493202615349   -0.0009174353488828604
-0.0015521651903184573   -0.028007809025889202   -0.00082696873928278
-0.002563564039325673   -0.027957359308123222   -0.0008997649048144067
-0.0011476918857133839   -0.02525637375213833   -0.0008769970058812664
-0.0012399922606334587   -0.025253407911652953   -0.0009413809884908711
-0.0017411724071174312   -0.027993911818084315   -0.0009451692446597964
0.00023985575955345708   -0.025201098142792193   -0.000967244857503964
-0.0011931714133770692   -0.02524845930797849   -0.0009070559811270513
-0.0017411724071174312   -0.027993911818084315   -0.0009451692446597964
-0.0007398202600846346   -0.02798159238012525   -0.0009832461123799037
0.00023985575955345708   -0.025201098142792193   -0.000967244857503964
-0.0006515516729575486   -0.027960047510903977   -0.0009058403801781518
-0.0011931714133770692   -0.02524845930797849   -0.0009070559811270513
0.00029688812218368313   -0.02518530106294121   -0.0009070364465596271
-0.0006515516729575486   -0.027960047510903977   -0.0009058403801781518
0.00023985575955345708   -0.025201098142792193   -0.000967244857503964
-0.0011931714133770692   -0.02524845930797849   -0.0009070559811270513
-0.0006515516729575486   -0.027960047510903977   -0.0009058403801781518
-0.0016724265069064741   -0.02798019988446657   -0.0009014008457799878
-0.0017411724071174312   -0.027993911818084315   -0.0009451692446597964
-0.0011931714133770692   -0.02524845930797849   -0.0009070559811270513
-0.0006515516729575486   -0.027960047510903977   -0.0009058403801781518
-0.0017411724071174312   -0.027993911818084315   -0.0009451692446597964
0.00023985575955345708   -0.025201098142792193   -0.000967244857503964
-0.0011931714133770692   -0.02524845930797849   -0.0009070559811270513
-0.0016724265069064741   -0.02798019988446657   -0.0009014008457799878
0.00029688812218368313   -0.02518530106294121   -0.0009070364465596271
-0.0011476918857133839   -0.02525637375213833   -0.0008769970058812664
-0.0016724265069064741   -0.02798019988446657   -0.0009014008457799878
-0.0006515516729575486   -0.027960047510903977   -0.0009058403801781518
0.00029688812218368313   -0.02518530106294121   -0.0009070364465596271
-0.0005610306429091605   -0.027956411221299507   -0.0008323047792725519
-0.0011476918857133839   -0.02525637375213833   -0.0008769970058812664
0.0003571144981068167   -0.02518388022576326   -0.0008522256556222502
-0.0005610306429091605   -0.027956411221299507   -0.0008323047792725519
0.00029688812218368313   -0.02518530106294121   -0.0009070364465596271
-0.0011476918857133839   -0.02525637375213833   -0.0008769970058812664
-0.0005610306429091605   -0.027956411221299507   -0.0008323047792725519
-0.00160683419051239   -0.027983755924639538   -0.0008612678064665349
-0.0016724265069064741   -0.02798019988446657   -0.0009014008457799878
-0.0011476918857133839   -0.02525637375213833   -0.0008769970058812664
-0.0005610306429091605   -0.027956411221299507   -0.0008323047792725519
-0.0016724265069064741   -0.02798019988446657   -0.0009014008457799878
0.00029688812218368313   -0.02518530106294121   -0.0009070364465596271
-0.0011476918857133839   -0.02525637375213833   -0.0008769970058812664
-0.00160683419051239   -0.027983755924639538   -0.0008612678064665349
0.0003571144981068167   -0.02518388022576326   -0.0008522256556222502
-0.0011065663059819358   -0.025278945963100263   -0.0008508403967031812
-0.00160683419051239   -0.027983755924639538   -0.0008612678064665349
-0.0005610306429091605   -0.027956411221299507   -0.0008323047792725519
0.0003571144981068167   -0.02518388022576326   -0.0008522256556222502
-0.0004941491420498461   -0.0279744197547588   -0.00076537758903066
-0.0011065663059819358   -0.025278945963100263   -0.0008508403967031812
0.0004011589799766195   -0.025196163607017066   -0.0008011266813594797
-0.0004941491420498461   -0.0279744197547588   -0.00076537758903066
0.0003571144981068167   -0.02518388022576326   -0.0008522256556222502
-0.0011065663059819358   -0.025278945963100263   -0.0008508403967031812
-0.0004941491420498461   -0.0279744197547588   -0.00076537758903066
-0.0015521651903184573   -0.028007809025889202   -0.00082696873928278
-0.00160683419051239   -0.027983755924639538   -0.0008612678064665349
-0.0011065663059819358   -0.025278945963100263   -0.0008508403967031812
-0.0004941491420498461   -0.0279744197547588   -0.00076537758903066
-0.00160683419051239   -0.027983755924639538   -0.0008612678064665349
0.0003571144981068167   -0.02518388022576326   -0.0008522256556222502
0.00023985575955345708   -0.025201098142792193   -0.000967244857503964
-0.0007398202600846346   -0.02798159238012525   -0.0009832461123799037
0.0018142530947623564   -0.025098855283335476   -0.0010219509851151234
0.00029688812218368313   -0.02518530106294121   -0.0009070364465596271
-0.0007398202600846346   -0.02798159238012525   -0.0009832461123799037
0.0003337992141408954   -0.027884515841737782   -0.0010604074135620461
0.0018142530947623564   -0.025098855283335476   -0.0010219509851151234
0.0005416289122380415   -0.02783790997222333   -0.0009339353580884452
0.00029688812218368313   -0.02518530106294121   -0.0009070364465596271
0.001959672247754741   -0.025068636789881544   -0.0009297481953710312
0.0005416289122380415   -0.02783790997222333   -0.0009339353580884452
0.0018142530947623564   -0.025098855283335476   -0.0010219509851151234
0.00029688812218368313   -0.02518530106294121   -0.0009070364465596271
0.0005416289122380415   -0.02783790997222333   -0.0009339353580884452
-0.0006515516729575486   -0.027960047510903977   -0.0009058403801781518
-0.0007398202600846346   -0.02798159238012525   -0.0009832461123799037
0.00029688812218368313   -0.02518530106294121   -0.0009070364465596271
0.0005416289122380415   -0.02783790997222333   -0.0009339353580884452
-0.0007398202600846346   -0.02798159238012525   -0.0009832461123799037
0.0018142530947623564   -0.025098855283335476   -0.0010219509851151234
0.00029688812218368313   -0.02518530106294121   -0.0009070364465596271
-0.0006515516729575486   -0.027960047510903977   -0.0009058403801781518
0.001959672247754741   -0.025068636789881544   -0.0009297481953710312
0.0003571144981068167   -0.02518388022576326   -0.0008522256556222502
-0.0006515516729575486   -0.027960047510903977   -0.0009058403801781518
0.0005416289122380415   -0.02783790997222333   -0.0009339353580884452
0.001959672247754741   -0.025068636789881544   -0.0009297481953710312
0.0007048396630294682   -0.02782860728523751   -0.0008150090488508333
0.0003571144981068167   -0.02518388022576326   -0.0008522256556222502
0.0020712393853838723   -0.025063400487679965   -0.0008442429727705548
0.0007048396630294682   -0.02782860728523751   -0.0008150090488508333
0.001959672247754741   -0.025068636789881544   -0.0009297481953710312
0.0003571144981068167   -0.02518388022576326   -0.0008522256556222502
0.0007048396630294682   -0.02782860728523751   -0.0008150090488508333
-0.0005610306429091605   -0.027956411221299507   -0.0008323047792725519
-0.0006515516729575486   -0.027960047510903977   -0.0009058403801781518
0.0003571144981068167   -0.02518388022576326   -0.0008522256556222502
0.0007048396630294682   -0.02782860728523751   -0.0008150090488508333
-0.0006515516729575486   -0.027960047510903977   -0.0009058403801781518
0.001959672247754741   -0.025068636789881544   -0.0009297481953710312
0.0003571144981068167   -0.02518388022576326   -0.0008522256556222502
-0.0005610306429091605   -0.027956411221299507   -0.0008323047792725519
0.0020712393853838723   -0.025063400487679965   -0.0008442429727705548
0.0004011589799766195   -0.025196163607017066   -0.0008011266813594797
-0.0005610306429091605   -0.027956411221299507   -0.0008323047792725519
0.0007048396630294682   -0.02782860728523751   -0.0008150090488508333
0.0020712393853838723   -0.025063400487679965   -0.0008442429727705548
0.000874981997628616   -0.02783711016427706   -0.0007061831413127022
0.0004011589799766195   -0.025196163607017066   -0.0008011266813594797
0.0021872432972585374   -0.02507251610094041   -0.0007661264466292918
0.000874981997628616   -0.02783711016427706   -0.0007061831413127022
0.0020712393853838723   -0.025063400487679965   -0.0008442429727705548
0.0004011589799766195   -0.025196163607017066   -0.0008011266813594797
0.000874981997628616   -0.02783711016427706   -0.0007061831413127022
-0.0004941491420498461   -0.0279744197547588   -0.00076537758903066
-0.0005610306429091605   -0.027956411221299507   -0.0008323047792725519
0.0004011589799766195   -0.025196163607017066   -0.0008011266813594797
0.000874981997628616   -0.02783711016427706   -0.0007061831413127022
-0.0005610306429091605   -0.027956411221299507   -0.0008323047792725519
0.0020712393853838723   -0.025063400487679965   -0.0008442429727705548
-0.004871710927151613   -0.02776796810638406   -0.0008517665889612002
-0.003591744473947335   -0.029329990087625803   -0.000750181010592051
-0.003669702646142098   -0.027882924144080935   -0.0008861326245035227
-0.004742487248539672   -0.027764853433075318   -0.0009284716069171782
-0.003591744473947335   -0.029329990087625803   -0.000750181010592051
-0.003027730954533401   -0.02947495178834751   -0.0008366972741894277
-0.003669702646142098   -0.027882924144080935   -0.0008861326245035227
-0.0029529445156358165   -0.029446739907583317   -0.000867134511220547
-0.004742487248539672   -0.027764853433075318   -0.0009284716069171782
-0.003610130656701542   -0.02787718800732072   -0.0009145944322233018
-0.0029529445156358165   -0.029446739907583317   -0.000867134511220547
-0.003669702646142098   -0.027882924144080935   -0.0008861326245035227
-0.004742487248539672   -0.027764853433075318   -0.0009284716069171782
-0.0029529445156358165   -0.029446739907583317   -0.000867134511220547
-0.003431236024910407   -0.029298148947252866   -0.0008420999353785466
-0.003591744473947335   -0.029329990087625803   -0.000750181010592051
-0.004742487248539672   -0.027764853433075318   -0.0009284716069171782
-0.0029529445156358165   -0.029446739907583317   -0.000867134511220547
-0.003591744473947335   -0.029329990087625803   -0.000750181010592051
-0.003669702646142098   -0.027882924144080935   -0.0008861326245035227
-0.004742487248539672   -0.027764853433075318   -0.0009284716069171782
-0.003431236024910407   -0.029298148947252866   -0.0008420999353785466
-0.003610130656701542   -0.02787718800732072   -0.0009145944322233018
-0.004623501704599058   -0.027785645839768894   -0.0010110850512897807
-0.003431236024910407   -0.029298148947252866   -0.0008420999353785466
-0.0029529445156358165   -0.029446739907583317   -0.000867134511220547
-0.003610130656701542   -0.02787718800732072   -0.0009145944322233018
-0.0028699018740101475   -0.02944870878657034   -0.0008978902130427729
-0.004623501704599058   -0.027785645839768894   -0.0010110850512897807
-0.0035399369234154518   -0.027894059208903713   -0.0009472447764975622
-0.0028699018740101475   -0.02944870878657034   -0.0008978902130427729
-0.003610130656701542   -0.02787718800732072   -0.0009145944322233018
-0.004623501704599058   -0.027785645839768894   -0.0010110850512897807
-0.0028699018740101475   -0.02944870878657034   -0.0008978902130427729
-0.0032928014204463537   -0.029301519097448252   -0.0009337155129411887
-0.003431236024910407   -0.029298148947252866   -0.0008420999353785466
-0.004623501704599058   -0.027785645839768894   -0.0010110850512897807
-0.0028699018740101475   -0.02944870878657034   -0.0008978902130427729
-0.003431236024910407   -0.029298148947252866   -0.0008420999353785466
-0.003610130656701542   -0.02787718800732072   -0.0009145944322233018
-0.004623501704599058   -0.027785645839768894   -0.0010110850512897807
-0.0032928014204463537   -0.029301519097448252   -0.0009337155129411887
-0.0035399369234154518   -0.027894059208903713   -0.0009472447764975622
-0.00447828922871851   -0.02784074554900925   -0.0010992735376762755
-0.0032928014204463537   -0.029301519097448252   -0.0009337155129411887
-0.0028699018740101475   -0.02944870878657034   -0.0008978902130427729
-0.0035399369234154518   -0.027894059208903713   -0.0009472447764975622
-0.002792874492280461   -0.02948102547843852   -0.0009290918006046191
-0.00447828922871851   -0.02784074554900925   -0.0010992735376762755
-0.0034762644890530313   -0.02793394153181398   -0.000983818414256089
-0.002792874492280461   -0.02948102547843852   -0.0009290918006046191
-0.0035399369234154518   -0.027894059208903713   -0.0009472447764975622
-0.00447828922871851   -0.02784074554900925   -0.0010992735376762755
-0.002792874492280461   -0.02948102547843852   -0.0009290918006046191
-0.003128432669342419   -0.029342184280488244   -0.0010272883569844974
-0.0032928014204463537   -0.029301519097448252   -0.0009337155129411887
-0.00447828922871851   -0.02784074554900925   -0.0010992735376762755
-0.002792874492280461   -0.02948102547843852   -0.0009290918006046191
-0.0032928014204463537   -0.029301519097448252   -0.0009337155129411887
-0.0035399369234154518   -0.027894059208903713   -0.0009472447764975622
-0.003669702646142098   -0.027882924144080935   -0.0008861326245035227
-0.003027730954533401   -0.02947495178834751   -0.0008366972741894277
-0.002684798222043493   -0.02795656664556386   -0.0009130573056695024
-0.003610130656701542   -0.02787718800732072   -0.0009145944322233018
-0.003027730954533401   -0.02947495178834751   -0.0008366972741894277
-0.002612418068889028   -0.02961833664817552   -0.000913014043427191
-0.002684798222043493   -0.02795656664556386   -0.0009130573056695024
-0.002533721205296979   -0.02958927876820903   -0.0008922957439258757
-0.003610130656701542   -0.02787718800732072   -0.0009145944322233018
-0.002623788804149582   -0.027947186044193835   -0.0009043726329195636
-0.002533721205296979   -0.02958927876820903   -0.0008922957439258757
-0.002684798222043493   -0.02795656664556386   -0.0009130573056695024
-0.003610130656701542   -0.02787718800732072   -0.0009145944322233018
-0.002533721205296979   -0.02958927876820903   -0.0008922957439258757
-0.0029529445156358165   -0.029446739907583317   -0.000867134511220547
-0.003027730954533401   -0.02947495178834751   -0.0008366972741894277
-0.003610130656701542   -0.02787718800732072   -0.0009145944322233018
-0.002533721205296979   -0.02958927876820903   -0.0008922957439258757
-0.003027730954533401   -0.02947495178834751   -0.0008366972741894277
-0.002684798222043493   -0.02795656664556386   -0.0009130573056695024
-0.003610130656701542   -0.02787718800732072   -0.0009145944322233018
-0.0029529445156358165   -0.029446739907583317   -0.000867134511220547
-0.002623788804149582   -0.027947186044193835   -0.0009043726329195636
-0.0035399369234154518   -0.027894059208903713   -0.0009472447764975622
-0.0029529445156358165   -0.029446739907583317   -0.000867134511220547
-0.002533721205296979   -0.02958927876820903   -0.0008922957439258757
-0.002623788804149582   -0.027947186044193835   -0.0009043726329195636
-0.0024575362554487236   -0.029589185546917838   -0.0008713344747845662
-0.0035399369234154518   -0.027894059208903713   -0.0009472447764975622
-0.002563564039325673   -0.027957359308123222   -0.0008997649048144067
-0.0024575362554487236   -0.029589185546917838   -0.0008713344747845662
-0.002623788804149582   -0.027947186044193835   -0.0009043726329195636
-0.0035399369234154518   -0.027894059208903713   -0.0009472447764975622
-0.0024575362554487236   -0.029589185546917838   -0.0008713344747845662
-0.0028699018740101475   -0.02944870878657034   -0.0008978902130427729
-0.0029529445156358165   -0.029446739907583317   -0.000867134511220547
-0.0035399369234154518   -0.027894059208903713   -0.0009472447764975622
-0.0024575362554487236   -0.029589185546917838   -0.0008713344747845662
-0.0029529445156358165   -0.029446739907583317   -0.000867134511220547
-0.002623788804149582   -0.027947186044193835   -0.0009043726329195636
-0.0035399369234154518   -0.027894059208903713   -0.0009472447764975622
-0.0028699018740101475   -0.02944870878657034   -0.0008978902130427729
-0.002563564039325673   -0.027957359308123222   -0.0008997649048144067
-0.0034762644890530313   -0.02793394153181398   -0.000983818414256089
-0.0028699018740101475   -0.02944870878657034   -0.0008978902130427729
-0.0024575362554487236   -0.029589185546917838   -0.0008713344747845662
-0.002563564039325673   -0.027957359308123222   -0.0008997649048144067
-0.00237818560860081   -0.029617478928284376   -0.0008512369316022939
-0.0034762644890530313   -0.02793394153181398   -0.000983818414256089
-0.0025080715238018146   -0.02798770520102891   -0.0009000752006345419
-0.00237818560860081   -0.029617478928284376   -0.0008512369316022939
-0.002563564039325673   -0.027957359308123222   -0.0008997649048144067
-0.0034762644890530313   -0.02793394153181398   -0.000983818414256089
-0.00237818560860081   -0.029617478928284376   -0.0008512369316022939
-0.002792874492280461   -0.02948102547843852   -0.0009290918006046191
-0.0028699018740101475   -0.02944870878657034   -0.0008978902130427729
-0.0034762644890530313   -0.02793394153181398   -0.000983818414256089
-0.00237818560860081   -0.029617478928284376   -0.0008512369316022939
-0.0028699018740101475   -0.02944870878657034   -0.0008978902130427729
-0.002563564039325673   -0.027957359308123222   -0.0008997649048144067
-0.002684798222043493   -0.02795656664556386   -0.0009130573056695024
-0.002612418068889028   -0.02961833664817552   -0.000913014043427191
-0.0017411724071174312   -0.027993911818084315   -0.0009451692446597964
-0.002623788804149582   -0.027947186044193835   -0.0009043726329195636
-0.002612418068889028   -0.02961833664817552   -0.000913014043427191
-0.0022323362544517836   -0.029789143734377677   -0.0009973578692281657
-0.0017411724071174312   -0.027993911818084315   -0.0009451692446597964
-0.0021359975226852164   -0.029763694691488225   -0.0009226595338528627
-0.002623788804149582   -0.027947186044193835   -0.0009043726329195636
-0.0016724265069064741   -0.02798019988446657   -0.0009014008457799878
-0.0021359975226852164   -0.029763694691488225   -0.0009226595338528627
-0.0017411724071174312   -0.027993911818084315   -0.0009451692446597964
-0.002623788804149582   -0.027947186044193835   -0.0009043726329195636
-0.0021359975226852164   -0.029763694691488225   -0.0009226595338528627
-0.002533721205296979   -0.02958927876820903   -0.0008922957439258757
-0.002612418068889028   -0.02961833664817552   -0.000913014043427191
-0.002623788804149582   -0.027947186044193835   -0.0009043726329195636
-0.0021359975226852164   -0.029763694691488225   -0.0009226595338528627
-0.002612418068889028   -0.02961833664817552   -0.000913014043427191
-0.0017411724071174312   -0.027993911818084315   -0.0009451692446597964
-0.002623788804149582   -0.027947186044193835   -0.0009043726329195636
-0.002533721205296979   -0.02958927876820903   -0.0008922957439258757
-0.0016724265069064741   -0.02798019988446657   -0.0009014008457799878
-0.002563564039325673   -0.027957359308123222   -0.0008997649048144067
-0.002533721205296979   -0.02958927876820903   -0.0008922957439258757
-0.0021359975226852164   -0.029763694691488225   -0.0009226595338528627
-0.0016724265069064741   -0.02798019988446657   -0.0009014008457799878
-0.0020465805292906774   -0.029762582102576693   -0.0008481236022317565
-0.002563564039325673   -0.027957359308123222   -0.0008997649048144067
-0.00160683419051239   -0.027983755924639538   -0.0008612678064665349
-0.0020465805292906774   -0.029762582102576693   -0.0008481236022317565
-0.0016724265069064741   -0.02798019988446657   -0.0009014008457799878
-0.002563564039325673   -0.027957359308123222   -0.0008997649048144067
-0.0020465805292906774   -0.029762582102576693   -0.0008481236022317565
-0.0024575362554487236   -0.029589185546917838   -0.0008713344747845662
-0.002533721205296979   -0.02958927876820903   -0.0008922957439258757
-0.002563564039325673   -0.027957359308123222   -0.0008997649048144067
-0.0020465805292906774   -0.029762582102576693   -0.0008481236022317565
-0.002533721205296979   -0.02958927876820903   -0.0008922957439258757
-0.0016724265069064741   -0.02798019988446657   -0.0009014008457799878
-0.002563564039325673   -0.027957359308123222   -0.0008997649048144067
-0.0024575362554487236   -0.029589185546917838   -0.0008713344747845662
-0.00160683419051239   -0.027983755924639538   -0.0008612678064665349
-0.0025080715238018146   -0.02798770520102891   -0.0009000752006345419
-0.0024575362554487236   -0.029589185546917838   -0.0008713344747845662
-0.0020465805292906774   -0.029762582102576693   -0.0008481236022317565
-0.00160683419051239   -0.027983755924639538   -0.0008612678064665349
-0.0019507755907559017   -0.029784557018242182   -0.0007735744593944707
-0.0025080715238018146   -0.02798770520102891   -0.0009000752006345419
-0.0015521651903184573   -0.028007809025889202   -0.00082696873928278
-0.0019507755907559017   -0.029784557018242182   -0.0007735744593944707
-0.00160683419051239   -0.027983755924639538   -0.0008612678064665349
-0.0025080715238018146   -0.02798770520102891   -0.0009000752006345419
-0.0019507755907559017   -0.029784557018242182   -0.0007735744593944707
-0.00237818560860081   -0.029617478928284376   -0.0008512369316022939
-0.0024575362554487236   -0.029589185546917838   -0.0008713344747845662
-0.0025080715238018146   -0.02798770520102891   -0.0009000752006345419
-0.0019507755907559017   -0.029784557018242182   -0.0007735744593944707
-0.0024575362554487236   -0.029589185546917838   -0.0008713344747845662
-0.00160683419051239   -0.027983755924639538   -0.0008612678064665349
-0.0017411724071174312   -0.027993911818084315   -0.0009451692446597964
-0.0022323362544517836   -0.029789143734377677   -0.0009973578692281657
-0.0007398202600846346   -0.02798159238012525   -0.0009832461123799037
-0.0016724265069064741   -0.02798019988446657   -0.0009014008457799878
-0.0022323362544517836   -0.029789143734377677   -0.0009973578692281657
-0.0018582636036534195   -0.03   -0.001063320740880071
-0.0007398202600846346   -0.02798159238012525   -0.0009832461123799037
-0.0017367639213305675   -0.03   -0.000948947179037475
-0.0016724265069064741   -0.02798019988446657   -0.0009014008457799878
-0.0006515516729575486   -0.027960047510903977   -0.0009058403801781518
-0.0017367639213305675   -0.03   -0.000948947179037475
-0.0007398202600846346   -0.02798159238012525   -0.0009832461123799037
-0.0016724265069064741   -0.02798019988446657   -0.0009014008457799878
-0.0017367639213305675   -0.03   -0.000948947179037475
-0.0021359975226852164   -0.029763694691488225   -0.0009226595338528627
-0.0022323362544517836   -0.029789143734377677   -0.0009973578692281657
-0.0016724265069064741   -0.02798019988446657   -0.0009014008457799878
-0.0017367639213305675   -0.03   -0.000948947179037475
-0.0022323362544517836   -0.029789143734377677   -0.0009973578692281657
-0.0007398202600846346   -0.02798159238012525   -0.0009832461123799037
-0.0016724265069064741   -0.02798019988446657   -0.0009014008457799878
-0.0021359975226852164   -0.029763694691488225   -0.0009226595338528627
-0.0006515516729575486   -0.027960047510903977   -0.0009058403801781518
-0.00160683419051239   -0.027983755924639538   -0.0008612678064665349
-0.0021359975226852164   -0.029763694691488225   -0.0009226595338528627
-0.0017367639213305675   -0.03   -0.000948947179037475
-0.0006515516729575486   -0.027960047510903977   -0.0009058403801781518
-0.00161441887016329   -0.03   -0.0008332263441526882
-0.00160683419051239   -0.027983755924639538   -0.0008612678064665349
-0.0005610306429091605   -0.027956411221299507   -0.0008323047792725519
-0.00161441887016329   -0.03   -0.0008332263441526882
-0.0006515516729575486   -0.027960047510903977   -0.0009058403801781518
-0.00160683419051239   -0.027983755924639538   -0.0008612678064665349
-0.00161441887016329   -0.03   -0.0008332263441526882
-0.0020465805292906774   -0.029762582102576693   -0.0008481236022317565
-0.0021359975226852164   -0.029763694691488225   -0.0009226595338528627
-0.00160683419051239   -0.027983755924639538   -0.0008612678064665349
-0.00161441887016329   -0.03   -0.0008332263441526882
-0.0021359975226852164   -0.029763694691488225   -0.0009226595338528627
-0.0006515516729575486   -0.027960047510903977   -0.0009058403801781518
-0.00160683419051239   -0.027983755924639538   -0.0008612678064665349
-0.0020465805292906774   -0.029762582102576693   -0.0008481236022317565
-0.0005610306429091605   -0.027956411221299507   -0.0008323047792725519
-0.0015521651903184573   -0.028007809025889202   -0.00082696873928278
-0.0020465805292906774   -0.029762582102576693   -0.0008481236022317565
-0.00161441887016329   -0.03   -0.0008332263441526882
-0.0005610306429091605   -0.027956411221299507   -0.0008323047792725519
-0.0014951596573020488   -0.03   -0.0007190584349308409
-0.0015521651903184573   -0.028007809025889202   -0.00082696873928278
-0.0004941491420498461   -0.0279744197547588   -0.00076537758903066
-0.0014951596573020488   -0.03   -0.0007190584349308409
-0.0005610306429091605   -0.027956411221299507   -0.0008323047792725519
-0.0015521651903184573   -0.028007809025889202   -0.00082696873928278
-0.0014951596573020488   -0.03   -0.0007190584349308409
-0.0019507755907559017   -0.029784557018242182   -0.0007735744593944707
-0.0020465805292906774   -0.029762582102576693   -0.0008481236022317565
-0.0015521651903184573   -0.028007809025889202   -0.00082696873928278
-0.0014951596573020488   -0.03   -0.0007190584349308409
-0.0020465805292906774   -0.029762582102576693   -0.0008481236022317565
-0.0005610306429091605   -0.027956411221299507   -0.0008323047792725519
-0.0007398202600846346   -0.02798159238012525   -0.0009832461123799037
-0.0018582636036534195   -0.03   -0.001063320740880071
0.0003337992141408954   -0.027884515841737782   -0.0010604074135620461
-0.0006515516729575486   -0.027960047510903977   -0.0009058403801781518
-0.0018582636036534195   -0.03   -0.001063320740880071
-0.0015839908634322443   -0.03   -0.0011431998637236045
0.0003337992141408954   -0.027884515841737782   -0.0010604074135620461
-0.0013277938107395782   -0.03   -0.0009772517584323267
-0.0006515516729575486   -0.027960047510903977   -0.0009058403801781518
0.0005416289122380415   -0.02783790997222333   -0.0009339353580884452
-0.0013277938107395782   -0.03   -0.0009772517584323267
0.0003337992141408954   -0.027884515841737782   -0.0010604074135620461
-0.0006515516729575486   -0.027960047510903977   -0.0009058403801781518
-0.0013277938107395782   -0.03   -0.0009772517584323267
-0.0017367639213305675   -0.03   -0.000948947179037475
-0.0018582636036534195   -0.03   -0.001063320740880071
-0.0006515516729575486   -0.027960047510903977   -0.0009058403801781518
-0.0013277938107395782   -0.03   -0.0009772517584323267
-0.0018582636036534195   -0.03   -0.001063320740880071
0.0003337992141408954   -0.027884515841737782   -0.0010604074135620461
-0.0006515516729575486   -0.027960047510903977   -0.0009058403801781518
-0.0017367639213305675   -0.03   -0.000948947179037475
0.0005416289122380415   -0.02783790997222333   -0.0009339353580884452
-0.0005610306429091605   -0.027956411221299507   -0.0008323047792725519
-0.0017367639213305675   -0.03   -0.000948947179037475
-0.0013277938107395782   -0.03   -0.0009772517584323267
0.0005416289122380415   -0.02783790997222333   -0.0009339353580884452
-0.0011235023061788997   -0.03   -0.0008185290345413177
-0.0005610306429091605   -0.027956411221299507   -0.0008323047792725519
0.0007048396630294682   -0.02782860728523751   -0.0008150090488508333
-0.0011235023061788997   -0.03   -0.0008185290345413177
0.0005416289122380415   -0.02783790997222333   -0.0009339353580884452
-0.0005610306429091605   -0.027956411221299507   -0.0008323047792725519
-0.0011235023061788997   -0.03   -0.0008185290345413177
-0.00161441887016329   -0.03   -0.0008332263441526882
-0.0017367639213305675   -0.03   -0.000948947179037475
-0.0005610306429091605   -0.027956411221299507   -0.0008323047792725519
-0.0011235023061788997   -0.03   -0.0008185290345413177
-0.0017367639213305675   -0.03   -0.000948947179037475
0.0005416289122380415   -0.02783790997222333   -0.0009339353580884452
-0.0005610306429091605   -0.027956411221299507   -0.0008323047792725519
-0.00161441887016329   -0.03   -0.0008332263441526882
0.0007048396630294682   -0.02782860728523751   -0.0008150090488508333
-0.0004941491420498461   -0.0279744197547588   -0.00076537758903066
-0.00161441887016329   -0.03   -0.0008332263441526882
-0.0011235023061788997   -0.03   -0.0008185290345413177
0.0007048396630294682   -0.02782860728523751   -0.0008150090488508333
-0.0008712276998313783   -0.03   -0.0006537332768080798
-0.0004941491420498461   -0.0279744197547588   -0.00076537758903066
0.000874981997628616   -0.02783711016427706   -0.0007061831413127022
-0.0008712276998313783   -0.03   -0.0006537332768080798
0.0007048396630294682   -0.02782860728523751   -0.0008150090488508333
-0.0004941491420498461   -0.0279744197547588   -0.00076537758903066
-0.0008712276998313783   -0.03   -0.0006537332768080798
-0.0014951596573020488   -0.03   -0.0007190584349308409
-0.00161441887016329   -0.03   -0.0008332263441526882
-0.0004941491420498461   -0.0279744197547588   -0.00076537758903066
-0.0008712276998313783   -0.03   -0.0006537332768080798
-0.00161441887016329   -0.03   -0.0008332263441526882
0.0007048396630294682   -0.02782860728523751   -0.0008150090488508333
-0.003591744473947335   -0.029329990087625803   -0.000750181010592051
-0.0021757865678373755   -0.029427618571628594   -0.0006424970604965793
-0.003027730954533401   -0.02947495178834751   -0.0008366972741894277
-0.003431236024910407   -0.029298148947252866   -0.0008420999353785466
-0.0021757865678373755   -0.029427618571628594   -0.0006424970604965793
-0.0022949046725461346   -0.029540167261098763   -0.0007539522975621848
-0.003027730954533401   -0.02947495178834751   -0.0008366972741894277
-0.0022381828627411095   -0.0295015436713291   -0.0007951899582658879
-0.003431236024910407   -0.029298148947252866   -0.0008420999353785466
-0.0029529445156358165   -0.029446739907583317   -0.000867134511220547
-0.0022381828627411095   -0.0295015436713291   -0.0007951899582658879
-0.003027730954533401   -0.02947495178834751   -0.0008366972741894277
-0.003431236024910407   -0.029298148947252866   -0.0008420999353785466
-0.0022381828627411095   -0.0295015436713291   -0.0007951899582658879
-0.0020299075393679406   -0.02937795837315333   -0.0007391342836948841
-0.0021757865678373755   -0.029427618571628594   -0.0006424970604965793
-0.003431236024910407   -0.029298148947252866   -0.0008420999353785466
-0.0022381828627411095   -0.0295015436713291   -0.0007951899582658879
-0.0021757865678373755   -0.029427618571628594   -0.0006424970604965793
-0.003027730954533401   -0.02947495178834751   -0.0008366972741894277
-0.003431236024910407   -0.029298148947252866   -0.0008420999353785466
-0.0020299075393679406   -0.02937795837315333   -0.0007391342836948841
-0.0029529445156358165   -0.029446739907583317   -0.000867134511220547
-0.0032928014204463537   -0.029301519097448252   -0.0009337155129411887
-0.0020299075393679406   -0.02937795837315333   -0.0007391342836948841
-0.0022381828627411095   -0.0295015436713291   -0.0007951899582658879
-0.0029529445156358165   -0.029446739907583317   -0.000867134511220547
-0.002171516765146753   -0.029487867243493407   -0.0008333285568371258
-0.0032928014204463537   -0.029301519097448252   -0.0009337155129411887
-0.0028699018740101475   -0.02944870878657034   -0.0008978902130427729
-0.002171516765146753   -0.029487867243493407   -0.0008333285568371258
-0.0029529445156358165   -0.029446739907583317   -0.000867134511220547
-0.0032928014204463537   -0.029301519097448252   -0.0009337155129411887
-0.002171516765146753   -0.029487867243493407   -0.0008333285568371258
-0.0019085262082615278   -0.02936333049987203   -0.0008319309587558995
-0.0020299075393679406   -0.02937795837315333   -0.0007391342836948841
-0.0032928014204463537   -0.029301519097448252   -0.0009337155129411887
-0.002171516765146753   -0.029487867243493407   -0.0008333285568371258
-0.0020299075393679406   -0.02937795837315333   -0.0007391342836948841
-0.0029529445156358165   -0.029446739907583317   -0.000867134511220547
-0.0032928014204463537   -0.029301519097448252   -0.0009337155129411887
-0.0019085262082615278   -0.02936333049987203   -0.0008319309587558995
-0.0028699018740101475   -0.02944870878657034   -0.0008978902130427729
-0.003128432669342419   -0.029342184280488244   -0.0010272883569844974
-0.0019085262082615278   -0.02936333049987203   -0.0008319309587558995
-0.002171516765146753   -0.029487867243493407   -0.0008333285568371258
-0.0028699018740101475   -0.02944870878657034   -0.0008978902130427729
-0.0021144880293648936   -0.029499362086533542   -0.0008681783865224369
-0.003128432669342419   -0.029342184280488244   -0.0010272883569844974
-0.002792874492280461   -0.02948102547843852   -0.0009290918006046191
-0.0021144880293648936   -0.029499362086533542   -0.0008681783865224369
-0.0028699018740101475   -0.02944870878657034   -0.0008978902130427729
-0.003128432669342419   -0.029342184280488244   -0.0010272883569844974
-0.0021144880293648936   -0.029499362086533542   -0.0008681783865224369
-0.0017708892289927491   -0.02937764192966964   -0.0009204948620831818
-0.0019085262082615278   -0.02936333049987203   -0.0008319309587558995
-0.003128432669342419   -0.029342184280488244   -0.0010272883569844974
-0.0021144880293648936   -0.029499362086533542   -0.0008681783865224369
-0.0019085262082615278   -0.02936333049987203   -0.0008319309587558995
-0.0028699018740101475   -0.02944870878657034   -0.0008978902130427729
-0.003027730954533401   -0.02947495178834751   -0.0008366972741894277
-0.0022949046725461346   -0.029540167261098763   -0.0007539522975621848
-0.002612418068889028   -0.02961833664817552   -0.000913014043427191
-0.0029529445156358165   -0.029446739907583317   -0.000867134511220547
-0.0022949046725461346   -0.029540167261098763   -0.0007539522975621848
-0.0024614737159109616   -0.029608790463340924   -0.0008429218956563077
-0.002612418068889028   -0.02961833664817552   -0.000913014043427191
-0.0024113583100437855   -0.029574260689628963   -0.0008438661810142115
-0.0029529445156358165   -0.029446739907583317   -0.000867134511220547
-0.002533721205296979   -0.02958927876820903   -0.0008922957439258757
-0.0024113583100437855   -0.029574260689628963   -0.0008438661810142115
-0.002612418068889028   -0.02961833664817552   -0.000913014043427191
-0.0029529445156358165   -0.029446739907583317   -0.000867134511220547
-0.0024113583100437855   -0.029574260689628963   -0.0008438661810142115
-0.0022381828627411095   -0.0295015436713291   -0.0007951899582658879
-0.0022949046725461346   -0.029540167261098763   -0.0007539522975621848
-0.0029529445156358165   -0.029446739907583317   -0.000867134511220547
-0.0024113583100437855   -0.029574260689628963   -0.0008438661810142115
-0.0022949046725461346   -0.029540167261098763   -0.0007539522975621848
-0.002612418068889028   -0.02961833664817552   -0.000913014043427191
-0.0029529445156358165   -0.029446739907583317   -0.000867134511220547
-0.0022381828627411095   -0.0295015436713291   -0.0007951899582658879
-0.002533721205296979   -0.02958927876820903   -0.0008922957439258757
-0.0028699018740101475   -0.02944870878657034   -0.0008978902130427729
-0.0022381828627411095   -0.0295015436713291   -0.0007951899582658879
-0.0024113583100437855   -0.029574260689628963   -0.0008438661810142115
-0.002533721205296979   -0.02958927876820903   -0.0008922957439258757
-0.0023556118913283745   -0.029562319002311207   -0.0008407938612504342
-0.0028699018740101475   -0.02944870878657034   -0.0008978902130427729
-0.0024575362554487236   -0.029589185546917838   -0.0008713344747845662
-0.0023556118913283745   -0.029562319002311207   -0.0008407938612504342
-0.002533721205296979   -0.02958927876820903   -0.0008922957439258757
-0.0028699018740101475   -0.02944870878657034   -0.0008978902130427729
-0.0023556118913283745   -0.029562319002311207   -0.0008407938612504342
-0.002171516765146753   -0.029487867243493407   -0.0008333285568371258
-0.0022381828627411095   -0.0295015436713291   -0.0007951899582658879
-0.0028699018740101475   -0.02944870878657034   -0.0008978902130427729
-0.0023556118913283745   -0.029562319002311207   -0.0008407938612504342
-0.0022381828627411095   -0.0295015436713291   -0.0007951899582658879
-0.002533721205296979   -0.02958927876820903   -0.0008922957439258757
-0.0028699018740101475   -0.02944870878657034   -0.0008978902130427729
-0.002171516765146753   -0.029487867243493407   -0.0008333285568371258
-0.0024575362554487236   -0.029589185546917838   -0.0008713344747845662
-0.002792874492280461   -0.02948102547843852   -0.0009290918006046191
-0.002171516765146753   -0.029487867243493407   -0.0008333285568371258
-0.0023556118913283745   -0.029562319002311207   -0.0008407938612504342
-0.0024575362554487236   -0.029589185546917838   -0.0008713344747845662
-0.002298973745498673   -0.029571982590922162   -0.000834567559979449
-0.002792874492280461   -0.02948102547843852   -0.0009290918006046191
-0.00237818560860081   -0.029617478928284376   -0.0008512369316022939
-0.002298973745498673   -0.029571982590922162   -0.000834567559979449
-0.0024575362554487236   -0.029589185546917838   -0.0008713344747845662
-0.002792874492280461   -0.02948102547843852   -0.0009290918006046191
-0.002298973745498673   -0.029571982590922162   -0.000834567559979449
-0.0021144880293648936   -0.029499362086533542   -0.0008681783865224369
-0.002171516765146753   -0.029487867243493407   -0.0008333285568371258
-0.002792874492280461   -0.02948102547843852   -0.0009290918006046191
-0.002298973745498673   -0.029571982590922162   -0.000834567559979449
-0.002171516765146753   -0.029487867243493407   -0.0008333285568371258
-0.0024575362554487236   -0.029589185546917838   -0.0008713344747845662
-0.002612418068889028   -0.02961833664817552   -0.000913014043427191
-0.0024614737159109616   -0.029608790463340924   -0.0008429218956563077
-0.0022323362544517836   -0.029789143734377677   -0.0009973578692281657
-0.002533721205296979   -0.02958927876820903   -0.0008922957439258757
-0.0024614737159109616   -0.029608790463340924   -0.0008429218956563077
-0.002640731803267917   -0.029636152137857745   -0.000930642643885608
-0.0022323362544517836   -0.029789143734377677   -0.0009973578692281657
-0.002588812215579585   -0.02960310564208292   -0.000892829224288794
-0.002533721205296979   -0.02958927876820903   -0.0008922957439258757
-0.0021359975226852164   -0.029763694691488225   -0.0009226595338528627
-0.002588812215579585   -0.02960310564208292   -0.000892829224288794
-0.0022323362544517836   -0.029789143734377677   -0.0009973578692281657
-0.002533721205296979   -0.02958927876820903   -0.0008922957439258757
-0.002588812215579585   -0.02960310564208292   -0.000892829224288794
-0.0024113583100437855   -0.029574260689628963   -0.0008438661810142115
-0.0024614737159109616   -0.029608790463340924   -0.0008429218956563077
-0.002533721205296979   -0.02958927876820903   -0.0008922957439258757
-0.002588812215579585   -0.02960310564208292   -0.000892829224288794
-0.0024614737159109616   -0.029608790463340924   -0.0008429218956563077
-0.0022323362544517836   -0.029789143734377677   -0.0009973578692281657
-0.002533721205296979   -0.02958927876820903   -0.0008922957439258757
-0.0024113583100437855   -0.029574260689628963   -0.0008438661810142115
-0.0021359975226852164   -0.029763694691488225   -0.0009226595338528627
-0.0024575362554487236   -0.029589185546917838   -0.0008713344747845662
-0.0024113583100437855   -0.029574260689628963   -0.0008438661810142115
-0.002588812215579585   -0.02960310564208292   -0.000892829224288794
-0.0021359975226852164   -0.029763694691488225   -0.0009226595338528627
-0.002526638753432389   -0.02959300381314319   -0.0008501205121964042
-0.0024575362554487236   -0.029589185546917838   -0.0008713344747845662
-0.0020465805292906774   -0.029762582102576693   -0.0008481236022317565
-0.002526638753432389   -0.02959300381314319   -0.0008501205121964042
-0.0021359975226852164   -0.029763694691488225   -0.0009226595338528627
-0.0024575362554487236   -0.029589185546917838   -0.0008713344747845662
-0.002526638753432389   -0.02959300381314319   -0.0008501205121964042
-0.0023556118913283745   -0.029562319002311207   -0.0008407938612504342
-0.0024113583100437855   -0.029574260689628963   -0.0008438661810142115
-0.0024575362554487236   -0.029589185546917838   -0.0008713344747845662
-0.002526638753432389   -0.02959300381314319   -0.0008501205121964042
-0.0024113583100437855   -0.029574260689628963   -0.0008438661810142115
-0.0021359975226852164   -0.029763694691488225   -0.0009226595338528627
-0.0024575362554487236   -0.029589185546917838   -0.0008713344747845662
-0.0023556118913283745   -0.029562319002311207   -0.0008407938612504342
-0.0020465805292906774   -0.029762582102576693   -0.0008481236022317565
-0.00237818560860081   -0.029617478928284376   -0.0008512369316022939
-0.0023556118913283745   -0.029562319002311207   -0.0008407938612504342
-0.002526638753432389   -0.02959300381314319   -0.0008501205121964042
-0.0020465805292906774   -0.029762582102576693   -0.0008481236022317565
-0.002462763970584586   -0.029602363644308214   -0.000804692140328385
-0.00237818560860081   -0.029617478928284376   -0.0008512369316022939
-0.0019507755907559017   -0.029784557018242182   -0.0007735744593944707
-0.002462763970584586   -0.029602363644308214   -0.000804692140328385
-0.0020465805292906774   -0.029762582102576693   -0.0008481236022317565
-0.00237818560860081   -0.029617478928284376   -0.0008512369316022939
-0.002462763970584586   -0.029602363644308214   -0.000804692140328385
-0.002298973745498673   -0.029571982590922162   -0.000834567559979449
-0.0023556118913283745   -0.029562319002311207   -0.0008407938612504342
-0.00237818560860081   -0.029617478928284376   -0.0008512369316022939
-0.002462763970584586   -0.029602363644308214   -0.000804692140328385
-0.0023556118913283745   -0.029562319002311207   -0.0008407938612504342
-0.0020465805292906774   -0.029762582102576693   -0.0008481236022317565
-0.0022323362544517836   -0.029789143734377677   -0.0009973578692281657
-0.002640731803267917   -0.029636152137857745   -0.000930642643885608
-0.0018582636036534195   -0.03   -0.001063320740880071
-0.0021359975226852164   -0.029763694691488225   -0.0009226595338528627
-0.002640731803267917   -0.029636152137857745   -0.000930642643885608
-0.0029008005787068856   -0.02960245749696727   -0.0010143886774773424
-0.0018582636036534195   -0.03   -0.001063320740880071
-0.0028330298962819817   -0.029571034748240636   -0.0009395820235520383
-0.0021359975226852164   -0.029763694691488225   -0.0009226595338528627
-0.0017367639213305675   -0.03   -0.000948947179037475
-0.0028330298962819817   -0.029571034748240636   -0.0009395820235520383
-0.0018582636036534195   -0.03   -0.001063320740880071
-0.0021359975226852164   -0.029763694691488225   -0.0009226595338528627
-0.0028330298962819817   -0.029571034748240636   -0.0009395820235520383
-0.002588812215579585   -0.02960310564208292   -0.000892829224288794
-0.002640731803267917   -0.029636152137857745   -0.000930642643885608
-0.0021359975226852164   -0.029763694691488225   -0.0009226595338528627
-0.0028330298962819817   -0.029571034748240636   -0.0009395820235520383
-0.002640731803267917   -0.029636152137857745   -0.000930642643885608
-0.0018582636036534195   -0.03   -0.001063320740880071
-0.0021359975226852164   -0.029763694691488225   -0.0009226595338528627
-0.002588812215579585   -0.02960310564208292   -0.000892829224288794
-0.0017367639213305675   -0.03   -0.000948947179037475
-0.0020465805292906774   -0.029762582102576693   -0.0008481236022317565
-0.002588812215579585   -0.02960310564208292   -0.000892829224288794
-0.0028330298962819817   -0.029571034748240636   -0.0009395820235520383
-0.0017367639213305675   -0.03   -0.000948947179037475
-0.0027433633649844064   -0.029564195274072204   -0.0008592865427257612
-0.0020465805292906774   -0.029762582102576693   -0.0008481236022317565
-0.00161441887016329   -0.03   -0.0008332263441526882
-0.0027433633649844064   -0.029564195274072204   -0.0008592865427257612
-0.0017367639213305675   -0.03   -0.000948947179037475
-0.0020465805292906774   -0.029762582102576693   -0.0008481236022317565
-0.0027433633649844064   -0.029564195274072204   -0.0008592865427257612
-0.002526638753432389   -0.02959300381314319   -0.0008501205121964042
-0.002588812215579585   -0.02960310564208292   -0.000892829224288794
-0.0020465805292906774   -0.029762582102576693   -0.0008481236022317565
-0.0027433633649844064   -0.029564195274072204   -0.0008592865427257612
-0.002588812215579585   -0.02960310564208292   -0.000892829224288794
-0.0017367639213305675   -0.03   -0.000948947179037475
-0.0020465805292906774   -0.029762582102576693   -0.0008481236022317565
-0.002526638753432389   -0.02959300381314319   -0.0008501205121964042
-0.00161441887016329   -0.03   -0.0008332263441526882
-0.0019507755907559017   -0.029784557018242182   -0.0007735744593944707
-0.002526638753432389   -0.02959300381314319   -0.0008501205121964042
-0.0027433633649844064   -0.029564195274072204   -0.0008592865427257612
-0.00161441887016329   -0.03   -0.0008332263441526882
-0.0026593944462636756   -0.029577283779485368   -0.0007759742696579868
-0.0019507755907559017   -0.029784557018242182   -0.0007735744593944707
-0.0014951596573020488   -0.03   -0.0007190584349308409
-0.0026593944462636756   -0.029577283779485368   -0.0007759742696579868
-0.00161441887016329   -0.03   -0.0008332263441526882
-0.0019507755907559017   -0.029784557018242182   -0.0007735744593944707
-0.0026593944462636756   -0.029577283779485368   -0.0007759742696579868
-0.002462763970584586   -0.029602363644308214   -0.000804692140328385
-0.002526638753432389   -0.02959300381314319   -0.0008501205121964042
-0.0019507755907559017   -0.029784557018242182   -0.0007735744593944707
-0.0026593944462636756   -0.029577283779485368   -0.0007759742696579868
-0.002526638753432389   -0.02959300381314319   -0.0008501205121964042
-0.00161441887016329   -0.03   -0.0008332263441526882
-0.0018582636036534195   -0.03   -0.001063320740880071
-0.0029008005787068856   -0.02960245749696727   -0.0010143886774773424
-0.0015839908634322443   -0.03   -0.0011431998637236045
-0.0017367639213305675   -0.03   -0.000948947179037475
-0.0029008005787068856   -0.02960245749696727   -0.0010143886774773424
-0.003411807619390328   -0.029458085769613524   -0.0011039564122688028
-0.0015839908634322443   -0.03   -0.0011431998637236045
-0.0032290458761007907   -0.029431217580582227   -0.0009812795646365873
-0.0017367639213305675   -0.03   -0.000948947179037475
-0.0013277938107395782   -0.03   -0.0009772517584323267
-0.0032290458761007907   -0.029431217580582227   -0.0009812795646365873
-0.0015839908634322443   -0.03   -0.0011431998637236045
-0.0017367639213305675   -0.03   -0.000948947179037475
-0.0032290458761007907   -0.029431217580582227   -0.0009812795646365873
-0.0028330298962819817   -0.029571034748240636   -0.0009395820235520383
-0.0029008005787068856   -0.02960245749696727   -0.0010143886774773424
-0.0017367639213305675   -0.03   -0.000948947179037475
-0.0032290458761007907   -0.029431217580582227   -0.0009812795646365873
-0.0029008005787068856   -0.02960245749696727   -0.0010143886774773424
-0.0015839908634322443   -0.03   -0.0011431998637236045
-0.0017367639213305675   -0.03   -0.000948947179037475
-0.0028330298962819817   -0.029571034748240636   -0.0009395820235520383
-0.0013277938107395782   -0.03   -0.0009772517584323267
-0.00161441887016329   -0.03   -0.0008332263441526882
-0.0028330298962819817   -0.029571034748240636   -0.0009395820235520383
-0.0032290458761007907   -0.029431217580582227   -0.0009812795646365873
-0.0013277938107395782   -0.03   -0.0009772517584323267
-0.0030616572953986155   -0.029427787190786453   -0.0008505795380199724
-0.00161441887016329   -0.03   -0.0008332263441526882
-0.0011235023061788997   -0.03   -0.0008185290345413177
-0.0030616572953986155   -0.029427787190786453   -0.0008505795380199724
-0.0013277938107395782   -0.03   -0.0009772517584323267
-0.00161441887016329   -0.03   -0.0008332263441526882
-0.0030616572953986155   -0.029427787190786453   -0.0008505795380199724
-0.0027433633649844064   -0.029564195274072204   -0.0008592865427257612
-0.0028330298962819817   -0.029571034748240636   -0.0009395820235520383
-0.00161441887016329   -0.03   -0.0008332263441526882
-0.0030616572953986155   -0.029427787190786453   -0.0008505795380199724
-0.0028330298962819817   -0.029571034748240636   -0.0009395820235520383
-0.0013277938107395782   -0.03   -0.0009772517584323267
-0.00161441887016329   -0.03   -0.0008332263441526882
-0.0027433633649844064   -0.029564195274072204   -0.0008592865427257612
-0.0011235023061788997   -0.03   -0.0008185290345413177
-0.0014951596573020488   -0.03   -0.0007190584349308409
-0.0027433633649844064   -0.029564195274072204   -0.0008592865427257612
-0.0030616572953986155   -0.029427787190786453   -0.0008505795380199724
-0.0011235023061788997   -0.03   -0.0008185290345413177
-0.0028501644800287655   -0.029462944773180788   -0.0007140965661796612
-0.0014951596573020488   -0.03   -0.0007190584349308409
-0.0008712276998313783   -0.03   -0.0006537332768080798
-0.0028501644800287655   -0.029462944773180788   -0.0007140965661796612
-0.0011235023061788997   -0.03   -0.0008185290345413177
-0.0014951596573020488   -0.03   -0.0007190584349308409
-0.0028501644800287655   -0.029462944773180788   -0.0007140965661796612
-0.0026593944462636756   -0.029577283779485368   -0.0007759742696579868
-0.0027433633649844064   -0.029564195274072204   -0.0008592865427257612
-0.0014951596573020488   -0.03   -0.0007190584349308409
-0.0028501644800287655   -0.029462944773180788   -0.0007140965661796612
-0.0027433633649844064   -0.029564195274072204   -0.0008592865427257612
-0.0011235023061788997   -0.03   -0.0008185290345413177
-0.0021757865678373755   -0.029427618571628594   -0.0006424970604965793
-0.0009242406978404682   -0.02834592334640097   -0.0005540892068692699
-0.0022949046725461346   -0.029540167261098763   -0.0007539522975621848
-0.0020299075393679406   -0.02937795837315333   -0.0007391342836948841
-0.0009242406978404682   -0.02834592334640097   -0.0005540892068692699
-0.0016632036127282694   -0.028431501038781535   -0.0006726511222117804
-0.0022949046725461346   -0.029540167261098763   -0.0007539522975621848
-0.0016227941783756707   -0.028384719650979863   -0.000709575674149015
-0.0020299075393679406   -0.02937795837315333   -0.0007391342836948841
-0.0022381828627411095   -0.0295015436713291   -0.0007951899582658879
-0.0016227941783756707   -0.028384719650979863   -0.000709575674149015
-0.0022949046725461346   -0.029540167261098763   -0.0007539522975621848
-0.0020299075393679406   -0.02937795837315333   -0.0007391342836948841
-0.0016227941783756707   -0.028384719650979863   -0.000709575674149015
-0.0008073283857329242   -0.02828791276213275   -0.0006380427479501795
-0.0009242406978404682   -0.02834592334640097   -0.0005540892068692699
-0.0020299075393679406   -0.02937795837315333   -0.0007391342836948841
-0.0016227941783756707   -0.028384719650979863   -0.000709575674149015
-0.0009242406978404682   -0.02834592334640097   -0.0005540892068692699
-0.0022949046725461346   -0.029540167261098763   -0.0007539522975621848
-0.0020299075393679406   -0.02937795837315333   -0.0007391342836948841
-0.0008073283857329242   -0.02828791276213275   -0.0006380427479501795
-0.0022381828627411095   -0.0295015436713291   -0.0007951899582658879
-0.0019085262082615278   -0.02936333049987203   -0.0008319309587558995
-0.0008073283857329242   -0.02828791276213275   -0.0006380427479501795
-0.0016227941783756707   -0.028384719650979863   -0.000709575674149015
-0.0022381828627411095   -0.0295015436713291   -0.0007951899582658879
-0.0015771405771348632   -0.028359394858113438   -0.0007432577193528956
-0.0019085262082615278   -0.02936333049987203   -0.0008319309587558995
-0.002171516765146753   -0.029487867243493407   -0.0008333285568371258
-0.0015771405771348632   -0.028359394858113438   -0.0007432577193528956
-0.0022381828627411095   -0.0295015436713291   -0.0007951899582658879
-0.0019085262082615278   -0.02936333049987203   -0.0008319309587558995
-0.0015771405771348632   -0.028359394858113438   -0.0007432577193528956
-0.0007153163316567779   -0.0282609634612696   -0.0007171952267505085
-0.0008073283857329242   -0.02828791276213275   -0.0006380427479501795
-0.0019085262082615278   -0.02936333049987203   -0.0008319309587558995
-0.0015771405771348632   -0.028359394858113438   -0.0007432577193528956
-0.0008073283857329242   -0.02828791276213275   -0.0006380427479501795
-0.0022381828627411095   -0.0295015436713291   -0.0007951899582658879
-0.0019085262082615278   -0.02936333049987203   -0.0008319309587558995
-0.0007153163316567779   -0.0282609634612696   -0.0007171952267505085
-0.002171516765146753   -0.029487867243493407   -0.0008333285568371258
-0.0017708892289927491   -0.02937764192966964   -0.0009204948620831818
-0.0007153163316567779   -0.0282609634612696   -0.0007171952267505085
-0.0015771405771348632   -0.028359394858113438   -0.0007432577193528956
-0.002171516765146753   -0.029487867243493407   -0.0008333285568371258
-0.0015421848123942014   -0.02835481163595348   -0.0007738062841205932
-0.0017708892289927491   -0.02937764192966964   -0.0009204948620831818
-0.0021144880293648936   -0.029499362086533542   -0.0008681783865224369
-0.0015421848123942014   -0.02835481163595348   -0.0007738062841205932
-0.002171516765146753   -0.029487867243493407   -0.0008333285568371258
-0.0017708892289927491   -0.02937764192966964   -0.0009204948620831818
-0.0015421848123942014   -0.02835481163595348   -0.0007738062841205932
-0.0006144659441561873   -0.02825720101507177   -0.0007913505863114739
-0.0007153163316567779   -0.0282609634612696   -0.0007171952267505085
-0.0017708892289927491   -0.02937764192966964   -0.0009204948620831818
-0.0015421848123942014   -0.02835481163595348   -0.0007738062841205932
-0.0007153163316567779   -0.0282609634612696   -0.0007171952267505085
-0.002171516765146753   -0.029487867243493407   -0.0008333285568371258
-0.0022949046725461346   -0.029540167261098763   -0.0007539522975621848
-0.0016632036127282694   -0.028431501038781535   -0.0006726511222117804
-0.0024614737159109616   -0.029608790463340924   -0.0008429218956563077
-0.0022381828627411095   -0.0295015436713291   -0.0007951899582658879
-0.0016632036127282694   -0.028431501038781535   -0.0006726511222117804
-0.0023953137620770443   -0.028461454688812463   -0.0007690991374437464
-0.0024614737159109616   -0.029608790463340924   -0.0008429218956563077
-0.0023614391864588613   -0.02842066400269547   -0.0007709881712562146
-0.0022381828627411095   -0.0295015436713291   -0.0007951899582658879
-0.0024113583100437855   -0.029574260689628963   -0.0008438661810142115
-0.0023614391864588613   -0.02842066400269547   -0.0007709881712562146
-0.0024614737159109616   -0.029608790463340924   -0.0008429218956563077
-0.0022381828627411095   -0.0295015436713291   -0.0007951899582658879
-0.0023614391864588613   -0.02842066400269547   -0.0007709881712562146
-0.0016227941783756707   -0.028384719650979863   -0.000709575674149015
-0.0016632036127282694   -0.028431501038781535   -0.0006726511222117804
-0.0022381828627411095   -0.0295015436713291   -0.0007951899582658879
-0.0023614391864588613   -0.02842066400269547   -0.0007709881712562146
-0.0016632036127282694   -0.028431501038781535   -0.0006726511222117804
-0.0024614737159109616   -0.029608790463340924   -0.0008429218956563077
-0.0022381828627411095   -0.0295015436713291   -0.0007951899582658879
-0.0016227941783756707   -0.028384719650979863   -0.000709575674149015
-0.0024113583100437855   -0.029574260689628963   -0.0008438661810142115
-0.002171516765146753   -0.029487867243493407   -0.0008333285568371258
-0.0016227941783756707   -0.028384719650979863   -0.000709575674149015
-0.0023614391864588613   -0.02842066400269547   -0.0007709881712562146
-0.0024113583100437855   -0.029574260689628963   -0.0008438661810142115
-0.0023263855837795623   -0.028399207589847344   -0.0007698719151924495
-0.002171516765146753   -0.029487867243493407   -0.0008333285568371258
-0.0023556118913283745   -0.029562319002311207   -0.0008407938612504342
-0.0023263855837795623   -0.028399207589847344   -0.0007698719151924495
-0.0024113583100437855   -0.029574260689628963   -0.0008438661810142115
-0.002171516765146753   -0.029487867243493407   -0.0008333285568371258
-0.0023263855837795623   -0.028399207589847344   -0.0007698719151924495
-0.0015771405771348632   -0.028359394858113438   -0.0007432577193528956
-0.0016227941783756707   -0.028384719650979863   -0.000709575674149015
-0.002171516765146753   -0.029487867243493407   -0.0008333285568371258
-0.0023263855837795623   -0.028399207589847344   -0.0007698719151924495
-0.0016227941783756707   -0.028384719650979863   -0.000709575674149015
-0.0024113583100437855   -0.029574260689628963   -0.0008438661810142115
-0.002171516765146753   -0.029487867243493407   -0.0008333285568371258
-0.0015771405771348632   -0.028359394858113438   -0.0007432577193528956
-0.0023556118913283745   -0.029562319002311207   -0.0008407938612504342
-0.0021144880293648936   -0.029499362086533542   -0.0008681783865224369
-0.0015771405771348632   -0.028359394858113438   -0.0007432577193528956
-0.0023263855837795623   -0.028399207589847344   -0.0007698719151924495
-0.0023556118913283745   -0.029562319002311207   -0.0008407938612504342
-0.002292602078193267   -0.02839619427020241   -0.0007657329497134354
-0.0021144880293648936   -0.029499362086533542   -0.0008681783865224369
-0.002298973745498673   -0.029571982590922162   -0.000834567559979449
-0.002292602078193267   -0.02839619427020241   -0.0007657329497134354
-0.0023556118913283745   -0.029562319002311207   -0.0008407938612504342
-0.0021144880293648936   -0.029499362086533542   -0.0008681783865224369
-0.002292602078193267   -0.02839619427020241   -0.0007657329497134354
-0.0015421848123942014   -0.02835481163595348   -0.0007738062841205932
-0.0015771405771348632   -0.028359394858113438   -0.0007432577193528956
-0.0021144880293648936   -0.029499362086533542   -0.0008681783865224369
-0.002292602078193267   -0.02839619427020241   -0.0007657329497134354
-0.0015771405771348632   -0.028359394858113438   -0.0007432577193528956
-0.0023556118913283745   -0.029562319002311207   -0.0008407938612504342
-0.0024614737159109616   -0.029608790463340924   -0.0008429218956563077
-0.0023953137620770443   -0.028461454688812463   -0.0007690991374437464
-0.002640731803267917   -0.029636152137857745   -0.000930642643885608
-0.0024113583100437855   -0.029574260689628963   -0.0008438661810142115
-0.0023953137620770443   -0.028461454688812463   -0.0007690991374437464
-0.0031227563991593644   -0.028434308200200323   -0.0008594298042428634
-0.002640731803267917   -0.029636152137857745   -0.000930642643885608
-0.0030891504697273093   -0.028398023160668598   -0.0008277009459617295
-0.0024113583100437855   -0.029574260689628963   -0.0008438661810142115
-0.002588812215579585   -0.02960310564208292   -0.000892829224288794
-0.0030891504697273093   -0.028398023160668598   -0.0008277009459617295
-0.002640731803267917   -0.029636152137857745   -0.000930642643885608
-0.0024113583100437855   -0.029574260689628963   -0.0008438661810142115
-0.0030891504697273093   -0.028398023160668598   -0.0008277009459617295
-0.0023614391864588613   -0.02842066400269547   -0.0007709881712562146
-0.0023953137620770443   -0.028461454688812463   -0.0007690991374437464
-0.0024113583100437855   -0.029574260689628963   -0.0008438661810142115
-0.0030891504697273093   -0.028398023160668598   -0.0008277009459617295
-0.0023953137620770443   -0.028461454688812463   -0.0007690991374437464
-0.002640731803267917   -0.029636152137857745   -0.000930642643885608
-0.0024113583100437855   -0.029574260689628963   -0.0008438661810142115
-0.0023614391864588613   -0.02842066400269547   -0.0007709881712562146
-0.002588812215579585   -0.02960310564208292   -0.000892829224288794
-0.0023556118913283745   -0.029562319002311207   -0.0008407938612504342
-0.0023614391864588613   -0.02842066400269547   -0.0007709881712562146
-0.0030891504697273093   -0.028398023160668598   -0.0008277009459617295
-0.002588812215579585   -0.02960310564208292   -0.000892829224288794
-0.0030514406398129447   -0.028380760340949485   -0.000793016178488859
-0.0023556118913283745   -0.029562319002311207   -0.0008407938612504342
-0.002526638753432389   -0.02959300381314319   -0.0008501205121964042
-0.0030514406398129447   -0.028380760340949485   -0.000793016178488859
-0.002588812215579585   -0.02960310564208292   -0.000892829224288794
-0.0023556118913283745   -0.029562319002311207   -0.0008407938612504342
-0.0030514406398129447   -0.028380760340949485   -0.000793016178488859
-0.0023263855837795623   -0.028399207589847344   -0.0007698719151924495
-0.0023614391864588613   -0.02842066400269547   -0.0007709881712562146
-0.0023556118913283745   -0.029562319002311207   -0.0008407938612504342
-0.0030514406398129447   -0.028380760340949485   -0.000793016178488859
-0.0023614391864588613   -0.02842066400269547   -0.0007709881712562146
-0.002588812215579585   -0.02960310564208292   -0.000892829224288794
-0.0023556118913283745   -0.029562319002311207   -0.0008407938612504342
-0.0023263855837795623   -0.028399207589847344   -0.0007698719151924495
-0.002526638753432389   -0.02959300381314319   -0.0008501205121964042
-0.002298973745498673   -0.029571982590922162   -0.000834567559979449
-0.0023263855837795623   -0.028399207589847344   -0.0007698719151924495
-0.0030514406398129447   -0.028380760340949485   -0.000793016178488859
-0.002526638753432389   -0.02959300381314319   -0.0008501205121964042
-0.00301362784598579   -0.028380747889560957   -0.0007550162555353316
-0.002298973745498673   -0.029571982590922162   -0.000834567559979449
-0.002462763970584586   -0.029602363644308214   -0.000804692140328385
-0.00301362784598579   -0.028380747889560957   -0.0007550162555353316
-0.002526638753432389   -0.02959300381314319   -0.0008501205121964042
-0.002298973745498673   -0.029571982590922162   -0.000834567559979449
-0.00301362784598579   -0.028380747889560957   -0.0007550162555353316
-0.002292602078193267   -0.02839619427020241   -0.0007657329497134354
-0.0023263855837795623   -0.028399207589847344   -0.0007698719151924495
-0.002298973745498673   -0.029571982590922162   -0.000834567559979449
-0.00301362784598579   -0.028380747889560957   -0.0007550162555353316
-0.0023263855837795623   -0.028399207589847344   -0.0007698719151924495
-0.002526638753432389   -0.02959300381314319   -0.0008501205121964042
-0.002640731803267917   -0.029636152137857745   -0.000930642643885608
-0.0031227563991593644   -0.028434308200200323   -0.0008594298042428634
-0.0029008005787068856   -0.02960245749696727   -0.0010143886774773424
-0.002588812215579585   -0.02960310564208292   -0.000892829224288794
-0.0031227563991593644   -0.028434308200200323   -0.0008594298042428634
-0.0039208884868539365   -0.028346559105420343   -0.00094260960483019
-0.0029008005787068856   -0.02960245749696727   -0.0010143886774773424
-0.0038796019394897966   -0.028314746812765905   -0.0008779549692864665
-0.002588812215579585   -0.02960310564208292   -0.000892829224288794
-0.0028330298962819817   -0.029571034748240636   -0.0009395820235520383
-0.0038796019394897966   -0.028314746812765905   -0.0008779549692864665
-0.0029008005787068856   -0.02960245749696727   -0.0010143886774773424
-0.002588812215579585   -0.02960310564208292   -0.000892829224288794
-0.0038796019394897966   -0.028314746812765905   -0.0008779549692864665
-0.0030891504697273093   -0.028398023160668598   -0.0008277009459617295
-0.0031227563991593644   -0.028434308200200323   -0.0008594298042428634
-0.002588812215579585   -0.02960310564208292   -0.000892829224288794
-0.0038796019394897966   -0.028314746812765905   -0.0008779549692864665
-0.0031227563991593644   -0.028434308200200323   -0.0008594298042428634
-0.0029008005787068856   -0.02960245749696727   -0.0010143886774773424
-0.002588812215579585   -0.02960310564208292   -0.000892829224288794
-0.0030891504697273093   -0.028398023160668598   -0.0008277009459617295
-0.0028330298962819817   -0.029571034748240636   -0.0009395820235520383
-0.002526638753432389   -0.02959300381314319   -0.0008501205121964042
-0.0030891504697273093   -0.028398023160668598   -0.0008277009459617295
-0.0038796019394897966   -0.028314746812765905   -0.0008779549692864665
-0.0028330298962819817   -0.029571034748240636   -0.0009395820235520383
-0.0038224565489979444   -0.02830166124641026   -0.0008105763355468637
-0.002526638753432389   -0.02959300381314319   -0.0008501205121964042
-0.0027433633649844064   -0.029564195274072204   -0.0008592865427257612
-0.0038224565489979444   -0.02830166124641026   -0.0008105763355468637
-0.0028330298962819817   -0.029571034748240636   -0.0009395820235520383
-0.002526638753432389   -0.02959300381314319   -0.0008501205121964042
-0.0038224565489979444   -0.02830166124641026   -0.0008105763355468637
-0.0030514406398129447   -0.028380760340949485   -0.000793016178488859
-0.0030891504697273093   -0.028398023160668598   -0.0008277009459617295
-0.002526638753432389   -0.02959300381314319   -0.0008501205121964042
-0.0038224565489979444   -0.02830166124641026   -0.0008105763355468637
-0.0030891504697273093   -0.028398023160668598   -0.0008277009459617295
-0.0028330298962819817   -0.029571034748240636   -0.0009395820235520383
-0.002526638753432389   -0.02959300381314319   -0.0008501205121964042
-0.0030514406398129447   -0.028380760340949485   -0.000793016178488859
-0.0027433633649844064   -0.029564195274072204   -0.0008592865427257612
-0.002462763970584586   -0.029602363644308214   -0.000804692140328385
-0.0030514406398129447   -0.028380760340949485   -0.000793016178488859
-0.0038224565489979444   -0.02830166124641026   -0.0008105763355468637
-0.0027433633649844064   -0.029564195274072204   -0.0008592865427257612
-0.0037728249462633885   -0.02830731068200803   -0.0007386358514354098
-0.002462763970584586   -0.029602363644308214   -0.000804692140328385
-0.0026593944462636756   -0.029577283779485368   -0.0007759742696579868
-0.0037728249462633885   -0.02830731068200803   -0.0007386358514354098
-0.0027433633649844064   -0.029564195274072204   -0.0008592865427257612
-0.002462763970584586   -0.029602363644308214   -0.000804692140328385
-0.0037728249462633885   -0.02830731068200803   -0.0007386358514354098
-0.00301362784598579   -0.028380747889560957   -0.0007550162555353316
-0.0030514406398129447   -0.028380760340949485   -0.000793016178488859
-0.002462763970584586   -0.029602363644308214   -0.000804692140328385
-0.0037728249462633885   -0.02830731068200803   -0.0007386358514354098
-0.0030514406398129447   -0.028380760340949485   -0.000793016178488859
-0.0027433633649844064   -0.029564195274072204   -0.0008592865427257612
-0.0029008005787068856   -0.02960245749696727   -0.0010143886774773424
-0.0039208884868539365   -0.028346559105420343   -0.00094260960483019
-0.003411807619390328   -0.029458085769613524   -0.0011039564122688028
-0.0028330298962819817   -0.029571034748240636   -0.0009395820235520383
-0.0039208884868539365   -0.028346559105420343   -0.00094260960483019
-0.004948467425923133   -0.028203848731002283   -0.001023074552726495
-0.003411807619390328   -0.029458085769613524   -0.0011039564122688028
-0.0048133560672275555   -0.028169093442013193   -0.0009209288845448065
-0.0028330298962819817   -0.029571034748240636   -0.0009395820235520383
-0.0032290458761007907   -0.029431217580582227   -0.0009812795646365873
-0.0048133560672275555   -0.028169093442013193   -0.0009209288845448065
-0.003411807619390328   -0.029458085769613524   -0.0011039564122688028
-0.0028330298962819817   -0.029571034748240636   -0.0009395820235520383
-0.0048133560672275555   -0.028169093442013193   -0.0009209288845448065
-0.0038796019394897966   -0.028314746812765905   -0.0008779549692864665
-0.0039208884868539365   -0.028346559105420343   -0.00094260960483019
-0.0028330298962819817   -0.029571034748240636   -0.0009395820235520383
-0.0048133560672275555   -0.028169093442013193   -0.0009209288845448065
-0.0039208884868539365   -0.028346559105420343   -0.00094260960483019
-0.003411807619390328   -0.029458085769613524   -0.0011039564122688028
-0.0028330298962819817   -0.029571034748240636   -0.0009395820235520383
-0.0038796019394897966   -0.028314746812765905   -0.0008779549692864665
-0.0032290458761007907   -0.029431217580582227   -0.0009812795646365873
-0.0027433633649844064   -0.029564195274072204   -0.0008592865427257612
-0.0038796019394897966   -0.028314746812765905   -0.0008779549692864665
-0.0048133560672275555   -0.028169093442013193   -0.0009209288845448065
-0.0032290458761007907   -0.029431217580582227   -0.0009812795646365873
-0.0046926881609719385   -0.028156989803592016   -0.0008130377432612988
-0.0027433633649844064   -0.029564195274072204   -0.0008592865427257612
-0.0030616572953986155   -0.029427787190786453   -0.0008505795380199724
-0.0046926881609719385   -0.028156989803592016   -0.0008130377432612988
-0.0032290458761007907   -0.029431217580582227   -0.0009812795646365873
-0.0027433633649844064   -0.029564195274072204   -0.0008592865427257612
-0.0046926881609719385   -0.028156989803592016   -0.0008130377432612988
-0.0038224565489979444   -0.02830166124641026   -0.0008105763355468637
-0.0038796019394897966   -0.028314746812765905   -0.0008779549692864665
-0.0027433633649844064   -0.029564195274072204   -0.0008592865427257612
-0.0046926881609719385   -0.028156989803592016   -0.0008130377432612988
-0.0038796019394897966   -0.028314746812765905   -0.0008779549692864665
-0.0032290458761007907   -0.029431217580582227   -0.0009812795646365873
-0.0027433633649844064   -0.029564195274072204   -0.0008592865427257612
-0.0038224565489979444   -0.02830166124641026   -0.0008105763355468637
-0.0030616572953986155   -0.029427787190786453   -0.0008505795380199724
-0.0026593944462636756   -0.029577283779485368   -0.0007759742696579868
-0.0038224565489979444   -0.02830166124641026   -0.0008105763355468637
-0.0046926881609719385   -0.028156989803592016   -0.0008130377432612988
-0.0030616572953986155   -0.029427787190786453   -0.0008505795380199724
-0.004536353039561822   -0.028173925593480226   -0.0007004089844752703
-0.0026593944462636756   -0.029577283779485368   -0.0007759742696579868
-0.0028501644800287655   -0.029462944773180788   -0.0007140965661796612
-0.004536353039561822   -0.028173925593480226   -0.0007004089844752703
-0.0030616572953986155   -0.029427787190786453   -0.0008505795380199724
-0.0026593944462636756   -0.029577283779485368   -0.0007759742696579868
-0.004536353039561822   -0.028173925593480226   -0.0007004089844752703
-0.0037728249462633885   -0.02830731068200803   -0.0007386358514354098
-0.0038224565489979444   -0.02830166124641026   -0.0008105763355468637
-0.0026593944462636756   -0.029577283779485368   -0.0007759742696579868
-0.004536353039561822   -0.028173925593480226   -0.0007004089844752703
-0.0038224565489979444   -0.02830166124641026   -0.0008105763355468637
-0.0030616572953986155   -0.029427787190786453   -0.0008505795380199724
-0.0009242406978404682   -0.02834592334640097   -0.0005540892068692699
9.753768216553642e-05   -0.02633140054958849   -0.0004574286166341755
-0.0016632036127282694   -0.028431501038781535   -0.0006726511222117804
-0.0008073283857329242   -0.02828791276213275   -0.0006380427479501795
9.753768216553642e-05   -0.02633140054958849   -0.0004574286166341755
-0.001158369649519788   -0.026394680493890654   -0.0005739886613547308
-0.0016632036127282694   -0.028431501038781535   -0.0006726511222117804
-0.0011367701332991758   -0.026345616478693507   -0.0006034739731098301
-0.0008073283857329242   -0.02828791276213275   -0.0006380427479501795
-0.0016227941783756707   -0.028384719650979863   -0.000709575674149015
-0.0011367701332991758   -0.026345616478693507   -0.0006034739731098301
-0.0016632036127282694   -0.028431501038781535   -0.0006726511222117804
-0.0008073283857329242   -0.02828791276213275   -0.0006380427479501795
-0.0011367701332991758   -0.026345616478693507   -0.0006034739731098301
0.00017990621524585182   -0.02627236067197077   -0.0005247538853231294
9.753768216553642e-05   -0.02633140054958849   -0.0004574286166341755
-0.0008073283857329242   -0.02828791276213275   -0.0006380427479501795
-0.0011367701332991758   -0.026345616478693507   -0.0006034739731098301
9.753768216553642e-05   -0.02633140054958849   -0.0004574286166341755
-0.0016632036127282694   -0.028431501038781535   -0.0006726511222117804
-0.0008073283857329242   -0.02828791276213275   -0.0006380427479501795
0.00017990621524585182   -0.02627236067197077   -0.0005247538853231294
-0.0016227941783756707   -0.028384719650979863   -0.000709575674149015
-0.0007153163316567779   -0.0282609634612696   -0.0007171952267505085
0.00017990621524585182   -0.02627236067197077   -0.0005247538853231294
-0.0011367701332991758   -0.026345616478693507   -0.0006034739731098301
-0.0016227941783756707   -0.028384719650979863   -0.000709575674149015
-0.001112048130450131   -0.02631416861252913   -0.000629615607313012
-0.0007153163316567779   -0.0282609634612696   -0.0007171952267505085
-0.0015771405771348632   -0.028359394858113438   -0.0007432577193528956
-0.001112048130450131   -0.02631416861252913   -0.000629615607313012
-0.0016227941783756707   -0.028384719650979863   -0.000709575674149015
-0.0007153163316567779   -0.0282609634612696   -0.0007171952267505085
-0.001112048130450131   -0.02631416861252913   -0.000629615607313012
0.00024057477424801395   -0.0262389389552261   -0.0005873984157204074
0.00017990621524585182   -0.02627236067197077   -0.0005247538853231294
-0.0007153163316567779   -0.0282609634612696   -0.0007171952267505085
-0.001112048130450131   -0.02631416861252913   -0.000629615607313012
0.00017990621524585182   -0.02627236067197077   -0.0005247538853231294
-0.0016227941783756707   -0.028384719650979863   -0.000709575674149015
-0.0007153163316567779   -0.0282609634612696   -0.0007171952267505085
0.00024057477424801395   -0.0262389389552261   -0.0005873984157204074
-0.0015771405771348632   -0.028359394858113438   -0.0007432577193528956
-0.0006144659441561873   -0.02825720101507177   -0.0007913505863114739
0.00024057477424801395   -0.0262389389552261   -0.0005873984157204074
-0.001112048130450131   -0.02631416861252913   -0.000629615607313012
-0.0015771405771348632   -0.028359394858113438   -0.0007432577193528956
-0.0010972525716215382   -0.02629938548634626   -0.0006527445619453127
-0.0006144659441561873   -0.02825720101507177   -0.0007913505863114739
-0.0015421848123942014   -0.02835481163595348   -0.0007738062841205932
-0.0010972525716215382   -0.02629938548634626   -0.0006527445619453127
-0.0015771405771348632   -0.028359394858113438   -0.0007432577193528956
-0.0006144659441561873   -0.02825720101507177   -0.0007913505863114739
-0.0010972525716215382   -0.02629938548634626   -0.0006527445619453127
0.00030586663373267584   -0.02622351214971318   -0.0006453449947988525
0.00024057477424801395   -0.0262389389552261   -0.0005873984157204074
-0.0006144659441561873   -0.02825720101507177   -0.0007913505863114739
-0.0010972525716215382   -0.02629938548634626   -0.0006527445619453127
0.00024057477424801395   -0.0262389389552261   -0.0005873984157204074
-0.0015771405771348632   -0.028359394858113438   -0.0007432577193528956
-0.0016632036127282694   -0.028431501038781535   -0.0006726511222117804
-0.001158369649519788   -0.026394680493890654   -0.0005739886613547308
-0.0023953137620770443   -0.028461454688812463   -0.0007690991374437464
-0.0016227941783756707   -0.028384719650979863   -0.000709575674149015
-0.001158369649519788   -0.026394680493890654   -0.0005739886613547308
-0.0023757620429059735   -0.026406844854536978   -0.000669656930045598
-0.0023953137620770443   -0.028461454688812463   -0.0007690991374437464
-0.0023599763357555125   -0.02636481591312566   -0.0006703093531045637
-0.0016227941783756707   -0.028384719650979863   -0.000709575674149015
-0.0023614391864588613   -0.02842066400269547   -0.0007709881712562146
-0.0023599763357555125   -0.02636481591312566   -0.0006703093531045637
-0.0023953137620770443   -0.028461454688812463   -0.0007690991374437464
-0.0016227941783756707   -0.028384719650979863   -0.000709575674149015
-0.0023599763357555125   -0.02636481591312566   -0.0006703093531045637
-0.0011367701332991758   -0.026345616478693507   -0.0006034739731098301
-0.001158369649519788   -0.026394680493890654   -0.0005739886613547308
-0.0016227941783756707   -0.028384719650979863   -0.000709575674149015
-0.0023599763357555125   -0.02636481591312566   -0.0006703093531045637
-0.001158369649519788   -0.026394680493890654   -0.0005739886613547308
-0.0023953137620770443   -0.028461454688812463   -0.0007690991374437464
-0.0016227941783756707   -0.028384719650979863   -0.000709575674149015
-0.0011367701332991758   -0.026345616478693507   -0.0006034739731098301
-0.0023614391864588613   -0.02842066400269547   -0.0007709881712562146
-0.0015771405771348632   -0.028359394858113438   -0.0007432577193528956
-0.0011367701332991758   -0.026345616478693507   -0.0006034739731098301
-0.0023599763357555125   -0.02636481591312566   -0.0006703093531045637
-0.0023614391864588613   -0.02842066400269547   -0.0007709881712562146
-0.00234372732434812   -0.02633854514853448   -0.0006677531016927881
-0.0015771405771348632   -0.028359394858113438   -0.0007432577193528956
-0.0023263855837795623   -0.028399207589847344   -0.0007698719151924495
-0.00234372732434812   -0.02633854514853448   -0.0006677531016927881
-0.0023614391864588613   -0.02842066400269547   -0.0007709881712562146
-0.0015771405771348632   -0.028359394858113438   -0.0007432577193528956
-0.00234372732434812   -0.02633854514853448   -0.0006677531016927881
-0.001112048130450131   -0.02631416861252913   -0.000629615607313012
-0.0011367701332991758   -0.026345616478693507   -0.0006034739731098301
-0.0015771405771348632   -0.028359394858113438   -0.0007432577193528956
-0.00234372732434812   -0.02633854514853448   -0.0006677531016927881
-0.0011367701332991758   -0.026345616478693507   -0.0006034739731098301
-0.0023614391864588613   -0.02842066400269547   -0.0007709881712562146
-0.0015771405771348632   -0.028359394858113438   -0.0007432577193528956
-0.001112048130450131   -0.02631416861252913   -0.000629615607313012
-0.0023263855837795623   -0.028399207589847344   -0.0007698719151924495
-0.0015421848123942014   -0.02835481163595348   -0.0007738062841205932
-0.001112048130450131   -0.02631416861252913   -0.000629615607313012
-0.00234372732434812   -0.02633854514853448   -0.0006677531016927881
-0.0023263855837795623   -0.028399207589847344   -0.0007698719151924495
-0.002329521613878051   -0.026327787195567137   -0.0006622097591521267
-0.0015421848123942014   -0.02835481163595348   -0.0007738062841205932
-0.002292602078193267   -0.02839619427020241   -0.0007657329497134354
-0.002329521613878051   -0.026327787195567137   -0.0006622097591521267
-0.0023263855837795623   -0.028399207589847344   -0.0007698719151924495
-0.0015421848123942014   -0.02835481163595348   -0.0007738062841205932
-0.002329521613878051   -0.026327787195567137   -0.0006622097591521267
-0.0010972525716215382   -0.02629938548634626   -0.0006527445619453127
-0.001112048130450131   -0.02631416861252913   -0.000629615607313012
-0.0015421848123942014   -0.02835481163595348   -0.0007738062841205932
-0.002329521613878051   -0.026327787195567137   -0.0006622097591521267
-0.001112048130450131   -0.02631416861252913   -0.000629615607313012
-0.0023263855837795623   -0.028399207589847344   -0.0007698719151924495
-0.0023953137620770443   -0.028461454688812463   -0.0007690991374437464
-0.0023757620429059735   -0.026406844854536978   -0.000669656930045598
-0.0031227563991593644   -0.028434308200200323   -0.0008594298042428634
-0.0023614391864588613   -0.02842066400269547   -0.0007709881712562146
-0.0023757620429059735   -0.026406844854536978   -0.000669656930045598
-0.0035745338947182227   -0.026367834936223213   -0.0007559758971814805
-0.0031227563991593644   -0.028434308200200323   -0.0008594298042428634
-0.003559846735240902   -0.02633160362534975   -0.0007284841822486911
-0.0023614391864588613   -0.02842066400269547   -0.0007709881712562146
-0.0030891504697273093   -0.028398023160668598   -0.0008277009459617295
-0.003559846735240902   -0.02633160362534975   -0.0007284841822486911
-0.0031227563991593644   -0.028434308200200323   -0.0008594298042428634
-0.0023614391864588613   -0.02842066400269547   -0.0007709881712562146
-0.003559846735240902   -0.02633160362534975   -0.0007284841822486911
-0.0023599763357555125   -0.02636481591312566   -0.0006703093531045637
-0.0023757620429059735   -0.026406844854536978   -0.000669656930045598
-0.0023614391864588613   -0.02842066400269547   -0.0007709881712562146
-0.003559846735240902   -0.02633160362534975   -0.0007284841822486911
-0.0023757620429059735   -0.026406844854536978   -0.000669656930045598
-0.0031227563991593644   -0.028434308200200323   -0.0008594298042428634
-0.0023614391864588613   -0.02842066400269547   -0.0007709881712562146
-0.0023599763357555125   -0.02636481591312566   -0.0006703093531045637
-0.0030891504697273093   -0.028398023160668598   -0.0008277009459617295
-0.0023263855837795623   -0.028399207589847344   -0.0007698719151924495
-0.0023599763357555125   -0.02636481591312566   -0.0006703093531045637
-0.003559846735240902   -0.02633160362534975   -0.0007284841822486911
-0.0030891504697273093   -0.028398023160668598   -0.0008277009459617295
-0.003542089679935005   -0.02631095980283125   -0.0006978578220355284
-0.0023263855837795623   -0.028399207589847344   -0.0007698719151924495
-0.0030514406398129447   -0.028380760340949485   -0.000793016178488859
-0.003542089679935005   -0.02631095980283125   -0.0006978578220355284
-0.0030891504697273093   -0.028398023160668598   -0.0008277009459617295
-0.0023263855837795623   -0.028399207589847344   -0.0007698719151924495
-0.003542089679935005   -0.02631095980283125   -0.0006978578220355284
-0.00234372732434812   -0.02633854514853448   -0.0006677531016927881
-0.0023599763357555125   -0.02636481591312566   -0.0006703093531045637
-0.0023263855837795623   -0.028399207589847344   -0.0007698719151924495
-0.003542089679935005   -0.02631095980283125   -0.0006978578220355284
-0.0023599763357555125   -0.02636481591312566   -0.0006703093531045637
-0.0030891504697273093   -0.028398023160668598   -0.0008277009459617295
-0.0023263855837795623   -0.028399207589847344   -0.0007698719151924495
-0.00234372732434812   -0.02633854514853448   -0.0006677531016927881
-0.0030514406398129447   -0.028380760340949485   -0.000793016178488859
-0.002292602078193267   -0.02839619427020241   -0.0007657329497134354
-0.00234372732434812   -0.02633854514853448   -0.0006677531016927881
-0.003542089679935005   -0.02631095980283125   -0.0006978578220355284
-0.0030514406398129447   -0.028380760340949485   -0.000793016178488859
-0.0035248522450732887   -0.026305206953126173   -0.0006641922719243422
-0.002292602078193267   -0.02839619427020241   -0.0007657329497134354
-0.00301362784598579   -0.028380747889560957   -0.0007550162555353316
-0.0035248522450732887   -0.026305206953126173   -0.0006641922719243422
-0.0030514406398129447   -0.028380760340949485   -0.000793016178488859
-0.002292602078193267   -0.02839619427020241   -0.0007657329497134354
-0.0035248522450732887   -0.026305206953126173   -0.0006641922719243422
-0.002329521613878051   -0.026327787195567137   -0.0006622097591521267
-0.00234372732434812   -0.02633854514853448   -0.0006677531016927881
-0.002292602078193267   -0.02839619427020241   -0.0007657329497134354
-0.0035248522450732887   -0.026305206953126173   -0.0006641922719243422
-0.00234372732434812   -0.02633854514853448   -0.0006677531016927881
-0.0030514406398129447   -0.028380760340949485   -0.000793016178488859
-0.0031227563991593644   -0.028434308200200323   -0.0008594298042428634
-0.0035745338947182227   -0.026367834936223213   -0.0007559758971814805
-0.0039208884868539365   -0.028346559105420343   -0.00094260960483019
-0.0030891504697273093   -0.028398023160668598   -0.0008277009459617295
-0.0035745338947182227   -0.026367834936223213   -0.0007559758971814805
-0.004830110748635383   -0.026278961731311192   -0.000832707098395397
-0.0039208884868539365   -0.028346559105420343   -0.00094260960483019
-0.004810775351055039   -0.02624821652939633   -0.0007770116090582671
-0.0030891504697273093   -0.028398023160668598   -0.0008277009459617295
-0.0038796019394897966   -0.028314746812765905   -0.0008779549692864665
-0.004810775351055039   -0.02624821652939633   -0.0007770116090582671
-0.0039208884868539365   -0.028346559105420343   -0.00094260960483019
-0.0030891504697273093   -0.028398023160668598   -0.0008277009459617295
-0.004810775351055039   -0.02624821652939633   -0.0007770116090582671
-0.003559846735240902   -0.02633160362534975   -0.0007284841822486911
-0.0035745338947182227   -0.026367834936223213   -0.0007559758971814805
-0.0030891504697273093   -0.028398023160668598   -0.0008277009459617295
-0.004810775351055039   -0.02624821652939633   -0.0007770116090582671
-0.0035745338947182227   -0.026367834936223213   -0.0007559758971814805
-0.0039208884868539365   -0.028346559105420343   -0.00094260960483019
-0.0030891504697273093   -0.028398023160668598   -0.0008277009459617295
-0.003559846735240902   -0.02633160362534975   -0.0007284841822486911
-0.0038796019394897966   -0.028314746812765905   -0.0008779549692864665
-0.0030514406398129447   -0.028380760340949485   -0.000793016178488859
-0.003559846735240902   -0.02633160362534975   -0.0007284841822486911
-0.004810775351055039   -0.02624821652939633   -0.0007770116090582671
-0.0038796019394897966   -0.028314746812765905   -0.0008779549692864665
-0.004777912319690728   -0.026232673456091433   -0.0007186702121948645
-0.0030514406398129447   -0.028380760340949485   -0.000793016178488859
-0.0038224565489979444   -0.02830166124641026   -0.0008105763355468637
-0.004777912319690728   -0.026232673456091433   -0.0007186702121948645
-0.0038796019394897966   -0.028314746812765905   -0.0008779549692864665
-0.0030514406398129447   -0.028380760340949485   -0.000793016178488859
-0.004777912319690728   -0.026232673456091433   -0.0007186702121948645
-0.003542089679935005   -0.02631095980283125   -0.0006978578220355284
-0.003559846735240902   -0.02633160362534975   -0.0007284841822486911
-0.0030514406398129447   -0.028380760340949485   -0.000793016178488859
-0.004777912319690728   -0.026232673456091433   -0.0007186702121948645
-0.003559846735240902   -0.02633160362534975   -0.0007284841822486911
-0.0038796019394897966   -0.028314746812765905   -0.0008779549692864665
-0.0030514406398129447   -0.028380760340949485   -0.000793016178488859
-0.003542089679935005   -0.02631095980283125   -0.0006978578220355284
-0.0038224565489979444   -0.02830166124641026   -0.0008105763355468637
-0.00301362784598579   -0.028380747889560957   -0.0007550162555353316
-0.003542089679935005   -0.02631095980283125   -0.0006978578220355284
-0.004777912319690728   -0.026232673456091433   -0.0007186702121948645
-0.0038224565489979444   -0.02830166124641026   -0.0008105763355468637
-0.0047513951094256745   -0.02623318898566133   -0.0006568431033112741
-0.00301362784598579   -0.028380747889560957   -0.0007550162555353316
-0.0037728249462633885   -0.02830731068200803   -0.0007386358514354098
-0.0047513951094256745   -0.02623318898566133   -0.0006568431033112741
-0.0038224565489979444   -0.02830166124641026   -0.0008105763355468637
-0.00301362784598579   -0.028380747889560957   -0.0007550162555353316
-0.0047513951094256745   -0.02623318898566133   -0.0006568431033112741
-0.0035248522450732887   -0.026305206953126173   -0.0006641922719243422
-0.003542089679935005   -0.02631095980283125   -0.0006978578220355284
-0.00301362784598579   -0.028380747889560957   -0.0007550162555353316
-0.0047513951094256745   -0.02623318898566133   -0.0006568431033112741
-0.003542089679935005   -0.02631095980283125   -0.0006978578220355284
-0.0038224565489979444   -0.02830166124641026   -0.0008105763355468637
-0.0039208884868539365   -0.028346559105420343   -0.00094260960483019
-0.004830110748635383   -0.026278961731311192   -0.000832707098395397
-0.004948467425923133   -0.028203848731002283   -0.001023074552726495
-0.0038796019394897966   -0.028314746812765905   -0.0008779549692864665
-0.004830110748635383   -0.026278961731311192   -0.000832707098395397
-0.006294052226229359   -0.026150514464196525   -0.0009046881154237351
-0.004948467425923133   -0.028203848731002283   -0.001023074552726495
-0.006193528991997421   -0.026118248870302476   -0.0008174084452696411
-0.0038796019394897966   -0.028314746812765905   -0.0008779549692864665
-0.0048133560672275555   -0.028169093442013193   -0.0009209288845448065
-0.006193528991997421   -0.026118248870302476   -0.0008174084452696411
-0.004948467425923133   -0.028203848731002283   -0.001023074552726495
-0.0038796019394897966   -0.028314746812765905   -0.0008779549692864665
-0.006193528991997421   -0.026118248870302476   -0.0008174084452696411
-0.004810775351055039   -0.02624821652939633   -0.0007770116090582671
-0.004830110748635383   -0.026278961731311192   -0.000832707098395397
-0.0038796019394897966   -0.028314746812765905   -0.0008779549692864665
-0.006193528991997421   -0.026118248870302476   -0.0008174084452696411
-0.004830110748635383   -0.026278961731311192   -0.000832707098395397
-0.004948467425923133   -0.028203848731002283   -0.001023074552726495
-0.0038796019394897966   -0.028314746812765905   -0.0008779549692864665
-0.004810775351055039   -0.02624821652939633   -0.0007770116090582671
-0.0048133560672275555   -0.028169093442013193   -0.0009209288845448065
-0.0038224565489979444   -0.02830166124641026   -0.0008105763355468637
-0.004810775351055039   -0.02624821652939633   -0.0007770116090582671
-0.006193528991997421   -0.026118248870302476   -0.0008174084452696411
-0.0048133560672275555   -0.028169093442013193   -0.0009209288845448065
-0.006106565466528526   -0.026104091951922644   -0.0007257454802472229
-0.0038224565489979444   -0.02830166124641026   -0.0008105763355468637
-0.0046926881609719385   -0.028156989803592016   -0.0008130377432612988
-0.006106565466528526   -0.026104091951922644   -0.0007257454802472229
-0.0048133560672275555   -0.028169093442013193   -0.0009209288845448065
-0.0038224565489979444   -0.02830166124641026   -0.0008105763355468637
-0.006106565466528526   -0.026104091951922644   -0.0007257454802472229
-0.004777912319690728   -0.026232673456091433   -0.0007186702121948645
-0.004810775351055039   -0.02624821652939633   -0.0007770116090582671
-0.0038224565489979444   -0.02830166124641026   -0.0008105763355468637
-0.006106565466528526   -0.026104091951922644   -0.0007257454802472229
-0.004810775351055039   -0.02624821652939633   -0.0007770116090582671
-0.0048133560672275555   -0.028169093442013193   -0.0009209288845448065
-0.0038224565489979444   -0.02830166124641026   -0.0008105763355468637
-0.004777912319690728   -0.026232673456091433   -0.0007186702121948645
-0.0046926881609719385   -0.028156989803592016   -0.0008130377432612988
-0.0037728249462633885   -0.02830731068200803   -0.0007386358514354098
-0.004777912319690728   -0.026232673456091433   -0.0007186702121948645
-0.006106565466528526   -0.026104091951922644   -0.0007257454802472229
-0.0046926881609719385   -0.028156989803592016   -0.0008130377432612988
-0.0059895234216422255   -0.026114409575905627   -0.0006302793881436116
-0.0037728249462633885   -0.02830731068200803   -0.0007386358514354098
-0.004536353039561822   -0.028173925593480226   -0.0007004089844752703
-0.0059895234216422255   -0.026114409575905627   -0.0006302793881436116
-0.0046926881609719385   -0.028156989803592016   -0.0008130377432612988
-0.0037728249462633885   -0.02830731068200803   -0.0007386358514354098
-0.0059895234216422255   -0.026114409575905627   -0.0006302793881436116
-0.0047513951094256745   -0.02623318898566133   -0.0006568431033112741
-0.004777912319690728   -0.026232673456091433   -0.0007186702121948645
-0.0037728249462633885   -0.02830731068200803   -0.0007386358514354098
-0.0059895234216422255   -0.026114409575905627   -0.0006302793881436116
-0.004777912319690728   -0.026232673456091433   -0.0007186702121948645
-0.0046926881609719385   -0.028156989803592016   -0.0008130377432612988
9.753768216553642e-05   -0.02633140054958849   -0.0004574286166341755
0.0008795857559969233   -0.023579967482627515   -0.00034825853502271737
-0.001158369649519788   -0.026394680493890654   -0.0005739886613547308
0.00017990621524585182   -0.02627236067197077   -0.0005247538853231294
0.0008795857559969233   -0.023579967482627515   -0.00034825853502271737
-0.0007907713150991061   -0.023622259244037064   -0.0004595894429873183
-0.001158369649519788   -0.026394680493890654   -0.0005739886613547308
-0.000786025431722856   -0.023573450203103582   -0.0004802385804107543
0.00017990621524585182   -0.02627236067197077   -0.0005247538853231294
-0.0011367701332991758   -0.026345616478693507   -0.0006034739731098301
-0.000786025431722856   -0.023573450203103582   -0.0004802385804107543
-0.001158369649519788   -0.026394680493890654   -0.0005739886613547308
0.00017990621524585182   -0.02627236067197077   -0.0005247538853231294
-0.000786025431722856   -0.023573450203103582   -0.0004802385804107543
0.0009293020358628852   -0.023522291578736098   -0.00039851111347363657
0.0008795857559969233   -0.023579967482627515   -0.00034825853502271737
0.00017990621524585182   -0.02627236067197077   -0.0005247538853231294
-0.000786025431722856   -0.023573450203103582   -0.0004802385804107543
0.0008795857559969233   -0.023579967482627515   -0.00034825853502271737
-0.001158369649519788   -0.026394680493890654   -0.0005739886613547308
0.00017990621524585182   -0.02627236067197077   -0.0005247538853231294
0.0009293020358628852   -0.023522291578736098   -0.00039851111347363657
-0.0011367701332991758   -0.026345616478693507   -0.0006034739731098301
0.00024057477424801395   -0.0262389389552261   -0.0005873984157204074
0.0009293020358628852   -0.023522291578736098   -0.00039851111347363657
-0.000786025431722856   -0.023573450203103582   -0.0004802385804107543
-0.0011367701332991758   -0.026345616478693507   -0.0006034739731098301
-0.0007799483360800476   -0.023538640242387988   -0.0004978097857399757
0.00024057477424801395   -0.0262389389552261   -0.0005873984157204074
-0.001112048130450131   -0.02631416861252913   -0.000629615607313012
-0.0007799483360800476   -0.023538640242387988   -0.0004978097857399757
-0.0011367701332991758   -0.026345616478693507   -0.0006034739731098301
0.00024057477424801395   -0.0262389389552261   -0.0005873984157204074
-0.0007799483360800476   -0.023538640242387988   -0.0004978097857399757
0.000961300260781923   -0.023485138480229907   -0.0004444089393265533
0.0009293020358628852   -0.023522291578736098   -0.00039851111347363657
0.00024057477424801395   -0.0262389389552261   -0.0005873984157204074
-0.0007799483360800476   -0.023538640242387988   -0.0004978097857399757
0.0009293020358628852   -0.023522291578736098   -0.00039851111347363657
-0.0011367701332991758   -0.026345616478693507   -0.0006034739731098301
0.00024057477424801395   -0.0262389389552261   -0.0005873984157204074
0.000961300260781923   -0.023485138480229907   -0.0004444089393265533
-0.001112048130450131   -0.02631416861252913   -0.000629615607313012
0.00030586663373267584   -0.02622351214971318   -0.0006453449947988525
0.000961300260781923   -0.023485138480229907   -0.0004444089393265533
-0.0007799483360800476   -0.023538640242387988   -0.0004978097857399757
-0.001112048130450131   -0.02631416861252913   -0.000629615607313012
-0.0007823928658857327   -0.023516683303226055   -0.0005125267111801649
0.00030586663373267584   -0.02622351214971318   -0.0006453449947988525
-0.0010972525716215382   -0.02629938548634626   -0.0006527445619453127
-0.0007823928658857327   -0.023516683303226055   -0.0005125267111801649
-0.001112048130450131   -0.02631416861252913   -0.000629615607313012
0.00030586663373267584   -0.02622351214971318   -0.0006453449947988525
-0.0007823928658857327   -0.023516683303226055   -0.0005125267111801649
0.0009944798538496084   -0.023461110671023105   -0.0004860480863349003
0.000961300260781923   -0.023485138480229907   -0.0004444089393265533
0.00030586663373267584   -0.02622351214971318   -0.0006453449947988525
-0.0007823928658857327   -0.023516683303226055   -0.0005125267111801649
0.000961300260781923   -0.023485138480229907   -0.0004444089393265533
-0.001112048130450131   -0.02631416861252913   -0.000629615607313012
-0.001158369649519788   -0.026394680493890654   -0.0005739886613547308
-0.0007907713150991061   -0.023622259244037064   -0.0004595894429873183
-0.0023757620429059735   -0.026406844854536978   -0.000669656930045598
-0.0011367701332991758   -0.026345616478693507   -0.0006034739731098301
-0.0007907713150991061   -0.023622259244037064   -0.0004595894429873183
-0.0024001242402240447   -0.023622723936933748   -0.0005509345271242756
-0.0023757620429059735   -0.026406844854536978   -0.000669656930045598
-0.0024002071218398647   -0.02358158260665242   -0.0005489722576899023
-0.0011367701332991758   -0.026345616478693507   -0.0006034739731098301
-0.0023599763357555125   -0.02636481591312566   -0.0006703093531045637
-0.0024002071218398647   -0.02358158260665242   -0.0005489722576899023
-0.0023757620429059735   -0.026406844854536978   -0.000669656930045598
-0.0011367701332991758   -0.026345616478693507   -0.0006034739731098301
-0.0024002071218398647   -0.02358158260665242   -0.0005489722576899023
-0.000786025431722856   -0.023573450203103582   -0.0004802385804107543
-0.0007907713150991061   -0.023622259244037064   -0.0004595894429873183
-0.0011367701332991758   -0.026345616478693507   -0.0006034739731098301
-0.0024002071218398647   -0.02358158260665242   -0.0005489722576899023
-0.0007907713150991061   -0.023622259244037064   -0.0004595894429873183
-0.0023757620429059735   -0.026406844854536978   -0.000669656930045598
-0.0011367701332991758   -0.026345616478693507   -0.0006034739731098301
-0.000786025431722856   -0.023573450203103582   -0.0004802385804107543
-0.0023599763357555125   -0.02636481591312566   -0.0006703093531045637
-0.001112048130450131   -0.02631416861252913   -0.000629615607313012
-0.000786025431722856   -0.023573450203103582   -0.0004802385804107543
-0.0024002071218398647   -0.02358158260665242   -0.0005489722576899023
-0.0023599763357555125   -0.02636481591312566   -0.0006703093531045637
-0.0024001740621415577   -0.023552773898272487   -0.0005439384558075967
-0.001112048130450131   -0.02631416861252913   -0.000629615607313012
-0.00234372732434812   -0.02633854514853448   -0.0006677531016927881
-0.0024001740621415577   -0.023552773898272487   -0.0005439384558075967
-0.0023599763357555125   -0.02636481591312566   -0.0006703093531045637
-0.001112048130450131   -0.02631416861252913   -0.000629615607313012
-0.0024001740621415577   -0.023552773898272487   -0.0005439384558075967
-0.0007799483360800476   -0.023538640242387988   -0.0004978097857399757
-0.000786025431722856   -0.023573450203103582   -0.0004802385804107543
-0.001112048130450131   -0.02631416861252913   -0.000629615607313012
-0.0024001740621415577   -0.023552773898272487   -0.0005439384558075967
-0.000786025431722856   -0.023573450203103582   -0.0004802385804107543
-0.0023599763357555125   -0.02636481591312566   -0.0006703093531045637
-0.001112048130450131   -0.02631416861252913   -0.000629615607313012
-0.0007799483360800476   -0.023538640242387988   -0.0004978097857399757
-0.00234372732434812   -0.02633854514853448   -0.0006677531016927881
-0.0010972525716215382   -0.02629938548634626   -0.0006527445619453127
-0.0007799483360800476   -0.023538640242387988   -0.0004978097857399757
-0.0024001740621415577   -0.023552773898272487   -0.0005439384558075967
-0.00234372732434812   -0.02633854514853448   -0.0006677531016927881
-0.002402278241636705   -0.023536321959715705   -0.0005359997512706492
-0.0010972525716215382   -0.02629938548634626   -0.0006527445619453127
-0.002329521613878051   -0.026327787195567137   -0.0006622097591521267
-0.002402278241636705   -0.023536321959715705   -0.0005359997512706492
-0.00234372732434812   -0.02633854514853448   -0.0006677531016927881
-0.0010972525716215382   -0.02629938548634626   -0.0006527445619453127
-0.002402278241636705   -0.023536321959715705   -0.0005359997512706492
-0.0007823928658857327   -0.023516683303226055   -0.0005125267111801649
-0.0007799483360800476   -0.023538640242387988   -0.0004978097857399757
-0.0010972525716215382   -0.02629938548634626   -0.0006527445619453127
-0.002402278241636705   -0.023536321959715705   -0.0005359997512706492
-0.0007799483360800476   -0.023538640242387988   -0.0004978097857399757
-0.00234372732434812   -0.02633854514853448   -0.0006677531016927881
-0.0023757620429059735   -0.026406844854536978   -0.000669656930045598
-0.0024001242402240447   -0.023622723936933748   -0.0005509345271242756
-0.0035745338947182227   -0.026367834936223213   -0.0007559758971814805
-0.0023599763357555125   -0.02636481591312566   -0.0006703093531045637
-0.0024001242402240447   -0.023622723936933748   -0.0005509345271242756
-0.003982623493460542   -0.023582475082807152   -0.0006308016354663732
-0.0035745338947182227   -0.026367834936223213   -0.0007559758971814805
-0.003983914368640632   -0.02354802331607019   -0.0006065070635935806
-0.0023599763357555125   -0.02636481591312566   -0.0006703093531045637
-0.003559846735240902   -0.02633160362534975   -0.0007284841822486911
-0.003983914368640632   -0.02354802331607019   -0.0006065070635935806
-0.0035745338947182227   -0.026367834936223213   -0.0007559758971814805
-0.0023599763357555125   -0.02636481591312566   -0.0006703093531045637
-0.003983914368640632   -0.02354802331607019   -0.0006065070635935806
-0.0024002071218398647   -0.02358158260665242   -0.0005489722576899023
-0.0024001242402240447   -0.023622723936933748   -0.0005509345271242756
-0.0023599763357555125   -0.02636481591312566   -0.0006703093531045637
-0.003983914368640632   -0.02354802331607019   -0.0006065070635935806
-0.0024001242402240447   -0.023622723936933748   -0.0005509345271242756
-0.0035745338947182227   -0.026367834936223213   -0.0007559758971814805
-0.0023599763357555125   -0.02636481591312566   -0.0006703093531045637
-0.0024002071218398647   -0.02358158260665242   -0.0005489722576899023
-0.003559846735240902   -0.02633160362534975   -0.0007284841822486911
-0.00234372732434812   -0.02633854514853448   -0.0006677531016927881
-0.0024002071218398647   -0.02358158260665242   -0.0005489722576899023
-0.003983914368640632   -0.02354802331607019   -0.0006065070635935806
-0.003559846735240902   -0.02633160362534975   -0.0007284841822486911
-0.003982521286228175   -0.023525795761365643   -0.0005792044191971635
-0.00234372732434812   -0.02633854514853448   -0.0006677531016927881
-0.003542089679935005   -0.02631095980283125   -0.0006978578220355284
-0.003982521286228175   -0.023525795761365643   -0.0005792044191971635
-0.003559846735240902   -0.02633160362534975   -0.0007284841822486911
-0.00234372732434812   -0.02633854514853448   -0.0006677531016927881
-0.003982521286228175   -0.023525795761365643   -0.0005792044191971635
-0.0024001740621415577   -0.023552773898272487   -0.0005439384558075967
-0.0024002071218398647   -0.02358158260665242   -0.0005489722576899023
-0.00234372732434812   -0.02633854514853448   -0.0006677531016927881
-0.003982521286228175   -0.023525795761365643   -0.0005792044191971635
-0.0024002071218398647   -0.02358158260665242   -0.0005489722576899023
-0.003559846735240902   -0.02633160362534975   -0.0007284841822486911
-0.00234372732434812   -0.02633854514853448   -0.0006677531016927881
-0.0024001740621415577   -0.023552773898272487   -0.0005439384558075967
-0.003542089679935005   -0.02631095980283125   -0.0006978578220355284
-0.002329521613878051   -0.026327787195567137   -0.0006622097591521267
-0.0024001740621415577   -0.023552773898272487   -0.0005439384558075967
-0.003982521286228175   -0.023525795761365643   -0.0005792044191971635
-0.003542089679935005   -0.02631095980283125   -0.0006978578220355284
-0.003981629367987781   -0.023515585086690376   -0.0005489795346391313
-0.002329521613878051   -0.026327787195567137   -0.0006622097591521267
-0.0035248522450732887   -0.026305206953126173   -0.0006641922719243422
-0.003981629367987781   -0.023515585086690376   -0.0005489795346391313
-0.003542089679935005   -0.02631095980283125   -0.0006978578220355284
-0.002329521613878051   -0.026327787195567137   -0.0006622097591521267
-0.003981629367987781   -0.023515585086690376   -0.0005489795346391313
-0.002402278241636705   -0.023536321959715705   -0.0005359997512706492
-0.0024001740621415577   -0.023552773898272487   -0.0005439384558075967
-0.002329521613878051   -0.026327787195567137   -0.0006622097591521267
-0.003981629367987781   -0.023515585086690376   -0.0005489795346391313
-0.0024001740621415577   -0.023552773898272487   -0.0005439384558075967
-0.003542089679935005   -0.02631095980283125   -0.0006978578220355284
-0.0035745338947182227   -0.026367834936223213   -0.0007559758971814805
-0.003982623493460542   -0.023582475082807152   -0.0006308016354663732
-0.004830110748635383   -0.026278961731311192   -0.000832707098395397
-0.003559846735240902   -0.02633160362534975   -0.0007284841822486911
-0.003982623493460542   -0.023582475082807152   -0.0006308016354663732
-0.00561413232756119   -0.023502978146103498   -0.0006994110571438609
-0.004830110748635383   -0.026278961731311192   -0.000832707098395397
-0.005612009966486661   -0.023474891545034852   -0.0006525087754618681
-0.003559846735240902   -0.02633160362534975   -0.0007284841822486911
-0.004810775351055039   -0.02624821652939633   -0.0007770116090582671
-0.005612009966486661   -0.023474891545034852   -0.0006525087754618681
-0.004830110748635383   -0.026278961731311192   -0.000832707098395397
-0.003559846735240902   -0.02633160362534975   -0.0007284841822486911
-0.005612009966486661   -0.023474891545034852   -0.0006525087754618681
-0.003983914368640632   -0.02354802331607019   -0.0006065070635935806
-0.003982623493460542   -0.023582475082807152   -0.0006308016354663732
-0.003559846735240902   -0.02633160362534975   -0.0007284841822486911
-0.005612009966486661   -0.023474891545034852   -0.0006525087754618681
-0.003982623493460542   -0.023582475082807152   -0.0006308016354663732
-0.004830110748635383   -0.026278961731311192   -0.000832707098395397
-0.003559846735240902   -0.02633160362534975   -0.0007284841822486911
-0.003983914368640632   -0.02354802331607019   -0.0006065070635935806
-0.004810775351055039   -0.02624821652939633   -0.0007770116090582671
-0.003542089679935005   -0.02631095980283125   -0.0006978578220355284
-0.003983914368640632   -0.02354802331607019   -0.0006065070635935806
-0.005612009966486661   -0.023474891545034852   -0.0006525087754618681
-0.004810775351055039   -0.02624821652939633   -0.0007770116090582671
-0.005598063280107415   -0.02345863341375795   -0.0006030544188950999
-0.003542089679935005   -0.02631095980283125   -0.0006978578220355284
-0.004777912319690728   -0.026232673456091433   -0.0007186702121948645
-0.005598063280107415   -0.02345863341375795   -0.0006030544188950999
-0.004810775351055039   -0.02624821652939633   -0.0007770116090582671
-0.003542089679935005   -0.02631095980283125   -0.0006978578220355284
-0.005598063280107415   -0.02345863341375795   -0.0006030544188950999
-0.003982521286228175   -0.023525795761365643   -0.0005792044191971635
-0.003983914368640632   -0.02354802331607019   -0.0006065070635935806
-0.003542089679935005   -0.02631095980283125   -0.0006978578220355284
-0.005598063280107415   -0.02345863341375795   -0.0006030544188950999
-0.003983914368640632   -0.02354802331607019   -0.0006065070635935806
-0.004810775351055039   -0.02624821652939633   -0.0007770116090582671
-0.003542089679935005   -0.02631095980283125   -0.0006978578220355284
-0.003982521286228175   -0.023525795761365643   -0.0005792044191971635
-0.004777912319690728   -0.026232673456091433   -0.0007186702121948645
-0.0035248522450732887   -0.026305206953126173   -0.0006641922719243422
-0.003982521286228175   -0.023525795761365643   -0.0005792044191971635
-0.005598063280107415   -0.02345863341375795   -0.0006030544188950999
-0.004777912319690728   -0.026232673456091433   -0.0007186702121948645
-0.005588803806128514   -0.023455409706648327   -0.0005504388919600448
-0.0035248522450732887   -0.026305206953126173   -0.0006641922719243422
-0.0047513951094256745   -0.02623318898566133   -0.0006568431033112741
-0.005588803806128514   -0.023455409706648327   -0.0005504388919600448
-0.004777912319690728   -0.026232673456091433   -0.0007186702121948645
-0.0035248522450732887   -0.026305206953126173   -0.0006641922719243422
-0.005588803806128514   -0.023455409706648327   -0.0005504388919600448
-0.003981629367987781   -0.023515585086690376   -0.0005489795346391313
-0.003982521286228175   -0.023525795761365643   -0.0005792044191971635
-0.0035248522450732887   -0.026305206953126173   -0.0006641922719243422
-0.005588803806128514   -0.023455409706648327   -0.0005504388919600448
-0.003982521286228175   -0.023525795761365643   -0.0005792044191971635
-0.004777912319690728   -0.026232673456091433   -0.0007186702121948645
-0.004830110748635383   -0.026278961731311192   -0.000832707098395397
-0.00561413232756119   -0.023502978146103498   -0.0006994110571438609
-0.006294052226229359   -0.026150514464196525   -0.0009046881154237351
-0.004810775351055039   -0.02624821652939633   -0.0007770116090582671
-0.00561413232756119   -0.023502978146103498   -0.0006994110571438609
-0.007436622459516102   -0.023392911727278563   -0.0007615226162144026
-0.006294052226229359   -0.026150514464196525   -0.0009046881154237351
-0.007367110964175888   -0.023365226504601138   -0.0006896257193670264
-0.004810775351055039   -0.02624821652939633   -0.0007770116090582671
-0.006193528991997421   -0.026118248870302476   -0.0008174084452696411
-0.007367110964175888   -0.023365226504601138   -0.0006896257193670264
-0.006294052226229359   -0.026150514464196525   -0.0009046881154237351
-0.004810775351055039   -0.02624821652939633   -0.0007770116090582671
-0.007367110964175888   -0.023365226504601138   -0.0006896257193670264
-0.005612009966486661   -0.023474891545034852   -0.0006525087754618681
-0.00561413232756119   -0.023502978146103498   -0.0006994110571438609
-0.004810775351055039   -0.02624821652939633   -0.0007770116090582671
-0.007367110964175888   -0.023365226504601138   -0.0006896257193670264
-0.00561413232756119   -0.023502978146103498   -0.0006994110571438609
-0.006294052226229359   -0.026150514464196525   -0.0009046881154237351
-0.004810775351055039   -0.02624821652939633   -0.0007770116090582671
-0.005612009966486661   -0.023474891545034852   -0.0006525087754618681
-0.006193528991997421   -0.026118248870302476   -0.0008174084452696411
-0.004777912319690728   -0.026232673456091433   -0.0007186702121948645
-0.005612009966486661   -0.023474891545034852   -0.0006525087754618681
-0.007367110964175888   -0.023365226504601138   -0.0006896257193670264
-0.006193528991997421   -0.026118248870302476   -0.0008174084452696411
-0.007307842473302511   -0.02335115360974428   -0.0006134224892322365
-0.004777912319690728   -0.026232673456091433   -0.0007186702121948645
-0.006106565466528526   -0.026104091951922644   -0.0007257454802472229
-0.007307842473302511   -0.02335115360974428   -0.0006134224892322365
-0.006193528991997421   -0.026118248870302476   -0.0008174084452696411
-0.004777912319690728   -0.026232673456091433   -0.0007186702121948645
-0.007307842473302511   -0.02335115360974428   -0.0006134224892322365
-0.005598063280107415   -0.02345863341375795   -0.0006030544188950999
-0.005612009966486661   -0.023474891545034852   -0.0006525087754618681
-0.004777912319690728   -0.026232673456091433   -0.0007186702121948645
-0.007307842473302511   -0.02335115360974428   -0.0006134224892322365
-0.005612009966486661   -0.023474891545034852   -0.0006525087754618681
-0.006193528991997421   -0.026118248870302476   -0.0008174084452696411
-0.004777912319690728   -0.026232673456091433   -0.0007186702121948645
-0.005598063280107415   -0.02345863341375795   -0.0006030544188950999
-0.006106565466528526   -0.026104091951922644   -0.0007257454802472229
-0.0047513951094256745   -0.02623318898566133   -0.0006568431033112741
-0.005598063280107415   -0.02345863341375795   -0.0006030544188950999
-0.007307842473302511   -0.02335115360974428   -0.0006134224892322365
-0.006106565466528526   -0.026104091951922644   -0.0007257454802472229
-0.007222554997791481   -0.023357688348926556   -0.0005335111332798224
-0.0047513951094256745   -0.02623318898566133   -0.0006568431033112741
-0.0059895234216422255   -0.026114409575905627   -0.0006302793881436116
-0.007222554997791481   -0.023357688348926556   -0.0005335111332798224
-0.006106565466528526   -0.026104091951922644   -0.0007257454802472229
-0.0047513951094256745   -0.02623318898566133   -0.0006568431033112741
-0.007222554997791481   -0.023357688348926556   -0.0005335111332798224
-0.005588803806128514   -0.023455409706648327   -0.0005504388919600448
-0.005598063280107415   -0.02345863341375795   -0.0006030544188950999
-0.0047513951094256745   -0.02623318898566133   -0.0006568431033112741
-0.007222554997791481   -0.023357688348926556   -0.0005335111332798224
-0.005598063280107415   -0.02345863341375795   -0.0006030544188950999
-0.006106565466528526   -0.026104091951922644   -0.0007257454802472229
0.0008795857559969233   -0.023579967482627515   -0.00034825853502271737
0.0014244354986120242   -0.020256045957784418   -0.0002322795079326582
-0.0007907713150991061   -0.023622259244037064   -0.0004595894429873183
0.0009293020358628852   -0.023522291578736098   -0.00039851111347363657
0.0014244354986120242   -0.020256045957784418   -0.0002322795079326582
-0.0005643126635145654   -0.020277355316751712   -0.0003369776411001046
-0.0007907713150991061   -0.023622259244037064   -0.0004595894429873183
-0.0005731984537299682   -0.02022976930678794   -0.000348340930778526
0.0009293020358628852   -0.023522291578736098   -0.00039851111347363657
-0.000786025431722856   -0.023573450203103582   -0.0004802385804107543
-0.0005731984537299682   -0.02022976930678794   -0.000348340930778526
-0.0007907713150991061   -0.023622259244037064   -0.0004595894429873183
0.0009293020358628852   -0.023522291578736098   -0.00039851111347363657
-0.0005731984537299682   -0.02022976930678794   -0.000348340930778526
0.0014450368048321467   -0.02020047210955943   -0.0002656554859862808
0.0014244354986120242   -0.020256045957784418   -0.0002322795079326582
0.0009293020358628852   -0.023522291578736098   -0.00039851111347363657
-0.0005731984537299682   -0.02022976930678794   -0.000348340930778526
0.0014244354986120242   -0.020256045957784418   -0.0002322795079326582
-0.0007907713150991061   -0.023622259244037064   -0.0004595894429873183
0.0009293020358628852   -0.023522291578736098   -0.00039851111347363657
0.0014450368048321467   -0.02020047210955943   -0.0002656554859862808
-0.000786025431722856   -0.023573450203103582   -0.0004802385804107543
0.000961300260781923   -0.023485138480229907   -0.0004444089393265533
0.0014450368048321467   -0.02020047210955943   -0.0002656554859862808
-0.0005731984537299682   -0.02022976930678794   -0.000348340930778526
-0.000786025431722856   -0.023573450203103582   -0.0004802385804107543
-0.0005824800755241489   -0.02019264925307982   -0.00035693341240061694
0.000961300260781923   -0.023485138480229907   -0.0004444089393265533
-0.0007799483360800476   -0.023538640242387988   -0.0004978097857399757
-0.0005824800755241489   -0.02019264925307982   -0.00035693341240061694
-0.000786025431722856   -0.023573450203103582   -0.0004802385804107543
0.000961300260781923   -0.023485138480229907   -0.0004444089393265533
-0.0005824800755241489   -0.02019264925307982   -0.00035693341240061694
0.0014519922132006174   -0.02016063255751292   -0.0002949380259859258
0.0014450368048321467   -0.02020047210955943   -0.0002656554859862808
0.000961300260781923   -0.023485138480229907   -0.0004444089393265533
-0.0005824800755241489   -0.02019264925307982   -0.00035693341240061694
0.0014450368048321467   -0.02020047210955943   -0.0002656554859862808
-0.000786025431722856   -0.023573450203103582   -0.0004802385804107543
0.000961300260781923   -0.023485138480229907   -0.0004444089393265533
0.0014519922132006174   -0.02016063255751292   -0.0002949380259859258
-0.0007799483360800476   -0.023538640242387988   -0.0004978097857399757
0.0009944798538496084   -0.023461110671023105   -0.0004860480863349003
0.0014519922132006174   -0.02016063255751292   -0.0002949380259859258
-0.0005824800755241489   -0.02019264925307982   -0.00035693341240061694
-0.0007799483360800476   -0.023538640242387988   -0.0004978097857399757
-0.0005987125594923526   -0.020164790643014137   -0.0003628474887847262
0.0009944798538496084   -0.023461110671023105   -0.0004860480863349003
-0.0007823928658857327   -0.023516683303226055   -0.0005125267111801649
-0.0005987125594923526   -0.020164790643014137   -0.0003628474887847262
-0.0007799483360800476   -0.023538640242387988   -0.0004978097857399757
0.0009944798538496084   -0.023461110671023105   -0.0004860480863349003
-0.0005987125594923526   -0.020164790643014137   -0.0003628474887847262
0.0014566836484552852   -0.020129276376291676   -0.00032032374755838863
0.0014519922132006174   -0.02016063255751292   -0.0002949380259859258
0.0009944798538496084   -0.023461110671023105   -0.0004860480863349003
-0.0005987125594923526   -0.020164790643014137   -0.0003628474887847262
0.0014519922132006174   -0.02016063255751292   -0.0002949380259859258
-0.0007799483360800476   -0.023538640242387988   -0.0004978097857399757
-0.0007907713150991061   -0.023622259244037064   -0.0004595894429873183
-0.0005643126635145654   -0.020277355316751712   -0.0003369776411001046
-0.0024001242402240447   -0.023622723936933748   -0.0005509345271242756
-0.000786025431722856   -0.023573450203103582   -0.0004802385804107543
-0.0005643126635145654   -0.020277355316751712   -0.0003369776411001046
-0.00247199115244703   -0.020267084434257253   -0.0004226296724376815
-0.0024001242402240447   -0.023622723936933748   -0.0005509345271242756
-0.002484620770650076   -0.020227531327278267   -0.00041750549893739935
-0.000786025431722856   -0.023573450203103582   -0.0004802385804107543
-0.0024002071218398647   -0.02358158260665242   -0.0005489722576899023
-0.002484620770650076   -0.020227531327278267   -0.00041750549893739935
-0.0024001242402240447   -0.023622723936933748   -0.0005509345271242756
-0.000786025431722856   -0.023573450203103582   -0.0004802385804107543
-0.002484620770650076   -0.020227531327278267   -0.00041750549893739935
-0.0005731984537299682   -0.02022976930678794   -0.000348340930778526
-0.0005643126635145654   -0.020277355316751712   -0.0003369776411001046
-0.000786025431722856   -0.023573450203103582   -0.0004802385804107543
-0.002484620770650076   -0.020227531327278267   -0.00041750549893739935
-0.0005643126635145654   -0.020277355316751712   -0.0003369776411001046
-0.0024001242402240447   -0.023622723936933748   -0.0005509345271242756
-0.000786025431722856   -0.023573450203103582   -0.0004802385804107543
-0.0005731984537299682   -0.02022976930678794   -0.000348340930778526
-0.0024002071218398647   -0.02358158260665242   -0.0005489722576899023
-0.0007799483360800476   -0.023538640242387988   -0.0004978097857399757
-0.0005731984537299682   -0.02022976930678794   -0.000348340930778526
-0.002484620770650076   -0.020227531327278267   -0.00041750549893739935
-0.0024002071218398647   -0.02358158260665242   -0.0005489722576899023
-0.0024974267010698017   -0.020196943999542638   -0.00040952347647836936
-0.0007799483360800476   -0.023538640242387988   -0.0004978097857399757
-0.0024001740621415577   -0.023552773898272487   -0.0005439384558075967
-0.0024974267010698017   -0.020196943999542638   -0.00040952347647836936
-0.0024002071218398647   -0.02358158260665242   -0.0005489722576899023
-0.0007799483360800476   -0.023538640242387988   -0.0004978097857399757
-0.0024974267010698017   -0.020196943999542638   -0.00040952347647836936
-0.0005824800755241489   -0.02019264925307982   -0.00035693341240061694
-0.0005731984537299682   -0.02022976930678794   -0.000348340930778526
-0.0007799483360800476   -0.023538640242387988   -0.0004978097857399757
-0.0024974267010698017   -0.020196943999542638   -0.00040952347647836936
-0.0005731984537299682   -0.02022976930678794   -0.000348340930778526
-0.0024002071218398647   -0.02358158260665242   -0.0005489722576899023
-0.0007799483360800476   -0.023538640242387988   -0.0004978097857399757
-0.0005824800755241489   -0.02019264925307982   -0.00035693341240061694
-0.0024001740621415577   -0.023552773898272487   -0.0005439384558075967
-0.0007823928658857327   -0.023516683303226055   -0.0005125267111801649
-0.0005824800755241489   -0.02019264925307982   -0.00035693341240061694
-0.0024974267010698017   -0.020196943999542638   -0.00040952347647836936
-0.0024001740621415577   -0.023552773898272487   -0.0005439384558075967
-0.0025122702641734267   -0.020175471919534265   -0.00039882816960077206
-0.0007823928658857327   -0.023516683303226055   -0.0005125267111801649
-0.002402278241636705   -0.023536321959715705   -0.0005359997512706492
-0.0025122702641734267   -0.020175471919534265   -0.00039882816960077206
-0.0024001740621415577   -0.023552773898272487   -0.0005439384558075967
-0.0007823928658857327   -0.023516683303226055   -0.0005125267111801649
-0.0025122702641734267   -0.020175471919534265   -0.00039882816960077206
-0.0005987125594923526   -0.020164790643014137   -0.0003628474887847262
-0.0005824800755241489   -0.02019264925307982   -0.00035693341240061694
-0.0007823928658857327   -0.023516683303226055   -0.0005125267111801649
-0.0025122702641734267   -0.020175471919534265   -0.00039882816960077206
-0.0005824800755241489   -0.02019264925307982   -0.00035693341240061694
-0.0024001740621415577   -0.023552773898272487   -0.0005439384558075967
-0.0024001242402240447   -0.023622723936933748   -0.0005509345271242756
-0.00247199115244703   -0.020267084434257253   -0.0004226296724376815
-0.003982623493460542   -0.023582475082807152   -0.0006308016354663732
-0.0024002071218398647   -0.02358158260665242   -0.0005489722576899023
-0.00247199115244703   -0.020267084434257253   -0.0004226296724376815
-0.004347732161644277   -0.020227338635613098   -0.0004956575125919925
-0.003982623493460542   -0.023582475082807152   -0.0006308016354663732
-0.004361425101500335   -0.020195040056239406   -0.0004741391870110558
-0.0024002071218398647   -0.02358158260665242   -0.0005489722576899023
-0.003983914368640632   -0.02354802331607019   -0.0006065070635935806
-0.004361425101500335   -0.020195040056239406   -0.0004741391870110558
-0.003982623493460542   -0.023582475082807152   -0.0006308016354663732
-0.0024002071218398647   -0.02358158260665242   -0.0005489722576899023
-0.004361425101500335   -0.020195040056239406   -0.0004741391870110558
-0.002484620770650076   -0.020227531327278267   -0.00041750549893739935
-0.00247199115244703   -0.020267084434257253   -0.0004226296724376815
-0.0024002071218398647   -0.02358158260665242   -0.0005489722576899023
-0.004361425101500335   -0.020195040056239406   -0.0004741391870110558
-0.00247199115244703   -0.020267084434257253   -0.0004226296724376815
-0.003982623493460542   -0.023582475082807152   -0.0006308016354663732
-0.0024002071218398647   -0.02358158260665242   -0.0005489722576899023
-0.002484620770650076   -0.020227531327278267   -0.00041750549893739935
-0.003983914368640632   -0.02354802331607019   -0.0006065070635935806
-0.0024001740621415577   -0.023552773898272487   -0.0005439384558075967
-0.002484620770650076   -0.020227531327278267   -0.00041750549893739935
-0.004361425101500335   -0.020195040056239406   -0.0004741391870110558
-0.003983914368640632   -0.02354802331607019   -0.0006065070635935806
-0.004372722806327536   -0.02017162261867664   -0.00044981678982395013
-0.0024001740621415577   -0.023552773898272487   -0.0005439384558075967
-0.003982521286228175   -0.023525795761365643   -0.0005792044191971635
-0.004372722806327536   -0.02017162261867664   -0.00044981678982395013
-0.003983914368640632   -0.02354802331607019   -0.0006065070635935806
-0.0024001740621415577   -0.023552773898272487   -0.0005439384558075967
-0.004372722806327536   -0.02017162261867664   -0.00044981678982395013
-0.0024974267010698017   -0.020196943999542638   -0.00040952347647836936
-0.002484620770650076   -0.020227531327278267   -0.00041750549893739935
-0.0024001740621415577   -0.023552773898272487   -0.0005439384558075967
-0.004372722806327536   -0.02017162261867664   -0.00044981678982395013
-0.002484620770650076   -0.020227531327278267   -0.00041750549893739935
-0.003983914368640632   -0.02354802331607019   -0.0006065070635935806
-0.0024001740621415577   -0.023552773898272487   -0.0005439384558075967
-0.0024974267010698017   -0.020196943999542638   -0.00040952347647836936
-0.003982521286228175   -0.023525795761365643   -0.0005792044191971635
-0.002402278241636705   -0.023536321959715705   -0.0005359997512706492
-0.0024974267010698017   -0.020196943999542638   -0.00040952347647836936
-0.004372722806327536   -0.02017162261867664   -0.00044981678982395013
-0.003982521286228175   -0.023525795761365643   -0.0005792044191971635
-0.004384364396677237   -0.020157046745615196   -0.0004227707250629884
-0.002402278241636705   -0.023536321959715705   -0.0005359997512706492
-0.003981629367987781   -0.023515585086690376   -0.0005489795346391313
-0.004384364396677237   -0.020157046745615196   -0.0004227707250629884
-0.003982521286228175   -0.023525795761365643   -0.0005792044191971635
-0.002402278241636705   -0.023536321959715705   -0.0005359997512706492
-0.004384364396677237   -0.020157046745615196   -0.0004227707250629884
-0.0025122702641734267   -0.020175471919534265   -0.00039882816960077206
-0.0024974267010698017   -0.020196943999542638   -0.00040952347647836936
-0.002402278241636705   -0.023536321959715705   -0.0005359997512706492
-0.004384364396677237   -0.020157046745615196   -0.0004227707250629884
-0.0024974267010698017   -0.020196943999542638   -0.00040952347647836936
-0.003982521286228175   -0.023525795761365643   -0.0005792044191971635
-0.003982623493460542   -0.023582475082807152   -0.0006308016354663732
-0.004347732161644277   -0.020227338635613098   -0.0004956575125919925
-0.00561413232756119   -0.023502978146103498   -0.0006994110571438609
-0.003983914368640632   -0.02354802331607019   -0.0006065070635935806
-0.004347732161644277   -0.020227338635613098   -0.0004956575125919925
-0.00626805065641329   -0.02015888404398618   -0.0005563966373995659
-0.00561413232756119   -0.023502978146103498   -0.0006994110571438609
-0.006279259778403036   -0.020133641043466245   -0.000518254462631269
-0.003983914368640632   -0.02354802331607019   -0.0006065070635935806
-0.005612009966486661   -0.023474891545034852   -0.0006525087754618681
-0.006279259778403036   -0.020133641043466245   -0.000518254462631269
-0.00561413232756119   -0.023502978146103498   -0.0006994110571438609
-0.003983914368640632   -0.02354802331607019   -0.0006065070635935806
-0.006279259778403036   -0.020133641043466245   -0.000518254462631269
-0.004361425101500335   -0.020195040056239406   -0.0004741391870110558
-0.004347732161644277   -0.020227338635613098   -0.0004956575125919925
-0.003983914368640632   -0.02354802331607019   -0.0006065070635935806
-0.006279259778403036   -0.020133641043466245   -0.000518254462631269
-0.004347732161644277   -0.020227338635613098   -0.0004956575125919925
-0.00561413232756119   -0.023502978146103498   -0.0006994110571438609
-0.003983914368640632   -0.02354802331607019   -0.0006065070635935806
-0.004361425101500335   -0.020195040056239406   -0.0004741391870110558
-0.005612009966486661   -0.023474891545034852   -0.0006525087754618681
-0.003982521286228175   -0.023525795761365643   -0.0005792044191971635
-0.004361425101500335   -0.020195040056239406   -0.0004741391870110558
-0.006279259778403036   -0.020133641043466245   -0.000518254462631269
-0.005612009966486661   -0.023474891545034852   -0.0006525087754618681
-0.006280290868994162   -0.020116785311238384   -0.00047769512116687426
-0.003982521286228175   -0.023525795761365643   -0.0005792044191971635
-0.005598063280107415   -0.02345863341375795   -0.0006030544188950999
-0.006280290868994162   -0.020116785311238384   -0.00047769512116687426
-0.005612009966486661   -0.023474891545034852   -0.0006525087754618681
-0.003982521286228175   -0.023525795761365643   -0.0005792044191971635
-0.006280290868994162   -0.020116785311238384   -0.00047769512116687426
-0.004372722806327536   -0.02017162261867664   -0.00044981678982395013
-0.004361425101500335   -0.020195040056239406   -0.0004741391870110558
-0.003982521286228175   -0.023525795761365643   -0.0005792044191971635
-0.006280290868994162   -0.020116785311238384   -0.00047769512116687426
-0.004361425101500335   -0.020195040056239406   -0.0004741391870110558
-0.005612009966486661   -0.023474891545034852   -0.0006525087754618681
-0.003982521286228175   -0.023525795761365643   -0.0005792044191971635
-0.004372722806327536   -0.02017162261867664   -0.00044981678982395013
-0.005598063280107415   -0.02345863341375795   -0.0006030544188950999
-0.003981629367987781   -0.023515585086690376   -0.0005489795346391313
-0.004372722806327536   -0.02017162261867664   -0.00044981678982395013
-0.006280290868994162   -0.020116785311238384   -0.00047769512116687426
-0.005598063280107415   -0.02345863341375795   -0.0006030544188950999
-0.0062843067698614115   -0.020109577317895998   -0.0004342032211855192
-0.003981629367987781   -0.023515585086690376   -0.0005489795346391313
-0.005588803806128514   -0.023455409706648327   -0.0005504388919600448
-0.0062843067698614115   -0.020109577317895998   -0.0004342032211855192
-0.005598063280107415   -0.02345863341375795   -0.0006030544188950999
-0.003981629367987781   -0.023515585086690376   -0.0005489795346391313
-0.0062843067698614115   -0.020109577317895998   -0.0004342032211855192
-0.004384364396677237   -0.020157046745615196   -0.0004227707250629884
-0.004372722806327536   -0.02017162261867664   -0.00044981678982395013
-0.003981629367987781   -0.023515585086690376   -0.0005489795346391313
-0.0062843067698614115   -0.020109577317895998   -0.0004342032211855192
-0.004372722806327536   -0.02017162261867664   -0.00044981678982395013
-0.005598063280107415   -0.02345863341375795   -0.0006030544188950999
-0.00561413232756119   -0.023502978146103498   -0.0006994110571438609
-0.00626805065641329   -0.02015888404398618   -0.0005563966373995659
-0.007436622459516102   -0.023392911727278563   -0.0007615226162144026
-0.005612009966486661   -0.023474891545034852   -0.0006525087754618681
-0.00626805065641329   -0.02015888404398618   -0.0005563966373995659
-0.008362812394137975   -0.02006860734188033   -0.0006083090975714592
-0.007436622459516102   -0.023392911727278563   -0.0007615226162144026
-0.00832128127254839   -0.020045543264901686   -0.0005524383164530333
-0.005612009966486661   -0.023474891545034852   -0.0006525087754618681
-0.007367110964175888   -0.023365226504601138   -0.0006896257193670264
-0.00832128127254839   -0.020045543264901686   -0.0005524383164530333
-0.007436622459516102   -0.023392911727278563   -0.0007615226162144026
-0.005612009966486661   -0.023474891545034852   -0.0006525087754618681
-0.00832128127254839   -0.020045543264901686   -0.0005524383164530333
-0.006279259778403036   -0.020133641043466245   -0.000518254462631269
-0.00626805065641329   -0.02015888404398618   -0.0005563966373995659
-0.005612009966486661   -0.023474891545034852   -0.0006525087754618681
-0.00832128127254839   -0.020045543264901686   -0.0005524383164530333
-0.00626805065641329   -0.02015888404398618   -0.0005563966373995659
-0.007436622459516102   -0.023392911727278563   -0.0007615226162144026
-0.005612009966486661   -0.023474891545034852   -0.0006525087754618681
-0.006279259778403036   -0.020133641043466245   -0.000518254462631269
-0.007367110964175888   -0.023365226504601138   -0.0006896257193670264
-0.005598063280107415   -0.02345863341375795   -0.0006030544188950999
-0.006279259778403036   -0.020133641043466245   -0.000518254462631269
-0.00832128127254839   -0.020045543264901686   -0.0005524383164530333
-0.007367110964175888   -0.023365226504601138   -0.0006896257193670264
-0.008286354561193027   -0.02003147664591957   -0.0004923373870552965
-0.005598063280107415   -0.02345863341375795   -0.0006030544188950999
-0.007307842473302511   -0.02335115360974428   -0.0006134224892322365
-0.008286354561193027   -0.02003147664591957   -0.0004923373870552965
-0.007367110964175888   -0.023365226504601138   -0.0006896257193670264
-0.005598063280107415   -0.02345863341375795   -0.0006030544188950999
-0.008286354561193027   -0.02003147664591957   -0.0004923373870552965
-0.006280290868994162   -0.020116785311238384   -0.00047769512116687426
-0.006279259778403036   -0.020133641043466245   -0.000518254462631269
-0.005598063280107415   -0.02345863341375795   -0.0006030544188950999
-0.008286354561193027   -0.02003147664591957   -0.0004923373870552965
-0.006279259778403036   -0.020133641043466245   -0.000518254462631269
-0.007367110964175888   -0.023365226504601138   -0.0006896257193670264
-0.005598063280107415   -0.02345863341375795   -0.0006030544188950999
-0.006280290868994162   -0.020116785311238384   -0.00047769512116687426
-0.007307842473302511   -0.02335115360974428   -0.0006134224892322365
-0.005588803806128514   -0.023455409706648327   -0.0005504388919600448
-0.006280290868994162   -0.020116785311238384   -0.00047769512116687426
-0.008286354561193027   -0.02003147664591957   -0.0004923373870552965
-0.007307842473302511   -0.02335115360974428   -0.0006134224892322365
-0.008229241911956254   -0.02003372626639859   -0.0004285366608025902
-0.005588803806128514   -0.023455409706648327   -0.0005504388919600448
-0.007222554997791481   -0.023357688348926556   -0.0005335111332798224
-0.008229241911956254   -0.02003372626639859   -0.0004285366608025902
-0.007307842473302511   -0.02335115360974428   -0.0006134224892322365
-0.005588803806128514   -0.023455409706648327   -0.0005504388919600448
-0.008229241911956254   -0.02003372626639859   -0.0004285366608025902
-0.0062843067698614115   -0.020109577317895998   -0.0004342032211855192
-0.006280290868994162   -0.020116785311238384   -0.00047769512116687426
-0.005588803806128514   -0.023455409706648327   -0.0005504388919600448
-0.008229241911956254   -0.02003372626639859   -0.0004285366608025902
-0.006280290868994162   -0.020116785311238384   -0.00047769512116687426
-0.007307842473302511   -0.02335115360974428   -0.0006134224892322365
0.0014244354986120242   -0.020256045957784418   -0.0002322795079326582
0.0017334722164187954   -0.016512925358773835   -0.00011918110886352831
-0.0005643126635145654   -0.020277355316751712   -0.0003369776411001046
0.0014450368048321467   -0.02020047210955943   -0.0002656554859862808
0.0017334722164187954   -0.016512925358773835   -0.00011918110886352831
-0.00048099807218987333   -0.016513297811070204   -0.0002160805428463275
-0.0005643126635145654   -0.020277355316751712   -0.0003369776411001046
-0.0005001834845643469   -0.01646735057719228   -0.00021795763579013648
0.0014450368048321467   -0.02020047210955943   -0.0002656554859862808
-0.0005731984537299682   -0.02022976930678794   -0.000348340930778526
-0.0005001834845643469   -0.01646735057719228   -0.00021795763579013648
-0.0005643126635145654   -0.020277355316751712   -0.0003369776411001046
0.0014450368048321467   -0.02020047210955943   -0.0002656554859862808
-0.0005001834845643469   -0.01646735057719228   -0.00021795763579013648
0.0017285408428002961   -0.016459783067349007   -0.00013572475859485112
0.0017334722164187954   -0.016512925358773835   -0.00011918110886352831
0.0014450368048321467   -0.02020047210955943   -0.0002656554859862808
-0.0005001834845643469   -0.01646735057719228   -0.00021795763579013648
0.0017334722164187954   -0.016512925358773835   -0.00011918110886352831
-0.0005643126635145654   -0.020277355316751712   -0.0003369776411001046
0.0014450368048321467   -0.02020047210955943   -0.0002656554859862808
0.0017285408428002961   -0.016459783067349007   -0.00013572475859485112
-0.0005731984537299682   -0.02022976930678794   -0.000348340930778526
0.0014519922132006174   -0.02016063255751292   -0.0002949380259859258
0.0017285408428002961   -0.016459783067349007   -0.00013572475859485112
-0.0005001834845643469   -0.01646735057719228   -0.00021795763579013648
-0.0005731984537299682   -0.02022976930678794   -0.000348340930778526
-0.0005215135048172047   -0.016428244542312006   -0.00021735498407839663
0.0014519922132006174   -0.02016063255751292   -0.0002949380259859258
-0.0005824800755241489   -0.02019264925307982   -0.00035693341240061694
-0.0005215135048172047   -0.016428244542312006   -0.00021735498407839663
-0.0005731984537299682   -0.02022976930678794   -0.000348340930778526
0.0014519922132006174   -0.02016063255751292   -0.0002949380259859258
-0.0005215135048172047   -0.016428244542312006   -0.00021735498407839663
0.0017138261825023395   -0.016417617768360177   -0.00014829365190033647
0.0017285408428002961   -0.016459783067349007   -0.00013572475859485112
0.0014519922132006174   -0.02016063255751292   -0.0002949380259859258
-0.0005215135048172047   -0.016428244542312006   -0.00021735498407839663
0.0017285408428002961   -0.016459783067349007   -0.00013572475859485112
-0.0005731984537299682   -0.02022976930678794   -0.000348340930778526
0.0014519922132006174   -0.02016063255751292   -0.0002949380259859258
0.0017138261825023395   -0.016417617768360177   -0.00014829365190033647
-0.0005824800755241489   -0.02019264925307982   -0.00035693341240061694
0.0014566836484552852   -0.020129276376291676   -0.00032032374755838863
0.0017138261825023395   -0.016417617768360177   -0.00014829365190033647
-0.0005215135048172047   -0.016428244542312006   -0.00021735498407839663
-0.0005824800755241489   -0.02019264925307982   -0.00035693341240061694
-0.0005482083510776748   -0.016394930904128968   -0.0002141748249410332
0.0014566836484552852   -0.020129276376291676   -0.00032032374755838863
-0.0005987125594923526   -0.020164790643014137   -0.0003628474887847262
-0.0005482083510776748   -0.016394930904128968   -0.0002141748249410332
-0.0005824800755241489   -0.02019264925307982   -0.00035693341240061694
0.0014566836484552852   -0.020129276376291676   -0.00032032374755838863
-0.0005482083510776748   -0.016394930904128968   -0.0002141748249410332
0.0016930676079102648   -0.016379289513480295   -0.00015716559873207522
0.0017138261825023395   -0.016417617768360177   -0.00014829365190033647
0.0014566836484552852   -0.020129276376291676   -0.00032032374755838863
-0.0005482083510776748   -0.016394930904128968   -0.0002141748249410332
0.0017138261825023395   -0.016417617768360177   -0.00014829365190033647
-0.0005824800755241489   -0.02019264925307982   -0.00035693341240061694
-0.0005643126635145654   -0.020277355316751712   -0.0003369776411001046
-0.00048099807218987333   -0.016513297811070204   -0.0002160805428463275
-0.00247199115244703   -0.020267084434257253   -0.0004226296724376815
-0.0005731984537299682   -0.02022976930678794   -0.000348340930778526
-0.00048099807218987333   -0.016513297811070204   -0.0002160805428463275
-0.002593896884180308   -0.016493458706842178   -0.0002954121380128393
-0.00247199115244703   -0.020267084434257253   -0.0004226296724376815
-0.002615599031998845   -0.01645558476056864   -0.0002868304214314505
-0.0005731984537299682   -0.02022976930678794   -0.000348340930778526
-0.002484620770650076   -0.020227531327278267   -0.00041750549893739935
-0.002615599031998845   -0.01645558476056864   -0.0002868304214314505
-0.00247199115244703   -0.020267084434257253   -0.0004226296724376815
-0.0005731984537299682   -0.02022976930678794   -0.000348340930778526
-0.002615599031998845   -0.01645558476056864   -0.0002868304214314505
-0.0005001834845643469   -0.01646735057719228   -0.00021795763579013648
-0.00048099807218987333   -0.016513297811070204   -0.0002160805428463275
-0.0005731984537299682   -0.02022976930678794   -0.000348340930778526
-0.002615599031998845   -0.01645558476056864   -0.0002868304214314505
-0.00048099807218987333   -0.016513297811070204   -0.0002160805428463275
-0.00247199115244703   -0.020267084434257253   -0.0004226296724376815
-0.0005731984537299682   -0.02022976930678794   -0.000348340930778526
-0.0005001834845643469   -0.01646735057719228   -0.00021795763579013648
-0.002484620770650076   -0.020227531327278267   -0.00041750549893739935
-0.0005824800755241489   -0.02019264925307982   -0.00035693341240061694
-0.0005001834845643469   -0.01646735057719228   -0.00021795763579013648
-0.002615599031998845   -0.01645558476056864   -0.0002868304214314505
-0.002484620770650076   -0.020227531327278267   -0.00041750549893739935
-0.0026377527353441945   -0.016423278437129478   -0.0002756599135899915
-0.0005824800755241489   -0.02019264925307982   -0.00035693341240061694
-0.0024974267010698017   -0.020196943999542638   -0.00040952347647836936
-0.0026377527353441945   -0.016423278437129478   -0.0002756599135899915
-0.002484620770650076   -0.020227531327278267   -0.00041750549893739935
-0.0005824800755241489   -0.02019264925307982   -0.00035693341240061694
-0.0026377527353441945   -0.016423278437129478   -0.0002756599135899915
-0.0005215135048172047   -0.016428244542312006   -0.00021735498407839663
-0.0005001834845643469   -0.01646735057719228   -0.00021795763579013648
-0.0005824800755241489   -0.02019264925307982   -0.00035693341240061694
-0.0026377527353441945   -0.016423278437129478   -0.0002756599135899915
-0.0005001834845643469   -0.01646735057719228   -0.00021795763579013648
-0.002484620770650076   -0.020227531327278267   -0.00041750549893739935
-0.0005824800755241489   -0.02019264925307982   -0.00035693341240061694
-0.0005215135048172047   -0.016428244542312006   -0.00021735498407839663
-0.0024974267010698017   -0.020196943999542638   -0.00040952347647836936
-0.0005987125594923526   -0.020164790643014137   -0.0003628474887847262
-0.0005215135048172047   -0.016428244542312006   -0.00021735498407839663
-0.0026377527353441945   -0.016423278437129478   -0.0002756599135899915
-0.0024974267010698017   -0.020196943999542638   -0.00040952347647836936
-0.0026618163905871173   -0.016396861715970917   -0.000262028584871167
-0.0005987125594923526   -0.020164790643014137   -0.0003628474887847262
-0.0025122702641734267   -0.020175471919534265   -0.00039882816960077206
-0.0026618163905871173   -0.016396861715970917   -0.000262028584871167
-0.0024974267010698017   -0.020196943999542638   -0.00040952347647836936
-0.0005987125594923526   -0.020164790643014137   -0.0003628474887847262
-0.0026618163905871173   -0.016396861715970917   -0.000262028584871167
-0.0005482083510776748   -0.016394930904128968   -0.0002141748249410332
-0.0005215135048172047   -0.016428244542312006   -0.00021735498407839663
-0.0005987125594923526   -0.020164790643014137   -0.0003628474887847262
-0.0026618163905871173   -0.016396861715970917   -0.000262028584871167
-0.0005215135048172047   -0.016428244542312006   -0.00021735498407839663
-0.0024974267010698017   -0.020196943999542638   -0.00040952347647836936
-0.00247199115244703   -0.020267084434257253   -0.0004226296724376815
-0.002593896884180308   -0.016493458706842178   -0.0002954121380128393
-0.004347732161644277   -0.020227338635613098   -0.0004956575125919925
-0.002484620770650076   -0.020227531327278267   -0.00041750549893739935
-0.002593896884180308   -0.016493458706842178   -0.0002954121380128393
-0.004671104092491865   -0.016455856524176814   -0.0003619819371076652
-0.004347732161644277   -0.020227338635613098   -0.0004956575125919925
-0.004693523931883134   -0.016425382289011293   -0.0003429799730057149
-0.002484620770650076   -0.020227531327278267   -0.00041750549893739935
-0.004361425101500335   -0.020195040056239406   -0.0004741391870110558
-0.004693523931883134   -0.016425382289011293   -0.0003429799730057149
-0.004347732161644277   -0.020227338635613098   -0.0004956575125919925
-0.002484620770650076   -0.020227531327278267   -0.00041750549893739935
-0.004693523931883134   -0.016425382289011293   -0.0003429799730057149
-0.002615599031998845   -0.01645558476056864   -0.0002868304214314505
-0.002593896884180308   -0.016493458706842178   -0.0002954121380128393
-0.002484620770650076   -0.020227531327278267   -0.00041750549893739935
-0.004693523931883134   -0.016425382289011293   -0.0003429799730057149
-0.002593896884180308   -0.016493458706842178   -0.0002954121380128393
-0.004347732161644277   -0.020227338635613098   -0.0004956575125919925
-0.002484620770650076   -0.020227531327278267   -0.00041750549893739935
-0.002615599031998845   -0.01645558476056864   -0.0002868304214314505
-0.004361425101500335   -0.020195040056239406   -0.0004741391870110558
-0.0024974267010698017   -0.020196943999542638   -0.00040952347647836936
-0.002615599031998845   -0.01645558476056864   -0.0002868304214314505
-0.004693523931883134   -0.016425382289011293   -0.0003429799730057149
-0.004361425101500335   -0.020195040056239406   -0.0004741391870110558
-0.0047138262038921   -0.0164004365122002   -0.00032145165801115787
-0.0024974267010698017   -0.020196943999542638   -0.00040952347647836936
-0.004372722806327536   -0.02017162261867664   -0.00044981678982395013
-0.0047138262038921   -0.0164004365122002   -0.00032145165801115787
-0.004361425101500335   -0.020195040056239406   -0.0004741391870110558
-0.0024974267010698017   -0.020196943999542638   -0.00040952347647836936
-0.0047138262038921   -0.0164004365122002   -0.00032145165801115787
-0.0026377527353441945   -0.016423278437129478   -0.0002756599135899915
-0.002615599031998845   -0.01645558476056864   -0.0002868304214314505
-0.0024974267010698017   -0.020196943999542638   -0.00040952347647836936
-0.0047138262038921   -0.0164004365122002   -0.00032145165801115787
-0.002615599031998845   -0.01645558476056864   -0.0002868304214314505
-0.004361425101500335   -0.020195040056239406   -0.0004741391870110558
-0.0024974267010698017   -0.020196943999542638   -0.00040952347647836936
-0.0026377527353441945   -0.016423278437129478   -0.0002756599135899915
-0.004372722806327536   -0.02017162261867664   -0.00044981678982395013
-0.0025122702641734267   -0.020175471919534265   -0.00039882816960077206
-0.0026377527353441945   -0.016423278437129478   -0.0002756599135899915
-0.0047138262038921   -0.0164004365122002   -0.00032145165801115787
-0.004372722806327536   -0.02017162261867664   -0.00044981678982395013
-0.0047343259568700625   -0.016381056433888857   -0.00029749081283302433
-0.0025122702641734267   -0.020175471919534265   -0.00039882816960077206
-0.004384364396677237   -0.020157046745615196   -0.0004227707250629884
-0.0047343259568700625   -0.016381056433888857   -0.00029749081283302433
-0.004372722806327536   -0.02017162261867664   -0.00044981678982395013
-0.0025122702641734267   -0.020175471919534265   -0.00039882816960077206
-0.0047343259568700625   -0.016381056433888857   -0.00029749081283302433
-0.0026618163905871173   -0.016396861715970917   -0.000262028584871167
-0.0026377527353441945   -0.016423278437129478   -0.0002756599135899915
-0.0025122702641734267   -0.020175471919534265   -0.00039882816960077206
-0.0047343259568700625   -0.016381056433888857   -0.00029749081283302433
-0.0026377527353441945   -0.016423278437129478   -0.0002756599135899915
-0.004372722806327536   -0.02017162261867664   -0.00044981678982395013
-0.004347732161644277   -0.020227338635613098   -0.0004956575125919925
-0.004671104092491865   -0.016455856524176814   -0.0003619819371076652
-0.00626805065641329   -0.02015888404398618   -0.0005563966373995659
-0.004361425101500335   -0.020195040056239406   -0.0004741391870110558
-0.004671104092491865   -0.016455856524176814   -0.0003619819371076652
-0.006789613453852234   -0.01639970325778975   -0.0004159812760752381
-0.00626805065641329   -0.02015888404398618   -0.0005563966373995659
-0.006810358814228283   -0.016376671784694697   -0.0003864758340659396
-0.004361425101500335   -0.020195040056239406   -0.0004741391870110558
-0.006279259778403036   -0.020133641043466245   -0.000518254462631269
-0.006810358814228283   -0.016376671784694697   -0.0003864758340659396
-0.00626805065641329   -0.02015888404398618   -0.0005563966373995659
-0.004361425101500335   -0.020195040056239406   -0.0004741391870110558
-0.006810358814228283   -0.016376671784694697   -0.0003864758340659396
-0.004693523931883134   -0.016425382289011293   -0.0003429799730057149
-0.004671104092491865   -0.016455856524176814   -0.0003619819371076652
-0.004361425101500335   -0.020195040056239406   -0.0004741391870110558
-0.006810358814228283   -0.016376671784694697   -0.0003864758340659396
-0.004671104092491865   -0.016455856524176814   -0.0003619819371076652
-0.00626805065641329   -0.02015888404398618   -0.0005563966373995659
-0.004361425101500335   -0.020195040056239406   -0.0004741391870110558
-0.004693523931883134   -0.016425382289011293   -0.0003429799730057149
-0.006279259778403036   -0.020133641043466245   -0.000518254462631269
-0.004372722806327536   -0.02017162261867664   -0.00044981678982395013
-0.004693523931883134   -0.016425382289011293   -0.0003429799730057149
-0.006810358814228283   -0.016376671784694697   -0.0003864758340659396
-0.006279259778403036   -0.020133641043466245   -0.000518254462631269
-0.006822654625684354   -0.016358520698747395   -0.00035477933507403476
-0.004372722806327536   -0.02017162261867664   -0.00044981678982395013
-0.006280290868994162   -0.020116785311238384   -0.00047769512116687426
-0.006822654625684354   -0.016358520698747395   -0.00035477933507403476
-0.006279259778403036   -0.020133641043466245   -0.000518254462631269
-0.004372722806327536   -0.02017162261867664   -0.00044981678982395013
-0.006822654625684354   -0.016358520698747395   -0.00035477933507403476
-0.0047138262038921   -0.0164004365122002   -0.00032145165801115787
-0.004693523931883134   -0.016425382289011293   -0.0003429799730057149
-0.004372722806327536   -0.02017162261867664   -0.00044981678982395013
-0.006822654625684354   -0.016358520698747395   -0.00035477933507403476
-0.004693523931883134   -0.016425382289011293   -0.0003429799730057149
-0.006279259778403036   -0.020133641043466245   -0.000518254462631269
-0.004372722806327536   -0.02017162261867664   -0.00044981678982395013
-0.0047138262038921   -0.0164004365122002   -0.00032145165801115787
-0.006280290868994162   -0.020116785311238384   -0.00047769512116687426
-0.004384364396677237   -0.020157046745615196   -0.0004227707250629884
-0.0047138262038921   -0.0164004365122002   -0.00032145165801115787
-0.006822654625684354   -0.016358520698747395   -0.00035477933507403476
-0.006280290868994162   -0.020116785311238384   -0.00047769512116687426
-0.006836300623783089   -0.016346431411325534   -0.00032044144551775873
-0.004384364396677237   -0.020157046745615196   -0.0004227707250629884
-0.0062843067698614115   -0.020109577317895998   -0.0004342032211855192
-0.006836300623783089   -0.016346431411325534   -0.00032044144551775873
-0.006280290868994162   -0.020116785311238384   -0.00047769512116687426
-0.004384364396677237   -0.020157046745615196   -0.0004227707250629884
-0.006836300623783089   -0.016346431411325534   -0.00032044144551775873
-0.0047343259568700625   -0.016381056433888857   -0.00029749081283302433
-0.0047138262038921   -0.0164004365122002   -0.00032145165801115787
-0.004384364396677237   -0.020157046745615196   -0.0004227707250629884
-0.006836300623783089   -0.016346431411325534   -0.00032044144551775873
-0.0047138262038921   -0.0164004365122002   -0.00032145165801115787
-0.006280290868994162   -0.020116785311238384   -0.00047769512116687426
-0.00626805065641329   -0.02015888404398618   -0.0005563966373995659
-0.006789613453852234   -0.01639970325778975   -0.0004159812760752381
-0.008362812394137975   -0.02006860734188033   -0.0006083090975714592
-0.006279259778403036   -0.020133641043466245   -0.000518254462631269
-0.006789613453852234   -0.01639970325778975   -0.0004159812760752381
-0.0090646032939864   -0.016330158524724928   -0.0004586693862057093
-0.008362812394137975   -0.02006860734188033   -0.0006083090975714592
-0.009047583802382487   -0.016310896248409427   -0.0004190773549630696
-0.006279259778403036   -0.020133641043466245   -0.000518254462631269
-0.00832128127254839   -0.020045543264901686   -0.0005524383164530333
-0.009047583802382487   -0.016310896248409427   -0.0004190773549630696
-0.008362812394137975   -0.02006860734188033   -0.0006083090975714592
-0.006279259778403036   -0.020133641043466245   -0.000518254462631269
-0.009047583802382487   -0.016310896248409427   -0.0004190773549630696
-0.006810358814228283   -0.016376671784694697   -0.0003864758340659396
-0.006789613453852234   -0.01639970325778975   -0.0004159812760752381
-0.006279259778403036   -0.020133641043466245   -0.000518254462631269
-0.009047583802382487   -0.016310896248409427   -0.0004190773549630696
-0.006789613453852234   -0.01639970325778975   -0.0004159812760752381
-0.008362812394137975   -0.02006860734188033   -0.0006083090975714592
-0.006279259778403036   -0.020133641043466245   -0.000518254462631269
-0.006810358814228283   -0.016376671784694697   -0.0003864758340659396
-0.00832128127254839   -0.020045543264901686   -0.0005524383164530333
-0.006280290868994162   -0.020116785311238384   -0.00047769512116687426
-0.006810358814228283   -0.016376671784694697   -0.0003864758340659396
-0.009047583802382487   -0.016310896248409427   -0.0004190773549630696
-0.00832128127254839   -0.020045543264901686   -0.0005524383164530333
-0.009033695163415484   -0.016295951529755315   -0.00037546388627281217
-0.006280290868994162   -0.020116785311238384   -0.00047769512116687426
-0.008286354561193027   -0.02003147664591957   -0.0004923373870552965
-0.009033695163415484   -0.016295951529755315   -0.00037546388627281217
-0.00832128127254839   -0.020045543264901686   -0.0005524383164530333
-0.006280290868994162   -0.020116785311238384   -0.00047769512116687426
-0.009033695163415484   -0.016295951529755315   -0.00037546388627281217
-0.006822654625684354   -0.016358520698747395   -0.00035477933507403476
-0.006810358814228283   -0.016376671784694697   -0.0003864758340659396
-0.006280290868994162   -0.020116785311238384   -0.00047769512116687426
-0.009033695163415484   -0.016295951529755315   -0.00037546388627281217
-0.006810358814228283   -0.016376671784694697   -0.0003864758340659396
-0.00832128127254839   -0.020045543264901686   -0.0005524383164530333
-0.006280290868994162   -0.020116785311238384   -0.00047769512116687426
-0.006822654625684354   -0.016358520698747395   -0.00035477933507403476
-0.008286354561193027   -0.02003147664591957   -0.0004923373870552965
-0.0062843067698614115   -0.020109577317895998   -0.0004342032211855192
-0.006822654625684354   -0.016358520698747395   -0.00035477933507403476
-0.009033695163415484   -0.016295951529755315   -0.00037546388627281217
-0.008286354561193027   -0.02003147664591957   -0.0004923373870552965
-0.009001688317956983   -0.01629267623207596   -0.00032828590601332615
-0.0062843067698614115   -0.020109577317895998   -0.0004342032211855192
-0.008229241911956254   -0.02003372626639859   -0.0004285366608025902
-0.009001688317956983   -0.01629267623207596   -0.00032828590601332615
-0.008286354561193027   -0.02003147664591957   -0.0004923373870552965
-0.0062843067698614115   -0.020109577317895998   -0.0004342032211855192
-0.009001688317956983   -0.01629267623207596   -0.00032828590601332615
-0.006836300623783089   -0.016346431411325534   -0.00032044144551775873
-0.006822654625684354   -0.016358520698747395   -0.00035477933507403476
-0.0062843067698614115   -0.020109577317895998   -0.0004342032211855192
-0.009001688317956983   -0.01629267623207596   -0.00032828590601332615
-0.006822654625684354   -0.016358520698747395   -0.00035477933507403476
-0.008286354561193027   -0.02003147664591957   -0.0004923373870552965
0.0017334722164187954   -0.016512925358773835   -0.00011918110886352831
0.0018048311691160326   -0.01249899119173738   -2.030674136525423e-05
-0.00048099807218987333   -0.016513297811070204   -0.0002160805428463275
0.0017285408428002961   -0.016459783067349007   -0.00013572475859485112
0.0018048311691160326   -0.01249899119173738   -2.030674136525423e-05
-0.0005416251333360367   -0.012479120960327127   -0.00010704424084760972
-0.00048099807218987333   -0.016513297811070204   -0.0002160805428463275
-0.0005682492369740667   -0.012435277450964368   -9.935078194536396e-05
0.0017285408428002961   -0.016459783067349007   -0.00013572475859485112
-0.0005001834845643469   -0.01646735057719228   -0.00021795763579013648
-0.0005682492369740667   -0.012435277450964368   -9.935078194536396e-05
-0.00048099807218987333   -0.016513297811070204   -0.0002160805428463275
0.0017285408428002961   -0.016459783067349007   -0.00013572475859485112
-0.0005682492369740667   -0.012435277450964368   -9.935078194536396e-05
0.0017773792350235722   -0.01244842970118206   -1.9596863005114413e-05
0.0018048311691160326   -0.01249899119173738   -2.030674136525423e-05
0.0017285408428002961   -0.016459783067349007   -0.00013572475859485112
-0.0005682492369740667   -0.012435277450964368   -9.935078194536396e-05
0.0018048311691160326   -0.01249899119173738   -2.030674136525423e-05
-0.00048099807218987333   -0.016513297811070204   -0.0002160805428463275
0.0017285408428002961   -0.016459783067349007   -0.00013572475859485112
0.0017773792350235722   -0.01244842970118206   -1.9596863005114413e-05
-0.0005001834845643469   -0.01646735057719228   -0.00021795763579013648
0.0017138261825023395   -0.016417617768360177   -0.00014829365190033647
0.0017773792350235722   -0.01244842970118206   -1.9596863005114413e-05
-0.0005682492369740667   -0.012435277450964368   -9.935078194536396e-05
-0.0005001834845643469   -0.01646735057719228   -0.00021795763579013648
-0.0005987926074033739   -0.012394213726859686   -8.938866406762608e-05
0.0017138261825023395   -0.016417617768360177   -0.00014829365190033647
-0.0005215135048172047   -0.016428244542312006   -0.00021735498407839663
-0.0005987926074033739   -0.012394213726859686   -8.938866406762608e-05
-0.0005001834845643469   -0.01646735057719228   -0.00021795763579013648
0.0017138261825023395   -0.016417617768360177   -0.00014829365190033647
-0.0005987926074033739   -0.012394213726859686   -8.938866406762608e-05
0.001743059251609206   -0.01240372886617497   -1.4265141179549889e-05
0.0017773792350235722   -0.01244842970118206   -1.9596863005114413e-05
0.0017138261825023395   -0.016417617768360177   -0.00014829365190033647
-0.0005987926074033739   -0.012394213726859686   -8.938866406762608e-05
0.0017773792350235722   -0.01244842970118206   -1.9596863005114413e-05
-0.0005001834845643469   -0.01646735057719228   -0.00021795763579013648
0.0017138261825023395   -0.016417617768360177   -0.00014829365190033647
0.001743059251609206   -0.01240372886617497   -1.4265141179549889e-05
-0.0005215135048172047   -0.016428244542312006   -0.00021735498407839663
0.0016930676079102648   -0.016379289513480295   -0.00015716559873207522
0.001743059251609206   -0.01240372886617497   -1.4265141179549889e-05
-0.0005987926074033739   -0.012394213726859686   -8.938866406762608e-05
-0.0005215135048172047   -0.016428244542312006   -0.00021735498407839663
-0.0006332285251096221   -0.01235535155582787   -7.659186188033728e-05
0.0016930676079102648   -0.016379289513480295   -0.00015716559873207522
-0.0005482083510776748   -0.016394930904128968   -0.0002141748249410332
-0.0006332285251096221   -0.01235535155582787   -7.659186188033728e-05
-0.0005215135048172047   -0.016428244542312006   -0.00021735498407839663
0.0016930676079102648   -0.016379289513480295   -0.00015716559873207522
-0.0006332285251096221   -0.01235535155582787   -7.659186188033728e-05
0.001697654645975114   -0.012357211487576373   -4.516486603926888e-06
0.001743059251609206   -0.01240372886617497   -1.4265141179549889e-05
0.0016930676079102648   -0.016379289513480295   -0.00015716559873207522
-0.0006332285251096221   -0.01235535155582787   -7.659186188033728e-05
0.001743059251609206   -0.01240372886617497   -1.4265141179549889e-05
-0.0005215135048172047   -0.016428244542312006   -0.00021735498407839663
-0.00048099807218987333   -0.016513297811070204   -0.0002160805428463275
-0.0005416251333360367   -0.012479120960327127   -0.00010704424084760972
-0.002593896884180308   -0.016493458706842178   -0.0002954121380128393
-0.0005001834845643469   -0.01646735057719228   -0.00021795763579013648
-0.0005416251333360367   -0.012479120960327127   -0.00010704424084760972
-0.0027647970632034774   -0.012455171907929392   -0.00017978495861019431
-0.002593896884180308   -0.016493458706842178   -0.0002954121380128393
-0.0027921599060660913   -0.01241879780347678   -0.00016748504286528295
-0.0005001834845643469   -0.01646735057719228   -0.00021795763579013648
-0.002615599031998845   -0.01645558476056864   -0.0002868304214314505
-0.0027921599060660913   -0.01241879780347678   -0.00016748504286528295
-0.002593896884180308   -0.016493458706842178   -0.0002954121380128393
-0.0005001834845643469   -0.01646735057719228   -0.00021795763579013648
-0.0027921599060660913   -0.01241879780347678   -0.00016748504286528295
-0.0005682492369740667   -0.012435277450964368   -9.935078194536396e-05
-0.0005416251333360367   -0.012479120960327127   -0.00010704424084760972
-0.0005001834845643469   -0.01646735057719228   -0.00021795763579013648
-0.0027921599060660913   -0.01241879780347678   -0.00016748504286528295
-0.0005416251333360367   -0.012479120960327127   -0.00010704424084760972
-0.002593896884180308   -0.016493458706842178   -0.0002954121380128393
-0.0005001834845643469   -0.01646735057719228   -0.00021795763579013648
-0.0005682492369740667   -0.012435277450964368   -9.935078194536396e-05
-0.002615599031998845   -0.01645558476056864   -0.0002868304214314505
-0.0005215135048172047   -0.016428244542312006   -0.00021735498407839663
-0.0005682492369740667   -0.012435277450964368   -9.935078194536396e-05
-0.0027921599060660913   -0.01241879780347678   -0.00016748504286528295
-0.002615599031998845   -0.01645558476056864   -0.0002868304214314505
-0.002820159577262651   -0.012384574351775412   -0.00015301232607392015
-0.0005215135048172047   -0.016428244542312006   -0.00021735498407839663
-0.0026377527353441945   -0.016423278437129478   -0.0002756599135899915
-0.002820159577262651   -0.012384574351775412   -0.00015301232607392015
-0.002615599031998845   -0.01645558476056864   -0.0002868304214314505
-0.0005215135048172047   -0.016428244542312006   -0.00021735498407839663
-0.002820159577262651   -0.012384574351775412   -0.00015301232607392015
-0.0005987926074033739   -0.012394213726859686   -8.938866406762608e-05
-0.0005682492369740667   -0.012435277450964368   -9.935078194536396e-05
-0.0005215135048172047   -0.016428244542312006   -0.00021735498407839663
-0.002820159577262651   -0.012384574351775412   -0.00015301232607392015
-0.0005682492369740667   -0.012435277450964368   -9.935078194536396e-05
-0.002615599031998845   -0.01645558476056864   -0.0002868304214314505
-0.0005215135048172047   -0.016428244542312006   -0.00021735498407839663
-0.0005987926074033739   -0.012394213726859686   -8.938866406762608e-05
-0.0026377527353441945   -0.016423278437129478   -0.0002756599135899915
-0.0005482083510776748   -0.016394930904128968   -0.0002141748249410332
-0.0005987926074033739   -0.012394213726859686   -8.938866406762608e-05
-0.002820159577262651   -0.012384574351775412   -0.00015301232607392015
-0.0026377527353441945   -0.016423278437129478   -0.0002756599135899915
-0.0028499770168984935   -0.012353064744094826   -0.00013635170806531528
-0.0005482083510776748   -0.016394930904128968   -0.0002141748249410332
-0.0026618163905871173   -0.016396861715970917   -0.000262028584871167
-0.0028499770168984935   -0.012353064744094826   -0.00013635170806531528
-0.0026377527353441945   -0.016423278437129478   -0.0002756599135899915
-0.0005482083510776748   -0.016394930904128968   -0.0002141748249410332
-0.0028499770168984935   -0.012353064744094826   -0.00013635170806531528
-0.0006332285251096221   -0.01235535155582787   -7.659186188033728e-05
-0.0005987926074033739   -0.012394213726859686   -8.938866406762608e-05
-0.0005482083510776748   -0.016394930904128968   -0.0002141748249410332
-0.0028499770168984935   -0.012353064744094826   -0.00013635170806531528
-0.0005987926074033739   -0.012394213726859686   -8.938866406762608e-05
-0.0026377527353441945   -0.016423278437129478   -0.0002756599135899915
-0.002593896884180308   -0.016493458706842178   -0.0002954121380128393
-0.0027647970632034774   -0.012455171907929392   -0.00017978495861019431
-0.004671104092491865   -0.016455856524176814   -0.0003619819371076652
-0.002615599031998845   -0.01645558476056864   -0.0002868304214314505
-0.0027647970632034774   -0.012455171907929392   -0.00017978495861019431
-0.004951390381896412   -0.012426090788096334   -0.00024116461529989888
-0.004671104092491865   -0.016455856524176814   -0.0003619819371076652
-0.004978634650980558   -0.012396595220568522   -0.00022429276645141247
-0.002615599031998845   -0.01645558476056864   -0.0002868304214314505
-0.004693523931883134   -0.016425382289011293   -0.0003429799730057149
-0.004978634650980558   -0.012396595220568522   -0.00022429276645141247
-0.004671104092491865   -0.016455856524176814   -0.0003619819371076652
-0.002615599031998845   -0.01645558476056864   -0.0002868304214314505
-0.004978634650980558   -0.012396595220568522   -0.00022429276645141247
-0.0027921599060660913   -0.01241879780347678   -0.00016748504286528295
-0.0027647970632034774   -0.012455171907929392   -0.00017978495861019431
-0.002615599031998845   -0.01645558476056864   -0.0002868304214314505
-0.004978634650980558   -0.012396595220568522   -0.00022429276645141247
-0.0027647970632034774   -0.012455171907929392   -0.00017978495861019431
-0.004671104092491865   -0.016455856524176814   -0.0003619819371076652
-0.002615599031998845   -0.01645558476056864   -0.0002868304214314505
-0.0027921599060660913   -0.01241879780347678   -0.00016748504286528295
-0.004693523931883134   -0.016425382289011293   -0.0003429799730057149
-0.0026377527353441945   -0.016423278437129478   -0.0002756599135899915
-0.0027921599060660913   -0.01241879780347678   -0.00016748504286528295
-0.004978634650980558   -0.012396595220568522   -0.00022429276645141247
-0.004693523931883134   -0.016425382289011293   -0.0003429799730057149
-0.005004093632619856   -0.012369358230509034   -0.00020532189586719118
-0.0026377527353441945   -0.016423278437129478   -0.0002756599135899915
-0.0047138262038921   -0.0164004365122002   -0.00032145165801115787
-0.005004093632619856   -0.012369358230509034   -0.00020532189586719118
-0.004693523931883134   -0.016425382289011293   -0.0003429799730057149
-0.0026377527353441945   -0.016423278437129478   -0.0002756599135899915
-0.005004093632619856   -0.012369358230509034   -0.00020532189586719118
-0.002820159577262651   -0.012384574351775412   -0.00015301232607392015
-0.0027921599060660913   -0.01241879780347678   -0.00016748504286528295
-0.0026377527353441945   -0.016423278437129478   -0.0002756599135899915
-0.005004093632619856   -0.012369358230509034   -0.00020532189586719118
-0.0027921599060660913   -0.01241879780347678   -0.00016748504286528295
-0.004693523931883134   -0.016425382289011293   -0.0003429799730057149
-0.0026377527353441945   -0.016423278437129478   -0.0002756599135899915
-0.002820159577262651   -0.012384574351775412   -0.00015301232607392015
-0.0047138262038921   -0.0164004365122002   -0.00032145165801115787
-0.0026618163905871173   -0.016396861715970917   -0.000262028584871167
-0.002820159577262651   -0.012384574351775412   -0.00015301232607392015
-0.005004093632619856   -0.012369358230509034   -0.00020532189586719118
-0.0047138262038921   -0.0164004365122002   -0.00032145165801115787
-0.005029644424358005   -0.012344450164700923   -0.00018435347450706027
-0.0026618163905871173   -0.016396861715970917   -0.000262028584871167
-0.0047343259568700625   -0.016381056433888857   -0.00029749081283302433
-0.005029644424358005   -0.012344450164700923   -0.00018435347450706027
-0.0047138262038921   -0.0164004365122002   -0.00032145165801115787
-0.0026618163905871173   -0.016396861715970917   -0.000262028584871167
-0.005029644424358005   -0.012344450164700923   -0.00018435347450706027
-0.0028499770168984935   -0.012353064744094826   -0.00013635170806531528
-0.002820159577262651   -0.012384574351775412   -0.00015301232607392015
-0.0026618163905871173   -0.016396861715970917   -0.000262028584871167
-0.005029644424358005   -0.012344450164700923   -0.00018435347450706027
-0.002820159577262651   -0.012384574351775412   -0.00015301232607392015
-0.0047138262038921   -0.0164004365122002   -0.00032145165801115787
-0.004671104092491865   -0.016455856524176814   -0.0003619819371076652
-0.004951390381896412   -0.012426090788096334   -0.00024116461529989888
-0.006789613453852234   -0.01639970325778975   -0.0004159812760752381
-0.004693523931883134   -0.016425382289011293   -0.0003429799730057149
-0.004951390381896412   -0.012426090788096334   -0.00024116461529989888
-0.007177725755940451   -0.012386541556417694   -0.000290652552633882
-0.006789613453852234   -0.01639970325778975   -0.0004159812760752381
-0.007203783540925938   -0.012364277515679834   -0.0002692648399711619
-0.004693523931883134   -0.016425382289011293   -0.0003429799730057149
-0.006810358814228283   -0.016376671784694697   -0.0003864758340659396
-0.007203783540925938   -0.012364277515679834   -0.0002692648399711619
-0.006789613453852234   -0.01639970325778975   -0.0004159812760752381
-0.004693523931883134   -0.016425382289011293   -0.0003429799730057149
-0.007203783540925938   -0.012364277515679834   -0.0002692648399711619
-0.004978634650980558   -0.012396595220568522   -0.00022429276645141247
-0.004951390381896412   -0.012426090788096334   -0.00024116461529989888
-0.004693523931883134   -0.016425382289011293   -0.0003429799730057149
-0.007203783540925938   -0.012364277515679834   -0.0002692648399711619
-0.004951390381896412   -0.012426090788096334   -0.00024116461529989888
-0.006789613453852234   -0.01639970325778975   -0.0004159812760752381
-0.004693523931883134   -0.016425382289011293   -0.0003429799730057149
-0.004978634650980558   -0.012396595220568522   -0.00022429276645141247
-0.006810358814228283   -0.016376671784694697   -0.0003864758340659396
-0.0047138262038921   -0.0164004365122002   -0.00032145165801115787
-0.004978634650980558   -0.012396595220568522   -0.00022429276645141247
-0.007203783540925938   -0.012364277515679834   -0.0002692648399711619
-0.006810358814228283   -0.016376671784694697   -0.0003864758340659396
-0.007223352010045739   -0.012343495582268512   -0.00024611276505561233
-0.0047138262038921   -0.0164004365122002   -0.00032145165801115787
-0.006822654625684354   -0.016358520698747395   -0.00035477933507403476
-0.007223352010045739   -0.012343495582268512   -0.00024611276505561233
-0.006810358814228283   -0.016376671784694697   -0.0003864758340659396
-0.0047138262038921   -0.0164004365122002   -0.00032145165801115787
-0.007223352010045739   -0.012343495582268512   -0.00024611276505561233
-0.005004093632619856   -0.012369358230509034   -0.00020532189586719118
-0.004978634650980558   -0.012396595220568522   -0.00022429276645141247
-0.0047138262038921   -0.0164004365122002   -0.00032145165801115787
-0.007223352010045739   -0.012343495582268512   -0.00024611276505561233
-0.004978634650980558   -0.012396595220568522   -0.00022429276645141247
-0.006810358814228283   -0.016376671784694697   -0.0003864758340659396
-0.0047138262038921   -0.0164004365122002   -0.00032145165801115787
-0.005004093632619856   -0.012369358230509034   -0.00020532189586719118
-0.006822654625684354   -0.016358520698747395   -0.00035477933507403476
-0.0047343259568700625   -0.016381056433888857   -0.00029749081283302433
-0.005004093632619856   -0.012369358230509034   -0.00020532189586719118
-0.007223352010045739   -0.012343495582268512   -0.00024611276505561233
-0.006822654625684354   -0.016358520698747395   -0.00035477933507403476
-0.007242812278289244   -0.012325186441917366   -0.00022074631243250865
-0.0047343259568700625   -0.016381056433888857   -0.00029749081283302433
-0.006836300623783089   -0.016346431411325534   -0.00032044144551775873
-0.007242812278289244   -0.012325186441917366   -0.00022074631243250865
-0.006822654625684354   -0.016358520698747395   -0.00035477933507403476
-0.0047343259568700625   -0.016381056433888857   -0.00029749081283302433
-0.007242812278289244   -0.012325186441917366   -0.00022074631243250865
-0.005029644424358005   -0.012344450164700923   -0.00018435347450706027
-0.005004093632619856   -0.012369358230509034   -0.00020532189586719118
-0.0047343259568700625   -0.016381056433888857   -0.00029749081283302433
-0.007242812278289244   -0.012325186441917366   -0.00022074631243250865
-0.005004093632619856   -0.012369358230509034   -0.00020532189586719118
-0.006822654625684354   -0.016358520698747395   -0.00035477933507403476
-0.006789613453852234   -0.01639970325778975   -0.0004159812760752381
-0.007177725755940451   -0.012386541556417694   -0.000290652552633882
-0.0090646032939864   -0.016330158524724928   -0.0004586693862057093
-0.006810358814228283   -0.016376671784694697   -0.0003864758340659396
-0.007177725755940451   -0.012386541556417694   -0.000290652552633882
-0.00953915014904974   -0.0123394084879918   -0.0003268246387586965
-0.0090646032939864   -0.016330158524724928   -0.0004586693862057093
-0.009542059619000866   -0.01232195038216154   -0.00030285571007287164
-0.006810358814228283   -0.016376671784694697   -0.0003864758340659396
-0.009047583802382487   -0.016310896248409427   -0.0004190773549630696
-0.009542059619000866   -0.01232195038216154   -0.00030285571007287164
-0.0090646032939864   -0.016330158524724928   -0.0004586693862057093
-0.006810358814228283   -0.016376671784694697   -0.0003864758340659396
-0.009542059619000866   -0.01232195038216154   -0.00030285571007287164
-0.007203783540925938   -0.012364277515679834   -0.0002692648399711619
-0.007177725755940451   -0.012386541556417694   -0.000290652552633882
-0.006810358814228283   -0.016376671784694697   -0.0003864758340659396
-0.009542059619000866   -0.01232195038216154   -0.00030285571007287164
-0.007177725755940451   -0.012386541556417694   -0.000290652552633882
-0.0090646032939864   -0.016330158524724928   -0.0004586693862057093
-0.006810358814228283   -0.016376671784694697   -0.0003864758340659396
-0.007203783540925938   -0.012364277515679834   -0.0002692648399711619
-0.009047583802382487   -0.016310896248409427   -0.0004190773549630696
-0.006822654625684354   -0.016358520698747395   -0.00035477933507403476
-0.007203783540925938   -0.012364277515679834   -0.0002692648399711619
-0.009542059619000866   -0.01232195038216154   -0.00030285571007287164
-0.009047583802382487   -0.016310896248409427   -0.0004190773549630696
-0.009545228814119741   -0.012304488631561875   -0.00027534759926873864
-0.006822654625684354   -0.016358520698747395   -0.00035477933507403476
-0.009033695163415484   -0.016295951529755315   -0.00037546388627281217
-0.009545228814119741   -0.012304488631561875   -0.00027534759926873864
-0.009047583802382487   -0.016310896248409427   -0.0004190773549630696
-0.006822654625684354   -0.016358520698747395   -0.00035477933507403476
-0.009545228814119741   -0.012304488631561875   -0.00027534759926873864
-0.007223352010045739   -0.012343495582268512   -0.00024611276505561233
-0.007203783540925938   -0.012364277515679834   -0.0002692648399711619
-0.006822654625684354   -0.016358520698747395   -0.00035477933507403476
-0.009545228814119741   -0.012304488631561875   -0.00027534759926873864
-0.007203783540925938   -0.012364277515679834   -0.0002692648399711619
-0.009047583802382487   -0.016310896248409427   -0.0004190773549630696
-0.006822654625684354   -0.016358520698747395   -0.00035477933507403476
-0.007223352010045739   -0.012343495582268512   -0.00024611276505561233
-0.009033695163415484   -0.016295951529755315   -0.00037546388627281217
-0.006836300623783089   -0.016346431411325534   -0.00032044144551775873
-0.007223352010045739   -0.012343495582268512   -0.00024611276505561233
-0.009545228814119741   -0.012304488631561875   -0.00027534759926873864
-0.009033695163415484   -0.016295951529755315   -0.00037546388627281217
-0.009534827364962072   -0.01229390021963608   -0.00024471262689284944
-0.006836300623783089   -0.016346431411325534   -0.00032044144551775873
-0.009001688317956983   -0.01629267623207596   -0.00032828590601332615
-0.009534827364962072   -0.01229390021963608   -0.00024471262689284944
-0.009033695163415484   -0.016295951529755315   -0.00037546388627281217
-0.006836300623783089   -0.016346431411325534   -0.00032044144551775873
-0.009534827364962072   -0.01229390021963608   -0.00024471262689284944
-0.007242812278289244   -0.012325186441917366   -0.00022074631243250865
-0.007223352010045739   -0.012343495582268512   -0.00024611276505561233
-0.006836300623783089   -0.016346431411325534   -0.00032044144551775873
-0.009534827364962072   -0.01229390021963608   -0.00024471262689284944
-0.007223352010045739   -0.012343495582268512   -0.00024611276505561233
-0.009033695163415484   -0.016295951529755315   -0.00037546388627281217
0.0018048311691160326   -0.01249899119173738   -2.030674136525423e-05
0.0016265302055731414   -0.008354502436500278   4.8056020453037e-05
-0.0005416251333360367   -0.012479120960327127   -0.00010704424084760972
0.0017773792350235722   -0.01244842970118206   -1.9596863005114413e-05
0.0016265302055731414   -0.008354502436500278   4.8056020453037e-05
-0.0007435827500165512   -0.008316210787291226   -2.0058746797199045e-05
-0.0005416251333360367   -0.012479120960327127   -0.00010704424084760972
-0.0007757513237504323   -0.008276729212227983   -3.455234957726742e-06
0.0017773792350235722   -0.01244842970118206   -1.9596863005114413e-05
-0.0005682492369740667   -0.012435277450964368   -9.935078194536396e-05
-0.0007757513237504323   -0.008276729212227983   -3.455234957726742e-06
-0.0005416251333360367   -0.012479120960327127   -0.00010704424084760972
0.0017773792350235722   -0.01244842970118206   -1.9596863005114413e-05
-0.0007757513237504323   -0.008276729212227983   -3.455234957726742e-06
0.001576434426659235   -0.008306493445319734   6.823365828736732e-05
0.0016265302055731414   -0.008354502436500278   4.8056020453037e-05
0.0017773792350235722   -0.01244842970118206   -1.9596863005114413e-05
-0.0007757513237504323   -0.008276729212227983   -3.455234957726742e-06
0.0016265302055731414   -0.008354502436500278   4.8056020453037e-05
-0.0005416251333360367   -0.012479120960327127   -0.00010704424084760972
0.0017773792350235722   -0.01244842970118206   -1.9596863005114413e-05
0.001576434426659235   -0.008306493445319734   6.823365828736732e-05
-0.0005682492369740667   -0.012435277450964368   -9.935078194536396e-05
0.001743059251609206   -0.01240372886617497   -1.4265141179549889e-05
0.001576434426659235   -0.008306493445319734   6.823365828736732e-05
-0.0007757513237504323   -0.008276729212227983   -3.455234957726742e-06
-0.0005682492369740667   -0.012435277450964368   -9.935078194536396e-05
-0.0008134773965059236   -0.008235183224078867   1.617724065746934e-05
0.001743059251609206   -0.01240372886617497   -1.4265141179549889e-05
-0.0005987926074033739   -0.012394213726859686   -8.938866406762608e-05
-0.0008134773965059236   -0.008235183224078867   1.617724065746934e-05
-0.0005682492369740667   -0.012435277450964368   -9.935078194536396e-05
0.001743059251609206   -0.01240372886617497   -1.4265141179549889e-05
-0.0008134773965059236   -0.008235183224078867   1.617724065746934e-05
0.0015200102687067851   -0.008259112422423142   9.765726806560752e-05
0.001576434426659235   -0.008306493445319734   6.823365828736732e-05
0.001743059251609206   -0.01240372886617497   -1.4265141179549889e-05
-0.0008134773965059236   -0.008235183224078867   1.617724065746934e-05
0.001576434426659235   -0.008306493445319734   6.823365828736732e-05
-0.0005682492369740667   -0.012435277450964368   -9.935078194536396e-05
0.001743059251609206   -0.01240372886617497   -1.4265141179549889e-05
0.0015200102687067851   -0.008259112422423142   9.765726806560752e-05
-0.0005987926074033739   -0.012394213726859686   -8.938866406762608e-05
0.001697654645975114   -0.012357211487576373   -4.516486603926888e-06
0.0015200102687067851   -0.008259112422423142   9.765726806560752e-05
-0.0008134773965059236   -0.008235183224078867   1.617724065746934e-05
-0.0005987926074033739   -0.012394213726859686   -8.938866406762608e-05
-0.0008526120106909316   -0.008191181740678947   3.881333994347768e-05
0.001697654645975114   -0.012357211487576373   -4.516486603926888e-06
-0.0006332285251096221   -0.01235535155582787   -7.659186188033728e-05
-0.0008526120106909316   -0.008191181740678947   3.881333994347768e-05
-0.0005987926074033739   -0.012394213726859686   -8.938866406762608e-05
0.001697654645975114   -0.012357211487576373   -4.516486603926888e-06
-0.0008526120106909316   -0.008191181740678947   3.881333994347768e-05
0.0014510196362368946   -0.008200792303340467   0.00013011081788255168
0.0015200102687067851   -0.008259112422423142   9.765726806560752e-05
0.001697654645975114   -0.012357211487576373   -4.516486603926888e-06
-0.0008526120106909316   -0.008191181740678947   3.881333994347768e-05
0.0015200102687067851   -0.008259112422423142   9.765726806560752e-05
-0.0005987926074033739   -0.012394213726859686   -8.938866406762608e-05
-0.0005416251333360367   -0.012479120960327127   -0.00010704424084760972
-0.0007435827500165512   -0.008316210787291226   -2.0058746797199045e-05
-0.0027647970632034774   -0.012455171907929392   -0.00017978495861019431
-0.0005682492369740667   -0.012435277450964368   -9.935078194536396e-05
-0.0007435827500165512   -0.008316210787291226   -2.0058746797199045e-05
-0.0029737728830232036   -0.00830626062171574   -8.535407164877525e-05
-0.0027647970632034774   -0.012455171907929392   -0.00017978495861019431
-0.00300303794343558   -0.008272075881504252   -6.966865683252358e-05
-0.0005682492369740667   -0.012435277450964368   -9.935078194536396e-05
-0.0027921599060660913   -0.01241879780347678   -0.00016748504286528295
-0.00300303794343558   -0.008272075881504252   -6.966865683252358e-05
-0.0027647970632034774   -0.012455171907929392   -0.00017978495861019431
-0.0005682492369740667   -0.012435277450964368   -9.935078194536396e-05
-0.00300303794343558   -0.008272075881504252   -6.966865683252358e-05
-0.0007757513237504323   -0.008276729212227983   -3.455234957726742e-06
-0.0007435827500165512   -0.008316210787291226   -2.0058746797199045e-05
-0.0005682492369740667   -0.012435277450964368   -9.935078194536396e-05
-0.00300303794343558   -0.008272075881504252   -6.966865683252358e-05
-0.0007435827500165512   -0.008316210787291226   -2.0058746797199045e-05
-0.0027647970632034774   -0.012455171907929392   -0.00017978495861019431
-0.0005682492369740667   -0.012435277450964368   -9.935078194536396e-05
-0.0007757513237504323   -0.008276729212227983   -3.455234957726742e-06
-0.0027921599060660913   -0.01241879780347678   -0.00016748504286528295
-0.0005987926074033739   -0.012394213726859686   -8.938866406762608e-05
-0.0007757513237504323   -0.008276729212227983   -3.455234957726742e-06
-0.00300303794343558   -0.008272075881504252   -6.966865683252358e-05
-0.0027921599060660913   -0.01241879780347678   -0.00016748504286528295
-0.0030333578236945618   -0.008236565302896074   -5.238181071917692e-05
-0.0005987926074033739   -0.012394213726859686   -8.938866406762608e-05
-0.002820159577262651   -0.012384574351775412   -0.00015301232607392015
-0.0030333578236945618   -0.008236565302896074   -5.238181071917692e-05
-0.0027921599060660913   -0.01241879780347678   -0.00016748504286528295
-0.0005987926074033739   -0.012394213726859686   -8.938866406762608e-05
-0.0030333578236945618   -0.008236565302896074   -5.238181071917692e-05
-0.0008134773965059236   -0.008235183224078867   1.617724065746934e-05
-0.0007757513237504323   -0.008276729212227983   -3.455234957726742e-06
-0.0005987926074033739   -0.012394213726859686   -8.938866406762608e-05
-0.0030333578236945618   -0.008236565302896074   -5.238181071917692e-05
-0.0007757513237504323   -0.008276729212227983   -3.455234957726742e-06
-0.0027921599060660913   -0.01241879780347678   -0.00016748504286528295
-0.0005987926074033739   -0.012394213726859686   -8.938866406762608e-05
-0.0008134773965059236   -0.008235183224078867   1.617724065746934e-05
-0.002820159577262651   -0.012384574351775412   -0.00015301232607392015
-0.0006332285251096221   -0.01235535155582787   -7.659186188033728e-05
-0.0008134773965059236   -0.008235183224078867   1.617724065746934e-05
-0.0030333578236945618   -0.008236565302896074   -5.238181071917692e-05
-0.002820159577262651   -0.012384574351775412   -0.00015301232607392015
-0.0030649700538338473   -0.00820042923683446   -3.318385111417505e-05
-0.0006332285251096221   -0.01235535155582787   -7.659186188033728e-05
-0.0028499770168984935   -0.012353064744094826   -0.00013635170806531528
-0.0030649700538338473   -0.00820042923683446   -3.318385111417505e-05
-0.002820159577262651   -0.012384574351775412   -0.00015301232607392015
-0.0006332285251096221   -0.01235535155582787   -7.659186188033728e-05
-0.0030649700538338473   -0.00820042923683446   -3.318385111417505e-05
-0.0008526120106909316   -0.008191181740678947   3.881333994347768e-05
-0.0008134773965059236   -0.008235183224078867   1.617724065746934e-05
-0.0006332285251096221   -0.01235535155582787   -7.659186188033728e-05
-0.0030649700538338473   -0.00820042923683446   -3.318385111417505e-05
-0.0008134773965059236   -0.008235183224078867   1.617724065746934e-05
-0.002820159577262651   -0.012384574351775412   -0.00015301232607392015
-0.0027647970632034774   -0.012455171907929392   -0.00017978495861019431
-0.0029737728830232036   -0.00830626062171574   -8.535407164877525e-05
-0.004951390381896412   -0.012426090788096334   -0.00024116461529989888
-0.0027921599060660913   -0.01241879780347678   -0.00016748504286528295
-0.0029737728830232036   -0.00830626062171574   -8.535407164877525e-05
-0.0051798803201103735   -0.008303437020756043   -0.00014415007765273839
-0.004951390381896412   -0.012426090788096334   -0.00024116461529989888
-0.005207949475659517   -0.008273660515884813   -0.00012898369224635412
-0.0027921599060660913   -0.01241879780347678   -0.00016748504286528295
-0.004978634650980558   -0.012396595220568522   -0.00022429276645141247
-0.005207949475659517   -0.008273660515884813   -0.00012898369224635412
-0.004951390381896412   -0.012426090788096334   -0.00024116461529989888
-0.0027921599060660913   -0.01241879780347678   -0.00016748504286528295
-0.005207949475659517   -0.008273660515884813   -0.00012898369224635412
-0.00300303794343558   -0.008272075881504252   -6.966865683252358e-05
-0.0029737728830232036   -0.00830626062171574   -8.535407164877525e-05
-0.0027921599060660913   -0.01241879780347678   -0.00016748504286528295
-0.005207949475659517   -0.008273660515884813   -0.00012898369224635412
-0.0029737728830232036   -0.00830626062171574   -8.535407164877525e-05
-0.004951390381896412   -0.012426090788096334   -0.00024116461529989888
-0.0027921599060660913   -0.01241879780347678   -0.00016748504286528295
-0.00300303794343558   -0.008272075881504252   -6.966865683252358e-05
-0.004978634650980558   -0.012396595220568522   -0.00022429276645141247
-0.002820159577262651   -0.012384574351775412   -0.00015301232607392015
-0.00300303794343558   -0.008272075881504252   -6.966865683252358e-05
-0.005207949475659517   -0.008273660515884813   -0.00012898369224635412
-0.004978634650980558   -0.012396595220568522   -0.00022429276645141247
-0.005234693727150524   -0.00824342367422546   -0.0001124093529822837
-0.002820159577262651   -0.012384574351775412   -0.00015301232607392015
-0.005004093632619856   -0.012369358230509034   -0.00020532189586719118
-0.005234693727150524   -0.00824342367422546   -0.0001124093529822837
-0.004978634650980558   -0.012396595220568522   -0.00022429276645141247
-0.002820159577262651   -0.012384574351775412   -0.00015301232607392015
-0.005234693727150524   -0.00824342367422546   -0.0001124093529822837
-0.0030333578236945618   -0.008236565302896074   -5.238181071917692e-05
-0.00300303794343558   -0.008272075881504252   -6.966865683252358e-05
-0.002820159577262651   -0.012384574351775412   -0.00015301232607392015
-0.005234693727150524   -0.00824342367422546   -0.0001124093529822837
-0.00300303794343558   -0.008272075881504252   -6.966865683252358e-05
-0.004978634650980558   -0.012396595220568522   -0.00022429276645141247
-0.002820159577262651   -0.012384574351775412   -0.00015301232607392015
-0.0030333578236945618   -0.008236565302896074   -5.238181071917692e-05
-0.005004093632619856   -0.012369358230509034   -0.00020532189586719118
-0.0028499770168984935   -0.012353064744094826   -0.00013635170806531528
-0.0030333578236945618   -0.008236565302896074   -5.238181071917692e-05
-0.005234693727150524   -0.00824342367422546   -0.0001124093529822837
-0.005004093632619856   -0.012369358230509034   -0.00020532189586719118
-0.005261174027755419   -0.008212541838288947   -9.449974779880976e-05
-0.0028499770168984935   -0.012353064744094826   -0.00013635170806531528
-0.005029644424358005   -0.012344450164700923   -0.00018435347450706027
-0.005261174027755419   -0.008212541838288947   -9.449974779880976e-05
-0.005004093632619856   -0.012369358230509034   -0.00020532189586719118
-0.0028499770168984935   -0.012353064744094826   -0.00013635170806531528
-0.005261174027755419   -0.008212541838288947   -9.449974779880976e-05
-0.0030649700538338473   -0.00820042923683446   -3.318385111417505e-05
-0.0030333578236945618   -0.008236565302896074   -5.238181071917692e-05
-0.0028499770168984935   -0.012353064744094826   -0.00013635170806531528
-0.005261174027755419   -0.008212541838288947   -9.449974779880976e-05
-0.0030333578236945618   -0.008236565302896074   -5.238181071917692e-05
-0.005004093632619856   -0.012369358230509034   -0.00020532189586719118
-0.004951390381896412   -0.012426090788096334   -0.00024116461529989888
-0.0051798803201103735   -0.008303437020756043   -0.00014415007765273839
-0.007177725755940451   -0.012386541556417694   -0.000290652552633882
-0.004978634650980558   -0.012396595220568522   -0.00022429276645141247
-0.0051798803201103735   -0.008303437020756043   -0.00014415007765273839
-0.007432902140647968   -0.008290336628656374   -0.00019309074967518067
-0.007177725755940451   -0.012386541556417694   -0.000290652552633882
-0.007459657781296713   -0.008266390412998804   -0.00017854562107495425
-0.004978634650980558   -0.012396595220568522   -0.00022429276645141247
-0.007203783540925938   -0.012364277515679834   -0.0002692648399711619
-0.007459657781296713   -0.008266390412998804   -0.00017854562107495425
-0.007177725755940451   -0.012386541556417694   -0.000290652552633882
-0.004978634650980558   -0.012396595220568522   -0.00022429276645141247
-0.007459657781296713   -0.008266390412998804   -0.00017854562107495425
-0.005207949475659517   -0.008273660515884813   -0.00012898369224635412
-0.0051798803201103735   -0.008303437020756043   -0.00014415007765273839
-0.004978634650980558   -0.012396595220568522   -0.00022429276645141247
-0.007459657781296713   -0.008266390412998804   -0.00017854562107495425
-0.0051798803201103735   -0.008303437020756043   -0.00014415007765273839
-0.007177725755940451   -0.012386541556417694   -0.000290652552633882
-0.004978634650980558   -0.012396595220568522   -0.00022429276645141247
-0.005207949475659517   -0.008273660515884813   -0.00012898369224635412
-0.007203783540925938   -0.012364277515679834   -0.0002692648399711619
-0.005004093632619856   -0.012369358230509034   -0.00020532189586719118
-0.005207949475659517   -0.008273660515884813   -0.00012898369224635412
-0.007459657781296713   -0.008266390412998804   -0.00017854562107495425
-0.007203783540925938   -0.012364277515679834   -0.0002692648399711619
-0.007482226952443709   -0.008241158505575994   -0.0001629784321416127
-0.005004093632619856   -0.012369358230509034   -0.00020532189586719118
-0.007223352010045739   -0.012343495582268512   -0.00024611276505561233
-0.007482226952443709   -0.008241158505575994   -0.0001629784321416127
-0.007203783540925938   -0.012364277515679834   -0.0002692648399711619
-0.005004093632619856   -0.012369358230509034   -0.00020532189586719118
-0.007482226952443709   -0.008241158505575994   -0.0001629784321416127
-0.005234693727150524   -0.00824342367422546   -0.0001124093529822837
-0.005207949475659517   -0.008273660515884813   -0.00012898369224635412
-0.005004093632619856   -0.012369358230509034   -0.00020532189586719118
-0.007482226952443709   -0.008241158505575994   -0.0001629784321416127
-0.005207949475659517   -0.008273660515884813   -0.00012898369224635412
-0.007203783540925938   -0.012364277515679834   -0.0002692648399711619
-0.005004093632619856   -0.012369358230509034   -0.00020532189586719118
-0.005234693727150524   -0.00824342367422546   -0.0001124093529822837
-0.007223352010045739   -0.012343495582268512   -0.00024611276505561233
-0.005029644424358005   -0.012344450164700923   -0.00018435347450706027
-0.005234693727150524   -0.00824342367422546   -0.0001124093529822837
-0.007482226952443709   -0.008241158505575994   -0.0001629784321416127
-0.007223352010045739   -0.012343495582268512   -0.00024611276505561233
-0.007503552356673984   -0.00821533019995893   -0.00014596521020068454
-0.005029644424358005   -0.012344450164700923   -0.00018435347450706027
-0.007242812278289244   -0.012325186441917366   -0.00022074631243250865
-0.007503552356673984   -0.00821533019995893   -0.00014596521020068454
-0.007223352010045739   -0.012343495582268512   -0.00024611276505561233
-0.005029644424358005   -0.012344450164700923   -0.00018435347450706027
-0.007503552356673984   -0.00821533019995893   -0.00014596521020068454
-0.005261174027755419   -0.008212541838288947   -9.449974779880976e-05
-0.005234693727150524   -0.00824342367422546   -0.0001124093529822837
-0.005029644424358005   -0.012344450164700923   -0.00018435347450706027
-0.007503552356673984   -0.00821533019995893   -0.00014596521020068454
-0.005234693727150524   -0.00824342367422546   -0.0001124093529822837
-0.007223352010045739   -0.012343495582268512   -0.00024611276505561233
-0.007177725755940451   -0.012386541556417694   -0.000290652552633882
-0.007432902140647968   -0.008290336628656374   -0.00019309074967518067
-0.00953915014904974   -0.0123394084879918   -0.0003268246387586965
-0.007203783540925938   -0.012364277515679834   -0.0002692648399711619
-0.007432902140647968   -0.008290336628656374   -0.00019309074967518067
-0.009795112271043713   -0.008268464146996873   -0.00022857666498787686
-0.00953915014904974   -0.0123394084879918   -0.0003268246387586965
-0.009811203365597964   -0.008248679557863257   -0.0002173439876641002
-0.007203783540925938   -0.012364277515679834   -0.0002692648399711619
-0.009542059619000866   -0.01232195038216154   -0.00030285571007287164
-0.009811203365597964   -0.008248679557863257   -0.0002173439876641002
-0.00953915014904974   -0.0123394084879918   -0.0003268246387586965
-0.007203783540925938   -0.012364277515679834   -0.0002692648399711619
-0.009811203365597964   -0.008248679557863257   -0.0002173439876641002
-0.007459657781296713   -0.008266390412998804   -0.00017854562107495425
-0.007432902140647968   -0.008290336628656374   -0.00019309074967518067
-0.007203783540925938   -0.012364277515679834   -0.0002692648399711619
-0.009811203365597964   -0.008248679557863257   -0.0002173439876641002
-0.007432902140647968   -0.008290336628656374   -0.00019309074967518067
-0.00953915014904974   -0.0123394084879918   -0.0003268246387586965
-0.007203783540925938   -0.012364277515679834   -0.0002692648399711619
-0.007459657781296713   -0.008266390412998804   -0.00017854562107495425
-0.009542059619000866   -0.01232195038216154   -0.00030285571007287164
-0.007223352010045739   -0.012343495582268512   -0.00024611276505561233
-0.007459657781296713   -0.008266390412998804   -0.00017854562107495425
-0.009811203365597964   -0.008248679557863257   -0.0002173439876641002
-0.009542059619000866   -0.01232195038216154   -0.00030285571007287164
-0.009825917176784951   -0.008226159893102747   -0.00020364936158987808
-0.007223352010045739   -0.012343495582268512   -0.00024611276505561233
-0.009545228814119741   -0.012304488631561875   -0.00027534759926873864
-0.009825917176784951   -0.008226159893102747   -0.00020364936158987808
-0.009542059619000866   -0.01232195038216154   -0.00030285571007287164
-0.007223352010045739   -0.012343495582268512   -0.00024611276505561233
-0.009825917176784951   -0.008226159893102747   -0.00020364936158987808
-0.007482226952443709   -0.008241158505575994   -0.0001629784321416127
-0.007459657781296713   -0.008266390412998804   -0.00017854562107495425
-0.007223352010045739   -0.012343495582268512   -0.00024611276505561233
-0.009825917176784951   -0.008226159893102747   -0.00020364936158987808
-0.007459657781296713   -0.008266390412998804   -0.00017854562107495425
-0.009542059619000866   -0.01232195038216154   -0.00030285571007287164
-0.007223352010045739   -0.012343495582268512   -0.00024611276505561233
-0.007482226952443709   -0.008241158505575994   -0.0001629784321416127
-0.009545228814119741   -0.012304488631561875   -0.00027534759926873864
-0.007242812278289244   -0.012325186441917366   -0.00022074631243250865
-0.007482226952443709   -0.008241158505575994   -0.0001629784321416127
-0.009825917176784951   -0.008226159893102747   -0.00020364936158987808
-0.009545228814119741   -0.012304488631561875   -0.00027534759926873864
-0.009832444754137621   -0.008205890364483936   -0.00018808295576281325
-0.007242812278289244   -0.012325186441917366   -0.00022074631243250865
-0.009534827364962072   -0.01229390021963608   -0.00024471262689284944
-0.009832444754137621   -0.008205890364483936   -0.00018808295576281325
-0.009545228814119741   -0.012304488631561875   -0.00027534759926873864
-0.007242812278289244   -0.012325186441917366   -0.00022074631243250865
-0.009832444754137621   -0.008205890364483936   -0.00018808295576281325
-0.007503552356673984   -0.00821533019995893   -0.00014596521020068454
-0.007482226952443709   -0.008241158505575994   -0.0001629784321416127
-0.007242812278289244   -0.012325186441917366   -0.00022074631243250865
-0.009832444754137621   -0.008205890364483936   -0.00018808295576281325
-0.007482226952443709   -0.008241158505575994   -0.0001629784321416127
-0.009545228814119741   -0.012304488631561875   -0.00027534759926873864
0.0016265302055731414   -0.008354502436500278   4.8056020453037e-05
0.0011452036131401066   -0.0042062675180378475   5.2290008903928134e-05
-0.0007435827500165512   -0.008316210787291226   -2.0058746797199045e-05
0.001576434426659235   -0.008306493445319734   6.823365828736732e-05
0.0011452036131401066   -0.0042062675180378475   5.2290008903928134e-05
-0.001071717726801705   -0.004153480137153228   2.9474319659487285e-05
-0.0007435827500165512   -0.008316210787291226   -2.0058746797199045e-05
-0.0011039503019309518   -0.00413442675492018   5.2901627608433486e-05
0.001576434426659235   -0.008306493445319734   6.823365828736732e-05
-0.0007757513237504323   -0.008276729212227983   -3.455234957726742e-06
-0.0011039503019309518   -0.00413442675492018   5.2901627608433486e-05
-0.0007435827500165512   -0.008316210787291226   -2.0058746797199045e-05
0.001576434426659235   -0.008306493445319734   6.823365828736732e-05
-0.0011039503019309518   -0.00413442675492018   5.2901627608433486e-05
0.0010444754937601647   -0.004154866844802396   0.00010993659224331129
0.0011452036131401066   -0.0042062675180378475   5.2290008903928134e-05
0.001576434426659235   -0.008306493445319734   6.823365828736732e-05
-0.0011039503019309518   -0.00413442675492018   5.2901627608433486e-05
0.0011452036131401066   -0.0042062675180378475   5.2290008903928134e-05
-0.0007435827500165512   -0.008316210787291226   -2.0058746797199045e-05
0.001576434426659235   -0.008306493445319734   6.823365828736732e-05
0.0010444754937601647   -0.004154866844802396   0.00010993659224331129
-0.0007757513237504323   -0.008276729212227983   -3.455234957726742e-06
0.0015200102687067851   -0.008259112422423142   9.765726806560752e-05
0.0010444754937601647   -0.004154866844802396   0.00010993659224331129
-0.0011039503019309518   -0.00413442675492018   5.2901627608433486e-05
-0.0007757513237504323   -0.008276729212227983   -3.455234957726742e-06
-0.0011467139705410483   -0.004099133858517101   8.146482028012523e-05
0.0015200102687067851   -0.008259112422423142   9.765726806560752e-05
-0.0008134773965059236   -0.008235183224078867   1.617724065746934e-05
-0.0011467139705410483   -0.004099133858517101   8.146482028012523e-05
-0.0007757513237504323   -0.008276729212227983   -3.455234957726742e-06
0.0015200102687067851   -0.008259112422423142   9.765726806560752e-05
-0.0011467139705410483   -0.004099133858517101   8.146482028012523e-05
0.000985670852976725   -0.0041134659894514446   0.00015273227985713883
0.0010444754937601647   -0.004154866844802396   0.00010993659224331129
0.0015200102687067851   -0.008259112422423142   9.765726806560752e-05
-0.0011467139705410483   -0.004099133858517101   8.146482028012523e-05
0.0010444754937601647   -0.004154866844802396   0.00010993659224331129
-0.0007757513237504323   -0.008276729212227983   -3.455234957726742e-06
0.0015200102687067851   -0.008259112422423142   9.765726806560752e-05
0.000985670852976725   -0.0041134659894514446   0.00015273227985713883
-0.0008134773965059236   -0.008235183224078867   1.617724065746934e-05
0.0014510196362368946   -0.008200792303340467   0.00013011081788255168
0.000985670852976725   -0.0041134659894514446   0.00015273227985713883
-0.0011467139705410483   -0.004099133858517101   8.146482028012523e-05
-0.0008134773965059236   -0.008235183224078867   1.617724065746934e-05
-0.001182843611092597   -0.004061430550635788   0.00010658438233146299
0.0014510196362368946   -0.008200792303340467   0.00013011081788255168
-0.0008526120106909316   -0.008191181740678947   3.881333994347768e-05
-0.001182843611092597   -0.004061430550635788   0.00010658438233146299
-0.0008134773965059236   -0.008235183224078867   1.617724065746934e-05
0.0014510196362368946   -0.008200792303340467   0.00013011081788255168
-0.001182843611092597   -0.004061430550635788   0.00010658438233146299
0.0009100205578637065   -0.004049589703897386   0.00020184006884085812
0.000985670852976725   -0.0041134659894514446   0.00015273227985713883
0.0014510196362368946   -0.008200792303340467   0.00013011081788255168
-0.001182843611092597   -0.004061430550635788   0.00010658438233146299
0.000985670852976725   -0.0041134659894514446   0.00015273227985713883
-0.0008134773965059236   -0.008235183224078867   1.617724065746934e-05
-0.0007435827500165512   -0.008316210787291226   -2.0058746797199045e-05
-0.001071717726801705   -0.004153480137153228   2.9474319659487285e-05
-0.0029737728830232036   -0.00830626062171574   -8.535407164877525e-05
-0.0007757513237504323   -0.008276729212227983   -3.455234957726742e-06
-0.001071717726801705   -0.004153480137153228   2.9474319659487285e-05
-0.0031766437176752554   -0.00421612575958997   -2.155980960242579e-05
-0.0029737728830232036   -0.00830626062171574   -8.535407164877525e-05
-0.003206679434323491   -0.0041860314650002915   -4.819907210354218e-06
-0.0007757513237504323   -0.008276729212227983   -3.455234957726742e-06
-0.00300303794343558   -0.008272075881504252   -6.966865683252358e-05
-0.003206679434323491   -0.0041860314650002915   -4.819907210354218e-06
-0.0029737728830232036   -0.00830626062171574   -8.535407164877525e-05
-0.0007757513237504323   -0.008276729212227983   -3.455234957726742e-06
-0.003206679434323491   -0.0041860314650002915   -4.819907210354218e-06
-0.0011039503019309518   -0.00413442675492018   5.2901627608433486e-05
-0.001071717726801705   -0.004153480137153228   2.9474319659487285e-05
-0.0007757513237504323   -0.008276729212227983   -3.455234957726742e-06
-0.003206679434323491   -0.0041860314650002915   -4.819907210354218e-06
-0.001071717726801705   -0.004153480137153228   2.9474319659487285e-05
-0.0029737728830232036   -0.00830626062171574   -8.535407164877525e-05
-0.0007757513237504323   -0.008276729212227983   -3.455234957726742e-06
-0.0011039503019309518   -0.00413442675492018   5.2901627608433486e-05
-0.00300303794343558   -0.008272075881504252   -6.966865683252358e-05
-0.0008134773965059236   -0.008235183224078867   1.617724065746934e-05
-0.0011039503019309518   -0.00413442675492018   5.2901627608433486e-05
-0.003206679434323491   -0.0041860314650002915   -4.819907210354218e-06
-0.00300303794343558   -0.008272075881504252   -6.966865683252358e-05
-0.0032383119600301563   -0.004151805248879395   1.2993428618404592e-05
-0.0008134773965059236   -0.008235183224078867   1.617724065746934e-05
-0.0030333578236945618   -0.008236565302896074   -5.238181071917692e-05
-0.0032383119600301563   -0.004151805248879395   1.2993428618404592e-05
-0.00300303794343558   -0.008272075881504252   -6.966865683252358e-05
-0.0008134773965059236   -0.008235183224078867   1.617724065746934e-05
-0.0032383119600301563   -0.004151805248879395   1.2993428618404592e-05
-0.0011467139705410483   -0.004099133858517101   8.146482028012523e-05
-0.0011039503019309518   -0.00413442675492018   5.2901627608433486e-05
-0.0008134773965059236   -0.008235183224078867   1.617724065746934e-05
-0.0032383119600301563   -0.004151805248879395   1.2993428618404592e-05
-0.0011039503019309518   -0.00413442675492018   5.2901627608433486e-05
-0.00300303794343558   -0.008272075881504252   -6.966865683252358e-05
-0.0008134773965059236   -0.008235183224078867   1.617724065746934e-05
-0.0011467139705410483   -0.004099133858517101   8.146482028012523e-05
-0.0030333578236945618   -0.008236565302896074   -5.238181071917692e-05
-0.0008526120106909316   -0.008191181740678947   3.881333994347768e-05
-0.0011467139705410483   -0.004099133858517101   8.146482028012523e-05
-0.0032383119600301563   -0.004151805248879395   1.2993428618404592e-05
-0.0030333578236945618   -0.008236565302896074   -5.238181071917692e-05
-0.003268538727047419   -0.004114290415647494   3.2696595741556265e-05
-0.0008526120106909316   -0.008191181740678947   3.881333994347768e-05
-0.0030649700538338473   -0.00820042923683446   -3.318385111417505e-05
-0.003268538727047419   -0.004114290415647494   3.2696595741556265e-05
-0.0030333578236945618   -0.008236565302896074   -5.238181071917692e-05
-0.0008526120106909316   -0.008191181740678947   3.881333994347768e-05
-0.003268538727047419   -0.004114290415647494   3.2696595741556265e-05
-0.001182843611092597   -0.004061430550635788   0.00010658438233146299
-0.0011467139705410483   -0.004099133858517101   8.146482028012523e-05
-0.0008526120106909316   -0.008191181740678947   3.881333994347768e-05
-0.003268538727047419   -0.004114290415647494   3.2696595741556265e-05
-0.0011467139705410483   -0.004099133858517101   8.146482028012523e-05
-0.0030333578236945618   -0.008236565302896074   -5.238181071917692e-05
-0.0029737728830232036   -0.00830626062171574   -8.535407164877525e-05
-0.0031766437176752554   -0.00421612575958997   -2.155980960242579e-05
-0.0051798803201103735   -0.008303437020756043   -0.00014415007765273839
-0.00300303794343558   -0.008272075881504252   -6.966865683252358e-05
-0.0031766437176752554   -0.00421612575958997   -2.155980960242579e-05
-0.005330997804445714   -0.004265098152068492   -7.874231543595603e-05
-0.0051798803201103735   -0.008303437020756043   -0.00014415007765273839
-0.005358130644793515   -0.004234129503318371   -6.565101453280527e-05
-0.00300303794343558   -0.008272075881504252   -6.966865683252358e-05
-0.005207949475659517   -0.008273660515884813   -0.00012898369224635412
-0.005358130644793515   -0.004234129503318371   -6.565101453280527e-05
-0.0051798803201103735   -0.008303437020756043   -0.00014415007765273839
-0.00300303794343558   -0.008272075881504252   -6.966865683252358e-05
-0.005358130644793515   -0.004234129503318371   -6.565101453280527e-05
-0.003206679434323491   -0.0041860314650002915   -4.819907210354218e-06
-0.0031766437176752554   -0.00421612575958997   -2.155980960242579e-05
-0.00300303794343558   -0.008272075881504252   -6.966865683252358e-05
-0.005358130644793515   -0.004234129503318371   -6.565101453280527e-05
-0.0031766437176752554   -0.00421612575958997   -2.155980960242579e-05
-0.0051798803201103735   -0.008303437020756043   -0.00014415007765273839
-0.00300303794343558   -0.008272075881504252   -6.966865683252358e-05
-0.003206679434323491   -0.0041860314650002915   -4.819907210354218e-06
-0.005207949475659517   -0.008273660515884813   -0.00012898369224635412
-0.0030333578236945618   -0.008236565302896074   -5.238181071917692e-05
-0.003206679434323491   -0.0041860314650002915   -4.819907210354218e-06
-0.005358130644793515   -0.004234129503318371   -6.565101453280527e-05
-0.005207949475659517   -0.008273660515884813   -0.00012898369224635412
-0.005384211226369356   -0.004201312088115974   -5.25327739591213e-05
-0.0030333578236945618   -0.008236565302896074   -5.238181071917692e-05
-0.005234693727150524   -0.00824342367422546   -0.0001124093529822837
-0.005384211226369356   -0.004201312088115974   -5.25327739591213e-05
-0.005207949475659517   -0.008273660515884813   -0.00012898369224635412
-0.0030333578236945618   -0.008236565302896074   -5.238181071917692e-05
-0.005384211226369356   -0.004201312088115974   -5.25327739591213e-05
-0.0032383119600301563   -0.004151805248879395   1.2993428618404592e-05
-0.003206679434323491   -0.0041860314650002915   -4.819907210354218e-06
-0.0030333578236945618   -0.008236565302896074   -5.238181071917692e-05
-0.005384211226369356   -0.004201312088115974   -5.25327739591213e-05
-0.003206679434323491   -0.0041860314650002915   -4.819907210354218e-06
-0.005207949475659517   -0.008273660515884813   -0.00012898369224635412
-0.0030333578236945618   -0.008236565302896074   -5.238181071917692e-05
-0.0032383119600301563   -0.004151805248879395   1.2993428618404592e-05
-0.005234693727150524   -0.00824342367422546   -0.0001124093529822837
-0.0030649700538338473   -0.00820042923683446   -3.318385111417505e-05
-0.0032383119600301563   -0.004151805248879395   1.2993428618404592e-05
-0.005384211226369356   -0.004201312088115974   -5.25327739591213e-05
-0.005234693727150524   -0.00824342367422546   -0.0001124093529822837
-0.005408340917007925   -0.0041656952048490575   -3.8177325489845496e-05
-0.0030649700538338473   -0.00820042923683446   -3.318385111417505e-05
-0.005261174027755419   -0.008212541838288947   -9.449974779880976e-05
-0.005408340917007925   -0.0041656952048490575   -3.8177325489845496e-05
-0.005234693727150524   -0.00824342367422546   -0.0001124093529822837
-0.0030649700538338473   -0.00820042923683446   -3.318385111417505e-05
-0.005408340917007925   -0.0041656952048490575   -3.8177325489845496e-05
-0.003268538727047419   -0.004114290415647494   3.2696595741556265e-05
-0.0032383119600301563   -0.004151805248879395   1.2993428618404592e-05
-0.0030649700538338473   -0.00820042923683446   -3.318385111417505e-05
-0.005408340917007925   -0.0041656952048490575   -3.8177325489845496e-05
-0.0032383119600301563   -0.004151805248879395   1.2993428618404592e-05
-0.005234693727150524   -0.00824342367422546   -0.0001124093529822837
-0.0051798803201103735   -0.008303437020756043   -0.00014415007765273839
-0.005330997804445714   -0.004265098152068492   -7.874231543595603e-05
-0.007432902140647968   -0.008290336628656374   -0.00019309074967518067
-0.005207949475659517   -0.008273660515884813   -0.00012898369224635412
-0.005330997804445714   -0.004265098152068492   -7.874231543595603e-05
-0.0075610903023563564   -0.00428530618168512   -0.0001313859564241022
-0.007432902140647968   -0.008290336628656374   -0.00019309074967518067
-0.007585569055244903   -0.004257679153887301   -0.00012174408287361043
-0.005207949475659517   -0.008273660515884813   -0.00012898369224635412
-0.007459657781296713   -0.008266390412998804   -0.00017854562107495425
-0.007585569055244903   -0.004257679153887301   -0.00012174408287361043
-0.007432902140647968   -0.008290336628656374   -0.00019309074967518067
-0.005207949475659517   -0.008273660515884813   -0.00012898369224635412
-0.007585569055244903   -0.004257679153887301   -0.00012174408287361043
-0.005358130644793515   -0.004234129503318371   -6.565101453280527e-05
-0.005330997804445714   -0.004265098152068492   -7.874231543595603e-05
-0.005207949475659517   -0.008273660515884813   -0.00012898369224635412
-0.007585569055244903   -0.004257679153887301   -0.00012174408287361043
-0.005330997804445714   -0.004265098152068492   -7.874231543595603e-05
-0.007432902140647968   -0.008290336628656374   -0.00019309074967518067
-0.005207949475659517   -0.008273660515884813   -0.00012898369224635412
-0.005358130644793515   -0.004234129503318371   -6.565101453280527e-05
-0.007459657781296713   -0.008266390412998804   -0.00017854562107495425
-0.005234693727150524   -0.00824342367422546   -0.0001124093529822837
-0.005358130644793515   -0.004234129503318371   -6.565101453280527e-05
-0.007585569055244903   -0.004257679153887301   -0.00012174408287361043
-0.007459657781296713   -0.008266390412998804   -0.00017854562107495425
-0.007607389176914187   -0.0042274406425713345   -0.00011231331957750005
-0.005234693727150524   -0.00824342367422546   -0.0001124093529822837
-0.007482226952443709   -0.008241158505575994   -0.0001629784321416127
-0.007607389176914187   -0.0042274406425713345   -0.00011231331957750005
-0.007459657781296713   -0.008266390412998804   -0.00017854562107495425
-0.005234693727150524   -0.00824342367422546   -0.0001124093529822837
-0.007607389176914187   -0.0042274406425713345   -0.00011231331957750005
-0.005384211226369356   -0.004201312088115974   -5.25327739591213e-05
-0.005358130644793515   -0.004234129503318371   -6.565101453280527e-05
-0.005234693727150524   -0.00824342367422546   -0.0001124093529822837
-0.007607389176914187   -0.0042274406425713345   -0.00011231331957750005
-0.005358130644793515   -0.004234129503318371   -6.565101453280527e-05
-0.007459657781296713   -0.008266390412998804   -0.00017854562107495425
-0.005234693727150524   -0.00824342367422546   -0.0001124093529822837
-0.005384211226369356   -0.004201312088115974   -5.25327739591213e-05
-0.007482226952443709   -0.008241158505575994   -0.0001629784321416127
-0.005261174027755419   -0.008212541838288947   -9.449974779880976e-05
-0.005384211226369356   -0.004201312088115974   -5.25327739591213e-05
-0.007607389176914187   -0.0042274406425713345   -0.00011231331957750005
-0.007482226952443709   -0.008241158505575994   -0.0001629784321416127
-0.007627174850288597   -0.004195179486864413   -0.00010252801346313255
-0.005261174027755419   -0.008212541838288947   -9.449974779880976e-05
-0.007503552356673984   -0.00821533019995893   -0.00014596521020068454
-0.007627174850288597   -0.004195179486864413   -0.00010252801346313255
-0.007482226952443709   -0.008241158505575994   -0.0001629784321416127
-0.005261174027755419   -0.008212541838288947   -9.449974779880976e-05
-0.007627174850288597   -0.004195179486864413   -0.00010252801346313255
-0.005408340917007925   -0.0041656952048490575   -3.8177325489845496e-05
-0.005384211226369356   -0.004201312088115974   -5.25327739591213e-05
-0.005261174027755419   -0.008212541838288947   -9.449974779880976e-05
-0.007627174850288597   -0.004195179486864413   -0.00010252801346313255
-0.005384211226369356   -0.004201312088115974   -5.25327739591213e-05
-0.007482226952443709   -0.008241158505575994   -0.0001629784321416127
-0.007432902140647968   -0.008290336628656374   -0.00019309074967518067
-0.0075610903023563564   -0.00428530618168512   -0.0001313859564241022
-0.009795112271043713   -0.008268464146996873   -0.00022857666498787686
-0.007459657781296713   -0.008266390412998804   -0.00017854562107495425
-0.0075610903023563564   -0.00428530618168512   -0.0001313859564241022
-0.009872644994448251   -0.004287384661777005   -0.000174597350908022
-0.009795112271043713   -0.008268464146996873   -0.00022857666498787686
-0.009893513974132483   -0.004260653623339789   -0.0001702675819865013
-0.007459657781296713   -0.008266390412998804   -0.00017854562107495425
-0.009811203365597964   -0.008248679557863257   -0.0002173439876641002
-0.009893513974132483   -0.004260653623339789   -0.0001702675819865013
-0.009795112271043713   -0.008268464146996873   -0.00022857666498787686
-0.007459657781296713   -0.008266390412998804   -0.00017854562107495425
-0.009893513974132483   -0.004260653623339789   -0.0001702675819865013
-0.007585569055244903   -0.004257679153887301   -0.00012174408287361043
-0.0075610903023563564   -0.00428530618168512   -0.0001313859564241022
-0.007459657781296713   -0.008266390412998804   -0.00017854562107495425
-0.009893513974132483   -0.004260653623339789   -0.0001702675819865013
-0.0075610903023563564   -0.00428530618168512   -0.0001313859564241022
-0.009795112271043713   -0.008268464146996873   -0.00022857666498787686
-0.007459657781296713   -0.008266390412998804   -0.00017854562107495425
-0.007585569055244903   -0.004257679153887301   -0.00012174408287361043
-0.009811203365597964   -0.008248679557863257   -0.0002173439876641002
-0.007482226952443709   -0.008241158505575994   -0.0001629784321416127
-0.007585569055244903   -0.004257679153887301   -0.00012174408287361043
-0.009893513974132483   -0.004260653623339789   -0.0001702675819865013
-0.009811203365597964   -0.008248679557863257   -0.0002173439876641002
-0.009912210957080293   -0.004231602617371718   -0.00016516840266528443
-0.007482226952443709   -0.008241158505575994   -0.0001629784321416127
-0.009825917176784951   -0.008226159893102747   -0.00020364936158987808
-0.009912210957080293   -0.004231602617371718   -0.00016516840266528443
-0.009811203365597964   -0.008248679557863257   -0.0002173439876641002
-0.007482226952443709   -0.008241158505575994   -0.0001629784321416127
-0.009912210957080293   -0.004231602617371718   -0.00016516840266528443
-0.007607389176914187   -0.0042274406425713345   -0.00011231331957750005
-0.007585569055244903   -0.004257679153887301   -0.00012174408287361043
-0.007482226952443709   -0.008241158505575994   -0.0001629784321416127
-0.009912210957080293   -0.004231602617371718   -0.00016516840266528443
-0.007585569055244903   -0.004257679153887301   -0.00012174408287361043
-0.009811203365597964   -0.008248679557863257   -0.0002173439876641002
-0.007482226952443709   -0.008241158505575994   -0.0001629784321416127
-0.007607389176914187   -0.0042274406425713345   -0.00011231331957750005
-0.009825917176784951   -0.008226159893102747   -0.00020364936158987808
-0.007503552356673984   -0.00821533019995893   -0.00014596521020068454
-0.007607389176914187   -0.0042274406425713345   -0.00011231331957750005
-0.009912210957080293   -0.004231602617371718   -0.00016516840266528443
-0.009825917176784951   -0.008226159893102747   -0.00020364936158987808
-0.009927723432571875   -0.0042008687558673955   -0.00016030481303218422
-0.007503552356673984   -0.00821533019995893   -0.00014596521020068454
-0.009832444754137621   -0.008205890364483936   -0.00018808295576281325
-0.009927723432571875   -0.0042008687558673955   -0.00016030481303218422
-0.009825917176784951   -0.008226159893102747   -0.00020364936158987808
-0.007503552356673984   -0.00821533019995893   -0.00014596521020068454
-0.009927723432571875   -0.0042008687558673955   -0.00016030481303218422
-0.007627174850288597   -0.004195179486864413   -0.00010252801346313255
-0.007607389176914187   -0.0042274406425713345   -0.00011231331957750005
-0.007503552356673984   -0.00821533019995893   -0.00014596521020068454
-0.009927723432571875   -0.0042008687558673955   -0.00016030481303218422
-0.007607389176914187   -0.0042274406425713345   -0.00011231331957750005
-0.009825917176784951   -0.008226159893102747   -0.00020364936158987808
0.0011452036131401066   -0.0042062675180378475   5.2290008903928134e-05
0.0   0.0   0.0
-0.001071717726801705   -0.004153480137153228   2.9474319659487285e-05
0.0010444754937601647   -0.004154866844802396   0.00010993659224331129
0.0   0.0   0.0
-0.0013385644337477747   -0.00035095102961801015   -8.540776332005916e-06
-0.001071717726801705   -0.004153480137153228   2.9474319659487285e-05
-0.001418787420017602   -0.00027507026121387955   3.874458044234241e-05
0.0010444754937601647   -0.004154866844802396   0.00010993659224331129
-0.0011039503019309518   -0.00413442675492018   5.2901627608433486e-05
-0.001418787420017602   -0.00027507026121387955   3.874458044234241e-05
-0.001071717726801705   -0.004153480137153228   2.9474319659487285e-05
0.0010444754937601647   -0.004154866844802396   0.00010993659224331129
-0.001418787420017602   -0.00027507026121387955   3.874458044234241e-05
0.0   0.0   0.0
0.0   0.0   0.0
0.0010444754937601647   -0.004154866844802396   0.00010993659224331129
-0.001418787420017602   -0.00027507026121387955   3.874458044234241e-05
0.0   0.0   0.0
-0.001071717726801705   -0.004153480137153228   2.9474319659487285e-05
0.0010444754937601647   -0.004154866844802396   0.00010993659224331129
0.0   0.0   0.0
-0.0011039503019309518   -0.00413442675492018   5.2901627608433486e-05
0.000985670852976725   -0.0041134659894514446   0.00015273227985713883
0.0   0.0   0.0
-0.001418787420017602   -0.00027507026121387955   3.874458044234241e-05
-0.0011039503019309518   -0.00413442675492018   5.2901627608433486e-05
-0.0014694835423226694   -0.00023881269645426443   6.64274330560295e-05
0.000985670852976725   -0.0041134659894514446   0.00015273227985713883
-0.0011467139705410483   -0.004099133858517101   8.146482028012523e-05
-0.0014694835423226694   -0.00023881269645426443   6.64274330560295e-05
-0.0011039503019309518   -0.00413442675492018   5.2901627608433486e-05
0.000985670852976725   -0.0041134659894514446   0.00015273227985713883
-0.0014694835423226694   -0.00023881269645426443   6.64274330560295e-05
0.0   0.0   0.0
0.0   0.0   0.0
0.000985670852976725   -0.0041134659894514446   0.00015273227985713883
-0.0014694835423226694   -0.00023881269645426443   6.64274330560295e-05
0.0   0.0   0.0
-0.0011039503019309518   -0.00413442675492018   5.2901627608433486e-05
0.000985670852976725   -0.0041134659894514446   0.00015273227985713883
0.0   0.0   0.0
-0.0011467139705410483   -0.004099133858517101   8.146482028012523e-05
0.0009100205578637065   -0.004049589703897386   0.00020184006884085812
0.0   0.0   0.0
-0.0014694835423226694   -0.00023881269645426443   6.64274330560295e-05
-0.0011467139705410483   -0.004099133858517101   8.146482028012523e-05
-0.0015380615257984094   -0.00019046665194365106   9.82769436896586e-05
0.0009100205578637065   -0.004049589703897386   0.00020184006884085812
-0.001182843611092597   -0.004061430550635788   0.00010658438233146299
-0.0015380615257984094   -0.00019046665194365106   9.82769436896586e-05
-0.0011467139705410483   -0.004099133858517101   8.146482028012523e-05
0.0009100205578637065   -0.004049589703897386   0.00020184006884085812
-0.0015380615257984094   -0.00019046665194365106   9.82769436896586e-05
0.0   0.0   0.0
0.0   0.0   0.0
0.0009100205578637065   -0.004049589703897386   0.00020184006884085812
-0.0015380615257984094   -0.00019046665194365106   9.82769436896586e-05
0.0   0.0   0.0
-0.0011467139705410483   -0.004099133858517101   8.146482028012523e-05
-0.001071717726801705   -0.004153480137153228   2.9474319659487285e-05
-0.0013385644337477747   -0.00035095102961801015   -8.540776332005916e-06
-0.0031766437176752554   -0.00421612575958997   -2.155980960242579e-05
-0.0011039503019309518   -0.00413442675492018   5.2901627608433486e-05
-0.0013385644337477747   -0.00035095102961801015   -8.540776332005916e-06
-0.003268901663070509   -0.0004639403741527104   -4.0721905625007235e-06
-0.0031766437176752554   -0.00421612575958997   -2.155980960242579e-05
-0.0033106976811887573   -0.00042312154161718295   8.57421999556874e-06
-0.0011039503019309518   -0.00413442675492018   5.2901627608433486e-05
-0.003206679434323491   -0.0041860314650002915   -4.819907210354218e-06
-0.0033106976811887573   -0.00042312154161718295   8.57421999556874e-06
-0.0031766437176752554   -0.00421612575958997   -2.155980960242579e-05
-0.0011039503019309518   -0.00413442675492018   5.2901627608433486e-05
-0.0033106976811887573   -0.00042312154161718295   8.57421999556874e-06
-0.001418787420017602   -0.00027507026121387955   3.874458044234241e-05
-0.0013385644337477747   -0.00035095102961801015   -8.540776332005916e-06
-0.0011039503019309518   -0.00413442675492018   5.2901627608433486e-05
-0.0033106976811887573   -0.00042312154161718295   8.57421999556874e-06
-0.0013385644337477747   -0.00035095102961801015   -8.540776332005916e-06
-0.0031766437176752554   -0.00421612575958997   -2.155980960242579e-05
-0.0011039503019309518   -0.00413442675492018   5.2901627608433486e-05
-0.001418787420017602   -0.00027507026121387955   3.874458044234241e-05
-0.003206679434323491   -0.0041860314650002915   -4.819907210354218e-06
-0.0011467139705410483   -0.004099133858517101   8.146482028012523e-05
-0.001418787420017602   -0.00027507026121387955   3.874458044234241e-05
-0.0033106976811887573   -0.00042312154161718295   8.57421999556874e-06
-0.003206679434323491   -0.0041860314650002915   -4.819907210354218e-06
-0.003352479318880448   -0.0003751881980715122   3.0828972859693334e-05
-0.0011467139705410483   -0.004099133858517101   8.146482028012523e-05
-0.0032383119600301563   -0.004151805248879395   1.2993428618404592e-05
-0.003352479318880448   -0.0003751881980715122   3.0828972859693334e-05
-0.003206679434323491   -0.0041860314650002915   -4.819907210354218e-06
-0.0011467139705410483   -0.004099133858517101   8.146482028012523e-05
-0.003352479318880448   -0.0003751881980715122   3.0828972859693334e-05
-0.0014694835423226694   -0.00023881269645426443   6.64274330560295e-05
-0.001418787420017602   -0.00027507026121387955   3.874458044234241e-05
-0.0011467139705410483   -0.004099133858517101   8.146482028012523e-05
-0.003352479318880448   -0.0003751881980715122   3.0828972859693334e-05
-0.001418787420017602   -0.00027507026121387955   3.874458044234241e-05
-0.003206679434323491   -0.0041860314650002915   -4.819907210354218e-06
-0.0011467139705410483   -0.004099133858517101   8.146482028012523e-05
-0.0014694835423226694   -0.00023881269645426443   6.64274330560295e-05
-0.0032383119600301563   -0.004151805248879395   1.2993428618404592e-05
-0.001182843611092597   -0.004061430550635788   0.00010658438233146299
-0.0014694835423226694   -0.00023881269645426443   6.64274330560295e-05
-0.003352479318880448   -0.0003751881980715122   3.0828972859693334e-05
-0.0032383119600301563   -0.004151805248879395   1.2993428618404592e-05
-0.003399375385905334   -0.00031937471020551835   5.2386522370237956e-05
-0.001182843611092597   -0.004061430550635788   0.00010658438233146299
-0.003268538727047419   -0.004114290415647494   3.2696595741556265e-05
-0.003399375385905334   -0.00031937471020551835   5.2386522370237956e-05
-0.0032383119600301563   -0.004151805248879395   1.2993428618404592e-05
-0.001182843611092597   -0.004061430550635788   0.00010658438233146299
-0.003399375385905334   -0.00031937471020551835   5.2386522370237956e-05
-0.0015380615257984094   -0.00019046665194365106   9.82769436896586e-05
-0.0014694835423226694   -0.00023881269645426443   6.64274330560295e-05
-0.001182843611092597   -0.004061430550635788   0.00010658438233146299
-0.003399375385905334   -0.00031937471020551835   5.2386522370237956e-05
-0.0014694835423226694   -0.00023881269645426443   6.64274330560295e-05
-0.0032383119600301563   -0.004151805248879395   1.2993428618404592e-05
-0.0031766437176752554   -0.00421612575958997   -2.155980960242579e-05
-0.003268901663070509   -0.0004639403741527104   -4.0721905625007235e-06
-0.005330997804445714   -0.004265098152068492   -7.874231543595603e-05
-0.003206679434323491   -0.0041860314650002915   -4.819907210354218e-06
-0.003268901663070509   -0.0004639403741527104   -4.0721905625007235e-06
-0.005382901311815483   -0.0004978799553397988   -3.880029996472446e-05
-0.005330997804445714   -0.004265098152068492   -7.874231543595603e-05
-0.0054085177257030825   -0.0004667679318527461   -3.50651018004315e-05
-0.003206679434323491   -0.0041860314650002915   -4.819907210354218e-06
-0.005358130644793515   -0.004234129503318371   -6.565101453280527e-05
-0.0054085177257030825   -0.0004667679318527461   -3.50651018004315e-05
-0.005330997804445714   -0.004265098152068492   -7.874231543595603e-05
-0.003206679434323491   -0.0041860314650002915   -4.819907210354218e-06
-0.0054085177257030825   -0.0004667679318527461   -3.50651018004315e-05
-0.0033106976811887573   -0.00042312154161718295   8.57421999556874e-06
-0.003268901663070509   -0.0004639403741527104   -4.0721905625007235e-06
-0.003206679434323491   -0.0041860314650002915   -4.819907210354218e-06
-0.0054085177257030825   -0.0004667679318527461   -3.50651018004315e-05
-0.003268901663070509   -0.0004639403741527104   -4.0721905625007235e-06
-0.005330997804445714   -0.004265098152068492   -7.874231543595603e-05
-0.003206679434323491   -0.0041860314650002915   -4.819907210354218e-06
-0.0033106976811887573   -0.00042312154161718295   8.57421999556874e-06
-0.005358130644793515   -0.004234129503318371   -6.565101453280527e-05
-0.0032383119600301563   -0.004151805248879395   1.2993428618404592e-05
-0.0033106976811887573   -0.00042312154161718295   8.57421999556874e-06
-0.0054085177257030825   -0.0004667679318527461   -3.50651018004315e-05
-0.005358130644793515   -0.004234129503318371   -6.565101453280527e-05
-0.0054352000133041966   -0.00043030027613973944   -2.8643115216091523e-05
-0.0032383119600301563   -0.004151805248879395   1.2993428618404592e-05
-0.005384211226369356   -0.004201312088115974   -5.25327739591213e-05
-0.0054352000133041966   -0.00043030027613973944   -2.8643115216091523e-05
-0.005358130644793515   -0.004234129503318371   -6.565101453280527e-05
-0.0032383119600301563   -0.004151805248879395   1.2993428618404592e-05
-0.0054352000133041966   -0.00043030027613973944   -2.8643115216091523e-05
-0.003352479318880448   -0.0003751881980715122   3.0828972859693334e-05
-0.0033106976811887573   -0.00042312154161718295   8.57421999556874e-06
-0.0032383119600301563   -0.004151805248879395   1.2993428618404592e-05
-0.0054352000133041966   -0.00043030027613973944   -2.8643115216091523e-05
-0.0033106976811887573   -0.00042312154161718295   8.57421999556874e-06
-0.005358130644793515   -0.004234129503318371   -6.565101453280527e-05
-0.0032383119600301563   -0.004151805248879395   1.2993428618404592e-05
-0.003352479318880448   -0.0003751881980715122   3.0828972859693334e-05
-0.005384211226369356   -0.004201312088115974   -5.25327739591213e-05
-0.003268538727047419   -0.004114290415647494   3.2696595741556265e-05
-0.003352479318880448   -0.0003751881980715122   3.0828972859693334e-05
-0.0054352000133041966   -0.00043030027613973944   -2.8643115216091523e-05
-0.005384211226369356   -0.004201312088115974   -5.25327739591213e-05
-0.005461037797749409   -0.0003853366773028804   -2.0144357382891685e-05
-0.003268538727047419   -0.004114290415647494   3.2696595741556265e-05
-0.005408340917007925   -0.0041656952048490575   -3.8177325489845496e-05
-0.005461037797749409   -0.0003853366773028804   -2.0144357382891685e-05
-0.005384211226369356   -0.004201312088115974   -5.25327739591213e-05
-0.003268538727047419   -0.004114290415647494   3.2696595741556265e-05
-0.005461037797749409   -0.0003853366773028804   -2.0144357382891685e-05
-0.003399375385905334   -0.00031937471020551835   5.2386522370237956e-05
-0.003352479318880448   -0.0003751881980715122   3.0828972859693334e-05
-0.003268538727047419   -0.004114290415647494   3.2696595741556265e-05
-0.005461037797749409   -0.0003853366773028804   -2.0144357382891685e-05
-0.003352479318880448   -0.0003751881980715122   3.0828972859693334e-05
-0.005384211226369356   -0.004201312088115974   -5.25327739591213e-05
-0.005330997804445714   -0.004265098152068492   -7.874231543595603e-05
-0.005382901311815483   -0.0004978799553397988   -3.880029996472446e-05
-0.0075610903023563564   -0.00428530618168512   -0.0001313859564241022
-0.005358130644793515   -0.004234129503318371   -6.565101453280527e-05
-0.005382901311815483   -0.0004978799553397988   -3.880029996472446e-05
-0.007600614666487245   -0.0004947487494321129   -9.059339262184681e-05
-0.0075610903023563564   -0.00428530618168512   -0.0001313859564241022
-0.0076179831132145775   -0.00046732732774773533   -8.895915490593896e-05
-0.005358130644793515   -0.004234129503318371   -6.565101453280527e-05
-0.007585569055244903   -0.004257679153887301   -0.00012174408287361043
-0.0076179831132145775   -0.00046732732774773533   -8.895915490593896e-05
-0.0075610903023563564   -0.00428530618168512   -0.0001313859564241022
-0.005358130644793515   -0.004234129503318371   -6.565101453280527e-05
-0.0076179831132145775   -0.00046732732774773533   -8.895915490593896e-05
-0.0054085177257030825   -0.0004667679318527461   -3.50651018004315e-05
-0.005382901311815483   -0.0004978799553397988   -3.880029996472446e-05
-0.005358130644793515   -0.004234129503318371   -6.565101453280527e-05
-0.0076179831132145775   -0.00046732732774773533   -8.895915490593896e-05
-0.005382901311815483   -0.0004978799553397988   -3.880029996472446e-05
-0.0075610903023563564   -0.00428530618168512   -0.0001313859564241022
-0.005358130644793515   -0.004234129503318371   -6.565101453280527e-05
-0.0054085177257030825   -0.0004667679318527461   -3.50651018004315e-05
-0.007585569055244903   -0.004257679153887301   -0.00012174408287361043
-0.005384211226369356   -0.004201312088115974   -5.25327739591213e-05
-0.0054085177257030825   -0.0004667679318527461   -3.50651018004315e-05
-0.0076179831132145775   -0.00046732732774773533   -8.895915490593896e-05
-0.007585569055244903   -0.004257679153887301   -0.00012174408287361043
-0.00763608778745392   -0.000436461272368068   -8.762640100428993e-05
-0.005384211226369356   -0.004201312088115974   -5.25327739591213e-05
-0.007607389176914187   -0.0042274406425713345   -0.00011231331957750005
-0.00763608778745392   -0.000436461272368068   -8.762640100428993e-05
-0.007585569055244903   -0.004257679153887301   -0.00012174408287361043
-0.005384211226369356   -0.004201312088115974   -5.25327739591213e-05
-0.00763608778745392   -0.000436461272368068   -8.762640100428993e-05
-0.0054352000133041966   -0.00043030027613973944   -2.8643115216091523e-05
-0.0054085177257030825   -0.0004667679318527461   -3.50651018004315e-05
-0.005384211226369356   -0.004201312088115974   -5.25327739591213e-05
-0.00763608778745392   -0.000436461272368068   -8.762640100428993e-05
-0.0054085177257030825   -0.0004667679318527461   -3.50651018004315e-05
-0.007585569055244903   -0.004257679153887301   -0.00012174408287361043
-0.005384211226369356   -0.004201312088115974   -5.25327739591213e-05
-0.0054352000133041966   -0.00043030027613973944   -2.8643115216091523e-05
-0.007607389176914187   -0.0042274406425713345   -0.00011231331957750005
-0.005408340917007925   -0.0041656952048490575   -3.8177325489845496e-05
-0.0054352000133041966   -0.00043030027613973944   -2.8643115216091523e-05
-0.00763608778745392   -0.000436461272368068   -8.762640100428993e-05
-0.007607389176914187   -0.0042274406425713345   -0.00011231331957750005
-0.007650201264096269   -0.0004026909361515589   -8.66536640728962e-05
-0.005408340917007925   -0.0041656952048490575   -3.8177325489845496e-05
-0.007627174850288597   -0.004195179486864413   -0.00010252801346313255
-0.007650201264096269   -0.0004026909361515589   -8.66536640728962e-05
-0.007607389176914187   -0.0042274406425713345   -0.00011231331957750005
-0.005408340917007925   -0.0041656952048490575   -3.8177325489845496e-05
-0.007650201264096269   -0.0004026909361515589   -8.66536640728962e-05
-0.005461037797749409   -0.0003853366773028804   -2.0144357382891685e-05
-0.0054352000133041966   -0.00043030027613973944   -2.8643115216091523e-05
-0.005408340917007925   -0.0041656952048490575   -3.8177325489845496e-05
-0.007650201264096269   -0.0004026909361515589   -8.66536640728962e-05
-0.0054352000133041966   -0.00043030027613973944   -2.8643115216091523e-05
-0.007607389176914187   -0.0042274406425713345   -0.00011231331957750005
-0.0075610903023563564   -0.00428530618168512   -0.0001313859564241022
-0.007600614666487245   -0.0004947487494321129   -9.059339262184681e-05
-0.009872644994448251   -0.004287384661777005   -0.000174597350908022
-0.007585569055244903   -0.004257679153887301   -0.00012174408287361043
-0.007600614666487245   -0.0004947487494321129   -9.059339262184681e-05
-0.009881033737156248   -0.0004916032579117954   -0.0001417526676388852
-0.009872644994448251   -0.004287384661777005   -0.000174597350908022
-0.009894958754974887   -0.0004619843675587017   -0.00014161318855593718
-0.007585569055244903   -0.004257679153887301   -0.00012174408287361043
-0.009893513974132483   -0.004260653623339789   -0.0001702675819865013
-0.009894958754974887   -0.0004619843675587017   -0.00014161318855593718
-0.009872644994448251   -0.004287384661777005   -0.000174597350908022
-0.007585569055244903   -0.004257679153887301   -0.00012174408287361043
-0.009894958754974887   -0.0004619843675587017   -0.00014161318855593718
-0.0076179831132145775   -0.00046732732774773533   -8.895915490593896e-05
-0.007600614666487245   -0.0004947487494321129   -9.059339262184681e-05
-0.007585569055244903   -0.004257679153887301   -0.00012174408287361043
-0.009894958754974887   -0.0004619843675587017   -0.00014161318855593718
-0.007600614666487245   -0.0004947487494321129   -9.059339262184681e-05
-0.009872644994448251   -0.004287384661777005   -0.000174597350908022
-0.007585569055244903   -0.004257679153887301   -0.00012174408287361043
-0.0076179831132145775   -0.00046732732774773533   -8.895915490593896e-05
-0.009893513974132483   -0.004260653623339789   -0.0001702675819865013
-0.007607389176914187   -0.0042274406425713345   -0.00011231331957750005
-0.0076179831132145775   -0.00046732732774773533   -8.895915490593896e-05
-0.009894958754974887   -0.0004619843675587017   -0.00014161318855593718
-0.009893513974132483   -0.004260653623339789   -0.0001702675819865013
-0.009910213340910834   -0.0004321614388675962   -0.00014379717561709658
-0.007607389176914187   -0.0042274406425713345   -0.00011231331957750005
-0.009912210957080293   -0.004231602617371718   -0.00016516840266528443
-0.009910213340910834   -0.0004321614388675962   -0.00014379717561709658
-0.009893513974132483   -0.004260653623339789   -0.0001702675819865013
-0.007607389176914187   -0.0042274406425713345   -0.00011231331957750005
-0.009910213340910834   -0.0004321614388675962   -0.00014379717561709658
-0.00763608778745392   -0.000436461272368068   -8.762640100428993e-05
-0.0076179831132145775   -0.00046732732774773533   -8.895915490593896e-05
-0.007607389176914187   -0.0042274406425713345   -0.00011231331957750005
-0.009910213340910834   -0.0004321614388675962   -0.00014379717561709658
-0.0076179831132145775   -0.00046732732774773533   -8.895915490593896e-05
-0.009893513974132483   -0.004260653623339789   -0.0001702675819865013
-0.007607389176914187   -0.0042274406425713345   -0.00011231331957750005
-0.00763608778745392   -0.000436461272368068   -8.762640100428993e-05
-0.009912210957080293   -0.004231602617371718   -0.00016516840266528443
-0.007627174850288597   -0.004195179486864413   -0.00010252801346313255
-0.00763608778745392   -0.000436461272368068   -8.762640100428993e-05
-0.009910213340910834   -0.0004321614388675962   -0.00014379717561709658
-0.009912210957080293   -0.004231602617371718   -0.00016516840266528443
-0.009921570736568422   -0.0003995295531540231   -0.00014606435980243516
-0.007627174850288597   -0.004195179486864413   -0.00010252801346313255
-0.009927723432571875   -0.0042008687558673955   -0.00016030481303218422
-0.009921570736568422   -0.0003995295531540231   -0.00014606435980243516
-0.009912210957080293   -0.004231602617371718   -0.00016516840266528443
-0.007627174850288597   -0.004195179486864413   -0.00010252801346313255
-0.009921570736568422   -0.0003995295531540231   -0.00014606435980243516
-0.007650201264096269   -0.0004026909361515589   -8.66536640728962e-05
-0.00763608778745392   -0.000436461272368068   -8.762640100428993e-05
-0.007627174850288597   -0.004195179486864413   -0.00010252801346313255
-0.009921570736568422   -0.0003995295531540231   -0.00014606435980243516
-0.00763608778745392   -0.000436461272368068   -8.762640100428993e-05
-0.009912210957080293   -0.004231602617371718   -0.00016516840266528443
              </DataArray>   
          </PointData>  
       </Piece>  
   </UnstructuredGrid> 
</VTKFile> 
